# vtk DataFile Version 3.0
vtk output
ASCII
DATASET UNSTRUCTURED_GRID
POINTS      1456 double 
  0.00000000E+00  1.00000000E+01  0.00000000E+00
  0.00000000E+00  9.33333333E+00  0.00000000E+00
  0.00000000E+00  8.66666667E+00  0.00000000E+00
  0.00000000E+00  8.00000000E+00  0.00000000E+00
  0.00000000E+00  7.33333333E+00  0.00000000E+00
  0.00000000E+00  6.66666667E+00  0.00000000E+00
  0.00000000E+00  6.00000000E+00  0.00000000E+00
  0.00000000E+00  5.33333333E+00  0.00000000E+00
  0.00000000E+00  4.66666667E+00  0.00000000E+00
  0.00000000E+00  4.00000000E+00  0.00000000E+00
  0.00000000E+00  3.33333333E+00  0.00000000E+00
  0.00000000E+00  2.66666667E+00  0.00000000E+00
  0.00000000E+00  2.00000000E+00  0.00000000E+00
  0.00000000E+00  1.33333333E+00  0.00000000E+00
  0.00000000E+00  6.66666667E-01  0.00000000E+00
  0.00000000E+00  1.66533454E-15  0.00000000E+00
  1.11111111E+00  1.00000000E+01  0.00000000E+00
  1.11111111E+00  9.33333333E+00  0.00000000E+00
  1.11111111E+00  8.66666667E+00  0.00000000E+00
  1.11111111E+00  8.00000000E+00  0.00000000E+00
  1.11111111E+00  7.33333333E+00  0.00000000E+00
  1.11111111E+00  6.66666667E+00  0.00000000E+00
  1.11111111E+00  6.00000000E+00  0.00000000E+00
  1.11111111E+00  5.33333333E+00  0.00000000E+00
  1.11111111E+00  4.66666667E+00  0.00000000E+00
  1.11111111E+00  4.00000000E+00  0.00000000E+00
  1.11111111E+00  3.33333333E+00  0.00000000E+00
  1.11111111E+00  2.66666667E+00  0.00000000E+00
  1.11111111E+00  2.00000000E+00  0.00000000E+00
  1.11111111E+00  1.33333333E+00  0.00000000E+00
  1.11111111E+00  6.66666667E-01  0.00000000E+00
  1.11111111E+00  1.66533454E-15  0.00000000E+00
  2.22222222E+00  1.00000000E+01  0.00000000E+00
  2.22222222E+00  9.33333333E+00  0.00000000E+00
  2.22222222E+00  8.66666667E+00  0.00000000E+00
  2.22222222E+00  8.00000000E+00  0.00000000E+00
  2.22222222E+00  7.33333333E+00  0.00000000E+00
  2.22222222E+00  6.66666667E+00  0.00000000E+00
  2.22222222E+00  6.00000000E+00  0.00000000E+00
  2.22222222E+00  5.33333333E+00  0.00000000E+00
  2.22222222E+00  4.66666667E+00  0.00000000E+00
  2.22222222E+00  4.00000000E+00  0.00000000E+00
  2.22222222E+00  3.33333333E+00  0.00000000E+00
  2.22222222E+00  2.66666667E+00  0.00000000E+00
  2.22222222E+00  2.00000000E+00  0.00000000E+00
  2.22222222E+00  1.33333333E+00  0.00000000E+00
  2.22222222E+00  6.66666667E-01  0.00000000E+00
  2.22222222E+00  1.66533454E-15  0.00000000E+00
  3.33333333E+00  1.00000000E+01  0.00000000E+00
  3.33333333E+00  9.33333333E+00  0.00000000E+00
  3.33333333E+00  8.66666667E+00  0.00000000E+00
  3.33333333E+00  8.00000000E+00  0.00000000E+00
  3.33333333E+00  7.33333333E+00  0.00000000E+00
  3.33333333E+00  6.66666667E+00  0.00000000E+00
  3.33333333E+00  6.00000000E+00  0.00000000E+00
  3.33333333E+00  5.33333333E+00  0.00000000E+00
  3.33333333E+00  4.66666667E+00  0.00000000E+00
  3.33333333E+00  4.00000000E+00  0.00000000E+00
  3.33333333E+00  3.33333333E+00  0.00000000E+00
  3.33333333E+00  2.66666667E+00  0.00000000E+00
  3.33333333E+00  2.00000000E+00  0.00000000E+00
  3.33333333E+00  1.33333333E+00  0.00000000E+00
  3.33333333E+00  6.66666667E-01  0.00000000E+00
  3.33333333E+00  1.66533454E-15  0.00000000E+00
  4.44444444E+00  1.00000000E+01  0.00000000E+00
  4.44444444E+00  9.33333333E+00  0.00000000E+00
  4.44444444E+00  8.66666667E+00  0.00000000E+00
  4.44444444E+00  8.00000000E+00  0.00000000E+00
  4.44444444E+00  7.33333333E+00  0.00000000E+00
  4.44444444E+00  6.66666667E+00  0.00000000E+00
  4.44444444E+00  6.00000000E+00  0.00000000E+00
  4.44444444E+00  5.33333333E+00  0.00000000E+00
  4.44444444E+00  4.66666667E+00  0.00000000E+00
  4.44444444E+00  4.00000000E+00  0.00000000E+00
  4.44444444E+00  3.33333333E+00  0.00000000E+00
  4.44444444E+00  2.66666667E+00  0.00000000E+00
  4.44444444E+00  2.00000000E+00  0.00000000E+00
  4.44444444E+00  1.33333333E+00  0.00000000E+00
  4.44444444E+00  6.66666667E-01  0.00000000E+00
  4.44444444E+00  1.66533454E-15  0.00000000E+00
  5.55555556E+00  1.00000000E+01  0.00000000E+00
  5.55555556E+00  9.33333333E+00  0.00000000E+00
  5.55555556E+00  8.66666667E+00  0.00000000E+00
  5.55555556E+00  8.00000000E+00  0.00000000E+00
  5.55555556E+00  7.33333333E+00  0.00000000E+00
  5.55555556E+00  6.66666667E+00  0.00000000E+00
  5.55555556E+00  6.00000000E+00  0.00000000E+00
  5.55555556E+00  5.33333333E+00  0.00000000E+00
  5.55555556E+00  4.66666667E+00  0.00000000E+00
  5.55555556E+00  4.00000000E+00  0.00000000E+00
  5.55555556E+00  3.33333333E+00  0.00000000E+00
  5.55555556E+00  2.66666667E+00  0.00000000E+00
  5.55555556E+00  2.00000000E+00  0.00000000E+00
  5.55555556E+00  1.33333333E+00  0.00000000E+00
  5.55555556E+00  6.66666667E-01  0.00000000E+00
  5.55555556E+00  1.66533454E-15  0.00000000E+00
  6.66666667E+00  1.00000000E+01  0.00000000E+00
  6.66666667E+00  9.33333333E+00  0.00000000E+00
  6.66666667E+00  8.66666667E+00  0.00000000E+00
  6.66666667E+00  8.00000000E+00  0.00000000E+00
  6.66666667E+00  7.33333333E+00  0.00000000E+00
  6.66666667E+00  6.66666667E+00  0.00000000E+00
  6.66666667E+00  6.00000000E+00  0.00000000E+00
  6.66666667E+00  5.33333333E+00  0.00000000E+00
  6.66666667E+00  4.66666667E+00  0.00000000E+00
  6.66666667E+00  4.00000000E+00  0.00000000E+00
  6.66666667E+00  3.33333333E+00  0.00000000E+00
  6.66666667E+00  2.66666667E+00  0.00000000E+00
  6.66666667E+00  2.00000000E+00  0.00000000E+00
  6.66666667E+00  1.33333333E+00  0.00000000E+00
  6.66666667E+00  6.66666667E-01  0.00000000E+00
  6.66666667E+00  1.66533454E-15  0.00000000E+00
  7.77777778E+00  1.00000000E+01  0.00000000E+00
  7.77777778E+00  9.33333333E+00  0.00000000E+00
  7.77777778E+00  8.66666667E+00  0.00000000E+00
  7.77777778E+00  8.00000000E+00  0.00000000E+00
  7.77777778E+00  7.33333333E+00  0.00000000E+00
  7.77777778E+00  6.66666667E+00  0.00000000E+00
  7.77777778E+00  6.00000000E+00  0.00000000E+00
  7.77777778E+00  5.33333333E+00  0.00000000E+00
  7.77777778E+00  4.66666667E+00  0.00000000E+00
  7.77777778E+00  4.00000000E+00  0.00000000E+00
  7.77777778E+00  3.33333333E+00  0.00000000E+00
  7.77777778E+00  2.66666667E+00  0.00000000E+00
  7.77777778E+00  2.00000000E+00  0.00000000E+00
  7.77777778E+00  1.33333333E+00  0.00000000E+00
  7.77777778E+00  6.66666667E-01  0.00000000E+00
  7.77777778E+00  1.66533454E-15  0.00000000E+00
  8.88888889E+00  1.00000000E+01  0.00000000E+00
  8.88888889E+00  9.33333333E+00  0.00000000E+00
  8.88888889E+00  8.66666667E+00  0.00000000E+00
  8.88888889E+00  8.00000000E+00  0.00000000E+00
  8.88888889E+00  7.33333333E+00  0.00000000E+00
  8.88888889E+00  6.66666667E+00  0.00000000E+00
  8.88888889E+00  6.00000000E+00  0.00000000E+00
  8.88888889E+00  5.33333333E+00  0.00000000E+00
  8.88888889E+00  4.66666667E+00  0.00000000E+00
  8.88888889E+00  4.00000000E+00  0.00000000E+00
  8.88888889E+00  3.33333333E+00  0.00000000E+00
  8.88888889E+00  2.66666667E+00  0.00000000E+00
  8.88888889E+00  2.00000000E+00  0.00000000E+00
  8.88888889E+00  1.33333333E+00  0.00000000E+00
  8.88888889E+00  6.66666667E-01  0.00000000E+00
  8.88888889E+00  1.66533454E-15  0.00000000E+00
  1.00000000E+01  1.00000000E+01  0.00000000E+00
  1.00000000E+01  9.33333333E+00  0.00000000E+00
  1.00000000E+01  8.66666667E+00  0.00000000E+00
  1.00000000E+01  8.00000000E+00  0.00000000E+00
  1.00000000E+01  7.33333333E+00  0.00000000E+00
  1.00000000E+01  6.66666667E+00  0.00000000E+00
  1.00000000E+01  6.00000000E+00  0.00000000E+00
  1.00000000E+01  5.33333333E+00  0.00000000E+00
  1.00000000E+01  4.66666667E+00  0.00000000E+00
  1.00000000E+01  4.00000000E+00  0.00000000E+00
  1.00000000E+01  3.33333333E+00  0.00000000E+00
  1.00000000E+01  2.66666667E+00  0.00000000E+00
  1.00000000E+01  2.00000000E+00  0.00000000E+00
  1.00000000E+01  1.33333333E+00  0.00000000E+00
  1.00000000E+01  6.66666667E-01  0.00000000E+00
  1.00000000E+01  1.66533454E-15  0.00000000E+00
  1.11111111E+01  1.00000000E+01  0.00000000E+00
  1.11111111E+01  9.33333333E+00  0.00000000E+00
  1.11111111E+01  8.66666667E+00  0.00000000E+00
  1.11111111E+01  8.00000000E+00  0.00000000E+00
  1.11111111E+01  7.33333333E+00  0.00000000E+00
  1.11111111E+01  6.66666667E+00  0.00000000E+00
  1.11111111E+01  6.00000000E+00  0.00000000E+00
  1.11111111E+01  5.33333333E+00  0.00000000E+00
  1.11111111E+01  4.66666667E+00  0.00000000E+00
  1.11111111E+01  4.00000000E+00  0.00000000E+00
  1.11111111E+01  3.33333333E+00  0.00000000E+00
  1.11111111E+01  2.66666667E+00  0.00000000E+00
  1.11111111E+01  2.00000000E+00  0.00000000E+00
  1.11111111E+01  1.33333333E+00  0.00000000E+00
  1.11111111E+01  6.66666667E-01  0.00000000E+00
  1.11111111E+01  1.66533454E-15  0.00000000E+00
  1.22222222E+01  1.00000000E+01  0.00000000E+00
  1.22222222E+01  9.33333333E+00  0.00000000E+00
  1.22222222E+01  8.66666667E+00  0.00000000E+00
  1.22222222E+01  8.00000000E+00  0.00000000E+00
  1.22222222E+01  7.33333333E+00  0.00000000E+00
  1.22222222E+01  6.66666667E+00  0.00000000E+00
  1.22222222E+01  6.00000000E+00  0.00000000E+00
  1.22222222E+01  5.33333333E+00  0.00000000E+00
  1.22222222E+01  4.66666667E+00  0.00000000E+00
  1.22222222E+01  4.00000000E+00  0.00000000E+00
  1.22222222E+01  3.33333333E+00  0.00000000E+00
  1.22222222E+01  2.66666667E+00  0.00000000E+00
  1.22222222E+01  2.00000000E+00  0.00000000E+00
  1.22222222E+01  1.33333333E+00  0.00000000E+00
  1.22222222E+01  6.66666667E-01  0.00000000E+00
  1.22222222E+01  1.66533454E-15  0.00000000E+00
  1.33333333E+01  1.00000000E+01  0.00000000E+00
  1.33333333E+01  9.33333333E+00  0.00000000E+00
  1.33333333E+01  8.66666667E+00  0.00000000E+00
  1.33333333E+01  8.00000000E+00  0.00000000E+00
  1.33333333E+01  7.33333333E+00  0.00000000E+00
  1.33333333E+01  6.66666667E+00  0.00000000E+00
  1.33333333E+01  6.00000000E+00  0.00000000E+00
  1.33333333E+01  5.33333333E+00  0.00000000E+00
  1.33333333E+01  4.66666667E+00  0.00000000E+00
  1.33333333E+01  4.00000000E+00  0.00000000E+00
  1.33333333E+01  3.33333333E+00  0.00000000E+00
  1.33333333E+01  2.66666667E+00  0.00000000E+00
  1.33333333E+01  2.00000000E+00  0.00000000E+00
  1.33333333E+01  1.33333333E+00  0.00000000E+00
  1.33333333E+01  6.66666667E-01  0.00000000E+00
  1.33333333E+01  1.66533454E-15  0.00000000E+00
  1.44444444E+01  1.00000000E+01  0.00000000E+00
  1.44444444E+01  9.33333333E+00  0.00000000E+00
  1.44444444E+01  8.66666667E+00  0.00000000E+00
  1.44444444E+01  8.00000000E+00  0.00000000E+00
  1.44444444E+01  7.33333333E+00  0.00000000E+00
  1.44444444E+01  6.66666667E+00  0.00000000E+00
  1.44444444E+01  6.00000000E+00  0.00000000E+00
  1.44444444E+01  5.33333333E+00  0.00000000E+00
  1.44444444E+01  4.66666667E+00  0.00000000E+00
  1.44444444E+01  4.00000000E+00  0.00000000E+00
  1.44444444E+01  3.33333333E+00  0.00000000E+00
  1.44444444E+01  2.66666667E+00  0.00000000E+00
  1.44444444E+01  2.00000000E+00  0.00000000E+00
  1.44444444E+01  1.33333333E+00  0.00000000E+00
  1.44444444E+01  6.66666667E-01  0.00000000E+00
  1.44444444E+01  1.66533454E-15  0.00000000E+00
  1.55555556E+01  1.00000000E+01  0.00000000E+00
  1.55555556E+01  9.33333333E+00  0.00000000E+00
  1.55555556E+01  8.66666667E+00  0.00000000E+00
  1.55555556E+01  8.00000000E+00  0.00000000E+00
  1.55555556E+01  7.33333333E+00  0.00000000E+00
  1.55555556E+01  6.66666667E+00  0.00000000E+00
  1.55555556E+01  6.00000000E+00  0.00000000E+00
  1.55555556E+01  5.33333333E+00  0.00000000E+00
  1.55555556E+01  4.66666667E+00  0.00000000E+00
  1.55555556E+01  4.00000000E+00  0.00000000E+00
  1.55555556E+01  3.33333333E+00  0.00000000E+00
  1.55555556E+01  2.66666667E+00  0.00000000E+00
  1.55555556E+01  2.00000000E+00  0.00000000E+00
  1.55555556E+01  1.33333333E+00  0.00000000E+00
  1.55555556E+01  6.66666667E-01  0.00000000E+00
  1.55555556E+01  1.66533454E-15  0.00000000E+00
  1.66666667E+01  1.00000000E+01  0.00000000E+00
  1.66666667E+01  9.33333333E+00  0.00000000E+00
  1.66666667E+01  8.66666667E+00  0.00000000E+00
  1.66666667E+01  8.00000000E+00  0.00000000E+00
  1.66666667E+01  7.33333333E+00  0.00000000E+00
  1.66666667E+01  6.66666667E+00  0.00000000E+00
  1.66666667E+01  6.00000000E+00  0.00000000E+00
  1.66666667E+01  5.33333333E+00  0.00000000E+00
  1.66666667E+01  4.66666667E+00  0.00000000E+00
  1.66666667E+01  4.00000000E+00  0.00000000E+00
  1.66666667E+01  3.33333333E+00  0.00000000E+00
  1.66666667E+01  2.66666667E+00  0.00000000E+00
  1.66666667E+01  2.00000000E+00  0.00000000E+00
  1.66666667E+01  1.33333333E+00  0.00000000E+00
  1.66666667E+01  6.66666667E-01  0.00000000E+00
  1.66666667E+01  1.66533454E-15  0.00000000E+00
  1.77777778E+01  1.00000000E+01  0.00000000E+00
  1.77777778E+01  9.33333333E+00  0.00000000E+00
  1.77777778E+01  8.66666667E+00  0.00000000E+00
  1.77777778E+01  8.00000000E+00  0.00000000E+00
  1.77777778E+01  7.33333333E+00  0.00000000E+00
  1.77777778E+01  6.66666667E+00  0.00000000E+00
  1.77777778E+01  6.00000000E+00  0.00000000E+00
  1.77777778E+01  5.33333333E+00  0.00000000E+00
  1.77777778E+01  4.66666667E+00  0.00000000E+00
  1.77777778E+01  4.00000000E+00  0.00000000E+00
  1.77777778E+01  3.33333333E+00  0.00000000E+00
  1.77777778E+01  2.66666667E+00  0.00000000E+00
  1.77777778E+01  2.00000000E+00  0.00000000E+00
  1.77777778E+01  1.33333333E+00  0.00000000E+00
  1.77777778E+01  6.66666667E-01  0.00000000E+00
  1.77777778E+01  1.66533454E-15  0.00000000E+00
  1.88888889E+01  1.00000000E+01  0.00000000E+00
  1.88888889E+01  9.33333333E+00  0.00000000E+00
  1.88888889E+01  8.66666667E+00  0.00000000E+00
  1.88888889E+01  8.00000000E+00  0.00000000E+00
  1.88888889E+01  7.33333333E+00  0.00000000E+00
  1.88888889E+01  6.66666667E+00  0.00000000E+00
  1.88888889E+01  6.00000000E+00  0.00000000E+00
  1.88888889E+01  5.33333333E+00  0.00000000E+00
  1.88888889E+01  4.66666667E+00  0.00000000E+00
  1.88888889E+01  4.00000000E+00  0.00000000E+00
  1.88888889E+01  3.33333333E+00  0.00000000E+00
  1.88888889E+01  2.66666667E+00  0.00000000E+00
  1.88888889E+01  2.00000000E+00  0.00000000E+00
  1.88888889E+01  1.33333333E+00  0.00000000E+00
  1.88888889E+01  6.66666667E-01  0.00000000E+00
  1.88888889E+01  1.66533454E-15  0.00000000E+00
  2.00000000E+01  1.00000000E+01  0.00000000E+00
  2.00000000E+01  9.33333333E+00  0.00000000E+00
  2.00000000E+01  8.66666667E+00  0.00000000E+00
  2.00000000E+01  8.00000000E+00  0.00000000E+00
  2.00000000E+01  7.33333333E+00  0.00000000E+00
  2.00000000E+01  6.66666667E+00  0.00000000E+00
  2.00000000E+01  6.00000000E+00  0.00000000E+00
  2.00000000E+01  5.33333333E+00  0.00000000E+00
  2.00000000E+01  4.66666667E+00  0.00000000E+00
  2.00000000E+01  4.00000000E+00  0.00000000E+00
  2.00000000E+01  3.33333333E+00  0.00000000E+00
  2.00000000E+01  2.66666667E+00  0.00000000E+00
  2.00000000E+01  2.00000000E+00  0.00000000E+00
  2.00000000E+01  1.33333333E+00  0.00000000E+00
  2.00000000E+01  6.66666667E-01  0.00000000E+00
  2.00000000E+01  1.66533454E-15  0.00000000E+00
  2.11111111E+01  1.00000000E+01  0.00000000E+00
  2.11111111E+01  9.33333333E+00  0.00000000E+00
  2.11111111E+01  8.66666667E+00  0.00000000E+00
  2.11111111E+01  8.00000000E+00  0.00000000E+00
  2.11111111E+01  7.33333333E+00  0.00000000E+00
  2.11111111E+01  6.66666667E+00  0.00000000E+00
  2.11111111E+01  6.00000000E+00  0.00000000E+00
  2.11111111E+01  5.33333333E+00  0.00000000E+00
  2.11111111E+01  4.66666667E+00  0.00000000E+00
  2.11111111E+01  4.00000000E+00  0.00000000E+00
  2.11111111E+01  3.33333333E+00  0.00000000E+00
  2.11111111E+01  2.66666667E+00  0.00000000E+00
  2.11111111E+01  2.00000000E+00  0.00000000E+00
  2.11111111E+01  1.33333333E+00  0.00000000E+00
  2.11111111E+01  6.66666667E-01  0.00000000E+00
  2.11111111E+01  1.66533454E-15  0.00000000E+00
  2.22222222E+01  1.00000000E+01  0.00000000E+00
  2.22222222E+01  9.33333333E+00  0.00000000E+00
  2.22222222E+01  8.66666667E+00  0.00000000E+00
  2.22222222E+01  8.00000000E+00  0.00000000E+00
  2.22222222E+01  7.33333333E+00  0.00000000E+00
  2.22222222E+01  6.66666667E+00  0.00000000E+00
  2.22222222E+01  6.00000000E+00  0.00000000E+00
  2.22222222E+01  5.33333333E+00  0.00000000E+00
  2.22222222E+01  4.66666667E+00  0.00000000E+00
  2.22222222E+01  4.00000000E+00  0.00000000E+00
  2.22222222E+01  3.33333333E+00  0.00000000E+00
  2.22222222E+01  2.66666667E+00  0.00000000E+00
  2.22222222E+01  2.00000000E+00  0.00000000E+00
  2.22222222E+01  1.33333333E+00  0.00000000E+00
  2.22222222E+01  6.66666667E-01  0.00000000E+00
  2.22222222E+01  1.66533454E-15  0.00000000E+00
  2.33333333E+01  1.00000000E+01  0.00000000E+00
  2.33333333E+01  9.33333333E+00  0.00000000E+00
  2.33333333E+01  8.66666667E+00  0.00000000E+00
  2.33333333E+01  8.00000000E+00  0.00000000E+00
  2.33333333E+01  7.33333333E+00  0.00000000E+00
  2.33333333E+01  6.66666667E+00  0.00000000E+00
  2.33333333E+01  6.00000000E+00  0.00000000E+00
  2.33333333E+01  5.33333333E+00  0.00000000E+00
  2.33333333E+01  4.66666667E+00  0.00000000E+00
  2.33333333E+01  4.00000000E+00  0.00000000E+00
  2.33333333E+01  3.33333333E+00  0.00000000E+00
  2.33333333E+01  2.66666667E+00  0.00000000E+00
  2.33333333E+01  2.00000000E+00  0.00000000E+00
  2.33333333E+01  1.33333333E+00  0.00000000E+00
  2.33333333E+01  6.66666667E-01  0.00000000E+00
  2.33333333E+01  1.66533454E-15  0.00000000E+00
  2.44444444E+01  1.00000000E+01  0.00000000E+00
  2.44444444E+01  9.33333333E+00  0.00000000E+00
  2.44444444E+01  8.66666667E+00  0.00000000E+00
  2.44444444E+01  8.00000000E+00  0.00000000E+00
  2.44444444E+01  7.33333333E+00  0.00000000E+00
  2.44444444E+01  6.66666667E+00  0.00000000E+00
  2.44444444E+01  6.00000000E+00  0.00000000E+00
  2.44444444E+01  5.33333333E+00  0.00000000E+00
  2.44444444E+01  4.66666667E+00  0.00000000E+00
  2.44444444E+01  4.00000000E+00  0.00000000E+00
  2.44444444E+01  3.33333333E+00  0.00000000E+00
  2.44444444E+01  2.66666667E+00  0.00000000E+00
  2.44444444E+01  2.00000000E+00  0.00000000E+00
  2.44444444E+01  1.33333333E+00  0.00000000E+00
  2.44444444E+01  6.66666667E-01  0.00000000E+00
  2.44444444E+01  1.66533454E-15  0.00000000E+00
  2.55555556E+01  1.00000000E+01  0.00000000E+00
  2.55555556E+01  9.33333333E+00  0.00000000E+00
  2.55555556E+01  8.66666667E+00  0.00000000E+00
  2.55555556E+01  8.00000000E+00  0.00000000E+00
  2.55555556E+01  7.33333333E+00  0.00000000E+00
  2.55555556E+01  6.66666667E+00  0.00000000E+00
  2.55555556E+01  6.00000000E+00  0.00000000E+00
  2.55555556E+01  5.33333333E+00  0.00000000E+00
  2.55555556E+01  4.66666667E+00  0.00000000E+00
  2.55555556E+01  4.00000000E+00  0.00000000E+00
  2.55555556E+01  3.33333333E+00  0.00000000E+00
  2.55555556E+01  2.66666667E+00  0.00000000E+00
  2.55555556E+01  2.00000000E+00  0.00000000E+00
  2.55555556E+01  1.33333333E+00  0.00000000E+00
  2.55555556E+01  6.66666667E-01  0.00000000E+00
  2.55555556E+01  1.66533454E-15  0.00000000E+00
  2.66666667E+01  1.00000000E+01  0.00000000E+00
  2.66666667E+01  9.33333333E+00  0.00000000E+00
  2.66666667E+01  8.66666667E+00  0.00000000E+00
  2.66666667E+01  8.00000000E+00  0.00000000E+00
  2.66666667E+01  7.33333333E+00  0.00000000E+00
  2.66666667E+01  6.66666667E+00  0.00000000E+00
  2.66666667E+01  6.00000000E+00  0.00000000E+00
  2.66666667E+01  5.33333333E+00  0.00000000E+00
  2.66666667E+01  4.66666667E+00  0.00000000E+00
  2.66666667E+01  4.00000000E+00  0.00000000E+00
  2.66666667E+01  3.33333333E+00  0.00000000E+00
  2.66666667E+01  2.66666667E+00  0.00000000E+00
  2.66666667E+01  2.00000000E+00  0.00000000E+00
  2.66666667E+01  1.33333333E+00  0.00000000E+00
  2.66666667E+01  6.66666667E-01  0.00000000E+00
  2.66666667E+01  1.66533454E-15  0.00000000E+00
  2.77777778E+01  1.00000000E+01  0.00000000E+00
  2.77777778E+01  9.33333333E+00  0.00000000E+00
  2.77777778E+01  8.66666667E+00  0.00000000E+00
  2.77777778E+01  8.00000000E+00  0.00000000E+00
  2.77777778E+01  7.33333333E+00  0.00000000E+00
  2.77777778E+01  6.66666667E+00  0.00000000E+00
  2.77777778E+01  6.00000000E+00  0.00000000E+00
  2.77777778E+01  5.33333333E+00  0.00000000E+00
  2.77777778E+01  4.66666667E+00  0.00000000E+00
  2.77777778E+01  4.00000000E+00  0.00000000E+00
  2.77777778E+01  3.33333333E+00  0.00000000E+00
  2.77777778E+01  2.66666667E+00  0.00000000E+00
  2.77777778E+01  2.00000000E+00  0.00000000E+00
  2.77777778E+01  1.33333333E+00  0.00000000E+00
  2.77777778E+01  6.66666667E-01  0.00000000E+00
  2.77777778E+01  1.66533454E-15  0.00000000E+00
  2.88888889E+01  1.00000000E+01  0.00000000E+00
  2.88888889E+01  9.33333333E+00  0.00000000E+00
  2.88888889E+01  8.66666667E+00  0.00000000E+00
  2.88888889E+01  8.00000000E+00  0.00000000E+00
  2.88888889E+01  7.33333333E+00  0.00000000E+00
  2.88888889E+01  6.66666667E+00  0.00000000E+00
  2.88888889E+01  6.00000000E+00  0.00000000E+00
  2.88888889E+01  5.33333333E+00  0.00000000E+00
  2.88888889E+01  4.66666667E+00  0.00000000E+00
  2.88888889E+01  4.00000000E+00  0.00000000E+00
  2.88888889E+01  3.33333333E+00  0.00000000E+00
  2.88888889E+01  2.66666667E+00  0.00000000E+00
  2.88888889E+01  2.00000000E+00  0.00000000E+00
  2.88888889E+01  1.33333333E+00  0.00000000E+00
  2.88888889E+01  6.66666667E-01  0.00000000E+00
  2.88888889E+01  1.66533454E-15  0.00000000E+00
  3.00000000E+01  1.00000000E+01  0.00000000E+00
  3.00000000E+01  9.33333333E+00  0.00000000E+00
  3.00000000E+01  8.66666667E+00  0.00000000E+00
  3.00000000E+01  8.00000000E+00  0.00000000E+00
  3.00000000E+01  7.33333333E+00  0.00000000E+00
  3.00000000E+01  6.66666667E+00  0.00000000E+00
  3.00000000E+01  6.00000000E+00  0.00000000E+00
  3.00000000E+01  5.33333333E+00  0.00000000E+00
  3.00000000E+01  4.66666667E+00  0.00000000E+00
  3.00000000E+01  4.00000000E+00  0.00000000E+00
  3.00000000E+01  3.33333333E+00  0.00000000E+00
  3.00000000E+01  2.66666667E+00  0.00000000E+00
  3.00000000E+01  2.00000000E+00  0.00000000E+00
  3.00000000E+01  1.33333333E+00  0.00000000E+00
  3.00000000E+01  6.66666667E-01  0.00000000E+00
  3.00000000E+01  1.66533454E-15  0.00000000E+00
  3.11111111E+01  1.00000000E+01  0.00000000E+00
  3.11111111E+01  9.33333333E+00  0.00000000E+00
  3.11111111E+01  8.66666667E+00  0.00000000E+00
  3.11111111E+01  8.00000000E+00  0.00000000E+00
  3.11111111E+01  7.33333333E+00  0.00000000E+00
  3.11111111E+01  6.66666667E+00  0.00000000E+00
  3.11111111E+01  6.00000000E+00  0.00000000E+00
  3.11111111E+01  5.33333333E+00  0.00000000E+00
  3.11111111E+01  4.66666667E+00  0.00000000E+00
  3.11111111E+01  4.00000000E+00  0.00000000E+00
  3.11111111E+01  3.33333333E+00  0.00000000E+00
  3.11111111E+01  2.66666667E+00  0.00000000E+00
  3.11111111E+01  2.00000000E+00  0.00000000E+00
  3.11111111E+01  1.33333333E+00  0.00000000E+00
  3.11111111E+01  6.66666667E-01  0.00000000E+00
  3.11111111E+01  1.66533454E-15  0.00000000E+00
  3.22222222E+01  1.00000000E+01  0.00000000E+00
  3.22222222E+01  9.33333333E+00  0.00000000E+00
  3.22222222E+01  8.66666667E+00  0.00000000E+00
  3.22222222E+01  8.00000000E+00  0.00000000E+00
  3.22222222E+01  7.33333333E+00  0.00000000E+00
  3.22222222E+01  6.66666667E+00  0.00000000E+00
  3.22222222E+01  6.00000000E+00  0.00000000E+00
  3.22222222E+01  5.33333333E+00  0.00000000E+00
  3.22222222E+01  4.66666667E+00  0.00000000E+00
  3.22222222E+01  4.00000000E+00  0.00000000E+00
  3.22222222E+01  3.33333333E+00  0.00000000E+00
  3.22222222E+01  2.66666667E+00  0.00000000E+00
  3.22222222E+01  2.00000000E+00  0.00000000E+00
  3.22222222E+01  1.33333333E+00  0.00000000E+00
  3.22222222E+01  6.66666667E-01  0.00000000E+00
  3.22222222E+01  1.66533454E-15  0.00000000E+00
  3.33333333E+01  1.00000000E+01  0.00000000E+00
  3.33333333E+01  9.33333333E+00  0.00000000E+00
  3.33333333E+01  8.66666667E+00  0.00000000E+00
  3.33333333E+01  8.00000000E+00  0.00000000E+00
  3.33333333E+01  7.33333333E+00  0.00000000E+00
  3.33333333E+01  6.66666667E+00  0.00000000E+00
  3.33333333E+01  6.00000000E+00  0.00000000E+00
  3.33333333E+01  5.33333333E+00  0.00000000E+00
  3.33333333E+01  4.66666667E+00  0.00000000E+00
  3.33333333E+01  4.00000000E+00  0.00000000E+00
  3.33333333E+01  3.33333333E+00  0.00000000E+00
  3.33333333E+01  2.66666667E+00  0.00000000E+00
  3.33333333E+01  2.00000000E+00  0.00000000E+00
  3.33333333E+01  1.33333333E+00  0.00000000E+00
  3.33333333E+01  6.66666667E-01  0.00000000E+00
  3.33333333E+01  1.66533454E-15  0.00000000E+00
  3.44444444E+01  1.00000000E+01  0.00000000E+00
  3.44444444E+01  9.33333333E+00  0.00000000E+00
  3.44444444E+01  8.66666667E+00  0.00000000E+00
  3.44444444E+01  8.00000000E+00  0.00000000E+00
  3.44444444E+01  7.33333333E+00  0.00000000E+00
  3.44444444E+01  6.66666667E+00  0.00000000E+00
  3.44444444E+01  6.00000000E+00  0.00000000E+00
  3.44444444E+01  5.33333333E+00  0.00000000E+00
  3.44444444E+01  4.66666667E+00  0.00000000E+00
  3.44444444E+01  4.00000000E+00  0.00000000E+00
  3.44444444E+01  3.33333333E+00  0.00000000E+00
  3.44444444E+01  2.66666667E+00  0.00000000E+00
  3.44444444E+01  2.00000000E+00  0.00000000E+00
  3.44444444E+01  1.33333333E+00  0.00000000E+00
  3.44444444E+01  6.66666667E-01  0.00000000E+00
  3.44444444E+01  1.66533454E-15  0.00000000E+00
  3.55555556E+01  1.00000000E+01  0.00000000E+00
  3.55555556E+01  9.33333333E+00  0.00000000E+00
  3.55555556E+01  8.66666667E+00  0.00000000E+00
  3.55555556E+01  8.00000000E+00  0.00000000E+00
  3.55555556E+01  7.33333333E+00  0.00000000E+00
  3.55555556E+01  6.66666667E+00  0.00000000E+00
  3.55555556E+01  6.00000000E+00  0.00000000E+00
  3.55555556E+01  5.33333333E+00  0.00000000E+00
  3.55555556E+01  4.66666667E+00  0.00000000E+00
  3.55555556E+01  4.00000000E+00  0.00000000E+00
  3.55555556E+01  3.33333333E+00  0.00000000E+00
  3.55555556E+01  2.66666667E+00  0.00000000E+00
  3.55555556E+01  2.00000000E+00  0.00000000E+00
  3.55555556E+01  1.33333333E+00  0.00000000E+00
  3.55555556E+01  6.66666667E-01  0.00000000E+00
  3.55555556E+01  1.66533454E-15  0.00000000E+00
  3.66666667E+01  1.00000000E+01  0.00000000E+00
  3.66666667E+01  9.33333333E+00  0.00000000E+00
  3.66666667E+01  8.66666667E+00  0.00000000E+00
  3.66666667E+01  8.00000000E+00  0.00000000E+00
  3.66666667E+01  7.33333333E+00  0.00000000E+00
  3.66666667E+01  6.66666667E+00  0.00000000E+00
  3.66666667E+01  6.00000000E+00  0.00000000E+00
  3.66666667E+01  5.33333333E+00  0.00000000E+00
  3.66666667E+01  4.66666667E+00  0.00000000E+00
  3.66666667E+01  4.00000000E+00  0.00000000E+00
  3.66666667E+01  3.33333333E+00  0.00000000E+00
  3.66666667E+01  2.66666667E+00  0.00000000E+00
  3.66666667E+01  2.00000000E+00  0.00000000E+00
  3.66666667E+01  1.33333333E+00  0.00000000E+00
  3.66666667E+01  6.66666667E-01  0.00000000E+00
  3.66666667E+01  1.66533454E-15  0.00000000E+00
  3.77777778E+01  1.00000000E+01  0.00000000E+00
  3.77777778E+01  9.33333333E+00  0.00000000E+00
  3.77777778E+01  8.66666667E+00  0.00000000E+00
  3.77777778E+01  8.00000000E+00  0.00000000E+00
  3.77777778E+01  7.33333333E+00  0.00000000E+00
  3.77777778E+01  6.66666667E+00  0.00000000E+00
  3.77777778E+01  6.00000000E+00  0.00000000E+00
  3.77777778E+01  5.33333333E+00  0.00000000E+00
  3.77777778E+01  4.66666667E+00  0.00000000E+00
  3.77777778E+01  4.00000000E+00  0.00000000E+00
  3.77777778E+01  3.33333333E+00  0.00000000E+00
  3.77777778E+01  2.66666667E+00  0.00000000E+00
  3.77777778E+01  2.00000000E+00  0.00000000E+00
  3.77777778E+01  1.33333333E+00  0.00000000E+00
  3.77777778E+01  6.66666667E-01  0.00000000E+00
  3.77777778E+01  1.66533454E-15  0.00000000E+00
  3.88888889E+01  1.00000000E+01  0.00000000E+00
  3.88888889E+01  9.33333333E+00  0.00000000E+00
  3.88888889E+01  8.66666667E+00  0.00000000E+00
  3.88888889E+01  8.00000000E+00  0.00000000E+00
  3.88888889E+01  7.33333333E+00  0.00000000E+00
  3.88888889E+01  6.66666667E+00  0.00000000E+00
  3.88888889E+01  6.00000000E+00  0.00000000E+00
  3.88888889E+01  5.33333333E+00  0.00000000E+00
  3.88888889E+01  4.66666667E+00  0.00000000E+00
  3.88888889E+01  4.00000000E+00  0.00000000E+00
  3.88888889E+01  3.33333333E+00  0.00000000E+00
  3.88888889E+01  2.66666667E+00  0.00000000E+00
  3.88888889E+01  2.00000000E+00  0.00000000E+00
  3.88888889E+01  1.33333333E+00  0.00000000E+00
  3.88888889E+01  6.66666667E-01  0.00000000E+00
  3.88888889E+01  1.66533454E-15  0.00000000E+00
  4.00000000E+01  1.00000000E+01  0.00000000E+00
  4.00000000E+01  9.33333333E+00  0.00000000E+00
  4.00000000E+01  8.66666667E+00  0.00000000E+00
  4.00000000E+01  8.00000000E+00  0.00000000E+00
  4.00000000E+01  7.33333333E+00  0.00000000E+00
  4.00000000E+01  6.66666667E+00  0.00000000E+00
  4.00000000E+01  6.00000000E+00  0.00000000E+00
  4.00000000E+01  5.33333333E+00  0.00000000E+00
  4.00000000E+01  4.66666667E+00  0.00000000E+00
  4.00000000E+01  4.00000000E+00  0.00000000E+00
  4.00000000E+01  3.33333333E+00  0.00000000E+00
  4.00000000E+01  2.66666667E+00  0.00000000E+00
  4.00000000E+01  2.00000000E+00  0.00000000E+00
  4.00000000E+01  1.33333333E+00  0.00000000E+00
  4.00000000E+01  6.66666667E-01  0.00000000E+00
  4.00000000E+01  1.66533454E-15  0.00000000E+00
  4.11111111E+01  1.00000000E+01  0.00000000E+00
  4.11111111E+01  9.33333333E+00  0.00000000E+00
  4.11111111E+01  8.66666667E+00  0.00000000E+00
  4.11111111E+01  8.00000000E+00  0.00000000E+00
  4.11111111E+01  7.33333333E+00  0.00000000E+00
  4.11111111E+01  6.66666667E+00  0.00000000E+00
  4.11111111E+01  6.00000000E+00  0.00000000E+00
  4.11111111E+01  5.33333333E+00  0.00000000E+00
  4.11111111E+01  4.66666667E+00  0.00000000E+00
  4.11111111E+01  4.00000000E+00  0.00000000E+00
  4.11111111E+01  3.33333333E+00  0.00000000E+00
  4.11111111E+01  2.66666667E+00  0.00000000E+00
  4.11111111E+01  2.00000000E+00  0.00000000E+00
  4.11111111E+01  1.33333333E+00  0.00000000E+00
  4.11111111E+01  6.66666667E-01  0.00000000E+00
  4.11111111E+01  1.66533454E-15  0.00000000E+00
  4.22222222E+01  1.00000000E+01  0.00000000E+00
  4.22222222E+01  9.33333333E+00  0.00000000E+00
  4.22222222E+01  8.66666667E+00  0.00000000E+00
  4.22222222E+01  8.00000000E+00  0.00000000E+00
  4.22222222E+01  7.33333333E+00  0.00000000E+00
  4.22222222E+01  6.66666667E+00  0.00000000E+00
  4.22222222E+01  6.00000000E+00  0.00000000E+00
  4.22222222E+01  5.33333333E+00  0.00000000E+00
  4.22222222E+01  4.66666667E+00  0.00000000E+00
  4.22222222E+01  4.00000000E+00  0.00000000E+00
  4.22222222E+01  3.33333333E+00  0.00000000E+00
  4.22222222E+01  2.66666667E+00  0.00000000E+00
  4.22222222E+01  2.00000000E+00  0.00000000E+00
  4.22222222E+01  1.33333333E+00  0.00000000E+00
  4.22222222E+01  6.66666667E-01  0.00000000E+00
  4.22222222E+01  1.66533454E-15  0.00000000E+00
  4.33333333E+01  1.00000000E+01  0.00000000E+00
  4.33333333E+01  9.33333333E+00  0.00000000E+00
  4.33333333E+01  8.66666667E+00  0.00000000E+00
  4.33333333E+01  8.00000000E+00  0.00000000E+00
  4.33333333E+01  7.33333333E+00  0.00000000E+00
  4.33333333E+01  6.66666667E+00  0.00000000E+00
  4.33333333E+01  6.00000000E+00  0.00000000E+00
  4.33333333E+01  5.33333333E+00  0.00000000E+00
  4.33333333E+01  4.66666667E+00  0.00000000E+00
  4.33333333E+01  4.00000000E+00  0.00000000E+00
  4.33333333E+01  3.33333333E+00  0.00000000E+00
  4.33333333E+01  2.66666667E+00  0.00000000E+00
  4.33333333E+01  2.00000000E+00  0.00000000E+00
  4.33333333E+01  1.33333333E+00  0.00000000E+00
  4.33333333E+01  6.66666667E-01  0.00000000E+00
  4.33333333E+01  1.66533454E-15  0.00000000E+00
  4.44444444E+01  1.00000000E+01  0.00000000E+00
  4.44444444E+01  9.33333333E+00  0.00000000E+00
  4.44444444E+01  8.66666667E+00  0.00000000E+00
  4.44444444E+01  8.00000000E+00  0.00000000E+00
  4.44444444E+01  7.33333333E+00  0.00000000E+00
  4.44444444E+01  6.66666667E+00  0.00000000E+00
  4.44444444E+01  6.00000000E+00  0.00000000E+00
  4.44444444E+01  5.33333333E+00  0.00000000E+00
  4.44444444E+01  4.66666667E+00  0.00000000E+00
  4.44444444E+01  4.00000000E+00  0.00000000E+00
  4.44444444E+01  3.33333333E+00  0.00000000E+00
  4.44444444E+01  2.66666667E+00  0.00000000E+00
  4.44444444E+01  2.00000000E+00  0.00000000E+00
  4.44444444E+01  1.33333333E+00  0.00000000E+00
  4.44444444E+01  6.66666667E-01  0.00000000E+00
  4.44444444E+01  1.66533454E-15  0.00000000E+00
  4.55555556E+01  1.00000000E+01  0.00000000E+00
  4.55555556E+01  9.33333333E+00  0.00000000E+00
  4.55555556E+01  8.66666667E+00  0.00000000E+00
  4.55555556E+01  8.00000000E+00  0.00000000E+00
  4.55555556E+01  7.33333333E+00  0.00000000E+00
  4.55555556E+01  6.66666667E+00  0.00000000E+00
  4.55555556E+01  6.00000000E+00  0.00000000E+00
  4.55555556E+01  5.33333333E+00  0.00000000E+00
  4.55555556E+01  4.66666667E+00  0.00000000E+00
  4.55555556E+01  4.00000000E+00  0.00000000E+00
  4.55555556E+01  3.33333333E+00  0.00000000E+00
  4.55555556E+01  2.66666667E+00  0.00000000E+00
  4.55555556E+01  2.00000000E+00  0.00000000E+00
  4.55555556E+01  1.33333333E+00  0.00000000E+00
  4.55555556E+01  6.66666667E-01  0.00000000E+00
  4.55555556E+01  1.66533454E-15  0.00000000E+00
  4.66666667E+01  1.00000000E+01  0.00000000E+00
  4.66666667E+01  9.33333333E+00  0.00000000E+00
  4.66666667E+01  8.66666667E+00  0.00000000E+00
  4.66666667E+01  8.00000000E+00  0.00000000E+00
  4.66666667E+01  7.33333333E+00  0.00000000E+00
  4.66666667E+01  6.66666667E+00  0.00000000E+00
  4.66666667E+01  6.00000000E+00  0.00000000E+00
  4.66666667E+01  5.33333333E+00  0.00000000E+00
  4.66666667E+01  4.66666667E+00  0.00000000E+00
  4.66666667E+01  4.00000000E+00  0.00000000E+00
  4.66666667E+01  3.33333333E+00  0.00000000E+00
  4.66666667E+01  2.66666667E+00  0.00000000E+00
  4.66666667E+01  2.00000000E+00  0.00000000E+00
  4.66666667E+01  1.33333333E+00  0.00000000E+00
  4.66666667E+01  6.66666667E-01  0.00000000E+00
  4.66666667E+01  1.66533454E-15  0.00000000E+00
  4.77777778E+01  1.00000000E+01  0.00000000E+00
  4.77777778E+01  9.33333333E+00  0.00000000E+00
  4.77777778E+01  8.66666667E+00  0.00000000E+00
  4.77777778E+01  8.00000000E+00  0.00000000E+00
  4.77777778E+01  7.33333333E+00  0.00000000E+00
  4.77777778E+01  6.66666667E+00  0.00000000E+00
  4.77777778E+01  6.00000000E+00  0.00000000E+00
  4.77777778E+01  5.33333333E+00  0.00000000E+00
  4.77777778E+01  4.66666667E+00  0.00000000E+00
  4.77777778E+01  4.00000000E+00  0.00000000E+00
  4.77777778E+01  3.33333333E+00  0.00000000E+00
  4.77777778E+01  2.66666667E+00  0.00000000E+00
  4.77777778E+01  2.00000000E+00  0.00000000E+00
  4.77777778E+01  1.33333333E+00  0.00000000E+00
  4.77777778E+01  6.66666667E-01  0.00000000E+00
  4.77777778E+01  1.66533454E-15  0.00000000E+00
  4.88888889E+01  1.00000000E+01  0.00000000E+00
  4.88888889E+01  9.33333333E+00  0.00000000E+00
  4.88888889E+01  8.66666667E+00  0.00000000E+00
  4.88888889E+01  8.00000000E+00  0.00000000E+00
  4.88888889E+01  7.33333333E+00  0.00000000E+00
  4.88888889E+01  6.66666667E+00  0.00000000E+00
  4.88888889E+01  6.00000000E+00  0.00000000E+00
  4.88888889E+01  5.33333333E+00  0.00000000E+00
  4.88888889E+01  4.66666667E+00  0.00000000E+00
  4.88888889E+01  4.00000000E+00  0.00000000E+00
  4.88888889E+01  3.33333333E+00  0.00000000E+00
  4.88888889E+01  2.66666667E+00  0.00000000E+00
  4.88888889E+01  2.00000000E+00  0.00000000E+00
  4.88888889E+01  1.33333333E+00  0.00000000E+00
  4.88888889E+01  6.66666667E-01  0.00000000E+00
  4.88888889E+01  1.66533454E-15  0.00000000E+00
  5.00000000E+01  1.00000000E+01  0.00000000E+00
  5.00000000E+01  9.33333333E+00  0.00000000E+00
  5.00000000E+01  8.66666667E+00  0.00000000E+00
  5.00000000E+01  8.00000000E+00  0.00000000E+00
  5.00000000E+01  7.33333333E+00  0.00000000E+00
  5.00000000E+01  6.66666667E+00  0.00000000E+00
  5.00000000E+01  6.00000000E+00  0.00000000E+00
  5.00000000E+01  5.33333333E+00  0.00000000E+00
  5.00000000E+01  4.66666667E+00  0.00000000E+00
  5.00000000E+01  4.00000000E+00  0.00000000E+00
  5.00000000E+01  3.33333333E+00  0.00000000E+00
  5.00000000E+01  2.66666667E+00  0.00000000E+00
  5.00000000E+01  2.00000000E+00  0.00000000E+00
  5.00000000E+01  1.33333333E+00  0.00000000E+00
  5.00000000E+01  6.66666667E-01  0.00000000E+00
  5.00000000E+01  1.66533454E-15  0.00000000E+00
  5.11111111E+01  1.00000000E+01  0.00000000E+00
  5.11111111E+01  9.33333333E+00  0.00000000E+00
  5.11111111E+01  8.66666667E+00  0.00000000E+00
  5.11111111E+01  8.00000000E+00  0.00000000E+00
  5.11111111E+01  7.33333333E+00  0.00000000E+00
  5.11111111E+01  6.66666667E+00  0.00000000E+00
  5.11111111E+01  6.00000000E+00  0.00000000E+00
  5.11111111E+01  5.33333333E+00  0.00000000E+00
  5.11111111E+01  4.66666667E+00  0.00000000E+00
  5.11111111E+01  4.00000000E+00  0.00000000E+00
  5.11111111E+01  3.33333333E+00  0.00000000E+00
  5.11111111E+01  2.66666667E+00  0.00000000E+00
  5.11111111E+01  2.00000000E+00  0.00000000E+00
  5.11111111E+01  1.33333333E+00  0.00000000E+00
  5.11111111E+01  6.66666667E-01  0.00000000E+00
  5.11111111E+01  1.66533454E-15  0.00000000E+00
  5.22222222E+01  1.00000000E+01  0.00000000E+00
  5.22222222E+01  9.33333333E+00  0.00000000E+00
  5.22222222E+01  8.66666667E+00  0.00000000E+00
  5.22222222E+01  8.00000000E+00  0.00000000E+00
  5.22222222E+01  7.33333333E+00  0.00000000E+00
  5.22222222E+01  6.66666667E+00  0.00000000E+00
  5.22222222E+01  6.00000000E+00  0.00000000E+00
  5.22222222E+01  5.33333333E+00  0.00000000E+00
  5.22222222E+01  4.66666667E+00  0.00000000E+00
  5.22222222E+01  4.00000000E+00  0.00000000E+00
  5.22222222E+01  3.33333333E+00  0.00000000E+00
  5.22222222E+01  2.66666667E+00  0.00000000E+00
  5.22222222E+01  2.00000000E+00  0.00000000E+00
  5.22222222E+01  1.33333333E+00  0.00000000E+00
  5.22222222E+01  6.66666667E-01  0.00000000E+00
  5.22222222E+01  1.66533454E-15  0.00000000E+00
  5.33333333E+01  1.00000000E+01  0.00000000E+00
  5.33333333E+01  9.33333333E+00  0.00000000E+00
  5.33333333E+01  8.66666667E+00  0.00000000E+00
  5.33333333E+01  8.00000000E+00  0.00000000E+00
  5.33333333E+01  7.33333333E+00  0.00000000E+00
  5.33333333E+01  6.66666667E+00  0.00000000E+00
  5.33333333E+01  6.00000000E+00  0.00000000E+00
  5.33333333E+01  5.33333333E+00  0.00000000E+00
  5.33333333E+01  4.66666667E+00  0.00000000E+00
  5.33333333E+01  4.00000000E+00  0.00000000E+00
  5.33333333E+01  3.33333333E+00  0.00000000E+00
  5.33333333E+01  2.66666667E+00  0.00000000E+00
  5.33333333E+01  2.00000000E+00  0.00000000E+00
  5.33333333E+01  1.33333333E+00  0.00000000E+00
  5.33333333E+01  6.66666667E-01  0.00000000E+00
  5.33333333E+01  1.66533454E-15  0.00000000E+00
  5.44444444E+01  1.00000000E+01  0.00000000E+00
  5.44444444E+01  9.33333333E+00  0.00000000E+00
  5.44444444E+01  8.66666667E+00  0.00000000E+00
  5.44444444E+01  8.00000000E+00  0.00000000E+00
  5.44444444E+01  7.33333333E+00  0.00000000E+00
  5.44444444E+01  6.66666667E+00  0.00000000E+00
  5.44444444E+01  6.00000000E+00  0.00000000E+00
  5.44444444E+01  5.33333333E+00  0.00000000E+00
  5.44444444E+01  4.66666667E+00  0.00000000E+00
  5.44444444E+01  4.00000000E+00  0.00000000E+00
  5.44444444E+01  3.33333333E+00  0.00000000E+00
  5.44444444E+01  2.66666667E+00  0.00000000E+00
  5.44444444E+01  2.00000000E+00  0.00000000E+00
  5.44444444E+01  1.33333333E+00  0.00000000E+00
  5.44444444E+01  6.66666667E-01  0.00000000E+00
  5.44444444E+01  1.66533454E-15  0.00000000E+00
  5.55555556E+01  1.00000000E+01  0.00000000E+00
  5.55555556E+01  9.33333333E+00  0.00000000E+00
  5.55555556E+01  8.66666667E+00  0.00000000E+00
  5.55555556E+01  8.00000000E+00  0.00000000E+00
  5.55555556E+01  7.33333333E+00  0.00000000E+00
  5.55555556E+01  6.66666667E+00  0.00000000E+00
  5.55555556E+01  6.00000000E+00  0.00000000E+00
  5.55555556E+01  5.33333333E+00  0.00000000E+00
  5.55555556E+01  4.66666667E+00  0.00000000E+00
  5.55555556E+01  4.00000000E+00  0.00000000E+00
  5.55555556E+01  3.33333333E+00  0.00000000E+00
  5.55555556E+01  2.66666667E+00  0.00000000E+00
  5.55555556E+01  2.00000000E+00  0.00000000E+00
  5.55555556E+01  1.33333333E+00  0.00000000E+00
  5.55555556E+01  6.66666667E-01  0.00000000E+00
  5.55555556E+01  1.66533454E-15  0.00000000E+00
  5.66666667E+01  1.00000000E+01  0.00000000E+00
  5.66666667E+01  9.33333333E+00  0.00000000E+00
  5.66666667E+01  8.66666667E+00  0.00000000E+00
  5.66666667E+01  8.00000000E+00  0.00000000E+00
  5.66666667E+01  7.33333333E+00  0.00000000E+00
  5.66666667E+01  6.66666667E+00  0.00000000E+00
  5.66666667E+01  6.00000000E+00  0.00000000E+00
  5.66666667E+01  5.33333333E+00  0.00000000E+00
  5.66666667E+01  4.66666667E+00  0.00000000E+00
  5.66666667E+01  4.00000000E+00  0.00000000E+00
  5.66666667E+01  3.33333333E+00  0.00000000E+00
  5.66666667E+01  2.66666667E+00  0.00000000E+00
  5.66666667E+01  2.00000000E+00  0.00000000E+00
  5.66666667E+01  1.33333333E+00  0.00000000E+00
  5.66666667E+01  6.66666667E-01  0.00000000E+00
  5.66666667E+01  1.66533454E-15  0.00000000E+00
  5.77777778E+01  1.00000000E+01  0.00000000E+00
  5.77777778E+01  9.33333333E+00  0.00000000E+00
  5.77777778E+01  8.66666667E+00  0.00000000E+00
  5.77777778E+01  8.00000000E+00  0.00000000E+00
  5.77777778E+01  7.33333333E+00  0.00000000E+00
  5.77777778E+01  6.66666667E+00  0.00000000E+00
  5.77777778E+01  6.00000000E+00  0.00000000E+00
  5.77777778E+01  5.33333333E+00  0.00000000E+00
  5.77777778E+01  4.66666667E+00  0.00000000E+00
  5.77777778E+01  4.00000000E+00  0.00000000E+00
  5.77777778E+01  3.33333333E+00  0.00000000E+00
  5.77777778E+01  2.66666667E+00  0.00000000E+00
  5.77777778E+01  2.00000000E+00  0.00000000E+00
  5.77777778E+01  1.33333333E+00  0.00000000E+00
  5.77777778E+01  6.66666667E-01  0.00000000E+00
  5.77777778E+01  1.66533454E-15  0.00000000E+00
  5.88888889E+01  1.00000000E+01  0.00000000E+00
  5.88888889E+01  9.33333333E+00  0.00000000E+00
  5.88888889E+01  8.66666667E+00  0.00000000E+00
  5.88888889E+01  8.00000000E+00  0.00000000E+00
  5.88888889E+01  7.33333333E+00  0.00000000E+00
  5.88888889E+01  6.66666667E+00  0.00000000E+00
  5.88888889E+01  6.00000000E+00  0.00000000E+00
  5.88888889E+01  5.33333333E+00  0.00000000E+00
  5.88888889E+01  4.66666667E+00  0.00000000E+00
  5.88888889E+01  4.00000000E+00  0.00000000E+00
  5.88888889E+01  3.33333333E+00  0.00000000E+00
  5.88888889E+01  2.66666667E+00  0.00000000E+00
  5.88888889E+01  2.00000000E+00  0.00000000E+00
  5.88888889E+01  1.33333333E+00  0.00000000E+00
  5.88888889E+01  6.66666667E-01  0.00000000E+00
  5.88888889E+01  1.66533454E-15  0.00000000E+00
  6.00000000E+01  1.00000000E+01  0.00000000E+00
  6.00000000E+01  9.33333333E+00  0.00000000E+00
  6.00000000E+01  8.66666667E+00  0.00000000E+00
  6.00000000E+01  8.00000000E+00  0.00000000E+00
  6.00000000E+01  7.33333333E+00  0.00000000E+00
  6.00000000E+01  6.66666667E+00  0.00000000E+00
  6.00000000E+01  6.00000000E+00  0.00000000E+00
  6.00000000E+01  5.33333333E+00  0.00000000E+00
  6.00000000E+01  4.66666667E+00  0.00000000E+00
  6.00000000E+01  4.00000000E+00  0.00000000E+00
  6.00000000E+01  3.33333333E+00  0.00000000E+00
  6.00000000E+01  2.66666667E+00  0.00000000E+00
  6.00000000E+01  2.00000000E+00  0.00000000E+00
  6.00000000E+01  1.33333333E+00  0.00000000E+00
  6.00000000E+01  6.66666667E-01  0.00000000E+00
  6.00000000E+01  1.66533454E-15  0.00000000E+00
  6.11111111E+01  1.00000000E+01  0.00000000E+00
  6.11111111E+01  9.33333333E+00  0.00000000E+00
  6.11111111E+01  8.66666667E+00  0.00000000E+00
  6.11111111E+01  8.00000000E+00  0.00000000E+00
  6.11111111E+01  7.33333333E+00  0.00000000E+00
  6.11111111E+01  6.66666667E+00  0.00000000E+00
  6.11111111E+01  6.00000000E+00  0.00000000E+00
  6.11111111E+01  5.33333333E+00  0.00000000E+00
  6.11111111E+01  4.66666667E+00  0.00000000E+00
  6.11111111E+01  4.00000000E+00  0.00000000E+00
  6.11111111E+01  3.33333333E+00  0.00000000E+00
  6.11111111E+01  2.66666667E+00  0.00000000E+00
  6.11111111E+01  2.00000000E+00  0.00000000E+00
  6.11111111E+01  1.33333333E+00  0.00000000E+00
  6.11111111E+01  6.66666667E-01  0.00000000E+00
  6.11111111E+01  1.66533454E-15  0.00000000E+00
  6.22222222E+01  1.00000000E+01  0.00000000E+00
  6.22222222E+01  9.33333333E+00  0.00000000E+00
  6.22222222E+01  8.66666667E+00  0.00000000E+00
  6.22222222E+01  8.00000000E+00  0.00000000E+00
  6.22222222E+01  7.33333333E+00  0.00000000E+00
  6.22222222E+01  6.66666667E+00  0.00000000E+00
  6.22222222E+01  6.00000000E+00  0.00000000E+00
  6.22222222E+01  5.33333333E+00  0.00000000E+00
  6.22222222E+01  4.66666667E+00  0.00000000E+00
  6.22222222E+01  4.00000000E+00  0.00000000E+00
  6.22222222E+01  3.33333333E+00  0.00000000E+00
  6.22222222E+01  2.66666667E+00  0.00000000E+00
  6.22222222E+01  2.00000000E+00  0.00000000E+00
  6.22222222E+01  1.33333333E+00  0.00000000E+00
  6.22222222E+01  6.66666667E-01  0.00000000E+00
  6.22222222E+01  1.66533454E-15  0.00000000E+00
  6.33333333E+01  1.00000000E+01  0.00000000E+00
  6.33333333E+01  9.33333333E+00  0.00000000E+00
  6.33333333E+01  8.66666667E+00  0.00000000E+00
  6.33333333E+01  8.00000000E+00  0.00000000E+00
  6.33333333E+01  7.33333333E+00  0.00000000E+00
  6.33333333E+01  6.66666667E+00  0.00000000E+00
  6.33333333E+01  6.00000000E+00  0.00000000E+00
  6.33333333E+01  5.33333333E+00  0.00000000E+00
  6.33333333E+01  4.66666667E+00  0.00000000E+00
  6.33333333E+01  4.00000000E+00  0.00000000E+00
  6.33333333E+01  3.33333333E+00  0.00000000E+00
  6.33333333E+01  2.66666667E+00  0.00000000E+00
  6.33333333E+01  2.00000000E+00  0.00000000E+00
  6.33333333E+01  1.33333333E+00  0.00000000E+00
  6.33333333E+01  6.66666667E-01  0.00000000E+00
  6.33333333E+01  1.66533454E-15  0.00000000E+00
  6.44444444E+01  1.00000000E+01  0.00000000E+00
  6.44444444E+01  9.33333333E+00  0.00000000E+00
  6.44444444E+01  8.66666667E+00  0.00000000E+00
  6.44444444E+01  8.00000000E+00  0.00000000E+00
  6.44444444E+01  7.33333333E+00  0.00000000E+00
  6.44444444E+01  6.66666667E+00  0.00000000E+00
  6.44444444E+01  6.00000000E+00  0.00000000E+00
  6.44444444E+01  5.33333333E+00  0.00000000E+00
  6.44444444E+01  4.66666667E+00  0.00000000E+00
  6.44444444E+01  4.00000000E+00  0.00000000E+00
  6.44444444E+01  3.33333333E+00  0.00000000E+00
  6.44444444E+01  2.66666667E+00  0.00000000E+00
  6.44444444E+01  2.00000000E+00  0.00000000E+00
  6.44444444E+01  1.33333333E+00  0.00000000E+00
  6.44444444E+01  6.66666667E-01  0.00000000E+00
  6.44444444E+01  1.66533454E-15  0.00000000E+00
  6.55555556E+01  1.00000000E+01  0.00000000E+00
  6.55555556E+01  9.33333333E+00  0.00000000E+00
  6.55555556E+01  8.66666667E+00  0.00000000E+00
  6.55555556E+01  8.00000000E+00  0.00000000E+00
  6.55555556E+01  7.33333333E+00  0.00000000E+00
  6.55555556E+01  6.66666667E+00  0.00000000E+00
  6.55555556E+01  6.00000000E+00  0.00000000E+00
  6.55555556E+01  5.33333333E+00  0.00000000E+00
  6.55555556E+01  4.66666667E+00  0.00000000E+00
  6.55555556E+01  4.00000000E+00  0.00000000E+00
  6.55555556E+01  3.33333333E+00  0.00000000E+00
  6.55555556E+01  2.66666667E+00  0.00000000E+00
  6.55555556E+01  2.00000000E+00  0.00000000E+00
  6.55555556E+01  1.33333333E+00  0.00000000E+00
  6.55555556E+01  6.66666667E-01  0.00000000E+00
  6.55555556E+01  1.66533454E-15  0.00000000E+00
  6.66666667E+01  1.00000000E+01  0.00000000E+00
  6.66666667E+01  9.33333333E+00  0.00000000E+00
  6.66666667E+01  8.66666667E+00  0.00000000E+00
  6.66666667E+01  8.00000000E+00  0.00000000E+00
  6.66666667E+01  7.33333333E+00  0.00000000E+00
  6.66666667E+01  6.66666667E+00  0.00000000E+00
  6.66666667E+01  6.00000000E+00  0.00000000E+00
  6.66666667E+01  5.33333333E+00  0.00000000E+00
  6.66666667E+01  4.66666667E+00  0.00000000E+00
  6.66666667E+01  4.00000000E+00  0.00000000E+00
  6.66666667E+01  3.33333333E+00  0.00000000E+00
  6.66666667E+01  2.66666667E+00  0.00000000E+00
  6.66666667E+01  2.00000000E+00  0.00000000E+00
  6.66666667E+01  1.33333333E+00  0.00000000E+00
  6.66666667E+01  6.66666667E-01  0.00000000E+00
  6.66666667E+01  1.66533454E-15  0.00000000E+00
  6.77777778E+01  1.00000000E+01  0.00000000E+00
  6.77777778E+01  9.33333333E+00  0.00000000E+00
  6.77777778E+01  8.66666667E+00  0.00000000E+00
  6.77777778E+01  8.00000000E+00  0.00000000E+00
  6.77777778E+01  7.33333333E+00  0.00000000E+00
  6.77777778E+01  6.66666667E+00  0.00000000E+00
  6.77777778E+01  6.00000000E+00  0.00000000E+00
  6.77777778E+01  5.33333333E+00  0.00000000E+00
  6.77777778E+01  4.66666667E+00  0.00000000E+00
  6.77777778E+01  4.00000000E+00  0.00000000E+00
  6.77777778E+01  3.33333333E+00  0.00000000E+00
  6.77777778E+01  2.66666667E+00  0.00000000E+00
  6.77777778E+01  2.00000000E+00  0.00000000E+00
  6.77777778E+01  1.33333333E+00  0.00000000E+00
  6.77777778E+01  6.66666667E-01  0.00000000E+00
  6.77777778E+01  1.66533454E-15  0.00000000E+00
  6.88888889E+01  1.00000000E+01  0.00000000E+00
  6.88888889E+01  9.33333333E+00  0.00000000E+00
  6.88888889E+01  8.66666667E+00  0.00000000E+00
  6.88888889E+01  8.00000000E+00  0.00000000E+00
  6.88888889E+01  7.33333333E+00  0.00000000E+00
  6.88888889E+01  6.66666667E+00  0.00000000E+00
  6.88888889E+01  6.00000000E+00  0.00000000E+00
  6.88888889E+01  5.33333333E+00  0.00000000E+00
  6.88888889E+01  4.66666667E+00  0.00000000E+00
  6.88888889E+01  4.00000000E+00  0.00000000E+00
  6.88888889E+01  3.33333333E+00  0.00000000E+00
  6.88888889E+01  2.66666667E+00  0.00000000E+00
  6.88888889E+01  2.00000000E+00  0.00000000E+00
  6.88888889E+01  1.33333333E+00  0.00000000E+00
  6.88888889E+01  6.66666667E-01  0.00000000E+00
  6.88888889E+01  1.66533454E-15  0.00000000E+00
  7.00000000E+01  1.00000000E+01  0.00000000E+00
  7.00000000E+01  9.33333333E+00  0.00000000E+00
  7.00000000E+01  8.66666667E+00  0.00000000E+00
  7.00000000E+01  8.00000000E+00  0.00000000E+00
  7.00000000E+01  7.33333333E+00  0.00000000E+00
  7.00000000E+01  6.66666667E+00  0.00000000E+00
  7.00000000E+01  6.00000000E+00  0.00000000E+00
  7.00000000E+01  5.33333333E+00  0.00000000E+00
  7.00000000E+01  4.66666667E+00  0.00000000E+00
  7.00000000E+01  4.00000000E+00  0.00000000E+00
  7.00000000E+01  3.33333333E+00  0.00000000E+00
  7.00000000E+01  2.66666667E+00  0.00000000E+00
  7.00000000E+01  2.00000000E+00  0.00000000E+00
  7.00000000E+01  1.33333333E+00  0.00000000E+00
  7.00000000E+01  6.66666667E-01  0.00000000E+00
  7.00000000E+01  1.66533454E-15  0.00000000E+00
  7.11111111E+01  1.00000000E+01  0.00000000E+00
  7.11111111E+01  9.33333333E+00  0.00000000E+00
  7.11111111E+01  8.66666667E+00  0.00000000E+00
  7.11111111E+01  8.00000000E+00  0.00000000E+00
  7.11111111E+01  7.33333333E+00  0.00000000E+00
  7.11111111E+01  6.66666667E+00  0.00000000E+00
  7.11111111E+01  6.00000000E+00  0.00000000E+00
  7.11111111E+01  5.33333333E+00  0.00000000E+00
  7.11111111E+01  4.66666667E+00  0.00000000E+00
  7.11111111E+01  4.00000000E+00  0.00000000E+00
  7.11111111E+01  3.33333333E+00  0.00000000E+00
  7.11111111E+01  2.66666667E+00  0.00000000E+00
  7.11111111E+01  2.00000000E+00  0.00000000E+00
  7.11111111E+01  1.33333333E+00  0.00000000E+00
  7.11111111E+01  6.66666667E-01  0.00000000E+00
  7.11111111E+01  1.66533454E-15  0.00000000E+00
  7.22222222E+01  1.00000000E+01  0.00000000E+00
  7.22222222E+01  9.33333333E+00  0.00000000E+00
  7.22222222E+01  8.66666667E+00  0.00000000E+00
  7.22222222E+01  8.00000000E+00  0.00000000E+00
  7.22222222E+01  7.33333333E+00  0.00000000E+00
  7.22222222E+01  6.66666667E+00  0.00000000E+00
  7.22222222E+01  6.00000000E+00  0.00000000E+00
  7.22222222E+01  5.33333333E+00  0.00000000E+00
  7.22222222E+01  4.66666667E+00  0.00000000E+00
  7.22222222E+01  4.00000000E+00  0.00000000E+00
  7.22222222E+01  3.33333333E+00  0.00000000E+00
  7.22222222E+01  2.66666667E+00  0.00000000E+00
  7.22222222E+01  2.00000000E+00  0.00000000E+00
  7.22222222E+01  1.33333333E+00  0.00000000E+00
  7.22222222E+01  6.66666667E-01  0.00000000E+00
  7.22222222E+01  1.66533454E-15  0.00000000E+00
  7.33333333E+01  1.00000000E+01  0.00000000E+00
  7.33333333E+01  9.33333333E+00  0.00000000E+00
  7.33333333E+01  8.66666667E+00  0.00000000E+00
  7.33333333E+01  8.00000000E+00  0.00000000E+00
  7.33333333E+01  7.33333333E+00  0.00000000E+00
  7.33333333E+01  6.66666667E+00  0.00000000E+00
  7.33333333E+01  6.00000000E+00  0.00000000E+00
  7.33333333E+01  5.33333333E+00  0.00000000E+00
  7.33333333E+01  4.66666667E+00  0.00000000E+00
  7.33333333E+01  4.00000000E+00  0.00000000E+00
  7.33333333E+01  3.33333333E+00  0.00000000E+00
  7.33333333E+01  2.66666667E+00  0.00000000E+00
  7.33333333E+01  2.00000000E+00  0.00000000E+00
  7.33333333E+01  1.33333333E+00  0.00000000E+00
  7.33333333E+01  6.66666667E-01  0.00000000E+00
  7.33333333E+01  1.66533454E-15  0.00000000E+00
  7.44444444E+01  1.00000000E+01  0.00000000E+00
  7.44444444E+01  9.33333333E+00  0.00000000E+00
  7.44444444E+01  8.66666667E+00  0.00000000E+00
  7.44444444E+01  8.00000000E+00  0.00000000E+00
  7.44444444E+01  7.33333333E+00  0.00000000E+00
  7.44444444E+01  6.66666667E+00  0.00000000E+00
  7.44444444E+01  6.00000000E+00  0.00000000E+00
  7.44444444E+01  5.33333333E+00  0.00000000E+00
  7.44444444E+01  4.66666667E+00  0.00000000E+00
  7.44444444E+01  4.00000000E+00  0.00000000E+00
  7.44444444E+01  3.33333333E+00  0.00000000E+00
  7.44444444E+01  2.66666667E+00  0.00000000E+00
  7.44444444E+01  2.00000000E+00  0.00000000E+00
  7.44444444E+01  1.33333333E+00  0.00000000E+00
  7.44444444E+01  6.66666667E-01  0.00000000E+00
  7.44444444E+01  1.66533454E-15  0.00000000E+00
  7.55555556E+01  1.00000000E+01  0.00000000E+00
  7.55555556E+01  9.33333333E+00  0.00000000E+00
  7.55555556E+01  8.66666667E+00  0.00000000E+00
  7.55555556E+01  8.00000000E+00  0.00000000E+00
  7.55555556E+01  7.33333333E+00  0.00000000E+00
  7.55555556E+01  6.66666667E+00  0.00000000E+00
  7.55555556E+01  6.00000000E+00  0.00000000E+00
  7.55555556E+01  5.33333333E+00  0.00000000E+00
  7.55555556E+01  4.66666667E+00  0.00000000E+00
  7.55555556E+01  4.00000000E+00  0.00000000E+00
  7.55555556E+01  3.33333333E+00  0.00000000E+00
  7.55555556E+01  2.66666667E+00  0.00000000E+00
  7.55555556E+01  2.00000000E+00  0.00000000E+00
  7.55555556E+01  1.33333333E+00  0.00000000E+00
  7.55555556E+01  6.66666667E-01  0.00000000E+00
  7.55555556E+01  1.66533454E-15  0.00000000E+00
  7.66666667E+01  1.00000000E+01  0.00000000E+00
  7.66666667E+01  9.33333333E+00  0.00000000E+00
  7.66666667E+01  8.66666667E+00  0.00000000E+00
  7.66666667E+01  8.00000000E+00  0.00000000E+00
  7.66666667E+01  7.33333333E+00  0.00000000E+00
  7.66666667E+01  6.66666667E+00  0.00000000E+00
  7.66666667E+01  6.00000000E+00  0.00000000E+00
  7.66666667E+01  5.33333333E+00  0.00000000E+00
  7.66666667E+01  4.66666667E+00  0.00000000E+00
  7.66666667E+01  4.00000000E+00  0.00000000E+00
  7.66666667E+01  3.33333333E+00  0.00000000E+00
  7.66666667E+01  2.66666667E+00  0.00000000E+00
  7.66666667E+01  2.00000000E+00  0.00000000E+00
  7.66666667E+01  1.33333333E+00  0.00000000E+00
  7.66666667E+01  6.66666667E-01  0.00000000E+00
  7.66666667E+01  1.66533454E-15  0.00000000E+00
  7.77777778E+01  1.00000000E+01  0.00000000E+00
  7.77777778E+01  9.33333333E+00  0.00000000E+00
  7.77777778E+01  8.66666667E+00  0.00000000E+00
  7.77777778E+01  8.00000000E+00  0.00000000E+00
  7.77777778E+01  7.33333333E+00  0.00000000E+00
  7.77777778E+01  6.66666667E+00  0.00000000E+00
  7.77777778E+01  6.00000000E+00  0.00000000E+00
  7.77777778E+01  5.33333333E+00  0.00000000E+00
  7.77777778E+01  4.66666667E+00  0.00000000E+00
  7.77777778E+01  4.00000000E+00  0.00000000E+00
  7.77777778E+01  3.33333333E+00  0.00000000E+00
  7.77777778E+01  2.66666667E+00  0.00000000E+00
  7.77777778E+01  2.00000000E+00  0.00000000E+00
  7.77777778E+01  1.33333333E+00  0.00000000E+00
  7.77777778E+01  6.66666667E-01  0.00000000E+00
  7.77777778E+01  1.66533454E-15  0.00000000E+00
  7.88888889E+01  1.00000000E+01  0.00000000E+00
  7.88888889E+01  9.33333333E+00  0.00000000E+00
  7.88888889E+01  8.66666667E+00  0.00000000E+00
  7.88888889E+01  8.00000000E+00  0.00000000E+00
  7.88888889E+01  7.33333333E+00  0.00000000E+00
  7.88888889E+01  6.66666667E+00  0.00000000E+00
  7.88888889E+01  6.00000000E+00  0.00000000E+00
  7.88888889E+01  5.33333333E+00  0.00000000E+00
  7.88888889E+01  4.66666667E+00  0.00000000E+00
  7.88888889E+01  4.00000000E+00  0.00000000E+00
  7.88888889E+01  3.33333333E+00  0.00000000E+00
  7.88888889E+01  2.66666667E+00  0.00000000E+00
  7.88888889E+01  2.00000000E+00  0.00000000E+00
  7.88888889E+01  1.33333333E+00  0.00000000E+00
  7.88888889E+01  6.66666667E-01  0.00000000E+00
  7.88888889E+01  1.66533454E-15  0.00000000E+00
  8.00000000E+01  1.00000000E+01  0.00000000E+00
  8.00000000E+01  9.33333333E+00  0.00000000E+00
  8.00000000E+01  8.66666667E+00  0.00000000E+00
  8.00000000E+01  8.00000000E+00  0.00000000E+00
  8.00000000E+01  7.33333333E+00  0.00000000E+00
  8.00000000E+01  6.66666667E+00  0.00000000E+00
  8.00000000E+01  6.00000000E+00  0.00000000E+00
  8.00000000E+01  5.33333333E+00  0.00000000E+00
  8.00000000E+01  4.66666667E+00  0.00000000E+00
  8.00000000E+01  4.00000000E+00  0.00000000E+00
  8.00000000E+01  3.33333333E+00  0.00000000E+00
  8.00000000E+01  2.66666667E+00  0.00000000E+00
  8.00000000E+01  2.00000000E+00  0.00000000E+00
  8.00000000E+01  1.33333333E+00  0.00000000E+00
  8.00000000E+01  6.66666667E-01  0.00000000E+00
  8.00000000E+01  1.66533454E-15  0.00000000E+00
  8.11111111E+01  1.00000000E+01  0.00000000E+00
  8.11111111E+01  9.33333333E+00  0.00000000E+00
  8.11111111E+01  8.66666667E+00  0.00000000E+00
  8.11111111E+01  8.00000000E+00  0.00000000E+00
  8.11111111E+01  7.33333333E+00  0.00000000E+00
  8.11111111E+01  6.66666667E+00  0.00000000E+00
  8.11111111E+01  6.00000000E+00  0.00000000E+00
  8.11111111E+01  5.33333333E+00  0.00000000E+00
  8.11111111E+01  4.66666667E+00  0.00000000E+00
  8.11111111E+01  4.00000000E+00  0.00000000E+00
  8.11111111E+01  3.33333333E+00  0.00000000E+00
  8.11111111E+01  2.66666667E+00  0.00000000E+00
  8.11111111E+01  2.00000000E+00  0.00000000E+00
  8.11111111E+01  1.33333333E+00  0.00000000E+00
  8.11111111E+01  6.66666667E-01  0.00000000E+00
  8.11111111E+01  1.66533454E-15  0.00000000E+00
  8.22222222E+01  1.00000000E+01  0.00000000E+00
  8.22222222E+01  9.33333333E+00  0.00000000E+00
  8.22222222E+01  8.66666667E+00  0.00000000E+00
  8.22222222E+01  8.00000000E+00  0.00000000E+00
  8.22222222E+01  7.33333333E+00  0.00000000E+00
  8.22222222E+01  6.66666667E+00  0.00000000E+00
  8.22222222E+01  6.00000000E+00  0.00000000E+00
  8.22222222E+01  5.33333333E+00  0.00000000E+00
  8.22222222E+01  4.66666667E+00  0.00000000E+00
  8.22222222E+01  4.00000000E+00  0.00000000E+00
  8.22222222E+01  3.33333333E+00  0.00000000E+00
  8.22222222E+01  2.66666667E+00  0.00000000E+00
  8.22222222E+01  2.00000000E+00  0.00000000E+00
  8.22222222E+01  1.33333333E+00  0.00000000E+00
  8.22222222E+01  6.66666667E-01  0.00000000E+00
  8.22222222E+01  1.66533454E-15  0.00000000E+00
  8.33333333E+01  1.00000000E+01  0.00000000E+00
  8.33333333E+01  9.33333333E+00  0.00000000E+00
  8.33333333E+01  8.66666667E+00  0.00000000E+00
  8.33333333E+01  8.00000000E+00  0.00000000E+00
  8.33333333E+01  7.33333333E+00  0.00000000E+00
  8.33333333E+01  6.66666667E+00  0.00000000E+00
  8.33333333E+01  6.00000000E+00  0.00000000E+00
  8.33333333E+01  5.33333333E+00  0.00000000E+00
  8.33333333E+01  4.66666667E+00  0.00000000E+00
  8.33333333E+01  4.00000000E+00  0.00000000E+00
  8.33333333E+01  3.33333333E+00  0.00000000E+00
  8.33333333E+01  2.66666667E+00  0.00000000E+00
  8.33333333E+01  2.00000000E+00  0.00000000E+00
  8.33333333E+01  1.33333333E+00  0.00000000E+00
  8.33333333E+01  6.66666667E-01  0.00000000E+00
  8.33333333E+01  1.66533454E-15  0.00000000E+00
  8.44444444E+01  1.00000000E+01  0.00000000E+00
  8.44444444E+01  9.33333333E+00  0.00000000E+00
  8.44444444E+01  8.66666667E+00  0.00000000E+00
  8.44444444E+01  8.00000000E+00  0.00000000E+00
  8.44444444E+01  7.33333333E+00  0.00000000E+00
  8.44444444E+01  6.66666667E+00  0.00000000E+00
  8.44444444E+01  6.00000000E+00  0.00000000E+00
  8.44444444E+01  5.33333333E+00  0.00000000E+00
  8.44444444E+01  4.66666667E+00  0.00000000E+00
  8.44444444E+01  4.00000000E+00  0.00000000E+00
  8.44444444E+01  3.33333333E+00  0.00000000E+00
  8.44444444E+01  2.66666667E+00  0.00000000E+00
  8.44444444E+01  2.00000000E+00  0.00000000E+00
  8.44444444E+01  1.33333333E+00  0.00000000E+00
  8.44444444E+01  6.66666667E-01  0.00000000E+00
  8.44444444E+01  1.66533454E-15  0.00000000E+00
  8.55555556E+01  1.00000000E+01  0.00000000E+00
  8.55555556E+01  9.33333333E+00  0.00000000E+00
  8.55555556E+01  8.66666667E+00  0.00000000E+00
  8.55555556E+01  8.00000000E+00  0.00000000E+00
  8.55555556E+01  7.33333333E+00  0.00000000E+00
  8.55555556E+01  6.66666667E+00  0.00000000E+00
  8.55555556E+01  6.00000000E+00  0.00000000E+00
  8.55555556E+01  5.33333333E+00  0.00000000E+00
  8.55555556E+01  4.66666667E+00  0.00000000E+00
  8.55555556E+01  4.00000000E+00  0.00000000E+00
  8.55555556E+01  3.33333333E+00  0.00000000E+00
  8.55555556E+01  2.66666667E+00  0.00000000E+00
  8.55555556E+01  2.00000000E+00  0.00000000E+00
  8.55555556E+01  1.33333333E+00  0.00000000E+00
  8.55555556E+01  6.66666667E-01  0.00000000E+00
  8.55555556E+01  1.66533454E-15  0.00000000E+00
  8.66666667E+01  1.00000000E+01  0.00000000E+00
  8.66666667E+01  9.33333333E+00  0.00000000E+00
  8.66666667E+01  8.66666667E+00  0.00000000E+00
  8.66666667E+01  8.00000000E+00  0.00000000E+00
  8.66666667E+01  7.33333333E+00  0.00000000E+00
  8.66666667E+01  6.66666667E+00  0.00000000E+00
  8.66666667E+01  6.00000000E+00  0.00000000E+00
  8.66666667E+01  5.33333333E+00  0.00000000E+00
  8.66666667E+01  4.66666667E+00  0.00000000E+00
  8.66666667E+01  4.00000000E+00  0.00000000E+00
  8.66666667E+01  3.33333333E+00  0.00000000E+00
  8.66666667E+01  2.66666667E+00  0.00000000E+00
  8.66666667E+01  2.00000000E+00  0.00000000E+00
  8.66666667E+01  1.33333333E+00  0.00000000E+00
  8.66666667E+01  6.66666667E-01  0.00000000E+00
  8.66666667E+01  1.66533454E-15  0.00000000E+00
  8.77777778E+01  1.00000000E+01  0.00000000E+00
  8.77777778E+01  9.33333333E+00  0.00000000E+00
  8.77777778E+01  8.66666667E+00  0.00000000E+00
  8.77777778E+01  8.00000000E+00  0.00000000E+00
  8.77777778E+01  7.33333333E+00  0.00000000E+00
  8.77777778E+01  6.66666667E+00  0.00000000E+00
  8.77777778E+01  6.00000000E+00  0.00000000E+00
  8.77777778E+01  5.33333333E+00  0.00000000E+00
  8.77777778E+01  4.66666667E+00  0.00000000E+00
  8.77777778E+01  4.00000000E+00  0.00000000E+00
  8.77777778E+01  3.33333333E+00  0.00000000E+00
  8.77777778E+01  2.66666667E+00  0.00000000E+00
  8.77777778E+01  2.00000000E+00  0.00000000E+00
  8.77777778E+01  1.33333333E+00  0.00000000E+00
  8.77777778E+01  6.66666667E-01  0.00000000E+00
  8.77777778E+01  1.66533454E-15  0.00000000E+00
  8.88888889E+01  1.00000000E+01  0.00000000E+00
  8.88888889E+01  9.33333333E+00  0.00000000E+00
  8.88888889E+01  8.66666667E+00  0.00000000E+00
  8.88888889E+01  8.00000000E+00  0.00000000E+00
  8.88888889E+01  7.33333333E+00  0.00000000E+00
  8.88888889E+01  6.66666667E+00  0.00000000E+00
  8.88888889E+01  6.00000000E+00  0.00000000E+00
  8.88888889E+01  5.33333333E+00  0.00000000E+00
  8.88888889E+01  4.66666667E+00  0.00000000E+00
  8.88888889E+01  4.00000000E+00  0.00000000E+00
  8.88888889E+01  3.33333333E+00  0.00000000E+00
  8.88888889E+01  2.66666667E+00  0.00000000E+00
  8.88888889E+01  2.00000000E+00  0.00000000E+00
  8.88888889E+01  1.33333333E+00  0.00000000E+00
  8.88888889E+01  6.66666667E-01  0.00000000E+00
  8.88888889E+01  1.66533454E-15  0.00000000E+00
  9.00000000E+01  1.00000000E+01  0.00000000E+00
  9.00000000E+01  9.33333333E+00  0.00000000E+00
  9.00000000E+01  8.66666667E+00  0.00000000E+00
  9.00000000E+01  8.00000000E+00  0.00000000E+00
  9.00000000E+01  7.33333333E+00  0.00000000E+00
  9.00000000E+01  6.66666667E+00  0.00000000E+00
  9.00000000E+01  6.00000000E+00  0.00000000E+00
  9.00000000E+01  5.33333333E+00  0.00000000E+00
  9.00000000E+01  4.66666667E+00  0.00000000E+00
  9.00000000E+01  4.00000000E+00  0.00000000E+00
  9.00000000E+01  3.33333333E+00  0.00000000E+00
  9.00000000E+01  2.66666667E+00  0.00000000E+00
  9.00000000E+01  2.00000000E+00  0.00000000E+00
  9.00000000E+01  1.33333333E+00  0.00000000E+00
  9.00000000E+01  6.66666667E-01  0.00000000E+00
  9.00000000E+01  1.66533454E-15  0.00000000E+00
  9.11111111E+01  1.00000000E+01  0.00000000E+00
  9.11111111E+01  9.33333333E+00  0.00000000E+00
  9.11111111E+01  8.66666667E+00  0.00000000E+00
  9.11111111E+01  8.00000000E+00  0.00000000E+00
  9.11111111E+01  7.33333333E+00  0.00000000E+00
  9.11111111E+01  6.66666667E+00  0.00000000E+00
  9.11111111E+01  6.00000000E+00  0.00000000E+00
  9.11111111E+01  5.33333333E+00  0.00000000E+00
  9.11111111E+01  4.66666667E+00  0.00000000E+00
  9.11111111E+01  4.00000000E+00  0.00000000E+00
  9.11111111E+01  3.33333333E+00  0.00000000E+00
  9.11111111E+01  2.66666667E+00  0.00000000E+00
  9.11111111E+01  2.00000000E+00  0.00000000E+00
  9.11111111E+01  1.33333333E+00  0.00000000E+00
  9.11111111E+01  6.66666667E-01  0.00000000E+00
  9.11111111E+01  1.66533454E-15  0.00000000E+00
  9.22222222E+01  1.00000000E+01  0.00000000E+00
  9.22222222E+01  9.33333333E+00  0.00000000E+00
  9.22222222E+01  8.66666667E+00  0.00000000E+00
  9.22222222E+01  8.00000000E+00  0.00000000E+00
  9.22222222E+01  7.33333333E+00  0.00000000E+00
  9.22222222E+01  6.66666667E+00  0.00000000E+00
  9.22222222E+01  6.00000000E+00  0.00000000E+00
  9.22222222E+01  5.33333333E+00  0.00000000E+00
  9.22222222E+01  4.66666667E+00  0.00000000E+00
  9.22222222E+01  4.00000000E+00  0.00000000E+00
  9.22222222E+01  3.33333333E+00  0.00000000E+00
  9.22222222E+01  2.66666667E+00  0.00000000E+00
  9.22222222E+01  2.00000000E+00  0.00000000E+00
  9.22222222E+01  1.33333333E+00  0.00000000E+00
  9.22222222E+01  6.66666667E-01  0.00000000E+00
  9.22222222E+01  1.66533454E-15  0.00000000E+00
  9.33333333E+01  1.00000000E+01  0.00000000E+00
  9.33333333E+01  9.33333333E+00  0.00000000E+00
  9.33333333E+01  8.66666667E+00  0.00000000E+00
  9.33333333E+01  8.00000000E+00  0.00000000E+00
  9.33333333E+01  7.33333333E+00  0.00000000E+00
  9.33333333E+01  6.66666667E+00  0.00000000E+00
  9.33333333E+01  6.00000000E+00  0.00000000E+00
  9.33333333E+01  5.33333333E+00  0.00000000E+00
  9.33333333E+01  4.66666667E+00  0.00000000E+00
  9.33333333E+01  4.00000000E+00  0.00000000E+00
  9.33333333E+01  3.33333333E+00  0.00000000E+00
  9.33333333E+01  2.66666667E+00  0.00000000E+00
  9.33333333E+01  2.00000000E+00  0.00000000E+00
  9.33333333E+01  1.33333333E+00  0.00000000E+00
  9.33333333E+01  6.66666667E-01  0.00000000E+00
  9.33333333E+01  1.66533454E-15  0.00000000E+00
  9.44444444E+01  1.00000000E+01  0.00000000E+00
  9.44444444E+01  9.33333333E+00  0.00000000E+00
  9.44444444E+01  8.66666667E+00  0.00000000E+00
  9.44444444E+01  8.00000000E+00  0.00000000E+00
  9.44444444E+01  7.33333333E+00  0.00000000E+00
  9.44444444E+01  6.66666667E+00  0.00000000E+00
  9.44444444E+01  6.00000000E+00  0.00000000E+00
  9.44444444E+01  5.33333333E+00  0.00000000E+00
  9.44444444E+01  4.66666667E+00  0.00000000E+00
  9.44444444E+01  4.00000000E+00  0.00000000E+00
  9.44444444E+01  3.33333333E+00  0.00000000E+00
  9.44444444E+01  2.66666667E+00  0.00000000E+00
  9.44444444E+01  2.00000000E+00  0.00000000E+00
  9.44444444E+01  1.33333333E+00  0.00000000E+00
  9.44444444E+01  6.66666667E-01  0.00000000E+00
  9.44444444E+01  1.66533454E-15  0.00000000E+00
  9.55555556E+01  1.00000000E+01  0.00000000E+00
  9.55555556E+01  9.33333333E+00  0.00000000E+00
  9.55555556E+01  8.66666667E+00  0.00000000E+00
  9.55555556E+01  8.00000000E+00  0.00000000E+00
  9.55555556E+01  7.33333333E+00  0.00000000E+00
  9.55555556E+01  6.66666667E+00  0.00000000E+00
  9.55555556E+01  6.00000000E+00  0.00000000E+00
  9.55555556E+01  5.33333333E+00  0.00000000E+00
  9.55555556E+01  4.66666667E+00  0.00000000E+00
  9.55555556E+01  4.00000000E+00  0.00000000E+00
  9.55555556E+01  3.33333333E+00  0.00000000E+00
  9.55555556E+01  2.66666667E+00  0.00000000E+00
  9.55555556E+01  2.00000000E+00  0.00000000E+00
  9.55555556E+01  1.33333333E+00  0.00000000E+00
  9.55555556E+01  6.66666667E-01  0.00000000E+00
  9.55555556E+01  1.66533454E-15  0.00000000E+00
  9.66666667E+01  1.00000000E+01  0.00000000E+00
  9.66666667E+01  9.33333333E+00  0.00000000E+00
  9.66666667E+01  8.66666667E+00  0.00000000E+00
  9.66666667E+01  8.00000000E+00  0.00000000E+00
  9.66666667E+01  7.33333333E+00  0.00000000E+00
  9.66666667E+01  6.66666667E+00  0.00000000E+00
  9.66666667E+01  6.00000000E+00  0.00000000E+00
  9.66666667E+01  5.33333333E+00  0.00000000E+00
  9.66666667E+01  4.66666667E+00  0.00000000E+00
  9.66666667E+01  4.00000000E+00  0.00000000E+00
  9.66666667E+01  3.33333333E+00  0.00000000E+00
  9.66666667E+01  2.66666667E+00  0.00000000E+00
  9.66666667E+01  2.00000000E+00  0.00000000E+00
  9.66666667E+01  1.33333333E+00  0.00000000E+00
  9.66666667E+01  6.66666667E-01  0.00000000E+00
  9.66666667E+01  1.66533454E-15  0.00000000E+00
  9.77777778E+01  1.00000000E+01  0.00000000E+00
  9.77777778E+01  9.33333333E+00  0.00000000E+00
  9.77777778E+01  8.66666667E+00  0.00000000E+00
  9.77777778E+01  8.00000000E+00  0.00000000E+00
  9.77777778E+01  7.33333333E+00  0.00000000E+00
  9.77777778E+01  6.66666667E+00  0.00000000E+00
  9.77777778E+01  6.00000000E+00  0.00000000E+00
  9.77777778E+01  5.33333333E+00  0.00000000E+00
  9.77777778E+01  4.66666667E+00  0.00000000E+00
  9.77777778E+01  4.00000000E+00  0.00000000E+00
  9.77777778E+01  3.33333333E+00  0.00000000E+00
  9.77777778E+01  2.66666667E+00  0.00000000E+00
  9.77777778E+01  2.00000000E+00  0.00000000E+00
  9.77777778E+01  1.33333333E+00  0.00000000E+00
  9.77777778E+01  6.66666667E-01  0.00000000E+00
  9.77777778E+01  1.66533454E-15  0.00000000E+00
  9.88888889E+01  1.00000000E+01  0.00000000E+00
  9.88888889E+01  9.33333333E+00  0.00000000E+00
  9.88888889E+01  8.66666667E+00  0.00000000E+00
  9.88888889E+01  8.00000000E+00  0.00000000E+00
  9.88888889E+01  7.33333333E+00  0.00000000E+00
  9.88888889E+01  6.66666667E+00  0.00000000E+00
  9.88888889E+01  6.00000000E+00  0.00000000E+00
  9.88888889E+01  5.33333333E+00  0.00000000E+00
  9.88888889E+01  4.66666667E+00  0.00000000E+00
  9.88888889E+01  4.00000000E+00  0.00000000E+00
  9.88888889E+01  3.33333333E+00  0.00000000E+00
  9.88888889E+01  2.66666667E+00  0.00000000E+00
  9.88888889E+01  2.00000000E+00  0.00000000E+00
  9.88888889E+01  1.33333333E+00  0.00000000E+00
  9.88888889E+01  6.66666667E-01  0.00000000E+00
  9.88888889E+01  1.66533454E-15  0.00000000E+00
  1.00000000E+02  1.00000000E+01  0.00000000E+00
  1.00000000E+02  9.33333333E+00  0.00000000E+00
  1.00000000E+02  8.66666667E+00  0.00000000E+00
  1.00000000E+02  8.00000000E+00  0.00000000E+00
  1.00000000E+02  7.33333333E+00  0.00000000E+00
  1.00000000E+02  6.66666667E+00  0.00000000E+00
  1.00000000E+02  6.00000000E+00  0.00000000E+00
  1.00000000E+02  5.33333333E+00  0.00000000E+00
  1.00000000E+02  4.66666667E+00  0.00000000E+00
  1.00000000E+02  4.00000000E+00  0.00000000E+00
  1.00000000E+02  3.33333333E+00  0.00000000E+00
  1.00000000E+02  2.66666667E+00  0.00000000E+00
  1.00000000E+02  2.00000000E+00  0.00000000E+00
  1.00000000E+02  1.33333333E+00  0.00000000E+00
  1.00000000E+02  6.66666667E-01  0.00000000E+00
  1.00000000E+02  1.66533454E-15  0.00000000E+00
CELLS      1350      6750
         4           0           1          17          16
         4           1           2          18          17
         4           2           3          19          18
         4           3           4          20          19
         4           4           5          21          20
         4           5           6          22          21
         4           6           7          23          22
         4           7           8          24          23
         4           8           9          25          24
         4           9          10          26          25
         4          10          11          27          26
         4          11          12          28          27
         4          12          13          29          28
         4          13          14          30          29
         4          14          15          31          30
         4          16          17          33          32
         4          17          18          34          33
         4          18          19          35          34
         4          19          20          36          35
         4          20          21          37          36
         4          21          22          38          37
         4          22          23          39          38
         4          23          24          40          39
         4          24          25          41          40
         4          25          26          42          41
         4          26          27          43          42
         4          27          28          44          43
         4          28          29          45          44
         4          29          30          46          45
         4          30          31          47          46
         4          32          33          49          48
         4          33          34          50          49
         4          34          35          51          50
         4          35          36          52          51
         4          36          37          53          52
         4          37          38          54          53
         4          38          39          55          54
         4          39          40          56          55
         4          40          41          57          56
         4          41          42          58          57
         4          42          43          59          58
         4          43          44          60          59
         4          44          45          61          60
         4          45          46          62          61
         4          46          47          63          62
         4          48          49          65          64
         4          49          50          66          65
         4          50          51          67          66
         4          51          52          68          67
         4          52          53          69          68
         4          53          54          70          69
         4          54          55          71          70
         4          55          56          72          71
         4          56          57          73          72
         4          57          58          74          73
         4          58          59          75          74
         4          59          60          76          75
         4          60          61          77          76
         4          61          62          78          77
         4          62          63          79          78
         4          64          65          81          80
         4          65          66          82          81
         4          66          67          83          82
         4          67          68          84          83
         4          68          69          85          84
         4          69          70          86          85
         4          70          71          87          86
         4          71          72          88          87
         4          72          73          89          88
         4          73          74          90          89
         4          74          75          91          90
         4          75          76          92          91
         4          76          77          93          92
         4          77          78          94          93
         4          78          79          95          94
         4          80          81          97          96
         4          81          82          98          97
         4          82          83          99          98
         4          83          84         100          99
         4          84          85         101         100
         4          85          86         102         101
         4          86          87         103         102
         4          87          88         104         103
         4          88          89         105         104
         4          89          90         106         105
         4          90          91         107         106
         4          91          92         108         107
         4          92          93         109         108
         4          93          94         110         109
         4          94          95         111         110
         4          96          97         113         112
         4          97          98         114         113
         4          98          99         115         114
         4          99         100         116         115
         4         100         101         117         116
         4         101         102         118         117
         4         102         103         119         118
         4         103         104         120         119
         4         104         105         121         120
         4         105         106         122         121
         4         106         107         123         122
         4         107         108         124         123
         4         108         109         125         124
         4         109         110         126         125
         4         110         111         127         126
         4         112         113         129         128
         4         113         114         130         129
         4         114         115         131         130
         4         115         116         132         131
         4         116         117         133         132
         4         117         118         134         133
         4         118         119         135         134
         4         119         120         136         135
         4         120         121         137         136
         4         121         122         138         137
         4         122         123         139         138
         4         123         124         140         139
         4         124         125         141         140
         4         125         126         142         141
         4         126         127         143         142
         4         128         129         145         144
         4         129         130         146         145
         4         130         131         147         146
         4         131         132         148         147
         4         132         133         149         148
         4         133         134         150         149
         4         134         135         151         150
         4         135         136         152         151
         4         136         137         153         152
         4         137         138         154         153
         4         138         139         155         154
         4         139         140         156         155
         4         140         141         157         156
         4         141         142         158         157
         4         142         143         159         158
         4         144         145         161         160
         4         145         146         162         161
         4         146         147         163         162
         4         147         148         164         163
         4         148         149         165         164
         4         149         150         166         165
         4         150         151         167         166
         4         151         152         168         167
         4         152         153         169         168
         4         153         154         170         169
         4         154         155         171         170
         4         155         156         172         171
         4         156         157         173         172
         4         157         158         174         173
         4         158         159         175         174
         4         160         161         177         176
         4         161         162         178         177
         4         162         163         179         178
         4         163         164         180         179
         4         164         165         181         180
         4         165         166         182         181
         4         166         167         183         182
         4         167         168         184         183
         4         168         169         185         184
         4         169         170         186         185
         4         170         171         187         186
         4         171         172         188         187
         4         172         173         189         188
         4         173         174         190         189
         4         174         175         191         190
         4         176         177         193         192
         4         177         178         194         193
         4         178         179         195         194
         4         179         180         196         195
         4         180         181         197         196
         4         181         182         198         197
         4         182         183         199         198
         4         183         184         200         199
         4         184         185         201         200
         4         185         186         202         201
         4         186         187         203         202
         4         187         188         204         203
         4         188         189         205         204
         4         189         190         206         205
         4         190         191         207         206
         4         192         193         209         208
         4         193         194         210         209
         4         194         195         211         210
         4         195         196         212         211
         4         196         197         213         212
         4         197         198         214         213
         4         198         199         215         214
         4         199         200         216         215
         4         200         201         217         216
         4         201         202         218         217
         4         202         203         219         218
         4         203         204         220         219
         4         204         205         221         220
         4         205         206         222         221
         4         206         207         223         222
         4         208         209         225         224
         4         209         210         226         225
         4         210         211         227         226
         4         211         212         228         227
         4         212         213         229         228
         4         213         214         230         229
         4         214         215         231         230
         4         215         216         232         231
         4         216         217         233         232
         4         217         218         234         233
         4         218         219         235         234
         4         219         220         236         235
         4         220         221         237         236
         4         221         222         238         237
         4         222         223         239         238
         4         224         225         241         240
         4         225         226         242         241
         4         226         227         243         242
         4         227         228         244         243
         4         228         229         245         244
         4         229         230         246         245
         4         230         231         247         246
         4         231         232         248         247
         4         232         233         249         248
         4         233         234         250         249
         4         234         235         251         250
         4         235         236         252         251
         4         236         237         253         252
         4         237         238         254         253
         4         238         239         255         254
         4         240         241         257         256
         4         241         242         258         257
         4         242         243         259         258
         4         243         244         260         259
         4         244         245         261         260
         4         245         246         262         261
         4         246         247         263         262
         4         247         248         264         263
         4         248         249         265         264
         4         249         250         266         265
         4         250         251         267         266
         4         251         252         268         267
         4         252         253         269         268
         4         253         254         270         269
         4         254         255         271         270
         4         256         257         273         272
         4         257         258         274         273
         4         258         259         275         274
         4         259         260         276         275
         4         260         261         277         276
         4         261         262         278         277
         4         262         263         279         278
         4         263         264         280         279
         4         264         265         281         280
         4         265         266         282         281
         4         266         267         283         282
         4         267         268         284         283
         4         268         269         285         284
         4         269         270         286         285
         4         270         271         287         286
         4         272         273         289         288
         4         273         274         290         289
         4         274         275         291         290
         4         275         276         292         291
         4         276         277         293         292
         4         277         278         294         293
         4         278         279         295         294
         4         279         280         296         295
         4         280         281         297         296
         4         281         282         298         297
         4         282         283         299         298
         4         283         284         300         299
         4         284         285         301         300
         4         285         286         302         301
         4         286         287         303         302
         4         288         289         305         304
         4         289         290         306         305
         4         290         291         307         306
         4         291         292         308         307
         4         292         293         309         308
         4         293         294         310         309
         4         294         295         311         310
         4         295         296         312         311
         4         296         297         313         312
         4         297         298         314         313
         4         298         299         315         314
         4         299         300         316         315
         4         300         301         317         316
         4         301         302         318         317
         4         302         303         319         318
         4         304         305         321         320
         4         305         306         322         321
         4         306         307         323         322
         4         307         308         324         323
         4         308         309         325         324
         4         309         310         326         325
         4         310         311         327         326
         4         311         312         328         327
         4         312         313         329         328
         4         313         314         330         329
         4         314         315         331         330
         4         315         316         332         331
         4         316         317         333         332
         4         317         318         334         333
         4         318         319         335         334
         4         320         321         337         336
         4         321         322         338         337
         4         322         323         339         338
         4         323         324         340         339
         4         324         325         341         340
         4         325         326         342         341
         4         326         327         343         342
         4         327         328         344         343
         4         328         329         345         344
         4         329         330         346         345
         4         330         331         347         346
         4         331         332         348         347
         4         332         333         349         348
         4         333         334         350         349
         4         334         335         351         350
         4         336         337         353         352
         4         337         338         354         353
         4         338         339         355         354
         4         339         340         356         355
         4         340         341         357         356
         4         341         342         358         357
         4         342         343         359         358
         4         343         344         360         359
         4         344         345         361         360
         4         345         346         362         361
         4         346         347         363         362
         4         347         348         364         363
         4         348         349         365         364
         4         349         350         366         365
         4         350         351         367         366
         4         352         353         369         368
         4         353         354         370         369
         4         354         355         371         370
         4         355         356         372         371
         4         356         357         373         372
         4         357         358         374         373
         4         358         359         375         374
         4         359         360         376         375
         4         360         361         377         376
         4         361         362         378         377
         4         362         363         379         378
         4         363         364         380         379
         4         364         365         381         380
         4         365         366         382         381
         4         366         367         383         382
         4         368         369         385         384
         4         369         370         386         385
         4         370         371         387         386
         4         371         372         388         387
         4         372         373         389         388
         4         373         374         390         389
         4         374         375         391         390
         4         375         376         392         391
         4         376         377         393         392
         4         377         378         394         393
         4         378         379         395         394
         4         379         380         396         395
         4         380         381         397         396
         4         381         382         398         397
         4         382         383         399         398
         4         384         385         401         400
         4         385         386         402         401
         4         386         387         403         402
         4         387         388         404         403
         4         388         389         405         404
         4         389         390         406         405
         4         390         391         407         406
         4         391         392         408         407
         4         392         393         409         408
         4         393         394         410         409
         4         394         395         411         410
         4         395         396         412         411
         4         396         397         413         412
         4         397         398         414         413
         4         398         399         415         414
         4         400         401         417         416
         4         401         402         418         417
         4         402         403         419         418
         4         403         404         420         419
         4         404         405         421         420
         4         405         406         422         421
         4         406         407         423         422
         4         407         408         424         423
         4         408         409         425         424
         4         409         410         426         425
         4         410         411         427         426
         4         411         412         428         427
         4         412         413         429         428
         4         413         414         430         429
         4         414         415         431         430
         4         416         417         433         432
         4         417         418         434         433
         4         418         419         435         434
         4         419         420         436         435
         4         420         421         437         436
         4         421         422         438         437
         4         422         423         439         438
         4         423         424         440         439
         4         424         425         441         440
         4         425         426         442         441
         4         426         427         443         442
         4         427         428         444         443
         4         428         429         445         444
         4         429         430         446         445
         4         430         431         447         446
         4         432         433         449         448
         4         433         434         450         449
         4         434         435         451         450
         4         435         436         452         451
         4         436         437         453         452
         4         437         438         454         453
         4         438         439         455         454
         4         439         440         456         455
         4         440         441         457         456
         4         441         442         458         457
         4         442         443         459         458
         4         443         444         460         459
         4         444         445         461         460
         4         445         446         462         461
         4         446         447         463         462
         4         448         449         465         464
         4         449         450         466         465
         4         450         451         467         466
         4         451         452         468         467
         4         452         453         469         468
         4         453         454         470         469
         4         454         455         471         470
         4         455         456         472         471
         4         456         457         473         472
         4         457         458         474         473
         4         458         459         475         474
         4         459         460         476         475
         4         460         461         477         476
         4         461         462         478         477
         4         462         463         479         478
         4         464         465         481         480
         4         465         466         482         481
         4         466         467         483         482
         4         467         468         484         483
         4         468         469         485         484
         4         469         470         486         485
         4         470         471         487         486
         4         471         472         488         487
         4         472         473         489         488
         4         473         474         490         489
         4         474         475         491         490
         4         475         476         492         491
         4         476         477         493         492
         4         477         478         494         493
         4         478         479         495         494
         4         480         481         497         496
         4         481         482         498         497
         4         482         483         499         498
         4         483         484         500         499
         4         484         485         501         500
         4         485         486         502         501
         4         486         487         503         502
         4         487         488         504         503
         4         488         489         505         504
         4         489         490         506         505
         4         490         491         507         506
         4         491         492         508         507
         4         492         493         509         508
         4         493         494         510         509
         4         494         495         511         510
         4         496         497         513         512
         4         497         498         514         513
         4         498         499         515         514
         4         499         500         516         515
         4         500         501         517         516
         4         501         502         518         517
         4         502         503         519         518
         4         503         504         520         519
         4         504         505         521         520
         4         505         506         522         521
         4         506         507         523         522
         4         507         508         524         523
         4         508         509         525         524
         4         509         510         526         525
         4         510         511         527         526
         4         512         513         529         528
         4         513         514         530         529
         4         514         515         531         530
         4         515         516         532         531
         4         516         517         533         532
         4         517         518         534         533
         4         518         519         535         534
         4         519         520         536         535
         4         520         521         537         536
         4         521         522         538         537
         4         522         523         539         538
         4         523         524         540         539
         4         524         525         541         540
         4         525         526         542         541
         4         526         527         543         542
         4         528         529         545         544
         4         529         530         546         545
         4         530         531         547         546
         4         531         532         548         547
         4         532         533         549         548
         4         533         534         550         549
         4         534         535         551         550
         4         535         536         552         551
         4         536         537         553         552
         4         537         538         554         553
         4         538         539         555         554
         4         539         540         556         555
         4         540         541         557         556
         4         541         542         558         557
         4         542         543         559         558
         4         544         545         561         560
         4         545         546         562         561
         4         546         547         563         562
         4         547         548         564         563
         4         548         549         565         564
         4         549         550         566         565
         4         550         551         567         566
         4         551         552         568         567
         4         552         553         569         568
         4         553         554         570         569
         4         554         555         571         570
         4         555         556         572         571
         4         556         557         573         572
         4         557         558         574         573
         4         558         559         575         574
         4         560         561         577         576
         4         561         562         578         577
         4         562         563         579         578
         4         563         564         580         579
         4         564         565         581         580
         4         565         566         582         581
         4         566         567         583         582
         4         567         568         584         583
         4         568         569         585         584
         4         569         570         586         585
         4         570         571         587         586
         4         571         572         588         587
         4         572         573         589         588
         4         573         574         590         589
         4         574         575         591         590
         4         576         577         593         592
         4         577         578         594         593
         4         578         579         595         594
         4         579         580         596         595
         4         580         581         597         596
         4         581         582         598         597
         4         582         583         599         598
         4         583         584         600         599
         4         584         585         601         600
         4         585         586         602         601
         4         586         587         603         602
         4         587         588         604         603
         4         588         589         605         604
         4         589         590         606         605
         4         590         591         607         606
         4         592         593         609         608
         4         593         594         610         609
         4         594         595         611         610
         4         595         596         612         611
         4         596         597         613         612
         4         597         598         614         613
         4         598         599         615         614
         4         599         600         616         615
         4         600         601         617         616
         4         601         602         618         617
         4         602         603         619         618
         4         603         604         620         619
         4         604         605         621         620
         4         605         606         622         621
         4         606         607         623         622
         4         608         609         625         624
         4         609         610         626         625
         4         610         611         627         626
         4         611         612         628         627
         4         612         613         629         628
         4         613         614         630         629
         4         614         615         631         630
         4         615         616         632         631
         4         616         617         633         632
         4         617         618         634         633
         4         618         619         635         634
         4         619         620         636         635
         4         620         621         637         636
         4         621         622         638         637
         4         622         623         639         638
         4         624         625         641         640
         4         625         626         642         641
         4         626         627         643         642
         4         627         628         644         643
         4         628         629         645         644
         4         629         630         646         645
         4         630         631         647         646
         4         631         632         648         647
         4         632         633         649         648
         4         633         634         650         649
         4         634         635         651         650
         4         635         636         652         651
         4         636         637         653         652
         4         637         638         654         653
         4         638         639         655         654
         4         640         641         657         656
         4         641         642         658         657
         4         642         643         659         658
         4         643         644         660         659
         4         644         645         661         660
         4         645         646         662         661
         4         646         647         663         662
         4         647         648         664         663
         4         648         649         665         664
         4         649         650         666         665
         4         650         651         667         666
         4         651         652         668         667
         4         652         653         669         668
         4         653         654         670         669
         4         654         655         671         670
         4         656         657         673         672
         4         657         658         674         673
         4         658         659         675         674
         4         659         660         676         675
         4         660         661         677         676
         4         661         662         678         677
         4         662         663         679         678
         4         663         664         680         679
         4         664         665         681         680
         4         665         666         682         681
         4         666         667         683         682
         4         667         668         684         683
         4         668         669         685         684
         4         669         670         686         685
         4         670         671         687         686
         4         672         673         689         688
         4         673         674         690         689
         4         674         675         691         690
         4         675         676         692         691
         4         676         677         693         692
         4         677         678         694         693
         4         678         679         695         694
         4         679         680         696         695
         4         680         681         697         696
         4         681         682         698         697
         4         682         683         699         698
         4         683         684         700         699
         4         684         685         701         700
         4         685         686         702         701
         4         686         687         703         702
         4         688         689         705         704
         4         689         690         706         705
         4         690         691         707         706
         4         691         692         708         707
         4         692         693         709         708
         4         693         694         710         709
         4         694         695         711         710
         4         695         696         712         711
         4         696         697         713         712
         4         697         698         714         713
         4         698         699         715         714
         4         699         700         716         715
         4         700         701         717         716
         4         701         702         718         717
         4         702         703         719         718
         4         704         705         721         720
         4         705         706         722         721
         4         706         707         723         722
         4         707         708         724         723
         4         708         709         725         724
         4         709         710         726         725
         4         710         711         727         726
         4         711         712         728         727
         4         712         713         729         728
         4         713         714         730         729
         4         714         715         731         730
         4         715         716         732         731
         4         716         717         733         732
         4         717         718         734         733
         4         718         719         735         734
         4         720         721         737         736
         4         721         722         738         737
         4         722         723         739         738
         4         723         724         740         739
         4         724         725         741         740
         4         725         726         742         741
         4         726         727         743         742
         4         727         728         744         743
         4         728         729         745         744
         4         729         730         746         745
         4         730         731         747         746
         4         731         732         748         747
         4         732         733         749         748
         4         733         734         750         749
         4         734         735         751         750
         4         736         737         753         752
         4         737         738         754         753
         4         738         739         755         754
         4         739         740         756         755
         4         740         741         757         756
         4         741         742         758         757
         4         742         743         759         758
         4         743         744         760         759
         4         744         745         761         760
         4         745         746         762         761
         4         746         747         763         762
         4         747         748         764         763
         4         748         749         765         764
         4         749         750         766         765
         4         750         751         767         766
         4         752         753         769         768
         4         753         754         770         769
         4         754         755         771         770
         4         755         756         772         771
         4         756         757         773         772
         4         757         758         774         773
         4         758         759         775         774
         4         759         760         776         775
         4         760         761         777         776
         4         761         762         778         777
         4         762         763         779         778
         4         763         764         780         779
         4         764         765         781         780
         4         765         766         782         781
         4         766         767         783         782
         4         768         769         785         784
         4         769         770         786         785
         4         770         771         787         786
         4         771         772         788         787
         4         772         773         789         788
         4         773         774         790         789
         4         774         775         791         790
         4         775         776         792         791
         4         776         777         793         792
         4         777         778         794         793
         4         778         779         795         794
         4         779         780         796         795
         4         780         781         797         796
         4         781         782         798         797
         4         782         783         799         798
         4         784         785         801         800
         4         785         786         802         801
         4         786         787         803         802
         4         787         788         804         803
         4         788         789         805         804
         4         789         790         806         805
         4         790         791         807         806
         4         791         792         808         807
         4         792         793         809         808
         4         793         794         810         809
         4         794         795         811         810
         4         795         796         812         811
         4         796         797         813         812
         4         797         798         814         813
         4         798         799         815         814
         4         800         801         817         816
         4         801         802         818         817
         4         802         803         819         818
         4         803         804         820         819
         4         804         805         821         820
         4         805         806         822         821
         4         806         807         823         822
         4         807         808         824         823
         4         808         809         825         824
         4         809         810         826         825
         4         810         811         827         826
         4         811         812         828         827
         4         812         813         829         828
         4         813         814         830         829
         4         814         815         831         830
         4         816         817         833         832
         4         817         818         834         833
         4         818         819         835         834
         4         819         820         836         835
         4         820         821         837         836
         4         821         822         838         837
         4         822         823         839         838
         4         823         824         840         839
         4         824         825         841         840
         4         825         826         842         841
         4         826         827         843         842
         4         827         828         844         843
         4         828         829         845         844
         4         829         830         846         845
         4         830         831         847         846
         4         832         833         849         848
         4         833         834         850         849
         4         834         835         851         850
         4         835         836         852         851
         4         836         837         853         852
         4         837         838         854         853
         4         838         839         855         854
         4         839         840         856         855
         4         840         841         857         856
         4         841         842         858         857
         4         842         843         859         858
         4         843         844         860         859
         4         844         845         861         860
         4         845         846         862         861
         4         846         847         863         862
         4         848         849         865         864
         4         849         850         866         865
         4         850         851         867         866
         4         851         852         868         867
         4         852         853         869         868
         4         853         854         870         869
         4         854         855         871         870
         4         855         856         872         871
         4         856         857         873         872
         4         857         858         874         873
         4         858         859         875         874
         4         859         860         876         875
         4         860         861         877         876
         4         861         862         878         877
         4         862         863         879         878
         4         864         865         881         880
         4         865         866         882         881
         4         866         867         883         882
         4         867         868         884         883
         4         868         869         885         884
         4         869         870         886         885
         4         870         871         887         886
         4         871         872         888         887
         4         872         873         889         888
         4         873         874         890         889
         4         874         875         891         890
         4         875         876         892         891
         4         876         877         893         892
         4         877         878         894         893
         4         878         879         895         894
         4         880         881         897         896
         4         881         882         898         897
         4         882         883         899         898
         4         883         884         900         899
         4         884         885         901         900
         4         885         886         902         901
         4         886         887         903         902
         4         887         888         904         903
         4         888         889         905         904
         4         889         890         906         905
         4         890         891         907         906
         4         891         892         908         907
         4         892         893         909         908
         4         893         894         910         909
         4         894         895         911         910
         4         896         897         913         912
         4         897         898         914         913
         4         898         899         915         914
         4         899         900         916         915
         4         900         901         917         916
         4         901         902         918         917
         4         902         903         919         918
         4         903         904         920         919
         4         904         905         921         920
         4         905         906         922         921
         4         906         907         923         922
         4         907         908         924         923
         4         908         909         925         924
         4         909         910         926         925
         4         910         911         927         926
         4         912         913         929         928
         4         913         914         930         929
         4         914         915         931         930
         4         915         916         932         931
         4         916         917         933         932
         4         917         918         934         933
         4         918         919         935         934
         4         919         920         936         935
         4         920         921         937         936
         4         921         922         938         937
         4         922         923         939         938
         4         923         924         940         939
         4         924         925         941         940
         4         925         926         942         941
         4         926         927         943         942
         4         928         929         945         944
         4         929         930         946         945
         4         930         931         947         946
         4         931         932         948         947
         4         932         933         949         948
         4         933         934         950         949
         4         934         935         951         950
         4         935         936         952         951
         4         936         937         953         952
         4         937         938         954         953
         4         938         939         955         954
         4         939         940         956         955
         4         940         941         957         956
         4         941         942         958         957
         4         942         943         959         958
         4         944         945         961         960
         4         945         946         962         961
         4         946         947         963         962
         4         947         948         964         963
         4         948         949         965         964
         4         949         950         966         965
         4         950         951         967         966
         4         951         952         968         967
         4         952         953         969         968
         4         953         954         970         969
         4         954         955         971         970
         4         955         956         972         971
         4         956         957         973         972
         4         957         958         974         973
         4         958         959         975         974
         4         960         961         977         976
         4         961         962         978         977
         4         962         963         979         978
         4         963         964         980         979
         4         964         965         981         980
         4         965         966         982         981
         4         966         967         983         982
         4         967         968         984         983
         4         968         969         985         984
         4         969         970         986         985
         4         970         971         987         986
         4         971         972         988         987
         4         972         973         989         988
         4         973         974         990         989
         4         974         975         991         990
         4         976         977         993         992
         4         977         978         994         993
         4         978         979         995         994
         4         979         980         996         995
         4         980         981         997         996
         4         981         982         998         997
         4         982         983         999         998
         4         983         984        1000         999
         4         984         985        1001        1000
         4         985         986        1002        1001
         4         986         987        1003        1002
         4         987         988        1004        1003
         4         988         989        1005        1004
         4         989         990        1006        1005
         4         990         991        1007        1006
         4         992         993        1009        1008
         4         993         994        1010        1009
         4         994         995        1011        1010
         4         995         996        1012        1011
         4         996         997        1013        1012
         4         997         998        1014        1013
         4         998         999        1015        1014
         4         999        1000        1016        1015
         4        1000        1001        1017        1016
         4        1001        1002        1018        1017
         4        1002        1003        1019        1018
         4        1003        1004        1020        1019
         4        1004        1005        1021        1020
         4        1005        1006        1022        1021
         4        1006        1007        1023        1022
         4        1008        1009        1025        1024
         4        1009        1010        1026        1025
         4        1010        1011        1027        1026
         4        1011        1012        1028        1027
         4        1012        1013        1029        1028
         4        1013        1014        1030        1029
         4        1014        1015        1031        1030
         4        1015        1016        1032        1031
         4        1016        1017        1033        1032
         4        1017        1018        1034        1033
         4        1018        1019        1035        1034
         4        1019        1020        1036        1035
         4        1020        1021        1037        1036
         4        1021        1022        1038        1037
         4        1022        1023        1039        1038
         4        1024        1025        1041        1040
         4        1025        1026        1042        1041
         4        1026        1027        1043        1042
         4        1027        1028        1044        1043
         4        1028        1029        1045        1044
         4        1029        1030        1046        1045
         4        1030        1031        1047        1046
         4        1031        1032        1048        1047
         4        1032        1033        1049        1048
         4        1033        1034        1050        1049
         4        1034        1035        1051        1050
         4        1035        1036        1052        1051
         4        1036        1037        1053        1052
         4        1037        1038        1054        1053
         4        1038        1039        1055        1054
         4        1040        1041        1057        1056
         4        1041        1042        1058        1057
         4        1042        1043        1059        1058
         4        1043        1044        1060        1059
         4        1044        1045        1061        1060
         4        1045        1046        1062        1061
         4        1046        1047        1063        1062
         4        1047        1048        1064        1063
         4        1048        1049        1065        1064
         4        1049        1050        1066        1065
         4        1050        1051        1067        1066
         4        1051        1052        1068        1067
         4        1052        1053        1069        1068
         4        1053        1054        1070        1069
         4        1054        1055        1071        1070
         4        1056        1057        1073        1072
         4        1057        1058        1074        1073
         4        1058        1059        1075        1074
         4        1059        1060        1076        1075
         4        1060        1061        1077        1076
         4        1061        1062        1078        1077
         4        1062        1063        1079        1078
         4        1063        1064        1080        1079
         4        1064        1065        1081        1080
         4        1065        1066        1082        1081
         4        1066        1067        1083        1082
         4        1067        1068        1084        1083
         4        1068        1069        1085        1084
         4        1069        1070        1086        1085
         4        1070        1071        1087        1086
         4        1072        1073        1089        1088
         4        1073        1074        1090        1089
         4        1074        1075        1091        1090
         4        1075        1076        1092        1091
         4        1076        1077        1093        1092
         4        1077        1078        1094        1093
         4        1078        1079        1095        1094
         4        1079        1080        1096        1095
         4        1080        1081        1097        1096
         4        1081        1082        1098        1097
         4        1082        1083        1099        1098
         4        1083        1084        1100        1099
         4        1084        1085        1101        1100
         4        1085        1086        1102        1101
         4        1086        1087        1103        1102
         4        1088        1089        1105        1104
         4        1089        1090        1106        1105
         4        1090        1091        1107        1106
         4        1091        1092        1108        1107
         4        1092        1093        1109        1108
         4        1093        1094        1110        1109
         4        1094        1095        1111        1110
         4        1095        1096        1112        1111
         4        1096        1097        1113        1112
         4        1097        1098        1114        1113
         4        1098        1099        1115        1114
         4        1099        1100        1116        1115
         4        1100        1101        1117        1116
         4        1101        1102        1118        1117
         4        1102        1103        1119        1118
         4        1104        1105        1121        1120
         4        1105        1106        1122        1121
         4        1106        1107        1123        1122
         4        1107        1108        1124        1123
         4        1108        1109        1125        1124
         4        1109        1110        1126        1125
         4        1110        1111        1127        1126
         4        1111        1112        1128        1127
         4        1112        1113        1129        1128
         4        1113        1114        1130        1129
         4        1114        1115        1131        1130
         4        1115        1116        1132        1131
         4        1116        1117        1133        1132
         4        1117        1118        1134        1133
         4        1118        1119        1135        1134
         4        1120        1121        1137        1136
         4        1121        1122        1138        1137
         4        1122        1123        1139        1138
         4        1123        1124        1140        1139
         4        1124        1125        1141        1140
         4        1125        1126        1142        1141
         4        1126        1127        1143        1142
         4        1127        1128        1144        1143
         4        1128        1129        1145        1144
         4        1129        1130        1146        1145
         4        1130        1131        1147        1146
         4        1131        1132        1148        1147
         4        1132        1133        1149        1148
         4        1133        1134        1150        1149
         4        1134        1135        1151        1150
         4        1136        1137        1153        1152
         4        1137        1138        1154        1153
         4        1138        1139        1155        1154
         4        1139        1140        1156        1155
         4        1140        1141        1157        1156
         4        1141        1142        1158        1157
         4        1142        1143        1159        1158
         4        1143        1144        1160        1159
         4        1144        1145        1161        1160
         4        1145        1146        1162        1161
         4        1146        1147        1163        1162
         4        1147        1148        1164        1163
         4        1148        1149        1165        1164
         4        1149        1150        1166        1165
         4        1150        1151        1167        1166
         4        1152        1153        1169        1168
         4        1153        1154        1170        1169
         4        1154        1155        1171        1170
         4        1155        1156        1172        1171
         4        1156        1157        1173        1172
         4        1157        1158        1174        1173
         4        1158        1159        1175        1174
         4        1159        1160        1176        1175
         4        1160        1161        1177        1176
         4        1161        1162        1178        1177
         4        1162        1163        1179        1178
         4        1163        1164        1180        1179
         4        1164        1165        1181        1180
         4        1165        1166        1182        1181
         4        1166        1167        1183        1182
         4        1168        1169        1185        1184
         4        1169        1170        1186        1185
         4        1170        1171        1187        1186
         4        1171        1172        1188        1187
         4        1172        1173        1189        1188
         4        1173        1174        1190        1189
         4        1174        1175        1191        1190
         4        1175        1176        1192        1191
         4        1176        1177        1193        1192
         4        1177        1178        1194        1193
         4        1178        1179        1195        1194
         4        1179        1180        1196        1195
         4        1180        1181        1197        1196
         4        1181        1182        1198        1197
         4        1182        1183        1199        1198
         4        1184        1185        1201        1200
         4        1185        1186        1202        1201
         4        1186        1187        1203        1202
         4        1187        1188        1204        1203
         4        1188        1189        1205        1204
         4        1189        1190        1206        1205
         4        1190        1191        1207        1206
         4        1191        1192        1208        1207
         4        1192        1193        1209        1208
         4        1193        1194        1210        1209
         4        1194        1195        1211        1210
         4        1195        1196        1212        1211
         4        1196        1197        1213        1212
         4        1197        1198        1214        1213
         4        1198        1199        1215        1214
         4        1200        1201        1217        1216
         4        1201        1202        1218        1217
         4        1202        1203        1219        1218
         4        1203        1204        1220        1219
         4        1204        1205        1221        1220
         4        1205        1206        1222        1221
         4        1206        1207        1223        1222
         4        1207        1208        1224        1223
         4        1208        1209        1225        1224
         4        1209        1210        1226        1225
         4        1210        1211        1227        1226
         4        1211        1212        1228        1227
         4        1212        1213        1229        1228
         4        1213        1214        1230        1229
         4        1214        1215        1231        1230
         4        1216        1217        1233        1232
         4        1217        1218        1234        1233
         4        1218        1219        1235        1234
         4        1219        1220        1236        1235
         4        1220        1221        1237        1236
         4        1221        1222        1238        1237
         4        1222        1223        1239        1238
         4        1223        1224        1240        1239
         4        1224        1225        1241        1240
         4        1225        1226        1242        1241
         4        1226        1227        1243        1242
         4        1227        1228        1244        1243
         4        1228        1229        1245        1244
         4        1229        1230        1246        1245
         4        1230        1231        1247        1246
         4        1232        1233        1249        1248
         4        1233        1234        1250        1249
         4        1234        1235        1251        1250
         4        1235        1236        1252        1251
         4        1236        1237        1253        1252
         4        1237        1238        1254        1253
         4        1238        1239        1255        1254
         4        1239        1240        1256        1255
         4        1240        1241        1257        1256
         4        1241        1242        1258        1257
         4        1242        1243        1259        1258
         4        1243        1244        1260        1259
         4        1244        1245        1261        1260
         4        1245        1246        1262        1261
         4        1246        1247        1263        1262
         4        1248        1249        1265        1264
         4        1249        1250        1266        1265
         4        1250        1251        1267        1266
         4        1251        1252        1268        1267
         4        1252        1253        1269        1268
         4        1253        1254        1270        1269
         4        1254        1255        1271        1270
         4        1255        1256        1272        1271
         4        1256        1257        1273        1272
         4        1257        1258        1274        1273
         4        1258        1259        1275        1274
         4        1259        1260        1276        1275
         4        1260        1261        1277        1276
         4        1261        1262        1278        1277
         4        1262        1263        1279        1278
         4        1264        1265        1281        1280
         4        1265        1266        1282        1281
         4        1266        1267        1283        1282
         4        1267        1268        1284        1283
         4        1268        1269        1285        1284
         4        1269        1270        1286        1285
         4        1270        1271        1287        1286
         4        1271        1272        1288        1287
         4        1272        1273        1289        1288
         4        1273        1274        1290        1289
         4        1274        1275        1291        1290
         4        1275        1276        1292        1291
         4        1276        1277        1293        1292
         4        1277        1278        1294        1293
         4        1278        1279        1295        1294
         4        1280        1281        1297        1296
         4        1281        1282        1298        1297
         4        1282        1283        1299        1298
         4        1283        1284        1300        1299
         4        1284        1285        1301        1300
         4        1285        1286        1302        1301
         4        1286        1287        1303        1302
         4        1287        1288        1304        1303
         4        1288        1289        1305        1304
         4        1289        1290        1306        1305
         4        1290        1291        1307        1306
         4        1291        1292        1308        1307
         4        1292        1293        1309        1308
         4        1293        1294        1310        1309
         4        1294        1295        1311        1310
         4        1296        1297        1313        1312
         4        1297        1298        1314        1313
         4        1298        1299        1315        1314
         4        1299        1300        1316        1315
         4        1300        1301        1317        1316
         4        1301        1302        1318        1317
         4        1302        1303        1319        1318
         4        1303        1304        1320        1319
         4        1304        1305        1321        1320
         4        1305        1306        1322        1321
         4        1306        1307        1323        1322
         4        1307        1308        1324        1323
         4        1308        1309        1325        1324
         4        1309        1310        1326        1325
         4        1310        1311        1327        1326
         4        1312        1313        1329        1328
         4        1313        1314        1330        1329
         4        1314        1315        1331        1330
         4        1315        1316        1332        1331
         4        1316        1317        1333        1332
         4        1317        1318        1334        1333
         4        1318        1319        1335        1334
         4        1319        1320        1336        1335
         4        1320        1321        1337        1336
         4        1321        1322        1338        1337
         4        1322        1323        1339        1338
         4        1323        1324        1340        1339
         4        1324        1325        1341        1340
         4        1325        1326        1342        1341
         4        1326        1327        1343        1342
         4        1328        1329        1345        1344
         4        1329        1330        1346        1345
         4        1330        1331        1347        1346
         4        1331        1332        1348        1347
         4        1332        1333        1349        1348
         4        1333        1334        1350        1349
         4        1334        1335        1351        1350
         4        1335        1336        1352        1351
         4        1336        1337        1353        1352
         4        1337        1338        1354        1353
         4        1338        1339        1355        1354
         4        1339        1340        1356        1355
         4        1340        1341        1357        1356
         4        1341        1342        1358        1357
         4        1342        1343        1359        1358
         4        1344        1345        1361        1360
         4        1345        1346        1362        1361
         4        1346        1347        1363        1362
         4        1347        1348        1364        1363
         4        1348        1349        1365        1364
         4        1349        1350        1366        1365
         4        1350        1351        1367        1366
         4        1351        1352        1368        1367
         4        1352        1353        1369        1368
         4        1353        1354        1370        1369
         4        1354        1355        1371        1370
         4        1355        1356        1372        1371
         4        1356        1357        1373        1372
         4        1357        1358        1374        1373
         4        1358        1359        1375        1374
         4        1360        1361        1377        1376
         4        1361        1362        1378        1377
         4        1362        1363        1379        1378
         4        1363        1364        1380        1379
         4        1364        1365        1381        1380
         4        1365        1366        1382        1381
         4        1366        1367        1383        1382
         4        1367        1368        1384        1383
         4        1368        1369        1385        1384
         4        1369        1370        1386        1385
         4        1370        1371        1387        1386
         4        1371        1372        1388        1387
         4        1372        1373        1389        1388
         4        1373        1374        1390        1389
         4        1374        1375        1391        1390
         4        1376        1377        1393        1392
         4        1377        1378        1394        1393
         4        1378        1379        1395        1394
         4        1379        1380        1396        1395
         4        1380        1381        1397        1396
         4        1381        1382        1398        1397
         4        1382        1383        1399        1398
         4        1383        1384        1400        1399
         4        1384        1385        1401        1400
         4        1385        1386        1402        1401
         4        1386        1387        1403        1402
         4        1387        1388        1404        1403
         4        1388        1389        1405        1404
         4        1389        1390        1406        1405
         4        1390        1391        1407        1406
         4        1392        1393        1409        1408
         4        1393        1394        1410        1409
         4        1394        1395        1411        1410
         4        1395        1396        1412        1411
         4        1396        1397        1413        1412
         4        1397        1398        1414        1413
         4        1398        1399        1415        1414
         4        1399        1400        1416        1415
         4        1400        1401        1417        1416
         4        1401        1402        1418        1417
         4        1402        1403        1419        1418
         4        1403        1404        1420        1419
         4        1404        1405        1421        1420
         4        1405        1406        1422        1421
         4        1406        1407        1423        1422
         4        1408        1409        1425        1424
         4        1409        1410        1426        1425
         4        1410        1411        1427        1426
         4        1411        1412        1428        1427
         4        1412        1413        1429        1428
         4        1413        1414        1430        1429
         4        1414        1415        1431        1430
         4        1415        1416        1432        1431
         4        1416        1417        1433        1432
         4        1417        1418        1434        1433
         4        1418        1419        1435        1434
         4        1419        1420        1436        1435
         4        1420        1421        1437        1436
         4        1421        1422        1438        1437
         4        1422        1423        1439        1438
         4        1424        1425        1441        1440
         4        1425        1426        1442        1441
         4        1426        1427        1443        1442
         4        1427        1428        1444        1443
         4        1428        1429        1445        1444
         4        1429        1430        1446        1445
         4        1430        1431        1447        1446
         4        1431        1432        1448        1447
         4        1432        1433        1449        1448
         4        1433        1434        1450        1449
         4        1434        1435        1451        1450
         4        1435        1436        1452        1451
         4        1436        1437        1453        1452
         4        1437        1438        1454        1453
         4        1438        1439        1455        1454
CELL_TYPES       1350
9
9
9
9
9
9
9
9
9
9
9
9
9
9
9
9
9
9
9
9
9
9
9
9
9
9
9
9
9
9
9
9
9
9
9
9
9
9
9
9
9
9
9
9
9
9
9
9
9
9
9
9
9
9
9
9
9
9
9
9
9
9
9
9
9
9
9
9
9
9
9
9
9
9
9
9
9
9
9
9
9
9
9
9
9
9
9
9
9
9
9
9
9
9
9
9
9
9
9
9
9
9
9
9
9
9
9
9
9
9
9
9
9
9
9
9
9
9
9
9
9
9
9
9
9
9
9
9
9
9
9
9
9
9
9
9
9
9
9
9
9
9
9
9
9
9
9
9
9
9
9
9
9
9
9
9
9
9
9
9
9
9
9
9
9
9
9
9
9
9
9
9
9
9
9
9
9
9
9
9
9
9
9
9
9
9
9
9
9
9
9
9
9
9
9
9
9
9
9
9
9
9
9
9
9
9
9
9
9
9
9
9
9
9
9
9
9
9
9
9
9
9
9
9
9
9
9
9
9
9
9
9
9
9
9
9
9
9
9
9
9
9
9
9
9
9
9
9
9
9
9
9
9
9
9
9
9
9
9
9
9
9
9
9
9
9
9
9
9
9
9
9
9
9
9
9
9
9
9
9
9
9
9
9
9
9
9
9
9
9
9
9
9
9
9
9
9
9
9
9
9
9
9
9
9
9
9
9
9
9
9
9
9
9
9
9
9
9
9
9
9
9
9
9
9
9
9
9
9
9
9
9
9
9
9
9
9
9
9
9
9
9
9
9
9
9
9
9
9
9
9
9
9
9
9
9
9
9
9
9
9
9
9
9
9
9
9
9
9
9
9
9
9
9
9
9
9
9
9
9
9
9
9
9
9
9
9
9
9
9
9
9
9
9
9
9
9
9
9
9
9
9
9
9
9
9
9
9
9
9
9
9
9
9
9
9
9
9
9
9
9
9
9
9
9
9
9
9
9
9
9
9
9
9
9
9
9
9
9
9
9
9
9
9
9
9
9
9
9
9
9
9
9
9
9
9
9
9
9
9
9
9
9
9
9
9
9
9
9
9
9
9
9
9
9
9
9
9
9
9
9
9
9
9
9
9
9
9
9
9
9
9
9
9
9
9
9
9
9
9
9
9
9
9
9
9
9
9
9
9
9
9
9
9
9
9
9
9
9
9
9
9
9
9
9
9
9
9
9
9
9
9
9
9
9
9
9
9
9
9
9
9
9
9
9
9
9
9
9
9
9
9
9
9
9
9
9
9
9
9
9
9
9
9
9
9
9
9
9
9
9
9
9
9
9
9
9
9
9
9
9
9
9
9
9
9
9
9
9
9
9
9
9
9
9
9
9
9
9
9
9
9
9
9
9
9
9
9
9
9
9
9
9
9
9
9
9
9
9
9
9
9
9
9
9
9
9
9
9
9
9
9
9
9
9
9
9
9
9
9
9
9
9
9
9
9
9
9
9
9
9
9
9
9
9
9
9
9
9
9
9
9
9
9
9
9
9
9
9
9
9
9
9
9
9
9
9
9
9
9
9
9
9
9
9
9
9
9
9
9
9
9
9
9
9
9
9
9
9
9
9
9
9
9
9
9
9
9
9
9
9
9
9
9
9
9
9
9
9
9
9
9
9
9
9
9
9
9
9
9
9
9
9
9
9
9
9
9
9
9
9
9
9
9
9
9
9
9
9
9
9
9
9
9
9
9
9
9
9
9
9
9
9
9
9
9
9
9
9
9
9
9
9
9
9
9
9
9
9
9
9
9
9
9
9
9
9
9
9
9
9
9
9
9
9
9
9
9
9
9
9
9
9
9
9
9
9
9
9
9
9
9
9
9
9
9
9
9
9
9
9
9
9
9
9
9
9
9
9
9
9
9
9
9
9
9
9
9
9
9
9
9
9
9
9
9
9
9
9
9
9
9
9
9
9
9
9
9
9
9
9
9
9
9
9
9
9
9
9
9
9
9
9
9
9
9
9
9
9
9
9
9
9
9
9
9
9
9
9
9
9
9
9
9
9
9
9
9
9
9
9
9
9
9
9
9
9
9
9
9
9
9
9
9
9
9
9
9
9
9
9
9
9
9
9
9
9
9
9
9
9
9
9
9
9
9
9
9
9
9
9
9
9
9
9
9
9
9
9
9
9
9
9
9
9
9
9
9
9
9
9
9
9
9
9
9
9
9
9
9
9
9
9
9
9
9
9
9
9
9
9
9
9
9
9
9
9
9
9
9
9
9
9
9
9
9
9
9
9
9
9
9
9
9
9
9
9
9
9
9
9
9
9
9
9
9
9
9
9
9
9
9
9
9
9
9
9
9
9
9
9
9
9
9
9
9
9
9
9
9
9
9
9
9
9
9
9
9
9
9
9
9
9
9
9
9
9
9
9
9
9
9
9
9
9
9
9
9
9
9
9
9
9
9
9
9
9
9
9
9
9
9
9
9
9
9
9
9
9
9
9
9
9
9
9
9
9
9
9
9
9
9
9
9
9
9
9
9
9
9
9
9
9
9
9
9
9
9
9
9
9
9
9
9
9
9
9
9
9
9
9
9
9
9
9
9
9
9
9
9
9
9
9
9
9
9
9
9
9
9
9
9
9
9
9
9
9
9
9
9
9
9
9
9
9
9
9
9
9
9
9
9
9
9
9
9
9
9
9
9
9
9
9
9
9
9
9
9
9
9
9
9
9
9
9
9
9
9
9
9
9
9
9
9
9
9
9
9
9
9
9
9
9
9
9
9
9
9
9
9
9
9
9
9
9
9
9
9
9
9
9
9
9
9
9
9
9
9
9
9
9
9
9
9
9
9
9
9
9
9
9
9
9
9
9
9
9
9
9
9
9
9
9
9
9
9
9
9
9
9
9
9
9
9
9
9
9
9
9
9
9
9
9
9
9
9
9
9
9
9
9
9
9
9
9
9
9
9
9
9
9
9
9
9
9
9
9
9
9
9
9
9
9
9
9
9
9
9
9
9
9
9
9
9
9
9
9
9
9
9
9
9
9
9
9
9
9
9
9
9
9
9
9
9
9
9
9
9
9
9
POINT_DATA      1456
SCALARS p double 
LOOKUP_TABLE default
   254377.958906263     
   254377.958906263     
   254377.958906262     
   254377.958906261     
   254377.958906260     
   254377.958906258     
   254377.958906257     
   254377.958906255     
   254377.958906253     
   254377.958906252     
   254377.958906250     
   254377.958906249     
   254377.958906249     
   254377.958906249     
   254377.958906248     
   254377.958906248     
   254377.958905884     
   254377.958905884     
   254377.958905883     
   254377.958905882     
   254377.958905880     
   254377.958905879     
   254377.958905877     
   254377.958905876     
   254377.958905874     
   254377.958905872     
   254377.958905871     
   254377.958905870     
   254377.958905870     
   254377.958905870     
   254377.958905869     
   254377.958905869     
   254377.958904718     
   254377.958904719     
   254377.958904718     
   254377.958904717     
   254377.958904715     
   254377.958904712     
   254377.958904710     
   254377.958904709     
   254377.958904707     
   254377.958904706     
   254377.958904705     
   254377.958904704     
   254377.958904704     
   254377.958904704     
   254377.958904704     
   254377.958904703     
   254377.958902678     
   254377.958902677     
   254377.958902677     
   254377.958902676     
   254377.958902674     
   254377.958902671     
   254377.958902669     
   254377.958902668     
   254377.958902666     
   254377.958902665     
   254377.958902665     
   254377.958902664     
   254377.958902663     
   254377.958902663     
   254377.958902663     
   254377.958902663     
   254377.958899606     
   254377.958899607     
   254377.958899607     
   254377.958899606     
   254377.958899604     
   254377.958899602     
   254377.958899600     
   254377.958899598     
   254377.958899597     
   254377.958899596     
   254377.958899596     
   254377.958899595     
   254377.958899595     
   254377.958899594     
   254377.958899594     
   254377.958899594     
   254377.958895277     
   254377.958895277     
   254377.958895276     
   254377.958895275     
   254377.958895274     
   254377.958895272     
   254377.958895269     
   254377.958895267     
   254377.958895267     
   254377.958895266     
   254377.958895266     
   254377.958895266     
   254377.958895266     
   254377.958895265     
   254377.958895265     
   254377.958895265     
   254377.958889360     
   254377.958889360     
   254377.958889359     
   254377.958889358     
   254377.958889357     
   254377.958889354     
   254377.958889353     
   254377.958889351     
   254377.958889350     
   254377.958889349     
   254377.958889350     
   254377.958889350     
   254377.958889349     
   254377.958889349     
   254377.958889349     
   254377.958889349     
   254377.958881408     
   254377.958881408     
   254377.958881408     
   254377.958881407     
   254377.958881406     
   254377.958881404     
   254377.958881402     
   254377.958881400     
   254377.958881399     
   254377.958881399     
   254377.958881400     
   254377.958881399     
   254377.958881399     
   254377.958881399     
   254377.958881399     
   254377.958881399     
   254377.958870820     
   254377.958870821     
   254377.958870822     
   254377.958870822     
   254377.958870821     
   254377.958870819     
   254377.958870817     
   254377.958870816     
   254377.958870816     
   254377.958870816     
   254377.958870816     
   254377.958870816     
   254377.958870815     
   254377.958870815     
   254377.958870815     
   254377.958870815     
   254377.958856800     
   254377.958856800     
   254377.958856802     
   254377.958856803     
   254377.958856802     
   254377.958856801     
   254377.958856800     
   254377.958856800     
   254377.958856799     
   254377.958856799     
   254377.958856798     
   254377.958856798     
   254377.958856798     
   254377.958856798     
   254377.958856798     
   254377.958856798     
   254377.958838288     
   254377.958838289     
   254377.958838289     
   254377.958838290     
   254377.958838290     
   254377.958838291     
   254377.958838291     
   254377.958838291     
   254377.958838290     
   254377.958838290     
   254377.958838289     
   254377.958838289     
   254377.958838289     
   254377.958838288     
   254377.958838289     
   254377.958838289     
   254377.958813886     
   254377.958813887     
   254377.958813888     
   254377.958813889     
   254377.958813889     
   254377.958813891     
   254377.958813892     
   254377.958813892     
   254377.958813892     
   254377.958813892     
   254377.958813891     
   254377.958813891     
   254377.958813890     
   254377.958813890     
   254377.958813890     
   254377.958813890     
   254377.958781756     
   254377.958781757     
   254377.958781757     
   254377.958781757     
   254377.958781759     
   254377.958781761     
   254377.958781762     
   254377.958781762     
   254377.958781763     
   254377.958781763     
   254377.958781762     
   254377.958781762     
   254377.958781762     
   254377.958781761     
   254377.958781761     
   254377.958781761     
   254377.958739472     
   254377.958739472     
   254377.958739472     
   254377.958739472     
   254377.958739473     
   254377.958739474     
   254377.958739475     
   254377.958739477     
   254377.958739477     
   254377.958739478     
   254377.958739478     
   254377.958739477     
   254377.958739477     
   254377.958739477     
   254377.958739477     
   254377.958739477     
   254377.958683840     
   254377.958683840     
   254377.958683841     
   254377.958683840     
   254377.958683840     
   254377.958683841     
   254377.958683842     
   254377.958683843     
   254377.958683845     
   254377.958683845     
   254377.958683846     
   254377.958683846     
   254377.958683846     
   254377.958683846     
   254377.958683845     
   254377.958683845     
   254377.958610661     
   254377.958610662     
   254377.958610662     
   254377.958610662     
   254377.958610662     
   254377.958610663     
   254377.958610664     
   254377.958610665     
   254377.958610665     
   254377.958610666     
   254377.958610667     
   254377.958610667     
   254377.958610668     
   254377.958610668     
   254377.958610668     
   254377.958610668     
   254377.958514414     
   254377.958514414     
   254377.958514414     
   254377.958514415     
   254377.958514415     
   254377.958514414     
   254377.958514414     
   254377.958514415     
   254377.958514416     
   254377.958514417     
   254377.958514417     
   254377.958514417     
   254377.958514418     
   254377.958514418     
   254377.958514418     
   254377.958514418     
   254377.958387832     
   254377.958387832     
   254377.958387832     
   254377.958387832     
   254377.958387832     
   254377.958387831     
   254377.958387831     
   254377.958387831     
   254377.958387831     
   254377.958387832     
   254377.958387833     
   254377.958387833     
   254377.958387833     
   254377.958387833     
   254377.958387834     
   254377.958387833     
   254377.958221363     
   254377.958221363     
   254377.958221362     
   254377.958221362     
   254377.958221360     
   254377.958221359     
   254377.958221358     
   254377.958221357     
   254377.958221358     
   254377.958221359     
   254377.958221360     
   254377.958221361     
   254377.958221361     
   254377.958221361     
   254377.958221361     
   254377.958221361     
   254377.958002440     
   254377.958002440     
   254377.958002440     
   254377.958002439     
   254377.958002437     
   254377.958002435     
   254377.958002433     
   254377.958002433     
   254377.958002433     
   254377.958002434     
   254377.958002436     
   254377.958002436     
   254377.958002436     
   254377.958002437     
   254377.958002437     
   254377.958002437     
   254377.957714543     
   254377.957714542     
   254377.957714541     
   254377.957714541     
   254377.957714539     
   254377.957714537     
   254377.957714536     
   254377.957714535     
   254377.957714535     
   254377.957714535     
   254377.957714536     
   254377.957714537     
   254377.957714537     
   254377.957714537     
   254377.957714538     
   254377.957714538     
   254377.957335941     
   254377.957335940     
   254377.957335938     
   254377.957335937     
   254377.957335935     
   254377.957335934     
   254377.957335934     
   254377.957335933     
   254377.957335933     
   254377.957335933     
   254377.957335933     
   254377.957335933     
   254377.957335932     
   254377.957335932     
   254377.957335932     
   254377.957335932     
   254377.956838058     
   254377.956838057     
   254377.956838056     
   254377.956838055     
   254377.956838054     
   254377.956838053     
   254377.956838053     
   254377.956838053     
   254377.956838052     
   254377.956838051     
   254377.956838051     
   254377.956838050     
   254377.956838050     
   254377.956838050     
   254377.956838049     
   254377.956838049     
   254377.956183320     
   254377.956183320     
   254377.956183320     
   254377.956183320     
   254377.956183320     
   254377.956183320     
   254377.956183319     
   254377.956183318     
   254377.956183316     
   254377.956183315     
   254377.956183315     
   254377.956183314     
   254377.956183313     
   254377.956183312     
   254377.956183312     
   254377.956183312     
   254377.955322317     
   254377.955322318     
   254377.955322318     
   254377.955322318     
   254377.955322319     
   254377.955322318     
   254377.955322318     
   254377.955322316     
   254377.955322315     
   254377.955322313     
   254377.955322312     
   254377.955322310     
   254377.955322309     
   254377.955322309     
   254377.955322308     
   254377.955322308     
   254377.954190067     
   254377.954190067     
   254377.954190068     
   254377.954190068     
   254377.954190068     
   254377.954190067     
   254377.954190067     
   254377.954190066     
   254377.954190064     
   254377.954190063     
   254377.954190061     
   254377.954190059     
   254377.954190058     
   254377.954190057     
   254377.954190056     
   254377.954190056     
   254377.952701116     
   254377.952701116     
   254377.952701116     
   254377.952701115     
   254377.952701114     
   254377.952701113     
   254377.952701113     
   254377.952701112     
   254377.952701110     
   254377.952701109     
   254377.952701107     
   254377.952701106     
   254377.952701105     
   254377.952701104     
   254377.952701103     
   254377.952701103     
   254377.950743089     
   254377.950743088     
   254377.950743087     
   254377.950743087     
   254377.950743086     
   254377.950743085     
   254377.950743084     
   254377.950743082     
   254377.950743081     
   254377.950743079     
   254377.950743078     
   254377.950743077     
   254377.950743076     
   254377.950743075     
   254377.950743074     
   254377.950743074     
   254377.948168209     
   254377.948168208     
   254377.948168207     
   254377.948168206     
   254377.948168206     
   254377.948168205     
   254377.948168203     
   254377.948168201     
   254377.948168199     
   254377.948168197     
   254377.948168196     
   254377.948168196     
   254377.948168195     
   254377.948168194     
   254377.948168194     
   254377.948168194     
   254377.944782147     
   254377.944782147     
   254377.944782145     
   254377.944782144     
   254377.944782142     
   254377.944782140     
   254377.944782139     
   254377.944782138     
   254377.944782136     
   254377.944782134     
   254377.944782133     
   254377.944782132     
   254377.944782132     
   254377.944782131     
   254377.944782132     
   254377.944782132     
   254377.940329352     
   254377.940329351     
   254377.940329350     
   254377.940329348     
   254377.940329347     
   254377.940329345     
   254377.940329343     
   254377.940329341     
   254377.940329340     
   254377.940329338     
   254377.940329337     
   254377.940329337     
   254377.940329337     
   254377.940329336     
   254377.940329336     
   254377.940329335     
   254377.934473765     
   254377.934473764     
   254377.934473762     
   254377.934473760     
   254377.934473759     
   254377.934473758     
   254377.934473756     
   254377.934473755     
   254377.934473753     
   254377.934473751     
   254377.934473750     
   254377.934473750     
   254377.934473750     
   254377.934473750     
   254377.934473750     
   254377.934473750     
   254377.926773454     
   254377.926773454     
   254377.926773452     
   254377.926773451     
   254377.926773450     
   254377.926773449     
   254377.926773447     
   254377.926773445     
   254377.926773444     
   254377.926773443     
   254377.926773442     
   254377.926773441     
   254377.926773441     
   254377.926773442     
   254377.926773442     
   254377.926773441     
   254377.916647264     
   254377.916647263     
   254377.916647263     
   254377.916647261     
   254377.916647260     
   254377.916647260     
   254377.916647259     
   254377.916647258     
   254377.916647257     
   254377.916647257     
   254377.916647256     
   254377.916647256     
   254377.916647255     
   254377.916647255     
   254377.916647255     
   254377.916647255     
   254377.903330949     
   254377.903330950     
   254377.903330950     
   254377.903330949     
   254377.903330949     
   254377.903330949     
   254377.903330949     
   254377.903330948     
   254377.903330948     
   254377.903330948     
   254377.903330948     
   254377.903330948     
   254377.903330948     
   254377.903330947     
   254377.903330947     
   254377.903330947     
   254377.885819511     
   254377.885819512     
   254377.885819513     
   254377.885819513     
   254377.885819513     
   254377.885819512     
   254377.885819511     
   254377.885819511     
   254377.885819512     
   254377.885819512     
   254377.885819513     
   254377.885819513     
   254377.885819513     
   254377.885819514     
   254377.885819514     
   254377.885819514     
   254377.862791330     
   254377.862791330     
   254377.862791331     
   254377.862791332     
   254377.862791331     
   254377.862791331     
   254377.862791331     
   254377.862791330     
   254377.862791331     
   254377.862791332     
   254377.862791332     
   254377.862791333     
   254377.862791334     
   254377.862791335     
   254377.862791336     
   254377.862791336     
   254377.832508426     
   254377.832508427     
   254377.832508429     
   254377.832508429     
   254377.832508430     
   254377.832508431     
   254377.832508430     
   254377.832508430     
   254377.832508430     
   254377.832508430     
   254377.832508431     
   254377.832508432     
   254377.832508434     
   254377.832508435     
   254377.832508435     
   254377.832508436     
   254377.792685302     
   254377.792685302     
   254377.792685303     
   254377.792685304     
   254377.792685306     
   254377.792685306     
   254377.792685306     
   254377.792685307     
   254377.792685307     
   254377.792685307     
   254377.792685308     
   254377.792685309     
   254377.792685310     
   254377.792685311     
   254377.792685312     
   254377.792685312     
   254377.740316436     
   254377.740316436     
   254377.740316437     
   254377.740316437     
   254377.740316437     
   254377.740316438     
   254377.740316439     
   254377.740316441     
   254377.740316441     
   254377.740316443     
   254377.740316443     
   254377.740316444     
   254377.740316444     
   254377.740316445     
   254377.740316446     
   254377.740316446     
   254377.671449460     
   254377.671449460     
   254377.671449461     
   254377.671449461     
   254377.671449462     
   254377.671449463     
   254377.671449464     
   254377.671449466     
   254377.671449468     
   254377.671449469     
   254377.671449469     
   254377.671449469     
   254377.671449469     
   254377.671449468     
   254377.671449468     
   254377.671449468     
   254377.580886868     
   254377.580886868     
   254377.580886869     
   254377.580886870     
   254377.580886870     
   254377.580886872     
   254377.580886874     
   254377.580886875     
   254377.580886877     
   254377.580886877     
   254377.580886877     
   254377.580886876     
   254377.580886875     
   254377.580886873     
   254377.580886872     
   254377.580886872     
   254377.461793745     
   254377.461793746     
   254377.461793748     
   254377.461793749     
   254377.461793749     
   254377.461793750     
   254377.461793751     
   254377.461793753     
   254377.461793753     
   254377.461793753     
   254377.461793753     
   254377.461793752     
   254377.461793750     
   254377.461793749     
   254377.461793748     
   254377.461793748     
   254377.305181928     
   254377.305181929     
   254377.305181932     
   254377.305181933     
   254377.305181935     
   254377.305181937     
   254377.305181938     
   254377.305181939     
   254377.305181939     
   254377.305181939     
   254377.305181939     
   254377.305181938     
   254377.305181937     
   254377.305181936     
   254377.305181936     
   254377.305181936     
   254377.099231661     
   254377.099231662     
   254377.099231664     
   254377.099231667     
   254377.099231670     
   254377.099231672     
   254377.099231673     
   254377.099231673     
   254377.099231674     
   254377.099231676     
   254377.099231676     
   254377.099231676     
   254377.099231675     
   254377.099231675     
   254377.099231674     
   254377.099231674     
   254376.828399527     
   254376.828399529     
   254376.828399532     
   254376.828399536     
   254376.828399538     
   254376.828399539     
   254376.828399540     
   254376.828399541     
   254376.828399543     
   254376.828399545     
   254376.828399546     
   254376.828399547     
   254376.828399547     
   254376.828399547     
   254376.828399547     
   254376.828399547     
   254376.472245368     
   254376.472245370     
   254376.472245373     
   254376.472245377     
   254376.472245379     
   254376.472245381     
   254376.472245382     
   254376.472245383     
   254376.472245385     
   254376.472245387     
   254376.472245388     
   254376.472245389     
   254376.472245391     
   254376.472245392     
   254376.472245393     
   254376.472245393     
   254376.003889626     
   254376.003889627     
   254376.003889629     
   254376.003889632     
   254376.003889635     
   254376.003889637     
   254376.003889638     
   254376.003889638     
   254376.003889640     
   254376.003889642     
   254376.003889644     
   254376.003889647     
   254376.003889649     
   254376.003889650     
   254376.003889651     
   254376.003889651     
   254375.387984695     
   254375.387984696     
   254375.387984699     
   254375.387984701     
   254375.387984703     
   254375.387984704     
   254375.387984704     
   254375.387984704     
   254375.387984705     
   254375.387984707     
   254375.387984710     
   254375.387984712     
   254375.387984714     
   254375.387984715     
   254375.387984715     
   254375.387984716     
   254374.578047182     
   254374.578047182     
   254374.578047184     
   254374.578047187     
   254374.578047188     
   254374.578047188     
   254374.578047187     
   254374.578047188     
   254374.578047189     
   254374.578047190     
   254374.578047191     
   254374.578047193     
   254374.578047194     
   254374.578047196     
   254374.578047197     
   254374.578047198     
   254373.512949723     
   254373.512949723     
   254373.512949725     
   254373.512949726     
   254373.512949726     
   254373.512949727     
   254373.512949727     
   254373.512949728     
   254373.512949728     
   254373.512949729     
   254373.512949730     
   254373.512949731     
   254373.512949734     
   254373.512949735     
   254373.512949736     
   254373.512949736     
   254372.112307607     
   254372.112307608     
   254372.112307609     
   254372.112307609     
   254372.112307609     
   254372.112307609     
   254372.112307609     
   254372.112307609     
   254372.112307608     
   254372.112307609     
   254372.112307611     
   254372.112307613     
   254372.112307615     
   254372.112307617     
   254372.112307618     
   254372.112307617     
   254370.270411996     
   254370.270411997     
   254370.270411998     
   254370.270411998     
   254370.270411997     
   254370.270411997     
   254370.270411997     
   254370.270411997     
   254370.270411996     
   254370.270411997     
   254370.270411998     
   254370.270412000     
   254370.270412002     
   254370.270412003     
   254370.270412003     
   254370.270412003     
   254367.848251904     
   254367.848251904     
   254367.848251904     
   254367.848251903     
   254367.848251903     
   254367.848251903     
   254367.848251904     
   254367.848251905     
   254367.848251905     
   254367.848251905     
   254367.848251905     
   254367.848251906     
   254367.848251906     
   254367.848251907     
   254367.848251907     
   254367.848251907     
   254364.663022796     
   254364.663022795     
   254364.663022795     
   254364.663022795     
   254364.663022794     
   254364.663022794     
   254364.663022795     
   254364.663022797     
   254364.663022797     
   254364.663022797     
   254364.663022797     
   254364.663022797     
   254364.663022797     
   254364.663022797     
   254364.663022798     
   254364.663022798     
   254360.474330019     
   254360.474330020     
   254360.474330021     
   254360.474330021     
   254360.474330021     
   254360.474330020     
   254360.474330021     
   254360.474330022     
   254360.474330023     
   254360.474330023     
   254360.474330024     
   254360.474330024     
   254360.474330025     
   254360.474330026     
   254360.474330025     
   254360.474330025     
   254354.966045819     
   254354.966045820     
   254354.966045820     
   254354.966045820     
   254354.966045822     
   254354.966045824     
   254354.966045825     
   254354.966045825     
   254354.966045826     
   254354.966045827     
   254354.966045828     
   254354.966045828     
   254354.966045829     
   254354.966045830     
   254354.966045831     
   254354.966045831     
   254347.722450634     
   254347.722450635     
   254347.722450635     
   254347.722450635     
   254347.722450636     
   254347.722450639     
   254347.722450640     
   254347.722450642     
   254347.722450643     
   254347.722450645     
   254347.722450646     
   254347.722450647     
   254347.722450647     
   254347.722450647     
   254347.722450648     
   254347.722450649     
   254338.196858036     
   254338.196858036     
   254338.196858035     
   254338.196858034     
   254338.196858035     
   254338.196858036     
   254338.196858039     
   254338.196858041     
   254338.196858042     
   254338.196858044     
   254338.196858045     
   254338.196858046     
   254338.196858047     
   254338.196858047     
   254338.196858048     
   254338.196858048     
   254325.670355370     
   254325.670355370     
   254325.670355369     
   254325.670355368     
   254325.670355367     
   254325.670355368     
   254325.670355370     
   254325.670355372     
   254325.670355374     
   254325.670355376     
   254325.670355377     
   254325.670355377     
   254325.670355379     
   254325.670355379     
   254325.670355379     
   254325.670355379     
   254309.197546213     
   254309.197546213     
   254309.197546211     
   254309.197546210     
   254309.197546208     
   254309.197546207     
   254309.197546208     
   254309.197546210     
   254309.197546212     
   254309.197546214     
   254309.197546215     
   254309.197546216     
   254309.197546217     
   254309.197546216     
   254309.197546215     
   254309.197546215     
   254287.535199687     
   254287.535199686     
   254287.535199684     
   254287.535199682     
   254287.535199679     
   254287.535199678     
   254287.535199678     
   254287.535199679     
   254287.535199681     
   254287.535199682     
   254287.535199683     
   254287.535199684     
   254287.535199683     
   254287.535199682     
   254287.535199682     
   254287.535199682     
   254259.048421709     
   254259.048421709     
   254259.048421709     
   254259.048421708     
   254259.048421706     
   254259.048421706     
   254259.048421705     
   254259.048421705     
   254259.048421705     
   254259.048421705     
   254259.048421705     
   254259.048421705     
   254259.048421704     
   254259.048421703     
   254259.048421703     
   254259.048421703     
   254221.587266777     
   254221.587266777     
   254221.587266777     
   254221.587266777     
   254221.587266777     
   254221.587266776     
   254221.587266775     
   254221.587266774     
   254221.587266774     
   254221.587266774     
   254221.587266773     
   254221.587266773     
   254221.587266772     
   254221.587266771     
   254221.587266770     
   254221.587266770     
   254172.324477911     
   254172.324477911     
   254172.324477912     
   254172.324477912     
   254172.324477912     
   254172.324477911     
   254172.324477911     
   254172.324477910     
   254172.324477910     
   254172.324477910     
   254172.324477910     
   254172.324477910     
   254172.324477910     
   254172.324477909     
   254172.324477909     
   254172.324477909     
   254107.542108785     
   254107.542108786     
   254107.542108786     
   254107.542108786     
   254107.542108785     
   254107.542108784     
   254107.542108784     
   254107.542108785     
   254107.542108784     
   254107.542108784     
   254107.542108786     
   254107.542108787     
   254107.542108786     
   254107.542108786     
   254107.542108786     
   254107.542108786     
   254022.350923996     
   254022.350923996     
   254022.350923996     
   254022.350923995     
   254022.350923994     
   254022.350923994     
   254022.350923994     
   254022.350923994     
   254022.350923993     
   254022.350923993     
   254022.350923994     
   254022.350923996     
   254022.350923996     
   254022.350923996     
   254022.350923995     
   254022.350923995     
   253910.321400161     
   253910.321400161     
   253910.321400161     
   253910.321400160     
   253910.321400158     
   253910.321400157     
   253910.321400158     
   253910.321400158     
   253910.321400158     
   253910.321400157     
   253910.321400157     
   253910.321400158     
   253910.321400159     
   253910.321400158     
   253910.321400157     
   253910.321400157     
   253762.998478876     
   253762.998478875     
   253762.998478875     
   253762.998478875     
   253762.998478874     
   253762.998478874     
   253762.998478875     
   253762.998478876     
   253762.998478875     
   253762.998478874     
   253762.998478873     
   253762.998478872     
   253762.998478871     
   253762.998478871     
   253762.998478871     
   253762.998478871     
   253569.263449098     
   253569.263449098     
   253569.263449099     
   253569.263449099     
   253569.263449100     
   253569.263449102     
   253569.263449103     
   253569.263449103     
   253569.263449102     
   253569.263449100     
   253569.263449100     
   253569.263449099     
   253569.263449097     
   253569.263449097     
   253569.263449097     
   253569.263449097     
   253314.494799148     
   253314.494799148     
   253314.494799150     
   253314.494799152     
   253314.494799154     
   253314.494799155     
   253314.494799156     
   253314.494799155     
   253314.494799154     
   253314.494799153     
   253314.494799153     
   253314.494799153     
   253314.494799154     
   253314.494799155     
   253314.494799156     
   253314.494799157     
   252979.464706392     
   252979.464706391     
   252979.464706391     
   252979.464706392     
   252979.464706395     
   252979.464706396     
   252979.464706396     
   252979.464706394     
   252979.464706394     
   252979.464706395     
   252979.464706396     
   252979.464706396     
   252979.464706397     
   252979.464706399     
   252979.464706400     
   252979.464706400     
   252538.887880800     
   252538.887880800     
   252538.887880800     
   252538.887880801     
   252538.887880802     
   252538.887880802     
   252538.887880802     
   252538.887880803     
   252538.887880803     
   252538.887880803     
   252538.887880804     
   252538.887880804     
   252538.887880804     
   252538.887880805     
   252538.887880804     
   252538.887880804     
   251959.513241193     
   251959.513241193     
   251959.513241194     
   251959.513241196     
   251959.513241196     
   251959.513241197     
   251959.513241198     
   251959.513241199     
   251959.513241199     
   251959.513241198     
   251959.513241196     
   251959.513241196     
   251959.513241196     
   251959.513241196     
   251959.513241197     
   251959.513241197     
   251197.614399675     
   251197.614399677     
   251197.614399678     
   251197.614399679     
   251197.614399680     
   251197.614399683     
   251197.614399685     
   251197.614399686     
   251197.614399685     
   251197.614399684     
   251197.614399683     
   251197.614399681     
   251197.614399681     
   251197.614399681     
   251197.614399680     
   251197.614399681     
   250195.689556889     
   250195.689556889     
   250195.689556890     
   250195.689556893     
   250195.689556896     
   250195.689556899     
   250195.689556902     
   250195.689556903     
   250195.689556904     
   250195.689556904     
   250195.689556903     
   250195.689556902     
   250195.689556901     
   250195.689556900     
   250195.689556899     
   250195.689556898     
   248878.121743570     
   248878.121743570     
   248878.121743570     
   248878.121743573     
   248878.121743576     
   248878.121743581     
   248878.121743584     
   248878.121743586     
   248878.121743587     
   248878.121743589     
   248878.121743591     
   248878.121743591     
   248878.121743590     
   248878.121743590     
   248878.121743590     
   248878.121743589     
   247145.471879471     
   247145.471879471     
   247145.471879471     
   247145.471879473     
   247145.471879475     
   247145.471879477     
   247145.471879481     
   247145.471879485     
   247145.471879489     
   247145.471879493     
   247145.471879496     
   247145.471879498     
   247145.471879499     
   247145.471879499     
   247145.471879499     
   247145.471879499     
   244866.973937109     
   244866.973937109     
   244866.973937109     
   244866.973937111     
   244866.973937113     
   244866.973937115     
   244866.973937120     
   244866.973937125     
   244866.973937131     
   244866.973937136     
   244866.973937139     
   244866.973937141     
   244866.973937144     
   244866.973937146     
   244866.973937147     
   244866.973937147     
   241870.665807625     
   241870.665807625     
   241870.665807626     
   241870.665807627     
   241870.665807630     
   241870.665807633     
   241870.665807638     
   241870.665807643     
   241870.665807649     
   241870.665807654     
   241870.665807659     
   241870.665807662     
   241870.665807665     
   241870.665807667     
   241870.665807668     
   241870.665807668     
   237930.411028414     
   237930.411028415     
   237930.411028416     
   237930.411028418     
   237930.411028421     
   237930.411028426     
   237930.411028430     
   237930.411028435     
   237930.411028441     
   237930.411028446     
   237930.411028450     
   237930.411028453     
   237930.411028456     
   237930.411028456     
   237930.411028456     
   237930.411028457     
   232748.831880285     
   232748.831880287     
   232748.831880290     
   232748.831880294     
   232748.831880299     
   232748.831880304     
   232748.831880309     
   232748.831880313     
   232748.831880318     
   232748.831880322     
   232748.831880324     
   232748.831880326     
   232748.831880327     
   232748.831880327     
   232748.831880326     
   232748.831880326     
   225934.865786024     
   225934.865786025     
   225934.865786028     
   225934.865786034     
   225934.865786041     
   225934.865786045     
   225934.865786048     
   225934.865786051     
   225934.865786054     
   225934.865786057     
   225934.865786060     
   225934.865786062     
   225934.865786063     
   225934.865786064     
   225934.865786064     
   225934.865786064     
   216974.251153605     
   216974.251153605     
   216974.251153608     
   216974.251153612     
   216974.251153616     
   216974.251153621     
   216974.251153624     
   216974.251153628     
   216974.251153631     
   216974.251153634     
   216974.251153638     
   216974.251153641     
   216974.251153643     
   216974.251153643     
   216974.251153644     
   216974.251153645     
   205190.715180575     
   205190.715180576     
   205190.715180579     
   205190.715180582     
   205190.715180585     
   205190.715180589     
   205190.715180593     
   205190.715180598     
   205190.715180603     
   205190.715180607     
   205190.715180610     
   205190.715180613     
   205190.715180615     
   205190.715180617     
   205190.715180617     
   205190.715180618     
   189694.934397281     
   189694.934397282     
   189694.934397283     
   189694.934397287     
   189694.934397291     
   189694.934397295     
   189694.934397300     
   189694.934397304     
   189694.934397308     
   189694.934397313     
   189694.934397316     
   189694.934397319     
   189694.934397321     
   189694.934397323     
   189694.934397323     
   189694.934397323     
   169317.415914421     
   169317.415914421     
   169317.415914423     
   169317.415914424     
   169317.415914427     
   169317.415914432     
   169317.415914438     
   169317.415914443     
   169317.415914447     
   169317.415914451     
   169317.415914453     
   169317.415914455     
   169317.415914456     
   169317.415914457     
   169317.415914458     
   169317.415914458     
   142520.233808763     
   142520.233808762     
   142520.233808760     
   142520.233808761     
   142520.233808763     
   142520.233808768     
   142520.233808774     
   142520.233808779     
   142520.233808784     
   142520.233808786     
   142520.233808787     
   142520.233808786     
   142520.233808786     
   142520.233808785     
   142520.233808784     
   142520.233808785     
   107280.959242135     
   107280.959242135     
   107280.959242135     
   107280.959242135     
   107280.959242137     
   107280.959242141     
   107280.959242147     
   107280.959242152     
   107280.959242153     
   107280.959242155     
   107280.959242154     
   107280.959242153     
   107280.959242150     
   107280.959242148     
   107280.959242147     
   107280.959242146     
   60940.0243227212     
   60940.0243227214     
   60940.0243227219     
   60940.0243227217     
   60940.0243227246     
   60940.0243227282     
   60940.0243227312     
   60940.0243227331     
   60940.0243227356     
   60940.0243227357     
   60940.0243227350     
   60940.0243227325     
   60940.0243227300     
   60940.0243227287     
   60940.0243227286     
   60940.0243227280     
  0.000000000000000E+000
  0.000000000000000E+000
  0.000000000000000E+000
  0.000000000000000E+000
  0.000000000000000E+000
  0.000000000000000E+000
  0.000000000000000E+000
  0.000000000000000E+000
  0.000000000000000E+000
  0.000000000000000E+000
  0.000000000000000E+000
  0.000000000000000E+000
  0.000000000000000E+000
  0.000000000000000E+000
  0.000000000000000E+000
  0.000000000000000E+000
VECTORS u double 
    0.00000E+00        -0.30525E-01         0.00000E+00
    0.00000E+00        -0.28490E-01         0.00000E+00
    0.00000E+00        -0.26455E-01         0.00000E+00
    0.00000E+00        -0.24420E-01         0.00000E+00
    0.00000E+00        -0.22385E-01         0.00000E+00
    0.00000E+00        -0.20350E-01         0.00000E+00
    0.00000E+00        -0.18315E-01         0.00000E+00
    0.00000E+00        -0.16280E-01         0.00000E+00
    0.00000E+00        -0.14245E-01         0.00000E+00
    0.00000E+00        -0.12210E-01         0.00000E+00
    0.00000E+00        -0.10175E-01         0.00000E+00
    0.00000E+00        -0.81401E-02         0.00000E+00
    0.00000E+00        -0.61051E-02         0.00000E+00
    0.00000E+00        -0.40700E-02         0.00000E+00
    0.00000E+00        -0.20350E-02         0.00000E+00
    0.00000E+00         0.00000E+00         0.00000E+00
    0.33917E-02        -0.30525E-01         0.00000E+00
    0.33917E-02        -0.28490E-01         0.00000E+00
    0.33917E-02        -0.26455E-01         0.00000E+00
    0.33917E-02        -0.24420E-01         0.00000E+00
    0.33917E-02        -0.22385E-01         0.00000E+00
    0.33917E-02        -0.20350E-01         0.00000E+00
    0.33917E-02        -0.18315E-01         0.00000E+00
    0.33917E-02        -0.16280E-01         0.00000E+00
    0.33917E-02        -0.14245E-01         0.00000E+00
    0.33917E-02        -0.12210E-01         0.00000E+00
    0.33917E-02        -0.10175E-01         0.00000E+00
    0.33917E-02        -0.81401E-02         0.00000E+00
    0.33917E-02        -0.61051E-02         0.00000E+00
    0.33917E-02        -0.40700E-02         0.00000E+00
    0.33917E-02        -0.20350E-02         0.00000E+00
    0.33917E-02         0.00000E+00         0.00000E+00
    0.67834E-02        -0.30525E-01         0.00000E+00
    0.67834E-02        -0.28490E-01         0.00000E+00
    0.67834E-02        -0.26455E-01         0.00000E+00
    0.67834E-02        -0.24420E-01         0.00000E+00
    0.67834E-02        -0.22385E-01         0.00000E+00
    0.67834E-02        -0.20350E-01         0.00000E+00
    0.67834E-02        -0.18315E-01         0.00000E+00
    0.67834E-02        -0.16280E-01         0.00000E+00
    0.67834E-02        -0.14245E-01         0.00000E+00
    0.67834E-02        -0.12210E-01         0.00000E+00
    0.67834E-02        -0.10175E-01         0.00000E+00
    0.67834E-02        -0.81401E-02         0.00000E+00
    0.67834E-02        -0.61051E-02         0.00000E+00
    0.67834E-02        -0.40700E-02         0.00000E+00
    0.67834E-02        -0.20350E-02         0.00000E+00
    0.67834E-02         0.00000E+00         0.00000E+00
    0.10175E-01        -0.30525E-01         0.00000E+00
    0.10175E-01        -0.28490E-01         0.00000E+00
    0.10175E-01        -0.26455E-01         0.00000E+00
    0.10175E-01        -0.24420E-01         0.00000E+00
    0.10175E-01        -0.22385E-01         0.00000E+00
    0.10175E-01        -0.20350E-01         0.00000E+00
    0.10175E-01        -0.18315E-01         0.00000E+00
    0.10175E-01        -0.16280E-01         0.00000E+00
    0.10175E-01        -0.14245E-01         0.00000E+00
    0.10175E-01        -0.12210E-01         0.00000E+00
    0.10175E-01        -0.10175E-01         0.00000E+00
    0.10175E-01        -0.81401E-02         0.00000E+00
    0.10175E-01        -0.61051E-02         0.00000E+00
    0.10175E-01        -0.40700E-02         0.00000E+00
    0.10175E-01        -0.20350E-02         0.00000E+00
    0.10175E-01         0.00000E+00         0.00000E+00
    0.13567E-01        -0.30525E-01         0.00000E+00
    0.13567E-01        -0.28490E-01         0.00000E+00
    0.13567E-01        -0.26455E-01         0.00000E+00
    0.13567E-01        -0.24420E-01         0.00000E+00
    0.13567E-01        -0.22385E-01         0.00000E+00
    0.13567E-01        -0.20350E-01         0.00000E+00
    0.13567E-01        -0.18315E-01         0.00000E+00
    0.13567E-01        -0.16280E-01         0.00000E+00
    0.13567E-01        -0.14245E-01         0.00000E+00
    0.13567E-01        -0.12210E-01         0.00000E+00
    0.13567E-01        -0.10175E-01         0.00000E+00
    0.13567E-01        -0.81401E-02         0.00000E+00
    0.13567E-01        -0.61051E-02         0.00000E+00
    0.13567E-01        -0.40700E-02         0.00000E+00
    0.13567E-01        -0.20350E-02         0.00000E+00
    0.13567E-01         0.00000E+00         0.00000E+00
    0.16959E-01        -0.30525E-01         0.00000E+00
    0.16959E-01        -0.28490E-01         0.00000E+00
    0.16959E-01        -0.26455E-01         0.00000E+00
    0.16959E-01        -0.24420E-01         0.00000E+00
    0.16959E-01        -0.22385E-01         0.00000E+00
    0.16959E-01        -0.20350E-01         0.00000E+00
    0.16959E-01        -0.18315E-01         0.00000E+00
    0.16959E-01        -0.16280E-01         0.00000E+00
    0.16959E-01        -0.14245E-01         0.00000E+00
    0.16959E-01        -0.12210E-01         0.00000E+00
    0.16959E-01        -0.10175E-01         0.00000E+00
    0.16959E-01        -0.81401E-02         0.00000E+00
    0.16959E-01        -0.61051E-02         0.00000E+00
    0.16959E-01        -0.40700E-02         0.00000E+00
    0.16959E-01        -0.20350E-02         0.00000E+00
    0.16959E-01         0.00000E+00         0.00000E+00
    0.20350E-01        -0.30525E-01         0.00000E+00
    0.20350E-01        -0.28490E-01         0.00000E+00
    0.20350E-01        -0.26455E-01         0.00000E+00
    0.20350E-01        -0.24420E-01         0.00000E+00
    0.20350E-01        -0.22385E-01         0.00000E+00
    0.20350E-01        -0.20350E-01         0.00000E+00
    0.20350E-01        -0.18315E-01         0.00000E+00
    0.20350E-01        -0.16280E-01         0.00000E+00
    0.20350E-01        -0.14245E-01         0.00000E+00
    0.20350E-01        -0.12210E-01         0.00000E+00
    0.20350E-01        -0.10175E-01         0.00000E+00
    0.20350E-01        -0.81401E-02         0.00000E+00
    0.20350E-01        -0.61051E-02         0.00000E+00
    0.20350E-01        -0.40700E-02         0.00000E+00
    0.20350E-01        -0.20350E-02         0.00000E+00
    0.20350E-01         0.00000E+00         0.00000E+00
    0.23742E-01        -0.30525E-01         0.00000E+00
    0.23742E-01        -0.28490E-01         0.00000E+00
    0.23742E-01        -0.26455E-01         0.00000E+00
    0.23742E-01        -0.24420E-01         0.00000E+00
    0.23742E-01        -0.22385E-01         0.00000E+00
    0.23742E-01        -0.20350E-01         0.00000E+00
    0.23742E-01        -0.18315E-01         0.00000E+00
    0.23742E-01        -0.16280E-01         0.00000E+00
    0.23742E-01        -0.14245E-01         0.00000E+00
    0.23742E-01        -0.12210E-01         0.00000E+00
    0.23742E-01        -0.10175E-01         0.00000E+00
    0.23742E-01        -0.81401E-02         0.00000E+00
    0.23742E-01        -0.61051E-02         0.00000E+00
    0.23742E-01        -0.40700E-02         0.00000E+00
    0.23742E-01        -0.20350E-02         0.00000E+00
    0.23742E-01         0.00000E+00         0.00000E+00
    0.27134E-01        -0.30525E-01         0.00000E+00
    0.27134E-01        -0.28490E-01         0.00000E+00
    0.27134E-01        -0.26455E-01         0.00000E+00
    0.27134E-01        -0.24420E-01         0.00000E+00
    0.27134E-01        -0.22385E-01         0.00000E+00
    0.27134E-01        -0.20350E-01         0.00000E+00
    0.27134E-01        -0.18315E-01         0.00000E+00
    0.27134E-01        -0.16280E-01         0.00000E+00
    0.27134E-01        -0.14245E-01         0.00000E+00
    0.27134E-01        -0.12210E-01         0.00000E+00
    0.27134E-01        -0.10175E-01         0.00000E+00
    0.27134E-01        -0.81401E-02         0.00000E+00
    0.27134E-01        -0.61051E-02         0.00000E+00
    0.27134E-01        -0.40700E-02         0.00000E+00
    0.27134E-01        -0.20350E-02         0.00000E+00
    0.27134E-01         0.00000E+00         0.00000E+00
    0.30525E-01        -0.30525E-01         0.00000E+00
    0.30525E-01        -0.28490E-01         0.00000E+00
    0.30525E-01        -0.26455E-01         0.00000E+00
    0.30525E-01        -0.24420E-01         0.00000E+00
    0.30525E-01        -0.22385E-01         0.00000E+00
    0.30525E-01        -0.20350E-01         0.00000E+00
    0.30525E-01        -0.18315E-01         0.00000E+00
    0.30525E-01        -0.16280E-01         0.00000E+00
    0.30525E-01        -0.14245E-01         0.00000E+00
    0.30525E-01        -0.12210E-01         0.00000E+00
    0.30525E-01        -0.10175E-01         0.00000E+00
    0.30525E-01        -0.81401E-02         0.00000E+00
    0.30525E-01        -0.61051E-02         0.00000E+00
    0.30525E-01        -0.40700E-02         0.00000E+00
    0.30525E-01        -0.20350E-02         0.00000E+00
    0.30525E-01         0.00000E+00         0.00000E+00
    0.33917E-01        -0.30525E-01         0.00000E+00
    0.33917E-01        -0.28490E-01         0.00000E+00
    0.33917E-01        -0.26455E-01         0.00000E+00
    0.33917E-01        -0.24420E-01         0.00000E+00
    0.33917E-01        -0.22385E-01         0.00000E+00
    0.33917E-01        -0.20350E-01         0.00000E+00
    0.33917E-01        -0.18315E-01         0.00000E+00
    0.33917E-01        -0.16280E-01         0.00000E+00
    0.33917E-01        -0.14245E-01         0.00000E+00
    0.33917E-01        -0.12210E-01         0.00000E+00
    0.33917E-01        -0.10175E-01         0.00000E+00
    0.33917E-01        -0.81401E-02         0.00000E+00
    0.33917E-01        -0.61051E-02         0.00000E+00
    0.33917E-01        -0.40700E-02         0.00000E+00
    0.33917E-01        -0.20350E-02         0.00000E+00
    0.33917E-01         0.00000E+00         0.00000E+00
    0.37309E-01        -0.30525E-01         0.00000E+00
    0.37309E-01        -0.28490E-01         0.00000E+00
    0.37309E-01        -0.26455E-01         0.00000E+00
    0.37309E-01        -0.24420E-01         0.00000E+00
    0.37309E-01        -0.22385E-01         0.00000E+00
    0.37309E-01        -0.20350E-01         0.00000E+00
    0.37309E-01        -0.18315E-01         0.00000E+00
    0.37309E-01        -0.16280E-01         0.00000E+00
    0.37309E-01        -0.14245E-01         0.00000E+00
    0.37309E-01        -0.12210E-01         0.00000E+00
    0.37309E-01        -0.10175E-01         0.00000E+00
    0.37309E-01        -0.81401E-02         0.00000E+00
    0.37309E-01        -0.61051E-02         0.00000E+00
    0.37309E-01        -0.40700E-02         0.00000E+00
    0.37309E-01        -0.20350E-02         0.00000E+00
    0.37309E-01         0.00000E+00         0.00000E+00
    0.40700E-01        -0.30525E-01         0.00000E+00
    0.40700E-01        -0.28490E-01         0.00000E+00
    0.40700E-01        -0.26455E-01         0.00000E+00
    0.40700E-01        -0.24420E-01         0.00000E+00
    0.40700E-01        -0.22385E-01         0.00000E+00
    0.40700E-01        -0.20350E-01         0.00000E+00
    0.40700E-01        -0.18315E-01         0.00000E+00
    0.40700E-01        -0.16280E-01         0.00000E+00
    0.40700E-01        -0.14245E-01         0.00000E+00
    0.40700E-01        -0.12210E-01         0.00000E+00
    0.40700E-01        -0.10175E-01         0.00000E+00
    0.40700E-01        -0.81401E-02         0.00000E+00
    0.40700E-01        -0.61051E-02         0.00000E+00
    0.40700E-01        -0.40700E-02         0.00000E+00
    0.40700E-01        -0.20350E-02         0.00000E+00
    0.40700E-01         0.00000E+00         0.00000E+00
    0.44092E-01        -0.30525E-01         0.00000E+00
    0.44092E-01        -0.28490E-01         0.00000E+00
    0.44092E-01        -0.26455E-01         0.00000E+00
    0.44092E-01        -0.24420E-01         0.00000E+00
    0.44092E-01        -0.22385E-01         0.00000E+00
    0.44092E-01        -0.20350E-01         0.00000E+00
    0.44092E-01        -0.18315E-01         0.00000E+00
    0.44092E-01        -0.16280E-01         0.00000E+00
    0.44092E-01        -0.14245E-01         0.00000E+00
    0.44092E-01        -0.12210E-01         0.00000E+00
    0.44092E-01        -0.10175E-01         0.00000E+00
    0.44092E-01        -0.81401E-02         0.00000E+00
    0.44092E-01        -0.61051E-02         0.00000E+00
    0.44092E-01        -0.40700E-02         0.00000E+00
    0.44092E-01        -0.20350E-02         0.00000E+00
    0.44092E-01         0.00000E+00         0.00000E+00
    0.47484E-01        -0.30525E-01         0.00000E+00
    0.47484E-01        -0.28490E-01         0.00000E+00
    0.47484E-01        -0.26455E-01         0.00000E+00
    0.47484E-01        -0.24420E-01         0.00000E+00
    0.47484E-01        -0.22385E-01         0.00000E+00
    0.47484E-01        -0.20350E-01         0.00000E+00
    0.47484E-01        -0.18315E-01         0.00000E+00
    0.47484E-01        -0.16280E-01         0.00000E+00
    0.47484E-01        -0.14245E-01         0.00000E+00
    0.47484E-01        -0.12210E-01         0.00000E+00
    0.47484E-01        -0.10175E-01         0.00000E+00
    0.47484E-01        -0.81401E-02         0.00000E+00
    0.47484E-01        -0.61051E-02         0.00000E+00
    0.47484E-01        -0.40700E-02         0.00000E+00
    0.47484E-01        -0.20350E-02         0.00000E+00
    0.47484E-01         0.00000E+00         0.00000E+00
    0.50876E-01        -0.30525E-01         0.00000E+00
    0.50876E-01        -0.28490E-01         0.00000E+00
    0.50876E-01        -0.26455E-01         0.00000E+00
    0.50876E-01        -0.24420E-01         0.00000E+00
    0.50876E-01        -0.22385E-01         0.00000E+00
    0.50876E-01        -0.20350E-01         0.00000E+00
    0.50876E-01        -0.18315E-01         0.00000E+00
    0.50876E-01        -0.16280E-01         0.00000E+00
    0.50876E-01        -0.14245E-01         0.00000E+00
    0.50876E-01        -0.12210E-01         0.00000E+00
    0.50876E-01        -0.10175E-01         0.00000E+00
    0.50876E-01        -0.81401E-02         0.00000E+00
    0.50876E-01        -0.61051E-02         0.00000E+00
    0.50876E-01        -0.40700E-02         0.00000E+00
    0.50876E-01        -0.20350E-02         0.00000E+00
    0.50876E-01         0.00000E+00         0.00000E+00
    0.54267E-01        -0.30525E-01         0.00000E+00
    0.54267E-01        -0.28490E-01         0.00000E+00
    0.54267E-01        -0.26455E-01         0.00000E+00
    0.54267E-01        -0.24420E-01         0.00000E+00
    0.54267E-01        -0.22385E-01         0.00000E+00
    0.54267E-01        -0.20350E-01         0.00000E+00
    0.54267E-01        -0.18315E-01         0.00000E+00
    0.54267E-01        -0.16280E-01         0.00000E+00
    0.54267E-01        -0.14245E-01         0.00000E+00
    0.54267E-01        -0.12210E-01         0.00000E+00
    0.54267E-01        -0.10175E-01         0.00000E+00
    0.54267E-01        -0.81401E-02         0.00000E+00
    0.54267E-01        -0.61051E-02         0.00000E+00
    0.54267E-01        -0.40700E-02         0.00000E+00
    0.54267E-01        -0.20350E-02         0.00000E+00
    0.54267E-01         0.00000E+00         0.00000E+00
    0.57659E-01        -0.30525E-01         0.00000E+00
    0.57659E-01        -0.28490E-01         0.00000E+00
    0.57659E-01        -0.26455E-01         0.00000E+00
    0.57659E-01        -0.24420E-01         0.00000E+00
    0.57659E-01        -0.22385E-01         0.00000E+00
    0.57659E-01        -0.20350E-01         0.00000E+00
    0.57659E-01        -0.18315E-01         0.00000E+00
    0.57659E-01        -0.16280E-01         0.00000E+00
    0.57659E-01        -0.14245E-01         0.00000E+00
    0.57659E-01        -0.12210E-01         0.00000E+00
    0.57659E-01        -0.10175E-01         0.00000E+00
    0.57659E-01        -0.81401E-02         0.00000E+00
    0.57659E-01        -0.61051E-02         0.00000E+00
    0.57659E-01        -0.40700E-02         0.00000E+00
    0.57659E-01        -0.20350E-02         0.00000E+00
    0.57659E-01         0.00000E+00         0.00000E+00
    0.61051E-01        -0.30525E-01         0.00000E+00
    0.61051E-01        -0.28490E-01         0.00000E+00
    0.61051E-01        -0.26455E-01         0.00000E+00
    0.61051E-01        -0.24420E-01         0.00000E+00
    0.61051E-01        -0.22385E-01         0.00000E+00
    0.61051E-01        -0.20350E-01         0.00000E+00
    0.61051E-01        -0.18315E-01         0.00000E+00
    0.61051E-01        -0.16280E-01         0.00000E+00
    0.61051E-01        -0.14245E-01         0.00000E+00
    0.61051E-01        -0.12210E-01         0.00000E+00
    0.61051E-01        -0.10175E-01         0.00000E+00
    0.61051E-01        -0.81401E-02         0.00000E+00
    0.61051E-01        -0.61051E-02         0.00000E+00
    0.61051E-01        -0.40700E-02         0.00000E+00
    0.61051E-01        -0.20350E-02         0.00000E+00
    0.61051E-01         0.00000E+00         0.00000E+00
    0.64442E-01        -0.30525E-01         0.00000E+00
    0.64442E-01        -0.28490E-01         0.00000E+00
    0.64442E-01        -0.26455E-01         0.00000E+00
    0.64442E-01        -0.24420E-01         0.00000E+00
    0.64442E-01        -0.22385E-01         0.00000E+00
    0.64442E-01        -0.20350E-01         0.00000E+00
    0.64442E-01        -0.18315E-01         0.00000E+00
    0.64442E-01        -0.16280E-01         0.00000E+00
    0.64442E-01        -0.14245E-01         0.00000E+00
    0.64442E-01        -0.12210E-01         0.00000E+00
    0.64442E-01        -0.10175E-01         0.00000E+00
    0.64442E-01        -0.81401E-02         0.00000E+00
    0.64442E-01        -0.61051E-02         0.00000E+00
    0.64442E-01        -0.40700E-02         0.00000E+00
    0.64442E-01        -0.20350E-02         0.00000E+00
    0.64442E-01         0.00000E+00         0.00000E+00
    0.67834E-01        -0.30525E-01         0.00000E+00
    0.67834E-01        -0.28490E-01         0.00000E+00
    0.67834E-01        -0.26455E-01         0.00000E+00
    0.67834E-01        -0.24420E-01         0.00000E+00
    0.67834E-01        -0.22385E-01         0.00000E+00
    0.67834E-01        -0.20350E-01         0.00000E+00
    0.67834E-01        -0.18315E-01         0.00000E+00
    0.67834E-01        -0.16280E-01         0.00000E+00
    0.67834E-01        -0.14245E-01         0.00000E+00
    0.67834E-01        -0.12210E-01         0.00000E+00
    0.67834E-01        -0.10175E-01         0.00000E+00
    0.67834E-01        -0.81401E-02         0.00000E+00
    0.67834E-01        -0.61051E-02         0.00000E+00
    0.67834E-01        -0.40700E-02         0.00000E+00
    0.67834E-01        -0.20350E-02         0.00000E+00
    0.67834E-01         0.00000E+00         0.00000E+00
    0.71226E-01        -0.30525E-01         0.00000E+00
    0.71226E-01        -0.28490E-01         0.00000E+00
    0.71226E-01        -0.26455E-01         0.00000E+00
    0.71226E-01        -0.24420E-01         0.00000E+00
    0.71226E-01        -0.22385E-01         0.00000E+00
    0.71226E-01        -0.20350E-01         0.00000E+00
    0.71226E-01        -0.18315E-01         0.00000E+00
    0.71226E-01        -0.16280E-01         0.00000E+00
    0.71226E-01        -0.14245E-01         0.00000E+00
    0.71226E-01        -0.12210E-01         0.00000E+00
    0.71226E-01        -0.10175E-01         0.00000E+00
    0.71226E-01        -0.81401E-02         0.00000E+00
    0.71226E-01        -0.61051E-02         0.00000E+00
    0.71226E-01        -0.40700E-02         0.00000E+00
    0.71226E-01        -0.20350E-02         0.00000E+00
    0.71226E-01         0.00000E+00         0.00000E+00
    0.74618E-01        -0.30525E-01         0.00000E+00
    0.74618E-01        -0.28490E-01         0.00000E+00
    0.74618E-01        -0.26455E-01         0.00000E+00
    0.74618E-01        -0.24420E-01         0.00000E+00
    0.74618E-01        -0.22385E-01         0.00000E+00
    0.74618E-01        -0.20350E-01         0.00000E+00
    0.74618E-01        -0.18315E-01         0.00000E+00
    0.74618E-01        -0.16280E-01         0.00000E+00
    0.74618E-01        -0.14245E-01         0.00000E+00
    0.74618E-01        -0.12210E-01         0.00000E+00
    0.74618E-01        -0.10175E-01         0.00000E+00
    0.74618E-01        -0.81401E-02         0.00000E+00
    0.74618E-01        -0.61051E-02         0.00000E+00
    0.74618E-01        -0.40700E-02         0.00000E+00
    0.74618E-01        -0.20350E-02         0.00000E+00
    0.74618E-01         0.00000E+00         0.00000E+00
    0.78009E-01        -0.30525E-01         0.00000E+00
    0.78009E-01        -0.28490E-01         0.00000E+00
    0.78009E-01        -0.26455E-01         0.00000E+00
    0.78009E-01        -0.24420E-01         0.00000E+00
    0.78009E-01        -0.22385E-01         0.00000E+00
    0.78009E-01        -0.20350E-01         0.00000E+00
    0.78009E-01        -0.18315E-01         0.00000E+00
    0.78009E-01        -0.16280E-01         0.00000E+00
    0.78009E-01        -0.14245E-01         0.00000E+00
    0.78009E-01        -0.12210E-01         0.00000E+00
    0.78009E-01        -0.10175E-01         0.00000E+00
    0.78009E-01        -0.81401E-02         0.00000E+00
    0.78009E-01        -0.61051E-02         0.00000E+00
    0.78009E-01        -0.40700E-02         0.00000E+00
    0.78009E-01        -0.20350E-02         0.00000E+00
    0.78009E-01         0.00000E+00         0.00000E+00
    0.81401E-01        -0.30525E-01         0.00000E+00
    0.81401E-01        -0.28490E-01         0.00000E+00
    0.81401E-01        -0.26455E-01         0.00000E+00
    0.81401E-01        -0.24420E-01         0.00000E+00
    0.81401E-01        -0.22385E-01         0.00000E+00
    0.81401E-01        -0.20350E-01         0.00000E+00
    0.81401E-01        -0.18315E-01         0.00000E+00
    0.81401E-01        -0.16280E-01         0.00000E+00
    0.81401E-01        -0.14245E-01         0.00000E+00
    0.81401E-01        -0.12210E-01         0.00000E+00
    0.81401E-01        -0.10175E-01         0.00000E+00
    0.81401E-01        -0.81401E-02         0.00000E+00
    0.81401E-01        -0.61051E-02         0.00000E+00
    0.81401E-01        -0.40700E-02         0.00000E+00
    0.81401E-01        -0.20350E-02         0.00000E+00
    0.81401E-01         0.00000E+00         0.00000E+00
    0.84793E-01        -0.30525E-01         0.00000E+00
    0.84793E-01        -0.28490E-01         0.00000E+00
    0.84793E-01        -0.26455E-01         0.00000E+00
    0.84793E-01        -0.24420E-01         0.00000E+00
    0.84793E-01        -0.22385E-01         0.00000E+00
    0.84793E-01        -0.20350E-01         0.00000E+00
    0.84793E-01        -0.18315E-01         0.00000E+00
    0.84793E-01        -0.16280E-01         0.00000E+00
    0.84793E-01        -0.14245E-01         0.00000E+00
    0.84793E-01        -0.12210E-01         0.00000E+00
    0.84793E-01        -0.10175E-01         0.00000E+00
    0.84793E-01        -0.81401E-02         0.00000E+00
    0.84793E-01        -0.61051E-02         0.00000E+00
    0.84793E-01        -0.40700E-02         0.00000E+00
    0.84793E-01        -0.20350E-02         0.00000E+00
    0.84793E-01         0.00000E+00         0.00000E+00
    0.88184E-01        -0.30525E-01         0.00000E+00
    0.88184E-01        -0.28490E-01         0.00000E+00
    0.88184E-01        -0.26455E-01         0.00000E+00
    0.88184E-01        -0.24420E-01         0.00000E+00
    0.88184E-01        -0.22385E-01         0.00000E+00
    0.88184E-01        -0.20350E-01         0.00000E+00
    0.88184E-01        -0.18315E-01         0.00000E+00
    0.88184E-01        -0.16280E-01         0.00000E+00
    0.88184E-01        -0.14245E-01         0.00000E+00
    0.88184E-01        -0.12210E-01         0.00000E+00
    0.88184E-01        -0.10175E-01         0.00000E+00
    0.88184E-01        -0.81401E-02         0.00000E+00
    0.88184E-01        -0.61051E-02         0.00000E+00
    0.88184E-01        -0.40700E-02         0.00000E+00
    0.88184E-01        -0.20350E-02         0.00000E+00
    0.88184E-01         0.00000E+00         0.00000E+00
    0.91576E-01        -0.30525E-01         0.00000E+00
    0.91576E-01        -0.28490E-01         0.00000E+00
    0.91576E-01        -0.26455E-01         0.00000E+00
    0.91576E-01        -0.24420E-01         0.00000E+00
    0.91576E-01        -0.22385E-01         0.00000E+00
    0.91576E-01        -0.20350E-01         0.00000E+00
    0.91576E-01        -0.18315E-01         0.00000E+00
    0.91576E-01        -0.16280E-01         0.00000E+00
    0.91576E-01        -0.14245E-01         0.00000E+00
    0.91576E-01        -0.12210E-01         0.00000E+00
    0.91576E-01        -0.10175E-01         0.00000E+00
    0.91576E-01        -0.81401E-02         0.00000E+00
    0.91576E-01        -0.61051E-02         0.00000E+00
    0.91576E-01        -0.40700E-02         0.00000E+00
    0.91576E-01        -0.20350E-02         0.00000E+00
    0.91576E-01         0.00000E+00         0.00000E+00
    0.94968E-01        -0.30525E-01         0.00000E+00
    0.94968E-01        -0.28490E-01         0.00000E+00
    0.94968E-01        -0.26455E-01         0.00000E+00
    0.94968E-01        -0.24420E-01         0.00000E+00
    0.94968E-01        -0.22385E-01         0.00000E+00
    0.94968E-01        -0.20350E-01         0.00000E+00
    0.94968E-01        -0.18315E-01         0.00000E+00
    0.94968E-01        -0.16280E-01         0.00000E+00
    0.94968E-01        -0.14245E-01         0.00000E+00
    0.94968E-01        -0.12210E-01         0.00000E+00
    0.94968E-01        -0.10175E-01         0.00000E+00
    0.94968E-01        -0.81401E-02         0.00000E+00
    0.94968E-01        -0.61051E-02         0.00000E+00
    0.94968E-01        -0.40700E-02         0.00000E+00
    0.94968E-01        -0.20350E-02         0.00000E+00
    0.94968E-01         0.00000E+00         0.00000E+00
    0.98359E-01        -0.30525E-01         0.00000E+00
    0.98359E-01        -0.28490E-01         0.00000E+00
    0.98359E-01        -0.26455E-01         0.00000E+00
    0.98359E-01        -0.24420E-01         0.00000E+00
    0.98359E-01        -0.22385E-01         0.00000E+00
    0.98359E-01        -0.20350E-01         0.00000E+00
    0.98359E-01        -0.18315E-01         0.00000E+00
    0.98359E-01        -0.16280E-01         0.00000E+00
    0.98359E-01        -0.14245E-01         0.00000E+00
    0.98359E-01        -0.12210E-01         0.00000E+00
    0.98359E-01        -0.10175E-01         0.00000E+00
    0.98359E-01        -0.81401E-02         0.00000E+00
    0.98359E-01        -0.61051E-02         0.00000E+00
    0.98359E-01        -0.40700E-02         0.00000E+00
    0.98359E-01        -0.20350E-02         0.00000E+00
    0.98359E-01         0.00000E+00         0.00000E+00
    0.10175E+00        -0.30525E-01         0.00000E+00
    0.10175E+00        -0.28490E-01         0.00000E+00
    0.10175E+00        -0.26455E-01         0.00000E+00
    0.10175E+00        -0.24420E-01         0.00000E+00
    0.10175E+00        -0.22385E-01         0.00000E+00
    0.10175E+00        -0.20350E-01         0.00000E+00
    0.10175E+00        -0.18315E-01         0.00000E+00
    0.10175E+00        -0.16280E-01         0.00000E+00
    0.10175E+00        -0.14245E-01         0.00000E+00
    0.10175E+00        -0.12210E-01         0.00000E+00
    0.10175E+00        -0.10175E-01         0.00000E+00
    0.10175E+00        -0.81401E-02         0.00000E+00
    0.10175E+00        -0.61051E-02         0.00000E+00
    0.10175E+00        -0.40700E-02         0.00000E+00
    0.10175E+00        -0.20350E-02         0.00000E+00
    0.10175E+00         0.00000E+00         0.00000E+00
    0.10514E+00        -0.30525E-01         0.00000E+00
    0.10514E+00        -0.28490E-01         0.00000E+00
    0.10514E+00        -0.26455E-01         0.00000E+00
    0.10514E+00        -0.24420E-01         0.00000E+00
    0.10514E+00        -0.22385E-01         0.00000E+00
    0.10514E+00        -0.20350E-01         0.00000E+00
    0.10514E+00        -0.18315E-01         0.00000E+00
    0.10514E+00        -0.16280E-01         0.00000E+00
    0.10514E+00        -0.14245E-01         0.00000E+00
    0.10514E+00        -0.12210E-01         0.00000E+00
    0.10514E+00        -0.10175E-01         0.00000E+00
    0.10514E+00        -0.81401E-02         0.00000E+00
    0.10514E+00        -0.61051E-02         0.00000E+00
    0.10514E+00        -0.40700E-02         0.00000E+00
    0.10514E+00        -0.20350E-02         0.00000E+00
    0.10514E+00         0.00000E+00         0.00000E+00
    0.10853E+00        -0.30525E-01         0.00000E+00
    0.10853E+00        -0.28490E-01         0.00000E+00
    0.10853E+00        -0.26455E-01         0.00000E+00
    0.10853E+00        -0.24420E-01         0.00000E+00
    0.10853E+00        -0.22385E-01         0.00000E+00
    0.10853E+00        -0.20350E-01         0.00000E+00
    0.10853E+00        -0.18315E-01         0.00000E+00
    0.10853E+00        -0.16280E-01         0.00000E+00
    0.10853E+00        -0.14245E-01         0.00000E+00
    0.10853E+00        -0.12210E-01         0.00000E+00
    0.10853E+00        -0.10175E-01         0.00000E+00
    0.10853E+00        -0.81401E-02         0.00000E+00
    0.10853E+00        -0.61051E-02         0.00000E+00
    0.10853E+00        -0.40700E-02         0.00000E+00
    0.10853E+00        -0.20350E-02         0.00000E+00
    0.10853E+00         0.00000E+00         0.00000E+00
    0.11193E+00        -0.30525E-01         0.00000E+00
    0.11193E+00        -0.28490E-01         0.00000E+00
    0.11193E+00        -0.26455E-01         0.00000E+00
    0.11193E+00        -0.24420E-01         0.00000E+00
    0.11193E+00        -0.22385E-01         0.00000E+00
    0.11193E+00        -0.20350E-01         0.00000E+00
    0.11193E+00        -0.18315E-01         0.00000E+00
    0.11193E+00        -0.16280E-01         0.00000E+00
    0.11193E+00        -0.14245E-01         0.00000E+00
    0.11193E+00        -0.12210E-01         0.00000E+00
    0.11193E+00        -0.10175E-01         0.00000E+00
    0.11193E+00        -0.81401E-02         0.00000E+00
    0.11193E+00        -0.61051E-02         0.00000E+00
    0.11193E+00        -0.40700E-02         0.00000E+00
    0.11193E+00        -0.20350E-02         0.00000E+00
    0.11193E+00         0.00000E+00         0.00000E+00
    0.11532E+00        -0.30525E-01         0.00000E+00
    0.11532E+00        -0.28490E-01         0.00000E+00
    0.11532E+00        -0.26455E-01         0.00000E+00
    0.11532E+00        -0.24420E-01         0.00000E+00
    0.11532E+00        -0.22385E-01         0.00000E+00
    0.11532E+00        -0.20350E-01         0.00000E+00
    0.11532E+00        -0.18315E-01         0.00000E+00
    0.11532E+00        -0.16280E-01         0.00000E+00
    0.11532E+00        -0.14245E-01         0.00000E+00
    0.11532E+00        -0.12210E-01         0.00000E+00
    0.11532E+00        -0.10175E-01         0.00000E+00
    0.11532E+00        -0.81401E-02         0.00000E+00
    0.11532E+00        -0.61051E-02         0.00000E+00
    0.11532E+00        -0.40700E-02         0.00000E+00
    0.11532E+00        -0.20350E-02         0.00000E+00
    0.11532E+00         0.00000E+00         0.00000E+00
    0.11871E+00        -0.30525E-01         0.00000E+00
    0.11871E+00        -0.28490E-01         0.00000E+00
    0.11871E+00        -0.26455E-01         0.00000E+00
    0.11871E+00        -0.24420E-01         0.00000E+00
    0.11871E+00        -0.22385E-01         0.00000E+00
    0.11871E+00        -0.20350E-01         0.00000E+00
    0.11871E+00        -0.18315E-01         0.00000E+00
    0.11871E+00        -0.16280E-01         0.00000E+00
    0.11871E+00        -0.14245E-01         0.00000E+00
    0.11871E+00        -0.12210E-01         0.00000E+00
    0.11871E+00        -0.10175E-01         0.00000E+00
    0.11871E+00        -0.81401E-02         0.00000E+00
    0.11871E+00        -0.61051E-02         0.00000E+00
    0.11871E+00        -0.40700E-02         0.00000E+00
    0.11871E+00        -0.20350E-02         0.00000E+00
    0.11871E+00         0.00000E+00         0.00000E+00
    0.12210E+00        -0.30525E-01         0.00000E+00
    0.12210E+00        -0.28490E-01         0.00000E+00
    0.12210E+00        -0.26455E-01         0.00000E+00
    0.12210E+00        -0.24420E-01         0.00000E+00
    0.12210E+00        -0.22385E-01         0.00000E+00
    0.12210E+00        -0.20350E-01         0.00000E+00
    0.12210E+00        -0.18315E-01         0.00000E+00
    0.12210E+00        -0.16280E-01         0.00000E+00
    0.12210E+00        -0.14245E-01         0.00000E+00
    0.12210E+00        -0.12210E-01         0.00000E+00
    0.12210E+00        -0.10175E-01         0.00000E+00
    0.12210E+00        -0.81401E-02         0.00000E+00
    0.12210E+00        -0.61051E-02         0.00000E+00
    0.12210E+00        -0.40700E-02         0.00000E+00
    0.12210E+00        -0.20350E-02         0.00000E+00
    0.12210E+00         0.00000E+00         0.00000E+00
    0.12549E+00        -0.30525E-01         0.00000E+00
    0.12549E+00        -0.28490E-01         0.00000E+00
    0.12549E+00        -0.26455E-01         0.00000E+00
    0.12549E+00        -0.24420E-01         0.00000E+00
    0.12549E+00        -0.22385E-01         0.00000E+00
    0.12549E+00        -0.20350E-01         0.00000E+00
    0.12549E+00        -0.18315E-01         0.00000E+00
    0.12549E+00        -0.16280E-01         0.00000E+00
    0.12549E+00        -0.14245E-01         0.00000E+00
    0.12549E+00        -0.12210E-01         0.00000E+00
    0.12549E+00        -0.10175E-01         0.00000E+00
    0.12549E+00        -0.81401E-02         0.00000E+00
    0.12549E+00        -0.61051E-02         0.00000E+00
    0.12549E+00        -0.40700E-02         0.00000E+00
    0.12549E+00        -0.20350E-02         0.00000E+00
    0.12549E+00         0.00000E+00         0.00000E+00
    0.12888E+00        -0.30525E-01         0.00000E+00
    0.12888E+00        -0.28490E-01         0.00000E+00
    0.12888E+00        -0.26455E-01         0.00000E+00
    0.12888E+00        -0.24420E-01         0.00000E+00
    0.12888E+00        -0.22385E-01         0.00000E+00
    0.12888E+00        -0.20350E-01         0.00000E+00
    0.12888E+00        -0.18315E-01         0.00000E+00
    0.12888E+00        -0.16280E-01         0.00000E+00
    0.12888E+00        -0.14245E-01         0.00000E+00
    0.12888E+00        -0.12210E-01         0.00000E+00
    0.12888E+00        -0.10175E-01         0.00000E+00
    0.12888E+00        -0.81401E-02         0.00000E+00
    0.12888E+00        -0.61051E-02         0.00000E+00
    0.12888E+00        -0.40700E-02         0.00000E+00
    0.12888E+00        -0.20350E-02         0.00000E+00
    0.12888E+00         0.00000E+00         0.00000E+00
    0.13228E+00        -0.30525E-01         0.00000E+00
    0.13228E+00        -0.28490E-01         0.00000E+00
    0.13228E+00        -0.26455E-01         0.00000E+00
    0.13228E+00        -0.24420E-01         0.00000E+00
    0.13228E+00        -0.22385E-01         0.00000E+00
    0.13228E+00        -0.20350E-01         0.00000E+00
    0.13228E+00        -0.18315E-01         0.00000E+00
    0.13228E+00        -0.16280E-01         0.00000E+00
    0.13228E+00        -0.14245E-01         0.00000E+00
    0.13228E+00        -0.12210E-01         0.00000E+00
    0.13228E+00        -0.10175E-01         0.00000E+00
    0.13228E+00        -0.81401E-02         0.00000E+00
    0.13228E+00        -0.61051E-02         0.00000E+00
    0.13228E+00        -0.40700E-02         0.00000E+00
    0.13228E+00        -0.20350E-02         0.00000E+00
    0.13228E+00         0.00000E+00         0.00000E+00
    0.13567E+00        -0.30525E-01         0.00000E+00
    0.13567E+00        -0.28490E-01         0.00000E+00
    0.13567E+00        -0.26455E-01         0.00000E+00
    0.13567E+00        -0.24420E-01         0.00000E+00
    0.13567E+00        -0.22385E-01         0.00000E+00
    0.13567E+00        -0.20350E-01         0.00000E+00
    0.13567E+00        -0.18315E-01         0.00000E+00
    0.13567E+00        -0.16280E-01         0.00000E+00
    0.13567E+00        -0.14245E-01         0.00000E+00
    0.13567E+00        -0.12210E-01         0.00000E+00
    0.13567E+00        -0.10175E-01         0.00000E+00
    0.13567E+00        -0.81401E-02         0.00000E+00
    0.13567E+00        -0.61051E-02         0.00000E+00
    0.13567E+00        -0.40700E-02         0.00000E+00
    0.13567E+00        -0.20350E-02         0.00000E+00
    0.13567E+00         0.00000E+00         0.00000E+00
    0.13906E+00        -0.30525E-01         0.00000E+00
    0.13906E+00        -0.28490E-01         0.00000E+00
    0.13906E+00        -0.26455E-01         0.00000E+00
    0.13906E+00        -0.24420E-01         0.00000E+00
    0.13906E+00        -0.22385E-01         0.00000E+00
    0.13906E+00        -0.20350E-01         0.00000E+00
    0.13906E+00        -0.18315E-01         0.00000E+00
    0.13906E+00        -0.16280E-01         0.00000E+00
    0.13906E+00        -0.14245E-01         0.00000E+00
    0.13906E+00        -0.12210E-01         0.00000E+00
    0.13906E+00        -0.10175E-01         0.00000E+00
    0.13906E+00        -0.81401E-02         0.00000E+00
    0.13906E+00        -0.61051E-02         0.00000E+00
    0.13906E+00        -0.40700E-02         0.00000E+00
    0.13906E+00        -0.20350E-02         0.00000E+00
    0.13906E+00         0.00000E+00         0.00000E+00
    0.14245E+00        -0.30525E-01         0.00000E+00
    0.14245E+00        -0.28490E-01         0.00000E+00
    0.14245E+00        -0.26455E-01         0.00000E+00
    0.14245E+00        -0.24420E-01         0.00000E+00
    0.14245E+00        -0.22385E-01         0.00000E+00
    0.14245E+00        -0.20350E-01         0.00000E+00
    0.14245E+00        -0.18315E-01         0.00000E+00
    0.14245E+00        -0.16280E-01         0.00000E+00
    0.14245E+00        -0.14245E-01         0.00000E+00
    0.14245E+00        -0.12210E-01         0.00000E+00
    0.14245E+00        -0.10175E-01         0.00000E+00
    0.14245E+00        -0.81401E-02         0.00000E+00
    0.14245E+00        -0.61051E-02         0.00000E+00
    0.14245E+00        -0.40700E-02         0.00000E+00
    0.14245E+00        -0.20350E-02         0.00000E+00
    0.14245E+00         0.00000E+00         0.00000E+00
    0.14584E+00        -0.30525E-01         0.00000E+00
    0.14584E+00        -0.28490E-01         0.00000E+00
    0.14584E+00        -0.26455E-01         0.00000E+00
    0.14584E+00        -0.24420E-01         0.00000E+00
    0.14584E+00        -0.22385E-01         0.00000E+00
    0.14584E+00        -0.20350E-01         0.00000E+00
    0.14584E+00        -0.18315E-01         0.00000E+00
    0.14584E+00        -0.16280E-01         0.00000E+00
    0.14584E+00        -0.14245E-01         0.00000E+00
    0.14584E+00        -0.12210E-01         0.00000E+00
    0.14584E+00        -0.10175E-01         0.00000E+00
    0.14584E+00        -0.81401E-02         0.00000E+00
    0.14584E+00        -0.61051E-02         0.00000E+00
    0.14584E+00        -0.40700E-02         0.00000E+00
    0.14584E+00        -0.20350E-02         0.00000E+00
    0.14584E+00         0.00000E+00         0.00000E+00
    0.14924E+00        -0.30525E-01         0.00000E+00
    0.14924E+00        -0.28490E-01         0.00000E+00
    0.14924E+00        -0.26455E-01         0.00000E+00
    0.14924E+00        -0.24420E-01         0.00000E+00
    0.14924E+00        -0.22385E-01         0.00000E+00
    0.14924E+00        -0.20350E-01         0.00000E+00
    0.14924E+00        -0.18315E-01         0.00000E+00
    0.14924E+00        -0.16280E-01         0.00000E+00
    0.14924E+00        -0.14245E-01         0.00000E+00
    0.14924E+00        -0.12210E-01         0.00000E+00
    0.14924E+00        -0.10175E-01         0.00000E+00
    0.14924E+00        -0.81401E-02         0.00000E+00
    0.14924E+00        -0.61051E-02         0.00000E+00
    0.14924E+00        -0.40700E-02         0.00000E+00
    0.14924E+00        -0.20350E-02         0.00000E+00
    0.14924E+00         0.00000E+00         0.00000E+00
    0.15263E+00        -0.30525E-01         0.00000E+00
    0.15263E+00        -0.28490E-01         0.00000E+00
    0.15263E+00        -0.26455E-01         0.00000E+00
    0.15263E+00        -0.24420E-01         0.00000E+00
    0.15263E+00        -0.22385E-01         0.00000E+00
    0.15263E+00        -0.20350E-01         0.00000E+00
    0.15263E+00        -0.18315E-01         0.00000E+00
    0.15263E+00        -0.16280E-01         0.00000E+00
    0.15263E+00        -0.14245E-01         0.00000E+00
    0.15263E+00        -0.12210E-01         0.00000E+00
    0.15263E+00        -0.10175E-01         0.00000E+00
    0.15263E+00        -0.81401E-02         0.00000E+00
    0.15263E+00        -0.61051E-02         0.00000E+00
    0.15263E+00        -0.40700E-02         0.00000E+00
    0.15263E+00        -0.20350E-02         0.00000E+00
    0.15263E+00         0.00000E+00         0.00000E+00
    0.15602E+00        -0.30525E-01         0.00000E+00
    0.15602E+00        -0.28490E-01         0.00000E+00
    0.15602E+00        -0.26455E-01         0.00000E+00
    0.15602E+00        -0.24420E-01         0.00000E+00
    0.15602E+00        -0.22385E-01         0.00000E+00
    0.15602E+00        -0.20350E-01         0.00000E+00
    0.15602E+00        -0.18315E-01         0.00000E+00
    0.15602E+00        -0.16280E-01         0.00000E+00
    0.15602E+00        -0.14245E-01         0.00000E+00
    0.15602E+00        -0.12210E-01         0.00000E+00
    0.15602E+00        -0.10175E-01         0.00000E+00
    0.15602E+00        -0.81401E-02         0.00000E+00
    0.15602E+00        -0.61051E-02         0.00000E+00
    0.15602E+00        -0.40700E-02         0.00000E+00
    0.15602E+00        -0.20350E-02         0.00000E+00
    0.15602E+00         0.00000E+00         0.00000E+00
    0.15941E+00        -0.30525E-01         0.00000E+00
    0.15941E+00        -0.28490E-01         0.00000E+00
    0.15941E+00        -0.26455E-01         0.00000E+00
    0.15941E+00        -0.24420E-01         0.00000E+00
    0.15941E+00        -0.22385E-01         0.00000E+00
    0.15941E+00        -0.20350E-01         0.00000E+00
    0.15941E+00        -0.18315E-01         0.00000E+00
    0.15941E+00        -0.16280E-01         0.00000E+00
    0.15941E+00        -0.14245E-01         0.00000E+00
    0.15941E+00        -0.12210E-01         0.00000E+00
    0.15941E+00        -0.10175E-01         0.00000E+00
    0.15941E+00        -0.81401E-02         0.00000E+00
    0.15941E+00        -0.61051E-02         0.00000E+00
    0.15941E+00        -0.40700E-02         0.00000E+00
    0.15941E+00        -0.20350E-02         0.00000E+00
    0.15941E+00         0.00000E+00         0.00000E+00
    0.16280E+00        -0.30525E-01         0.00000E+00
    0.16280E+00        -0.28490E-01         0.00000E+00
    0.16280E+00        -0.26455E-01         0.00000E+00
    0.16280E+00        -0.24420E-01         0.00000E+00
    0.16280E+00        -0.22385E-01         0.00000E+00
    0.16280E+00        -0.20350E-01         0.00000E+00
    0.16280E+00        -0.18315E-01         0.00000E+00
    0.16280E+00        -0.16280E-01         0.00000E+00
    0.16280E+00        -0.14245E-01         0.00000E+00
    0.16280E+00        -0.12210E-01         0.00000E+00
    0.16280E+00        -0.10175E-01         0.00000E+00
    0.16280E+00        -0.81401E-02         0.00000E+00
    0.16280E+00        -0.61051E-02         0.00000E+00
    0.16280E+00        -0.40700E-02         0.00000E+00
    0.16280E+00        -0.20350E-02         0.00000E+00
    0.16280E+00         0.00000E+00         0.00000E+00
    0.16619E+00        -0.30525E-01         0.00000E+00
    0.16619E+00        -0.28490E-01         0.00000E+00
    0.16619E+00        -0.26455E-01         0.00000E+00
    0.16619E+00        -0.24420E-01         0.00000E+00
    0.16619E+00        -0.22385E-01         0.00000E+00
    0.16619E+00        -0.20350E-01         0.00000E+00
    0.16619E+00        -0.18315E-01         0.00000E+00
    0.16619E+00        -0.16280E-01         0.00000E+00
    0.16619E+00        -0.14245E-01         0.00000E+00
    0.16619E+00        -0.12210E-01         0.00000E+00
    0.16619E+00        -0.10175E-01         0.00000E+00
    0.16619E+00        -0.81401E-02         0.00000E+00
    0.16619E+00        -0.61051E-02         0.00000E+00
    0.16619E+00        -0.40700E-02         0.00000E+00
    0.16619E+00        -0.20350E-02         0.00000E+00
    0.16619E+00         0.00000E+00         0.00000E+00
    0.16959E+00        -0.30525E-01         0.00000E+00
    0.16959E+00        -0.28490E-01         0.00000E+00
    0.16959E+00        -0.26455E-01         0.00000E+00
    0.16959E+00        -0.24420E-01         0.00000E+00
    0.16959E+00        -0.22385E-01         0.00000E+00
    0.16959E+00        -0.20350E-01         0.00000E+00
    0.16959E+00        -0.18315E-01         0.00000E+00
    0.16959E+00        -0.16280E-01         0.00000E+00
    0.16959E+00        -0.14245E-01         0.00000E+00
    0.16959E+00        -0.12210E-01         0.00000E+00
    0.16959E+00        -0.10175E-01         0.00000E+00
    0.16959E+00        -0.81401E-02         0.00000E+00
    0.16959E+00        -0.61051E-02         0.00000E+00
    0.16959E+00        -0.40700E-02         0.00000E+00
    0.16959E+00        -0.20350E-02         0.00000E+00
    0.16959E+00         0.00000E+00         0.00000E+00
    0.17298E+00        -0.30525E-01         0.00000E+00
    0.17298E+00        -0.28490E-01         0.00000E+00
    0.17298E+00        -0.26455E-01         0.00000E+00
    0.17298E+00        -0.24420E-01         0.00000E+00
    0.17298E+00        -0.22385E-01         0.00000E+00
    0.17298E+00        -0.20350E-01         0.00000E+00
    0.17298E+00        -0.18315E-01         0.00000E+00
    0.17298E+00        -0.16280E-01         0.00000E+00
    0.17298E+00        -0.14245E-01         0.00000E+00
    0.17298E+00        -0.12210E-01         0.00000E+00
    0.17298E+00        -0.10175E-01         0.00000E+00
    0.17298E+00        -0.81401E-02         0.00000E+00
    0.17298E+00        -0.61051E-02         0.00000E+00
    0.17298E+00        -0.40700E-02         0.00000E+00
    0.17298E+00        -0.20350E-02         0.00000E+00
    0.17298E+00         0.00000E+00         0.00000E+00
    0.17637E+00        -0.30525E-01         0.00000E+00
    0.17637E+00        -0.28490E-01         0.00000E+00
    0.17637E+00        -0.26455E-01         0.00000E+00
    0.17637E+00        -0.24420E-01         0.00000E+00
    0.17637E+00        -0.22385E-01         0.00000E+00
    0.17637E+00        -0.20350E-01         0.00000E+00
    0.17637E+00        -0.18315E-01         0.00000E+00
    0.17637E+00        -0.16280E-01         0.00000E+00
    0.17637E+00        -0.14245E-01         0.00000E+00
    0.17637E+00        -0.12210E-01         0.00000E+00
    0.17637E+00        -0.10175E-01         0.00000E+00
    0.17637E+00        -0.81401E-02         0.00000E+00
    0.17637E+00        -0.61051E-02         0.00000E+00
    0.17637E+00        -0.40700E-02         0.00000E+00
    0.17637E+00        -0.20350E-02         0.00000E+00
    0.17637E+00         0.00000E+00         0.00000E+00
    0.17976E+00        -0.30525E-01         0.00000E+00
    0.17976E+00        -0.28490E-01         0.00000E+00
    0.17976E+00        -0.26455E-01         0.00000E+00
    0.17976E+00        -0.24420E-01         0.00000E+00
    0.17976E+00        -0.22385E-01         0.00000E+00
    0.17976E+00        -0.20350E-01         0.00000E+00
    0.17976E+00        -0.18315E-01         0.00000E+00
    0.17976E+00        -0.16280E-01         0.00000E+00
    0.17976E+00        -0.14245E-01         0.00000E+00
    0.17976E+00        -0.12210E-01         0.00000E+00
    0.17976E+00        -0.10175E-01         0.00000E+00
    0.17976E+00        -0.81401E-02         0.00000E+00
    0.17976E+00        -0.61051E-02         0.00000E+00
    0.17976E+00        -0.40700E-02         0.00000E+00
    0.17976E+00        -0.20350E-02         0.00000E+00
    0.17976E+00         0.00000E+00         0.00000E+00
    0.18315E+00        -0.30525E-01         0.00000E+00
    0.18315E+00        -0.28490E-01         0.00000E+00
    0.18315E+00        -0.26455E-01         0.00000E+00
    0.18315E+00        -0.24420E-01         0.00000E+00
    0.18315E+00        -0.22385E-01         0.00000E+00
    0.18315E+00        -0.20350E-01         0.00000E+00
    0.18315E+00        -0.18315E-01         0.00000E+00
    0.18315E+00        -0.16280E-01         0.00000E+00
    0.18315E+00        -0.14245E-01         0.00000E+00
    0.18315E+00        -0.12210E-01         0.00000E+00
    0.18315E+00        -0.10175E-01         0.00000E+00
    0.18315E+00        -0.81401E-02         0.00000E+00
    0.18315E+00        -0.61051E-02         0.00000E+00
    0.18315E+00        -0.40700E-02         0.00000E+00
    0.18315E+00        -0.20350E-02         0.00000E+00
    0.18315E+00         0.00000E+00         0.00000E+00
    0.18654E+00        -0.30525E-01         0.00000E+00
    0.18654E+00        -0.28490E-01         0.00000E+00
    0.18654E+00        -0.26455E-01         0.00000E+00
    0.18654E+00        -0.24420E-01         0.00000E+00
    0.18654E+00        -0.22385E-01         0.00000E+00
    0.18654E+00        -0.20350E-01         0.00000E+00
    0.18654E+00        -0.18315E-01         0.00000E+00
    0.18654E+00        -0.16280E-01         0.00000E+00
    0.18654E+00        -0.14245E-01         0.00000E+00
    0.18654E+00        -0.12210E-01         0.00000E+00
    0.18654E+00        -0.10175E-01         0.00000E+00
    0.18654E+00        -0.81401E-02         0.00000E+00
    0.18654E+00        -0.61051E-02         0.00000E+00
    0.18654E+00        -0.40700E-02         0.00000E+00
    0.18654E+00        -0.20350E-02         0.00000E+00
    0.18654E+00         0.00000E+00         0.00000E+00
    0.18993E+00        -0.30525E-01         0.00000E+00
    0.18993E+00        -0.28490E-01         0.00000E+00
    0.18993E+00        -0.26455E-01         0.00000E+00
    0.18993E+00        -0.24420E-01         0.00000E+00
    0.18993E+00        -0.22385E-01         0.00000E+00
    0.18993E+00        -0.20350E-01         0.00000E+00
    0.18993E+00        -0.18315E-01         0.00000E+00
    0.18993E+00        -0.16280E-01         0.00000E+00
    0.18993E+00        -0.14245E-01         0.00000E+00
    0.18993E+00        -0.12210E-01         0.00000E+00
    0.18993E+00        -0.10175E-01         0.00000E+00
    0.18993E+00        -0.81401E-02         0.00000E+00
    0.18993E+00        -0.61051E-02         0.00000E+00
    0.18993E+00        -0.40700E-02         0.00000E+00
    0.18993E+00        -0.20350E-02         0.00000E+00
    0.18993E+00         0.00000E+00         0.00000E+00
    0.19333E+00        -0.30525E-01         0.00000E+00
    0.19333E+00        -0.28490E-01         0.00000E+00
    0.19333E+00        -0.26455E-01         0.00000E+00
    0.19333E+00        -0.24420E-01         0.00000E+00
    0.19333E+00        -0.22385E-01         0.00000E+00
    0.19333E+00        -0.20350E-01         0.00000E+00
    0.19333E+00        -0.18315E-01         0.00000E+00
    0.19333E+00        -0.16280E-01         0.00000E+00
    0.19333E+00        -0.14245E-01         0.00000E+00
    0.19333E+00        -0.12210E-01         0.00000E+00
    0.19333E+00        -0.10175E-01         0.00000E+00
    0.19333E+00        -0.81401E-02         0.00000E+00
    0.19333E+00        -0.61051E-02         0.00000E+00
    0.19333E+00        -0.40700E-02         0.00000E+00
    0.19333E+00        -0.20350E-02         0.00000E+00
    0.19333E+00         0.00000E+00         0.00000E+00
    0.19672E+00        -0.30525E-01         0.00000E+00
    0.19672E+00        -0.28490E-01         0.00000E+00
    0.19672E+00        -0.26455E-01         0.00000E+00
    0.19672E+00        -0.24420E-01         0.00000E+00
    0.19672E+00        -0.22385E-01         0.00000E+00
    0.19672E+00        -0.20350E-01         0.00000E+00
    0.19672E+00        -0.18315E-01         0.00000E+00
    0.19672E+00        -0.16280E-01         0.00000E+00
    0.19672E+00        -0.14245E-01         0.00000E+00
    0.19672E+00        -0.12210E-01         0.00000E+00
    0.19672E+00        -0.10175E-01         0.00000E+00
    0.19672E+00        -0.81401E-02         0.00000E+00
    0.19672E+00        -0.61051E-02         0.00000E+00
    0.19672E+00        -0.40700E-02         0.00000E+00
    0.19672E+00        -0.20350E-02         0.00000E+00
    0.19672E+00         0.00000E+00         0.00000E+00
    0.20011E+00        -0.30525E-01         0.00000E+00
    0.20011E+00        -0.28490E-01         0.00000E+00
    0.20011E+00        -0.26455E-01         0.00000E+00
    0.20011E+00        -0.24420E-01         0.00000E+00
    0.20011E+00        -0.22385E-01         0.00000E+00
    0.20011E+00        -0.20350E-01         0.00000E+00
    0.20011E+00        -0.18315E-01         0.00000E+00
    0.20011E+00        -0.16280E-01         0.00000E+00
    0.20011E+00        -0.14245E-01         0.00000E+00
    0.20011E+00        -0.12210E-01         0.00000E+00
    0.20011E+00        -0.10175E-01         0.00000E+00
    0.20011E+00        -0.81401E-02         0.00000E+00
    0.20011E+00        -0.61051E-02         0.00000E+00
    0.20011E+00        -0.40700E-02         0.00000E+00
    0.20011E+00        -0.20350E-02         0.00000E+00
    0.20011E+00         0.00000E+00         0.00000E+00
    0.20350E+00        -0.30525E-01         0.00000E+00
    0.20350E+00        -0.28490E-01         0.00000E+00
    0.20350E+00        -0.26455E-01         0.00000E+00
    0.20350E+00        -0.24420E-01         0.00000E+00
    0.20350E+00        -0.22385E-01         0.00000E+00
    0.20350E+00        -0.20350E-01         0.00000E+00
    0.20350E+00        -0.18315E-01         0.00000E+00
    0.20350E+00        -0.16280E-01         0.00000E+00
    0.20350E+00        -0.14245E-01         0.00000E+00
    0.20350E+00        -0.12210E-01         0.00000E+00
    0.20350E+00        -0.10175E-01         0.00000E+00
    0.20350E+00        -0.81401E-02         0.00000E+00
    0.20350E+00        -0.61051E-02         0.00000E+00
    0.20350E+00        -0.40700E-02         0.00000E+00
    0.20350E+00        -0.20350E-02         0.00000E+00
    0.20350E+00         0.00000E+00         0.00000E+00
    0.20689E+00        -0.30525E-01         0.00000E+00
    0.20689E+00        -0.28490E-01         0.00000E+00
    0.20689E+00        -0.26455E-01         0.00000E+00
    0.20689E+00        -0.24420E-01         0.00000E+00
    0.20689E+00        -0.22385E-01         0.00000E+00
    0.20689E+00        -0.20350E-01         0.00000E+00
    0.20689E+00        -0.18315E-01         0.00000E+00
    0.20689E+00        -0.16280E-01         0.00000E+00
    0.20689E+00        -0.14245E-01         0.00000E+00
    0.20689E+00        -0.12210E-01         0.00000E+00
    0.20689E+00        -0.10175E-01         0.00000E+00
    0.20689E+00        -0.81401E-02         0.00000E+00
    0.20689E+00        -0.61051E-02         0.00000E+00
    0.20689E+00        -0.40700E-02         0.00000E+00
    0.20689E+00        -0.20350E-02         0.00000E+00
    0.20689E+00         0.00000E+00         0.00000E+00
    0.21028E+00        -0.30525E-01         0.00000E+00
    0.21028E+00        -0.28490E-01         0.00000E+00
    0.21028E+00        -0.26455E-01         0.00000E+00
    0.21028E+00        -0.24420E-01         0.00000E+00
    0.21028E+00        -0.22385E-01         0.00000E+00
    0.21028E+00        -0.20350E-01         0.00000E+00
    0.21028E+00        -0.18315E-01         0.00000E+00
    0.21028E+00        -0.16280E-01         0.00000E+00
    0.21028E+00        -0.14245E-01         0.00000E+00
    0.21028E+00        -0.12210E-01         0.00000E+00
    0.21028E+00        -0.10175E-01         0.00000E+00
    0.21028E+00        -0.81401E-02         0.00000E+00
    0.21028E+00        -0.61051E-02         0.00000E+00
    0.21028E+00        -0.40700E-02         0.00000E+00
    0.21028E+00        -0.20350E-02         0.00000E+00
    0.21028E+00         0.00000E+00         0.00000E+00
    0.21367E+00        -0.30525E-01         0.00000E+00
    0.21367E+00        -0.28490E-01         0.00000E+00
    0.21367E+00        -0.26455E-01         0.00000E+00
    0.21367E+00        -0.24420E-01         0.00000E+00
    0.21367E+00        -0.22385E-01         0.00000E+00
    0.21367E+00        -0.20350E-01         0.00000E+00
    0.21367E+00        -0.18315E-01         0.00000E+00
    0.21367E+00        -0.16280E-01         0.00000E+00
    0.21367E+00        -0.14245E-01         0.00000E+00
    0.21367E+00        -0.12210E-01         0.00000E+00
    0.21367E+00        -0.10175E-01         0.00000E+00
    0.21367E+00        -0.81401E-02         0.00000E+00
    0.21367E+00        -0.61051E-02         0.00000E+00
    0.21367E+00        -0.40700E-02         0.00000E+00
    0.21367E+00        -0.20350E-02         0.00000E+00
    0.21367E+00         0.00000E+00         0.00000E+00
    0.21706E+00        -0.30525E-01         0.00000E+00
    0.21706E+00        -0.28490E-01         0.00000E+00
    0.21706E+00        -0.26455E-01         0.00000E+00
    0.21706E+00        -0.24420E-01         0.00000E+00
    0.21706E+00        -0.22385E-01         0.00000E+00
    0.21706E+00        -0.20350E-01         0.00000E+00
    0.21706E+00        -0.18315E-01         0.00000E+00
    0.21706E+00        -0.16280E-01         0.00000E+00
    0.21706E+00        -0.14245E-01         0.00000E+00
    0.21706E+00        -0.12210E-01         0.00000E+00
    0.21706E+00        -0.10175E-01         0.00000E+00
    0.21706E+00        -0.81401E-02         0.00000E+00
    0.21706E+00        -0.61051E-02         0.00000E+00
    0.21706E+00        -0.40700E-02         0.00000E+00
    0.21706E+00        -0.20350E-02         0.00000E+00
    0.21706E+00         0.00000E+00         0.00000E+00
    0.22045E+00        -0.30525E-01         0.00000E+00
    0.22045E+00        -0.28490E-01         0.00000E+00
    0.22045E+00        -0.26455E-01         0.00000E+00
    0.22045E+00        -0.24420E-01         0.00000E+00
    0.22045E+00        -0.22385E-01         0.00000E+00
    0.22045E+00        -0.20350E-01         0.00000E+00
    0.22045E+00        -0.18315E-01         0.00000E+00
    0.22045E+00        -0.16280E-01         0.00000E+00
    0.22045E+00        -0.14245E-01         0.00000E+00
    0.22045E+00        -0.12210E-01         0.00000E+00
    0.22045E+00        -0.10175E-01         0.00000E+00
    0.22045E+00        -0.81401E-02         0.00000E+00
    0.22045E+00        -0.61051E-02         0.00000E+00
    0.22045E+00        -0.40700E-02         0.00000E+00
    0.22045E+00        -0.20350E-02         0.00000E+00
    0.22045E+00         0.00000E+00         0.00000E+00
    0.22384E+00        -0.30525E-01         0.00000E+00
    0.22384E+00        -0.28490E-01         0.00000E+00
    0.22384E+00        -0.26455E-01         0.00000E+00
    0.22384E+00        -0.24420E-01         0.00000E+00
    0.22384E+00        -0.22385E-01         0.00000E+00
    0.22384E+00        -0.20350E-01         0.00000E+00
    0.22384E+00        -0.18315E-01         0.00000E+00
    0.22384E+00        -0.16280E-01         0.00000E+00
    0.22384E+00        -0.14245E-01         0.00000E+00
    0.22384E+00        -0.12210E-01         0.00000E+00
    0.22384E+00        -0.10175E-01         0.00000E+00
    0.22384E+00        -0.81401E-02         0.00000E+00
    0.22384E+00        -0.61051E-02         0.00000E+00
    0.22384E+00        -0.40700E-02         0.00000E+00
    0.22384E+00        -0.20350E-02         0.00000E+00
    0.22384E+00         0.00000E+00         0.00000E+00
    0.22723E+00        -0.30525E-01         0.00000E+00
    0.22723E+00        -0.28490E-01         0.00000E+00
    0.22723E+00        -0.26455E-01         0.00000E+00
    0.22723E+00        -0.24420E-01         0.00000E+00
    0.22723E+00        -0.22385E-01         0.00000E+00
    0.22723E+00        -0.20350E-01         0.00000E+00
    0.22723E+00        -0.18315E-01         0.00000E+00
    0.22723E+00        -0.16280E-01         0.00000E+00
    0.22723E+00        -0.14245E-01         0.00000E+00
    0.22723E+00        -0.12210E-01         0.00000E+00
    0.22723E+00        -0.10175E-01         0.00000E+00
    0.22723E+00        -0.81401E-02         0.00000E+00
    0.22723E+00        -0.61051E-02         0.00000E+00
    0.22723E+00        -0.40700E-02         0.00000E+00
    0.22723E+00        -0.20350E-02         0.00000E+00
    0.22723E+00         0.00000E+00         0.00000E+00
    0.23061E+00        -0.30525E-01         0.00000E+00
    0.23061E+00        -0.28490E-01         0.00000E+00
    0.23061E+00        -0.26455E-01         0.00000E+00
    0.23061E+00        -0.24420E-01         0.00000E+00
    0.23061E+00        -0.22385E-01         0.00000E+00
    0.23061E+00        -0.20350E-01         0.00000E+00
    0.23061E+00        -0.18315E-01         0.00000E+00
    0.23061E+00        -0.16280E-01         0.00000E+00
    0.23061E+00        -0.14245E-01         0.00000E+00
    0.23061E+00        -0.12210E-01         0.00000E+00
    0.23061E+00        -0.10175E-01         0.00000E+00
    0.23061E+00        -0.81401E-02         0.00000E+00
    0.23061E+00        -0.61051E-02         0.00000E+00
    0.23061E+00        -0.40700E-02         0.00000E+00
    0.23061E+00        -0.20350E-02         0.00000E+00
    0.23061E+00         0.00000E+00         0.00000E+00
    0.23400E+00        -0.30525E-01         0.00000E+00
    0.23400E+00        -0.28490E-01         0.00000E+00
    0.23400E+00        -0.26455E-01         0.00000E+00
    0.23400E+00        -0.24420E-01         0.00000E+00
    0.23400E+00        -0.22385E-01         0.00000E+00
    0.23400E+00        -0.20350E-01         0.00000E+00
    0.23400E+00        -0.18315E-01         0.00000E+00
    0.23400E+00        -0.16280E-01         0.00000E+00
    0.23400E+00        -0.14245E-01         0.00000E+00
    0.23400E+00        -0.12210E-01         0.00000E+00
    0.23400E+00        -0.10175E-01         0.00000E+00
    0.23400E+00        -0.81401E-02         0.00000E+00
    0.23400E+00        -0.61051E-02         0.00000E+00
    0.23400E+00        -0.40700E-02         0.00000E+00
    0.23400E+00        -0.20350E-02         0.00000E+00
    0.23400E+00         0.00000E+00         0.00000E+00
    0.23738E+00        -0.30525E-01         0.00000E+00
    0.23738E+00        -0.28490E-01         0.00000E+00
    0.23738E+00        -0.26455E-01         0.00000E+00
    0.23738E+00        -0.24420E-01         0.00000E+00
    0.23738E+00        -0.22385E-01         0.00000E+00
    0.23738E+00        -0.20350E-01         0.00000E+00
    0.23738E+00        -0.18315E-01         0.00000E+00
    0.23738E+00        -0.16280E-01         0.00000E+00
    0.23738E+00        -0.14245E-01         0.00000E+00
    0.23738E+00        -0.12210E-01         0.00000E+00
    0.23738E+00        -0.10175E-01         0.00000E+00
    0.23738E+00        -0.81401E-02         0.00000E+00
    0.23738E+00        -0.61051E-02         0.00000E+00
    0.23738E+00        -0.40700E-02         0.00000E+00
    0.23738E+00        -0.20350E-02         0.00000E+00
    0.23738E+00         0.00000E+00         0.00000E+00
    0.24076E+00        -0.30525E-01         0.00000E+00
    0.24076E+00        -0.28490E-01         0.00000E+00
    0.24076E+00        -0.26455E-01         0.00000E+00
    0.24076E+00        -0.24420E-01         0.00000E+00
    0.24076E+00        -0.22385E-01         0.00000E+00
    0.24076E+00        -0.20350E-01         0.00000E+00
    0.24076E+00        -0.18315E-01         0.00000E+00
    0.24076E+00        -0.16280E-01         0.00000E+00
    0.24076E+00        -0.14245E-01         0.00000E+00
    0.24076E+00        -0.12210E-01         0.00000E+00
    0.24076E+00        -0.10175E-01         0.00000E+00
    0.24076E+00        -0.81401E-02         0.00000E+00
    0.24076E+00        -0.61051E-02         0.00000E+00
    0.24076E+00        -0.40700E-02         0.00000E+00
    0.24076E+00        -0.20350E-02         0.00000E+00
    0.24076E+00         0.00000E+00         0.00000E+00
    0.24414E+00        -0.30525E-01         0.00000E+00
    0.24414E+00        -0.28490E-01         0.00000E+00
    0.24414E+00        -0.26455E-01         0.00000E+00
    0.24414E+00        -0.24420E-01         0.00000E+00
    0.24414E+00        -0.22385E-01         0.00000E+00
    0.24414E+00        -0.20350E-01         0.00000E+00
    0.24414E+00        -0.18315E-01         0.00000E+00
    0.24414E+00        -0.16280E-01         0.00000E+00
    0.24414E+00        -0.14245E-01         0.00000E+00
    0.24414E+00        -0.12210E-01         0.00000E+00
    0.24414E+00        -0.10175E-01         0.00000E+00
    0.24414E+00        -0.81401E-02         0.00000E+00
    0.24414E+00        -0.61051E-02         0.00000E+00
    0.24414E+00        -0.40700E-02         0.00000E+00
    0.24414E+00        -0.20350E-02         0.00000E+00
    0.24414E+00         0.00000E+00         0.00000E+00
    0.24751E+00        -0.30525E-01         0.00000E+00
    0.24751E+00        -0.28490E-01         0.00000E+00
    0.24751E+00        -0.26455E-01         0.00000E+00
    0.24751E+00        -0.24420E-01         0.00000E+00
    0.24751E+00        -0.22385E-01         0.00000E+00
    0.24751E+00        -0.20350E-01         0.00000E+00
    0.24751E+00        -0.18315E-01         0.00000E+00
    0.24751E+00        -0.16280E-01         0.00000E+00
    0.24751E+00        -0.14245E-01         0.00000E+00
    0.24751E+00        -0.12210E-01         0.00000E+00
    0.24751E+00        -0.10175E-01         0.00000E+00
    0.24751E+00        -0.81401E-02         0.00000E+00
    0.24751E+00        -0.61051E-02         0.00000E+00
    0.24751E+00        -0.40700E-02         0.00000E+00
    0.24751E+00        -0.20350E-02         0.00000E+00
    0.24751E+00         0.00000E+00         0.00000E+00
    0.25087E+00        -0.30525E-01         0.00000E+00
    0.25087E+00        -0.28490E-01         0.00000E+00
    0.25087E+00        -0.26455E-01         0.00000E+00
    0.25087E+00        -0.24420E-01         0.00000E+00
    0.25087E+00        -0.22385E-01         0.00000E+00
    0.25087E+00        -0.20350E-01         0.00000E+00
    0.25087E+00        -0.18315E-01         0.00000E+00
    0.25087E+00        -0.16280E-01         0.00000E+00
    0.25087E+00        -0.14245E-01         0.00000E+00
    0.25087E+00        -0.12210E-01         0.00000E+00
    0.25087E+00        -0.10175E-01         0.00000E+00
    0.25087E+00        -0.81401E-02         0.00000E+00
    0.25087E+00        -0.61051E-02         0.00000E+00
    0.25087E+00        -0.40700E-02         0.00000E+00
    0.25087E+00        -0.20350E-02         0.00000E+00
    0.25087E+00         0.00000E+00         0.00000E+00
    0.25422E+00        -0.30525E-01         0.00000E+00
    0.25422E+00        -0.28490E-01         0.00000E+00
    0.25422E+00        -0.26455E-01         0.00000E+00
    0.25422E+00        -0.24420E-01         0.00000E+00
    0.25422E+00        -0.22385E-01         0.00000E+00
    0.25422E+00        -0.20350E-01         0.00000E+00
    0.25422E+00        -0.18315E-01         0.00000E+00
    0.25422E+00        -0.16280E-01         0.00000E+00
    0.25422E+00        -0.14245E-01         0.00000E+00
    0.25422E+00        -0.12210E-01         0.00000E+00
    0.25422E+00        -0.10175E-01         0.00000E+00
    0.25422E+00        -0.81401E-02         0.00000E+00
    0.25422E+00        -0.61051E-02         0.00000E+00
    0.25422E+00        -0.40700E-02         0.00000E+00
    0.25422E+00        -0.20350E-02         0.00000E+00
    0.25422E+00         0.00000E+00         0.00000E+00
    0.25757E+00        -0.30525E-01         0.00000E+00
    0.25757E+00        -0.28490E-01         0.00000E+00
    0.25757E+00        -0.26455E-01         0.00000E+00
    0.25757E+00        -0.24420E-01         0.00000E+00
    0.25757E+00        -0.22385E-01         0.00000E+00
    0.25757E+00        -0.20350E-01         0.00000E+00
    0.25757E+00        -0.18315E-01         0.00000E+00
    0.25757E+00        -0.16280E-01         0.00000E+00
    0.25757E+00        -0.14245E-01         0.00000E+00
    0.25757E+00        -0.12210E-01         0.00000E+00
    0.25757E+00        -0.10175E-01         0.00000E+00
    0.25757E+00        -0.81401E-02         0.00000E+00
    0.25757E+00        -0.61051E-02         0.00000E+00
    0.25757E+00        -0.40700E-02         0.00000E+00
    0.25757E+00        -0.20350E-02         0.00000E+00
    0.25757E+00         0.00000E+00         0.00000E+00
    0.26090E+00        -0.30525E-01         0.00000E+00
    0.26090E+00        -0.28490E-01         0.00000E+00
    0.26090E+00        -0.26455E-01         0.00000E+00
    0.26090E+00        -0.24420E-01         0.00000E+00
    0.26090E+00        -0.22385E-01         0.00000E+00
    0.26090E+00        -0.20350E-01         0.00000E+00
    0.26090E+00        -0.18315E-01         0.00000E+00
    0.26090E+00        -0.16280E-01         0.00000E+00
    0.26090E+00        -0.14245E-01         0.00000E+00
    0.26090E+00        -0.12210E-01         0.00000E+00
    0.26090E+00        -0.10175E-01         0.00000E+00
    0.26090E+00        -0.81401E-02         0.00000E+00
    0.26090E+00        -0.61051E-02         0.00000E+00
    0.26090E+00        -0.40700E-02         0.00000E+00
    0.26090E+00        -0.20350E-02         0.00000E+00
    0.26090E+00         0.00000E+00         0.00000E+00
    0.26420E+00        -0.30525E-01         0.00000E+00
    0.26420E+00        -0.28490E-01         0.00000E+00
    0.26420E+00        -0.26455E-01         0.00000E+00
    0.26420E+00        -0.24420E-01         0.00000E+00
    0.26420E+00        -0.22385E-01         0.00000E+00
    0.26420E+00        -0.20350E-01         0.00000E+00
    0.26420E+00        -0.18315E-01         0.00000E+00
    0.26420E+00        -0.16280E-01         0.00000E+00
    0.26420E+00        -0.14245E-01         0.00000E+00
    0.26420E+00        -0.12210E-01         0.00000E+00
    0.26420E+00        -0.10175E-01         0.00000E+00
    0.26420E+00        -0.81401E-02         0.00000E+00
    0.26420E+00        -0.61051E-02         0.00000E+00
    0.26420E+00        -0.40700E-02         0.00000E+00
    0.26420E+00        -0.20350E-02         0.00000E+00
    0.26420E+00         0.00000E+00         0.00000E+00
    0.26749E+00        -0.30525E-01         0.00000E+00
    0.26749E+00        -0.28490E-01         0.00000E+00
    0.26749E+00        -0.26455E-01         0.00000E+00
    0.26749E+00        -0.24420E-01         0.00000E+00
    0.26749E+00        -0.22385E-01         0.00000E+00
    0.26749E+00        -0.20350E-01         0.00000E+00
    0.26749E+00        -0.18315E-01         0.00000E+00
    0.26749E+00        -0.16280E-01         0.00000E+00
    0.26749E+00        -0.14245E-01         0.00000E+00
    0.26749E+00        -0.12210E-01         0.00000E+00
    0.26749E+00        -0.10175E-01         0.00000E+00
    0.26749E+00        -0.81401E-02         0.00000E+00
    0.26749E+00        -0.61051E-02         0.00000E+00
    0.26749E+00        -0.40700E-02         0.00000E+00
    0.26749E+00        -0.20350E-02         0.00000E+00
    0.26749E+00         0.00000E+00         0.00000E+00
    0.27073E+00        -0.30525E-01         0.00000E+00
    0.27073E+00        -0.28490E-01         0.00000E+00
    0.27073E+00        -0.26455E-01         0.00000E+00
    0.27073E+00        -0.24420E-01         0.00000E+00
    0.27073E+00        -0.22385E-01         0.00000E+00
    0.27073E+00        -0.20350E-01         0.00000E+00
    0.27073E+00        -0.18315E-01         0.00000E+00
    0.27073E+00        -0.16280E-01         0.00000E+00
    0.27073E+00        -0.14245E-01         0.00000E+00
    0.27073E+00        -0.12210E-01         0.00000E+00
    0.27073E+00        -0.10175E-01         0.00000E+00
    0.27073E+00        -0.81401E-02         0.00000E+00
    0.27073E+00        -0.61051E-02         0.00000E+00
    0.27073E+00        -0.40700E-02         0.00000E+00
    0.27073E+00        -0.20350E-02         0.00000E+00
    0.27073E+00         0.00000E+00         0.00000E+00
    0.27393E+00        -0.30525E-01         0.00000E+00
    0.27393E+00        -0.28490E-01         0.00000E+00
    0.27393E+00        -0.26455E-01         0.00000E+00
    0.27393E+00        -0.24420E-01         0.00000E+00
    0.27393E+00        -0.22385E-01         0.00000E+00
    0.27393E+00        -0.20350E-01         0.00000E+00
    0.27393E+00        -0.18315E-01         0.00000E+00
    0.27393E+00        -0.16280E-01         0.00000E+00
    0.27393E+00        -0.14245E-01         0.00000E+00
    0.27393E+00        -0.12210E-01         0.00000E+00
    0.27393E+00        -0.10175E-01         0.00000E+00
    0.27393E+00        -0.81401E-02         0.00000E+00
    0.27393E+00        -0.61051E-02         0.00000E+00
    0.27393E+00        -0.40700E-02         0.00000E+00
    0.27393E+00        -0.20350E-02         0.00000E+00
    0.27393E+00         0.00000E+00         0.00000E+00
    0.27707E+00        -0.30525E-01         0.00000E+00
    0.27707E+00        -0.28490E-01         0.00000E+00
    0.27707E+00        -0.26455E-01         0.00000E+00
    0.27707E+00        -0.24420E-01         0.00000E+00
    0.27707E+00        -0.22385E-01         0.00000E+00
    0.27707E+00        -0.20350E-01         0.00000E+00
    0.27707E+00        -0.18315E-01         0.00000E+00
    0.27707E+00        -0.16280E-01         0.00000E+00
    0.27707E+00        -0.14245E-01         0.00000E+00
    0.27707E+00        -0.12210E-01         0.00000E+00
    0.27707E+00        -0.10175E-01         0.00000E+00
    0.27707E+00        -0.81401E-02         0.00000E+00
    0.27707E+00        -0.61051E-02         0.00000E+00
    0.27707E+00        -0.40700E-02         0.00000E+00
    0.27707E+00        -0.20350E-02         0.00000E+00
    0.27707E+00         0.00000E+00         0.00000E+00
    0.28014E+00        -0.30525E-01         0.00000E+00
    0.28014E+00        -0.28490E-01         0.00000E+00
    0.28014E+00        -0.26455E-01         0.00000E+00
    0.28014E+00        -0.24420E-01         0.00000E+00
    0.28014E+00        -0.22385E-01         0.00000E+00
    0.28014E+00        -0.20350E-01         0.00000E+00
    0.28014E+00        -0.18315E-01         0.00000E+00
    0.28014E+00        -0.16280E-01         0.00000E+00
    0.28014E+00        -0.14245E-01         0.00000E+00
    0.28014E+00        -0.12210E-01         0.00000E+00
    0.28014E+00        -0.10175E-01         0.00000E+00
    0.28014E+00        -0.81401E-02         0.00000E+00
    0.28014E+00        -0.61051E-02         0.00000E+00
    0.28014E+00        -0.40700E-02         0.00000E+00
    0.28014E+00        -0.20350E-02         0.00000E+00
    0.28014E+00         0.00000E+00         0.00000E+00
    0.28310E+00        -0.30525E-01         0.00000E+00
    0.28310E+00        -0.28490E-01         0.00000E+00
    0.28310E+00        -0.26455E-01         0.00000E+00
    0.28310E+00        -0.24420E-01         0.00000E+00
    0.28310E+00        -0.22385E-01         0.00000E+00
    0.28310E+00        -0.20350E-01         0.00000E+00
    0.28310E+00        -0.18315E-01         0.00000E+00
    0.28310E+00        -0.16280E-01         0.00000E+00
    0.28310E+00        -0.14245E-01         0.00000E+00
    0.28310E+00        -0.12210E-01         0.00000E+00
    0.28310E+00        -0.10175E-01         0.00000E+00
    0.28310E+00        -0.81401E-02         0.00000E+00
    0.28310E+00        -0.61051E-02         0.00000E+00
    0.28310E+00        -0.40700E-02         0.00000E+00
    0.28310E+00        -0.20350E-02         0.00000E+00
    0.28310E+00         0.00000E+00         0.00000E+00
    0.28592E+00        -0.30525E-01         0.00000E+00
    0.28592E+00        -0.28490E-01         0.00000E+00
    0.28592E+00        -0.26455E-01         0.00000E+00
    0.28592E+00        -0.24420E-01         0.00000E+00
    0.28592E+00        -0.22385E-01         0.00000E+00
    0.28592E+00        -0.20350E-01         0.00000E+00
    0.28592E+00        -0.18315E-01         0.00000E+00
    0.28592E+00        -0.16280E-01         0.00000E+00
    0.28592E+00        -0.14245E-01         0.00000E+00
    0.28592E+00        -0.12210E-01         0.00000E+00
    0.28592E+00        -0.10175E-01         0.00000E+00
    0.28592E+00        -0.81401E-02         0.00000E+00
    0.28592E+00        -0.61051E-02         0.00000E+00
    0.28592E+00        -0.40700E-02         0.00000E+00
    0.28592E+00        -0.20350E-02         0.00000E+00
    0.28592E+00         0.00000E+00         0.00000E+00
    0.28856E+00        -0.30525E-01         0.00000E+00
    0.28856E+00        -0.28490E-01         0.00000E+00
    0.28856E+00        -0.26455E-01         0.00000E+00
    0.28856E+00        -0.24420E-01         0.00000E+00
    0.28856E+00        -0.22385E-01         0.00000E+00
    0.28856E+00        -0.20350E-01         0.00000E+00
    0.28856E+00        -0.18315E-01         0.00000E+00
    0.28856E+00        -0.16280E-01         0.00000E+00
    0.28856E+00        -0.14245E-01         0.00000E+00
    0.28856E+00        -0.12210E-01         0.00000E+00
    0.28856E+00        -0.10175E-01         0.00000E+00
    0.28856E+00        -0.81401E-02         0.00000E+00
    0.28856E+00        -0.61051E-02         0.00000E+00
    0.28856E+00        -0.40700E-02         0.00000E+00
    0.28856E+00        -0.20350E-02         0.00000E+00
    0.28856E+00         0.00000E+00         0.00000E+00
    0.29097E+00        -0.30525E-01         0.00000E+00
    0.29097E+00        -0.28490E-01         0.00000E+00
    0.29097E+00        -0.26455E-01         0.00000E+00
    0.29097E+00        -0.24420E-01         0.00000E+00
    0.29097E+00        -0.22385E-01         0.00000E+00
    0.29097E+00        -0.20350E-01         0.00000E+00
    0.29097E+00        -0.18315E-01         0.00000E+00
    0.29097E+00        -0.16280E-01         0.00000E+00
    0.29097E+00        -0.14245E-01         0.00000E+00
    0.29097E+00        -0.12210E-01         0.00000E+00
    0.29097E+00        -0.10175E-01         0.00000E+00
    0.29097E+00        -0.81401E-02         0.00000E+00
    0.29097E+00        -0.61051E-02         0.00000E+00
    0.29097E+00        -0.40700E-02         0.00000E+00
    0.29097E+00        -0.20350E-02         0.00000E+00
    0.29097E+00         0.00000E+00         0.00000E+00
    0.29307E+00        -0.30525E-01         0.00000E+00
    0.29307E+00        -0.28490E-01         0.00000E+00
    0.29307E+00        -0.26455E-01         0.00000E+00
    0.29307E+00        -0.24420E-01         0.00000E+00
    0.29307E+00        -0.22385E-01         0.00000E+00
    0.29307E+00        -0.20350E-01         0.00000E+00
    0.29307E+00        -0.18315E-01         0.00000E+00
    0.29307E+00        -0.16280E-01         0.00000E+00
    0.29307E+00        -0.14245E-01         0.00000E+00
    0.29307E+00        -0.12210E-01         0.00000E+00
    0.29307E+00        -0.10175E-01         0.00000E+00
    0.29307E+00        -0.81401E-02         0.00000E+00
    0.29307E+00        -0.61051E-02         0.00000E+00
    0.29307E+00        -0.40700E-02         0.00000E+00
    0.29307E+00        -0.20350E-02         0.00000E+00
    0.29307E+00         0.00000E+00         0.00000E+00
    0.29475E+00        -0.30525E-01         0.00000E+00
    0.29475E+00        -0.28490E-01         0.00000E+00
    0.29475E+00        -0.26455E-01         0.00000E+00
    0.29475E+00        -0.24420E-01         0.00000E+00
    0.29475E+00        -0.22385E-01         0.00000E+00
    0.29475E+00        -0.20350E-01         0.00000E+00
    0.29475E+00        -0.18315E-01         0.00000E+00
    0.29475E+00        -0.16280E-01         0.00000E+00
    0.29475E+00        -0.14245E-01         0.00000E+00
    0.29475E+00        -0.12210E-01         0.00000E+00
    0.29475E+00        -0.10175E-01         0.00000E+00
    0.29475E+00        -0.81401E-02         0.00000E+00
    0.29475E+00        -0.61051E-02         0.00000E+00
    0.29475E+00        -0.40700E-02         0.00000E+00
    0.29475E+00        -0.20350E-02         0.00000E+00
    0.29475E+00         0.00000E+00         0.00000E+00
    0.29591E+00        -0.30525E-01         0.00000E+00
    0.29591E+00        -0.28490E-01         0.00000E+00
    0.29591E+00        -0.26455E-01         0.00000E+00
    0.29591E+00        -0.24420E-01         0.00000E+00
    0.29591E+00        -0.22385E-01         0.00000E+00
    0.29591E+00        -0.20350E-01         0.00000E+00
    0.29591E+00        -0.18315E-01         0.00000E+00
    0.29591E+00        -0.16280E-01         0.00000E+00
    0.29591E+00        -0.14245E-01         0.00000E+00
    0.29591E+00        -0.12210E-01         0.00000E+00
    0.29591E+00        -0.10175E-01         0.00000E+00
    0.29591E+00        -0.81401E-02         0.00000E+00
    0.29591E+00        -0.61051E-02         0.00000E+00
    0.29591E+00        -0.40700E-02         0.00000E+00
    0.29591E+00        -0.20350E-02         0.00000E+00
    0.29591E+00         0.00000E+00         0.00000E+00
CELL_DATA       1350
VECTORS vDarcy double 
    0.34128E-16        -0.20373E-19         0.00000E+00
    0.34074E-16        -0.10550E-18         0.00000E+00
    0.34050E-16        -0.16589E-18         0.00000E+00
    0.34096E-16        -0.20664E-18         0.00000E+00
    0.34154E-16        -0.25029E-18         0.00000E+00
    0.34166E-16        -0.25320E-18         0.00000E+00
    0.34145E-16        -0.23647E-18         0.00000E+00
    0.34121E-16        -0.23647E-18         0.00000E+00
    0.34129E-16        -0.22992E-18         0.00000E+00
    0.34147E-16        -0.20591E-18         0.00000E+00
    0.34135E-16        -0.12369E-18         0.00000E+00
    0.34113E-16        -0.70577E-19         0.00000E+00
    0.34103E-16        -0.42201E-19         0.00000E+00
    0.34104E-16        -0.29831E-19         0.00000E+00
    0.34110E-16        -0.26193E-19         0.00000E+00
    0.10486E-15         0.24738E-19         0.00000E+00
    0.10487E-15        -0.68394E-19         0.00000E+00
    0.10488E-15        -0.17681E-18         0.00000E+00
    0.10490E-15        -0.30195E-18         0.00000E+00
    0.10495E-15        -0.33251E-18         0.00000E+00
    0.10500E-15        -0.27285E-18         0.00000E+00
    0.10502E-15        -0.19863E-18         0.00000E+00
    0.10500E-15        -0.20664E-18         0.00000E+00
    0.10497E-15        -0.21973E-18         0.00000E+00
    0.10493E-15        -0.18190E-18         0.00000E+00
    0.10492E-15        -0.10841E-18         0.00000E+00
    0.10492E-15        -0.61846E-19         0.00000E+00
    0.10493E-15        -0.39290E-19         0.00000E+00
    0.10493E-15        -0.35652E-19         0.00000E+00
    0.10492E-15        -0.21828E-19         0.00000E+00
    0.18367E-15        -0.40018E-19         0.00000E+00
    0.18371E-15        -0.82218E-19         0.00000E+00
    0.18369E-15        -0.14552E-18         0.00000E+00
    0.18367E-15        -0.33106E-18         0.00000E+00
    0.18368E-15        -0.39727E-18         0.00000E+00
    0.18369E-15        -0.30996E-18         0.00000E+00
    0.18370E-15        -0.20809E-18         0.00000E+00
    0.18370E-15        -0.19209E-18         0.00000E+00
    0.18369E-15        -0.16225E-18         0.00000E+00
    0.18366E-15        -0.12296E-18         0.00000E+00
    0.18364E-15        -0.11569E-18         0.00000E+00
    0.18365E-15        -0.81491E-19         0.00000E+00
    0.18366E-15        -0.45839E-19         0.00000E+00
    0.18366E-15        -0.36380E-19         0.00000E+00
    0.18366E-15        -0.14552E-20         0.00000E+00
    0.27641E-15        -0.36380E-19         0.00000E+00
    0.27633E-15        -0.24011E-19         0.00000E+00
    0.27630E-15        -0.12660E-18         0.00000E+00
    0.27631E-15        -0.33324E-18         0.00000E+00
    0.27628E-15        -0.36016E-18         0.00000E+00
    0.27624E-15        -0.29249E-18         0.00000E+00
    0.27624E-15        -0.24920E-18         0.00000E+00
    0.27627E-15        -0.20664E-18         0.00000E+00
    0.27627E-15        -0.11350E-18         0.00000E+00
    0.27623E-15        -0.65484E-19         0.00000E+00
    0.27620E-15        -0.73851E-19         0.00000E+00
    0.27618E-15        -0.92405E-19         0.00000E+00
    0.27619E-15        -0.69849E-19         0.00000E+00
    0.27620E-15        -0.35652E-19         0.00000E+00
    0.27620E-15         0.58208E-20         0.00000E+00
    0.38965E-15        -0.13824E-19         0.00000E+00
    0.38973E-15        -0.53114E-19         0.00000E+00
    0.38980E-15        -0.16225E-18         0.00000E+00
    0.38976E-15        -0.24083E-18         0.00000E+00
    0.38969E-15        -0.31068E-18         0.00000E+00
    0.38973E-15        -0.31578E-18         0.00000E+00
    0.38975E-15        -0.27576E-18         0.00000E+00
    0.38972E-15        -0.17244E-18         0.00000E+00
    0.38967E-15        -0.58935E-19         0.00000E+00
    0.38965E-15        -0.26193E-19         0.00000E+00
    0.38964E-15        -0.37107E-19         0.00000E+00
    0.38962E-15        -0.66575E-19         0.00000E+00
    0.38960E-15        -0.80763E-19         0.00000E+00
    0.38960E-15        -0.41109E-19         0.00000E+00
    0.38961E-15        -0.36380E-21         0.00000E+00
    0.53257E-15        -0.18190E-19         0.00000E+00
    0.53253E-15        -0.10987E-18         0.00000E+00
    0.53250E-15        -0.17717E-18         0.00000E+00
    0.53253E-15        -0.19500E-18         0.00000E+00
    0.53255E-15        -0.30668E-18         0.00000E+00
    0.53253E-15        -0.33033E-18         0.00000E+00
    0.53250E-15        -0.25939E-18         0.00000E+00
    0.53251E-15        -0.15098E-18         0.00000E+00
    0.53253E-15        -0.39654E-19         0.00000E+00
    0.53251E-15         0.10186E-19         0.00000E+00
    0.53249E-15        -0.18190E-19         0.00000E+00
    0.53248E-15        -0.36380E-19         0.00000E+00
    0.53245E-15        -0.38926E-19         0.00000E+00
    0.53244E-15        -0.54570E-19         0.00000E+00
    0.53244E-15        -0.72760E-20         0.00000E+00
    0.71567E-15        -0.21828E-19         0.00000E+00
    0.71567E-15        -0.40382E-19         0.00000E+00
    0.71561E-15        -0.10550E-18         0.00000E+00
    0.71556E-15        -0.22665E-18         0.00000E+00
    0.71555E-15        -0.30195E-18         0.00000E+00
    0.71555E-15        -0.30777E-18         0.00000E+00
    0.71557E-15        -0.25757E-18         0.00000E+00
    0.71556E-15        -0.13970E-18         0.00000E+00
    0.71552E-15        -0.15280E-19         0.00000E+00
    0.71551E-15         0.29104E-19         0.00000E+00
    0.71552E-15        -0.69122E-20         0.00000E+00
    0.71552E-15        -0.21828E-19         0.00000E+00
    0.71552E-15        -0.17462E-19         0.00000E+00
    0.71551E-15        -0.36380E-19         0.00000E+00
    0.71550E-15        -0.15280E-19         0.00000E+00
    0.95289E-15         0.45839E-19         0.00000E+00
    0.95275E-15         0.12260E-18         0.00000E+00
    0.95265E-15        -0.16007E-19         0.00000E+00
    0.95264E-15        -0.21537E-18         0.00000E+00
    0.95263E-15        -0.28449E-18         0.00000E+00
    0.95262E-15        -0.31359E-18         0.00000E+00
    0.95258E-15        -0.22483E-18         0.00000E+00
    0.95254E-15        -0.88039E-19         0.00000E+00
    0.95253E-15         0.36380E-21         0.00000E+00
    0.95255E-15         0.18917E-19         0.00000E+00
    0.95255E-15        -0.18554E-19         0.00000E+00
    0.95256E-15        -0.22192E-19         0.00000E+00
    0.95256E-15        -0.25466E-19         0.00000E+00
    0.95256E-15        -0.24738E-19         0.00000E+00
    0.95256E-15        -0.80036E-20         0.00000E+00
    0.12618E-14         0.11933E-18         0.00000E+00
    0.12618E-14         0.24156E-18         0.00000E+00
    0.12618E-14         0.68758E-19         0.00000E+00
    0.12617E-14        -0.15134E-18         0.00000E+00
    0.12617E-14        -0.21246E-18         0.00000E+00
    0.12616E-14        -0.19281E-18         0.00000E+00
    0.12615E-14        -0.13169E-18         0.00000E+00
    0.12615E-14        -0.71304E-19         0.00000E+00
    0.12615E-14        -0.60754E-19         0.00000E+00
    0.12615E-14        -0.38199E-19         0.00000E+00
    0.12616E-14        -0.34925E-19         0.00000E+00
    0.12616E-14        -0.25466E-20         0.00000E+00
    0.12616E-14        -0.21828E-19         0.00000E+00
    0.12615E-14        -0.11642E-19         0.00000E+00
    0.12615E-14         0.80036E-20         0.00000E+00
    0.16661E-14         0.72032E-19         0.00000E+00
    0.16661E-14         0.17681E-18         0.00000E+00
    0.16661E-14         0.11423E-18         0.00000E+00
    0.16661E-14        -0.16007E-19         0.00000E+00
    0.16660E-14        -0.59299E-19         0.00000E+00
    0.16659E-14        -0.14552E-19         0.00000E+00
    0.16658E-14        -0.46566E-19         0.00000E+00
    0.16658E-14        -0.89130E-19         0.00000E+00
    0.16658E-14        -0.10150E-18         0.00000E+00
    0.16658E-14        -0.88767E-19         0.00000E+00
    0.16658E-14        -0.45839E-19         0.00000E+00
    0.16658E-14        -0.11642E-19         0.00000E+00
    0.16658E-14        -0.17462E-19         0.00000E+00
    0.16658E-14         0.16735E-19         0.00000E+00
    0.16658E-14         0.18554E-19         0.00000E+00
    0.21962E-14         0.84401E-19         0.00000E+00
    0.21961E-14         0.16735E-18         0.00000E+00
    0.21961E-14         0.98953E-19         0.00000E+00
    0.21961E-14         0.68030E-19         0.00000E+00
    0.21960E-14         0.14224E-18         0.00000E+00
    0.21960E-14         0.77853E-19         0.00000E+00
    0.21959E-14         0.23283E-19         0.00000E+00
    0.21959E-14        -0.60027E-19         0.00000E+00
    0.21958E-14        -0.78580E-19         0.00000E+00
    0.21958E-14        -0.73487E-19         0.00000E+00
    0.21958E-14        -0.67303E-19         0.00000E+00
    0.21959E-14        -0.57844E-19         0.00000E+00
    0.21959E-14        -0.17462E-19         0.00000E+00
    0.21959E-14         0.14552E-19         0.00000E+00
    0.21959E-14         0.11278E-19         0.00000E+00
    0.28917E-14         0.56025E-19         0.00000E+00
    0.28918E-14         0.12224E-18         0.00000E+00
    0.28918E-14         0.93132E-19         0.00000E+00
    0.28918E-14         0.15716E-18         0.00000E+00
    0.28917E-14         0.24229E-18         0.00000E+00
    0.28917E-14         0.12587E-18         0.00000E+00
    0.28917E-14         0.82218E-19         0.00000E+00
    0.28916E-14         0.29831E-19         0.00000E+00
    0.28916E-14        -0.33106E-19         0.00000E+00
    0.28916E-14        -0.66211E-19         0.00000E+00
    0.28916E-14        -0.88403E-19         0.00000E+00
    0.28916E-14        -0.54570E-19         0.00000E+00
    0.28916E-14        -0.27649E-19         0.00000E+00
    0.28916E-14        -0.10550E-19         0.00000E+00
    0.28916E-14        -0.13097E-19         0.00000E+00
    0.38056E-14         0.21828E-19         0.00000E+00
    0.38056E-14         0.51296E-19         0.00000E+00
    0.38056E-14         0.42928E-19         0.00000E+00
    0.38057E-14         0.14916E-18         0.00000E+00
    0.38058E-14         0.20882E-18         0.00000E+00
    0.38058E-14         0.20373E-18         0.00000E+00
    0.38057E-14         0.14224E-18         0.00000E+00
    0.38057E-14         0.88039E-19         0.00000E+00
    0.38057E-14         0.28012E-19         0.00000E+00
    0.38056E-14        -0.45839E-19         0.00000E+00
    0.38056E-14        -0.66211E-19         0.00000E+00
    0.38056E-14        -0.39654E-19         0.00000E+00
    0.38056E-14        -0.33833E-19         0.00000E+00
    0.38056E-14        -0.25466E-19         0.00000E+00
    0.38056E-14        -0.14552E-19         0.00000E+00
    0.50069E-14         0.42564E-19         0.00000E+00
    0.50069E-14         0.69849E-19         0.00000E+00
    0.50069E-14        -0.10550E-19         0.00000E+00
    0.50069E-14         0.18190E-19         0.00000E+00
    0.50069E-14         0.14843E-18         0.00000E+00
    0.50070E-14         0.21173E-18         0.00000E+00
    0.50070E-14         0.16880E-18         0.00000E+00
    0.50070E-14         0.14043E-18         0.00000E+00
    0.50069E-14         0.92405E-19         0.00000E+00
    0.50069E-14         0.10186E-19         0.00000E+00
    0.50069E-14        -0.80036E-20         0.00000E+00
    0.50068E-14        -0.10550E-19         0.00000E+00
    0.50068E-14        -0.33469E-19         0.00000E+00
    0.50068E-14        -0.33469E-19         0.00000E+00
    0.50068E-14        -0.80036E-20         0.00000E+00
    0.65861E-14         0.58208E-19         0.00000E+00
    0.65861E-14         0.71304E-19         0.00000E+00
    0.65861E-14        -0.14552E-20         0.00000E+00
    0.65860E-14         0.17462E-19         0.00000E+00
    0.65860E-14         0.11423E-18         0.00000E+00
    0.65860E-14         0.17972E-18         0.00000E+00
    0.65861E-14         0.11860E-18         0.00000E+00
    0.65861E-14         0.12733E-18         0.00000E+00
    0.65861E-14         0.13242E-18         0.00000E+00
    0.65861E-14         0.82218E-19         0.00000E+00
    0.65861E-14         0.46930E-19         0.00000E+00
    0.65861E-14         0.31650E-19         0.00000E+00
    0.65860E-14        -0.30559E-19         0.00000E+00
    0.65860E-14        -0.23283E-19         0.00000E+00
    0.65860E-14        -0.47294E-20         0.00000E+00
    0.86623E-14         0.54933E-19         0.00000E+00
    0.86623E-14         0.63301E-19         0.00000E+00
    0.86623E-14         0.38563E-19         0.00000E+00
    0.86623E-14         0.29104E-19         0.00000E+00
    0.86623E-14         0.17462E-19         0.00000E+00
    0.86624E-14         0.96043E-19         0.00000E+00
    0.86625E-14         0.96770E-19         0.00000E+00
    0.86625E-14         0.10186E-18         0.00000E+00
    0.86624E-14         0.15134E-18         0.00000E+00
    0.86624E-14         0.82218E-19         0.00000E+00
    0.86625E-14         0.42928E-19         0.00000E+00
    0.86625E-14         0.36380E-19         0.00000E+00
    0.86625E-14         0.16735E-19         0.00000E+00
    0.86625E-14         0.10156E-35         0.00000E+00
    0.86624E-14         0.25466E-20         0.00000E+00
    0.11392E-13         0.12369E-19         0.00000E+00
    0.11392E-13         0.61846E-20         0.00000E+00
    0.11392E-13         0.35652E-19         0.00000E+00
    0.11392E-13        -0.10914E-19         0.00000E+00
    0.11392E-13        -0.85129E-19         0.00000E+00
    0.11393E-13        -0.41473E-19         0.00000E+00
    0.11393E-13         0.63301E-19         0.00000E+00
    0.11393E-13         0.11642E-18         0.00000E+00
    0.11393E-13         0.13024E-18         0.00000E+00
    0.11393E-13         0.73487E-19         0.00000E+00
    0.11393E-13         0.44383E-19         0.00000E+00
    0.11393E-13         0.27649E-19         0.00000E+00
    0.11393E-13         0.32742E-19         0.00000E+00
    0.11393E-13         0.18554E-19         0.00000E+00
    0.11393E-13        -0.80036E-20         0.00000E+00
    0.14982E-13        -0.42928E-19         0.00000E+00
    0.14982E-13        -0.67303E-19         0.00000E+00
    0.14982E-13        -0.28740E-19         0.00000E+00
    0.14982E-13        -0.10041E-18         0.00000E+00
    0.14982E-13        -0.17244E-18         0.00000E+00
    0.14983E-13        -0.13606E-18         0.00000E+00
    0.14983E-13        -0.21100E-19         0.00000E+00
    0.14983E-13         0.10259E-18         0.00000E+00
    0.14983E-13         0.12369E-18         0.00000E+00
    0.14983E-13         0.12660E-18         0.00000E+00
    0.14983E-13         0.80036E-19         0.00000E+00
    0.14983E-13         0.37107E-19         0.00000E+00
    0.14983E-13         0.26557E-19         0.00000E+00
    0.14983E-13         0.12005E-19         0.00000E+00
    0.14983E-13        -0.11642E-19         0.00000E+00
    0.19703E-13        -0.25466E-19         0.00000E+00
    0.19703E-13        -0.46566E-19         0.00000E+00
    0.19703E-13        -0.12842E-18         0.00000E+00
    0.19703E-13        -0.24156E-18         0.00000E+00
    0.19703E-13        -0.26484E-18         0.00000E+00
    0.19703E-13        -0.21537E-18         0.00000E+00
    0.19703E-13        -0.73487E-19         0.00000E+00
    0.19703E-13         0.73487E-19         0.00000E+00
    0.19703E-13         0.16080E-18         0.00000E+00
    0.19703E-13         0.15789E-18         0.00000E+00
    0.19703E-13         0.90222E-19         0.00000E+00
    0.19703E-13         0.49113E-19         0.00000E+00
    0.19703E-13         0.44020E-19         0.00000E+00
    0.19703E-13         0.29104E-19         0.00000E+00
    0.19703E-13         0.65484E-20         0.00000E+00
    0.25911E-13        -0.58208E-19         0.00000E+00
    0.25911E-13        -0.60390E-19         0.00000E+00
    0.25911E-13        -0.13388E-18         0.00000E+00
    0.25911E-13        -0.25175E-18         0.00000E+00
    0.25911E-13        -0.30268E-18         0.00000E+00
    0.25911E-13        -0.25102E-18         0.00000E+00
    0.25911E-13        -0.12005E-18         0.00000E+00
    0.25911E-13         0.41109E-19         0.00000E+00
    0.25911E-13         0.13715E-18         0.00000E+00
    0.25911E-13         0.13242E-18         0.00000E+00
    0.25911E-13         0.95679E-19         0.00000E+00
    0.25911E-13         0.26921E-19         0.00000E+00
    0.25911E-13         0.39654E-19         0.00000E+00
    0.25911E-13         0.66211E-19         0.00000E+00
    0.25911E-13         0.28376E-19         0.00000E+00
    0.34074E-13        -0.13388E-18         0.00000E+00
    0.34074E-13        -0.17972E-18         0.00000E+00
    0.34074E-13        -0.13970E-18         0.00000E+00
    0.34074E-13        -0.22847E-18         0.00000E+00
    0.34074E-13        -0.22992E-18         0.00000E+00
    0.34074E-13        -0.17317E-18         0.00000E+00
    0.34074E-13        -0.12224E-18         0.00000E+00
    0.34074E-13        -0.13824E-19         0.00000E+00
    0.34074E-13         0.44383E-19         0.00000E+00
    0.34074E-13         0.53842E-19         0.00000E+00
    0.34074E-13         0.48749E-19         0.00000E+00
    0.34074E-13        -0.14552E-20         0.00000E+00
    0.34074E-13         0.94587E-20         0.00000E+00
    0.34074E-13         0.25830E-19         0.00000E+00
    0.34074E-13         0.12369E-19         0.00000E+00
    0.44809E-13        -0.11496E-18         0.00000E+00
    0.44809E-13        -0.21028E-18         0.00000E+00
    0.44809E-13        -0.17753E-18         0.00000E+00
    0.44809E-13        -0.19863E-18         0.00000E+00
    0.44809E-13        -0.11350E-18         0.00000E+00
    0.44809E-13        -0.58208E-19         0.00000E+00
    0.44809E-13        -0.64756E-19         0.00000E+00
    0.44809E-13        -0.80763E-19         0.00000E+00
    0.44809E-13        -0.41837E-19         0.00000E+00
    0.44809E-13        -0.45111E-19         0.00000E+00
    0.44809E-13        -0.38926E-19         0.00000E+00
    0.44809E-13        -0.37107E-19         0.00000E+00
    0.44809E-13        -0.37835E-19         0.00000E+00
    0.44809E-13        -0.44383E-19         0.00000E+00
    0.44809E-13        -0.33106E-19         0.00000E+00
    0.58926E-13        -0.54206E-19         0.00000E+00
    0.58926E-13        -0.84401E-19         0.00000E+00
    0.58926E-13        -0.51659E-19         0.00000E+00
    0.58926E-13        -0.53842E-19         0.00000E+00
    0.58926E-13        -0.58935E-19         0.00000E+00
    0.58926E-13        -0.88039E-19         0.00000E+00
    0.58926E-13        -0.12515E-18         0.00000E+00
    0.58926E-13        -0.14770E-18         0.00000E+00
    0.58926E-13        -0.11787E-18         0.00000E+00
    0.58926E-13        -0.10114E-18         0.00000E+00
    0.58926E-13        -0.89858E-19         0.00000E+00
    0.58926E-13        -0.92041E-19         0.00000E+00
    0.58926E-13        -0.93860E-19         0.00000E+00
    0.58926E-13        -0.58571E-19         0.00000E+00
    0.58926E-13        -0.36016E-19         0.00000E+00
    0.77490E-13         0.33469E-19         0.00000E+00
    0.77490E-13         0.18917E-19         0.00000E+00
    0.77490E-13         0.30559E-19         0.00000E+00
    0.77490E-13         0.57480E-19         0.00000E+00
    0.77490E-13        -0.36380E-19         0.00000E+00
    0.77490E-13        -0.12806E-18         0.00000E+00
    0.77490E-13        -0.21100E-18         0.00000E+00
    0.77490E-13        -0.20009E-18         0.00000E+00
    0.77490E-13        -0.20955E-18         0.00000E+00
    0.77490E-13        -0.14115E-18         0.00000E+00
    0.77490E-13        -0.16444E-18         0.00000E+00
    0.77490E-13        -0.17244E-18         0.00000E+00
    0.77490E-13        -0.96043E-19         0.00000E+00
    0.77490E-13        -0.72760E-19         0.00000E+00
    0.77490E-13        -0.29104E-19         0.00000E+00
    0.10190E-12         0.39290E-19         0.00000E+00
    0.10190E-12         0.32014E-19         0.00000E+00
    0.10190E-12        -0.11642E-19         0.00000E+00
    0.10190E-12         0.36380E-19         0.00000E+00
    0.10190E-12        -0.30559E-19         0.00000E+00
    0.10190E-12        -0.11860E-18         0.00000E+00
    0.10190E-12        -0.17317E-18         0.00000E+00
    0.10190E-12        -0.21319E-18         0.00000E+00
    0.10190E-12        -0.23647E-18         0.00000E+00
    0.10190E-12        -0.23574E-18         0.00000E+00
    0.10190E-12        -0.24302E-18         0.00000E+00
    0.10190E-12        -0.19281E-18         0.00000E+00
    0.10190E-12        -0.12260E-18         0.00000E+00
    0.10190E-12        -0.84401E-19         0.00000E+00
    0.10190E-12        -0.17099E-19         0.00000E+00
    0.13401E-12         0.21828E-19         0.00000E+00
    0.13401E-12        -0.12369E-19         0.00000E+00
    0.13401E-12        -0.56752E-19         0.00000E+00
    0.13401E-12        -0.65484E-19         0.00000E+00
    0.13401E-12        -0.62209E-19         0.00000E+00
    0.13401E-12        -0.10950E-18         0.00000E+00
    0.13401E-12        -0.13097E-18         0.00000E+00
    0.13401E-12        -0.24411E-18         0.00000E+00
    0.13401E-12        -0.23574E-18         0.00000E+00
    0.13401E-12        -0.25575E-18         0.00000E+00
    0.13401E-12        -0.22774E-18         0.00000E+00
    0.13401E-12        -0.16662E-18         0.00000E+00
    0.13401E-12        -0.16917E-18         0.00000E+00
    0.13401E-12        -0.80036E-19         0.00000E+00
    0.13401E-12        -0.36380E-20         0.00000E+00
    0.17622E-12        -0.36380E-19         0.00000E+00
    0.17622E-12        -0.10368E-18         0.00000E+00
    0.17622E-12        -0.97498E-19         0.00000E+00
    0.17622E-12        -0.15061E-18         0.00000E+00
    0.17622E-12        -0.12187E-18         0.00000E+00
    0.17622E-12        -0.10405E-18         0.00000E+00
    0.17622E-12        -0.16516E-18         0.00000E+00
    0.17622E-12        -0.27503E-18         0.00000E+00
    0.17622E-12        -0.24011E-18         0.00000E+00
    0.17622E-12        -0.20191E-18         0.00000E+00
    0.17622E-12        -0.20009E-18         0.00000E+00
    0.17622E-12        -0.14043E-18         0.00000E+00
    0.17622E-12        -0.14697E-18         0.00000E+00
    0.17622E-12        -0.78217E-19         0.00000E+00
    0.17622E-12        -0.24738E-19         0.00000E+00
    0.23174E-12        -0.12005E-18         0.00000E+00
    0.23174E-12        -0.16262E-18         0.00000E+00
    0.23174E-12        -0.89130E-19         0.00000E+00
    0.23174E-12        -0.13315E-18         0.00000E+00
    0.23174E-12        -0.15425E-18         0.00000E+00
    0.23174E-12        -0.16735E-18         0.00000E+00
    0.23174E-12        -0.25684E-18         0.00000E+00
    0.23174E-12        -0.28995E-18         0.00000E+00
    0.23174E-12        -0.24811E-18         0.00000E+00
    0.23174E-12        -0.17717E-18         0.00000E+00
    0.23174E-12        -0.14770E-18         0.00000E+00
    0.23174E-12        -0.13024E-18         0.00000E+00
    0.23174E-12        -0.82218E-19         0.00000E+00
    0.23174E-12        -0.61482E-19         0.00000E+00
    0.23174E-12        -0.30923E-19         0.00000E+00
    0.30475E-12        -0.11241E-18         0.00000E+00
    0.30475E-12        -0.18408E-18         0.00000E+00
    0.30475E-12        -0.12369E-18         0.00000E+00
    0.30475E-12        -0.19645E-18         0.00000E+00
    0.30475E-12        -0.23210E-18         0.00000E+00
    0.30475E-12        -0.21537E-18         0.00000E+00
    0.30475E-12        -0.25357E-18         0.00000E+00
    0.30475E-12        -0.30159E-18         0.00000E+00
    0.30475E-12        -0.25902E-18         0.00000E+00
    0.30475E-12        -0.15498E-18         0.00000E+00
    0.30475E-12        -0.12587E-18         0.00000E+00
    0.30475E-12        -0.96043E-19         0.00000E+00
    0.30475E-12        -0.37835E-19         0.00000E+00
    0.30475E-12        -0.17826E-19         0.00000E+00
    0.30475E-12         0.32742E-20         0.00000E+00
    0.40075E-12        -0.94224E-19         0.00000E+00
    0.40075E-12        -0.20118E-18         0.00000E+00
    0.40075E-12        -0.19500E-18         0.00000E+00
    0.40075E-12        -0.25902E-18         0.00000E+00
    0.40075E-12        -0.28813E-18         0.00000E+00
    0.40075E-12        -0.23720E-18         0.00000E+00
    0.40075E-12        -0.22555E-18         0.00000E+00
    0.40075E-12        -0.27976E-18         0.00000E+00
    0.40075E-12        -0.27576E-18         0.00000E+00
    0.40075E-12        -0.12151E-18         0.00000E+00
    0.40075E-12        -0.90949E-19         0.00000E+00
    0.40075E-12        -0.37107E-19         0.00000E+00
    0.40075E-12        -0.53842E-19         0.00000E+00
    0.40075E-12        -0.42928E-19         0.00000E+00
    0.40075E-12        -0.61846E-20         0.00000E+00
    0.52700E-12        -0.12951E-18         0.00000E+00
    0.52700E-12        -0.24738E-18         0.00000E+00
    0.52700E-12        -0.22919E-18         0.00000E+00
    0.52700E-12        -0.21173E-18         0.00000E+00
    0.52700E-12        -0.22992E-18         0.00000E+00
    0.52700E-12        -0.26193E-18         0.00000E+00
    0.52700E-12        -0.21937E-18         0.00000E+00
    0.52700E-12        -0.26193E-18         0.00000E+00
    0.52700E-12        -0.27576E-18         0.00000E+00
    0.52700E-12        -0.14843E-18         0.00000E+00
    0.52700E-12        -0.35652E-19         0.00000E+00
    0.52700E-12         0.65484E-20         0.00000E+00
    0.52700E-12        -0.34925E-19         0.00000E+00
    0.52700E-12        -0.74942E-19         0.00000E+00
    0.52700E-12        -0.21828E-19         0.00000E+00
    0.69303E-12        -0.10550E-18         0.00000E+00
    0.69303E-12        -0.25393E-18         0.00000E+00
    0.69303E-12        -0.19681E-18         0.00000E+00
    0.69303E-12        -0.16116E-18         0.00000E+00
    0.69303E-12        -0.20300E-18         0.00000E+00
    0.69303E-12        -0.24047E-18         0.00000E+00
    0.69303E-12        -0.25575E-18         0.00000E+00
    0.69303E-12        -0.23065E-18         0.00000E+00
    0.69303E-12        -0.19645E-18         0.00000E+00
    0.69303E-12        -0.18445E-18         0.00000E+00
    0.69303E-12        -0.69122E-19         0.00000E+00
    0.69303E-12         0.26557E-19         0.00000E+00
    0.69303E-12         0.11278E-19         0.00000E+00
    0.69303E-12        -0.20736E-19         0.00000E+00
    0.69303E-12        -0.21100E-19         0.00000E+00
    0.91136E-12        -0.69849E-19         0.00000E+00
    0.91136E-12        -0.15061E-18         0.00000E+00
    0.91136E-12        -0.17317E-18         0.00000E+00
    0.91136E-12        -0.15316E-18         0.00000E+00
    0.91136E-12        -0.15571E-18         0.00000E+00
    0.91136E-12        -0.14625E-18         0.00000E+00
    0.91136E-12        -0.24447E-18         0.00000E+00
    0.91136E-12        -0.17862E-18         0.00000E+00
    0.91136E-12        -0.10150E-18         0.00000E+00
    0.91136E-12        -0.13533E-18         0.00000E+00
    0.91136E-12        -0.57480E-19         0.00000E+00
    0.91136E-12        -0.31287E-19         0.00000E+00
    0.91136E-12        -0.65484E-20         0.00000E+00
    0.91136E-12        -0.32742E-19         0.00000E+00
    0.91136E-12        -0.13097E-19         0.00000E+00
    0.11985E-11        -0.11642E-19         0.00000E+00
    0.11985E-11        -0.35652E-19         0.00000E+00
    0.11985E-11        -0.13169E-18         0.00000E+00
    0.11985E-11        -0.12224E-18         0.00000E+00
    0.11985E-11        -0.24011E-19         0.00000E+00
    0.11985E-11        -0.76398E-19         0.00000E+00
    0.11985E-11        -0.12587E-18         0.00000E+00
    0.11985E-11        -0.74942E-19         0.00000E+00
    0.11985E-11        -0.39290E-19         0.00000E+00
    0.11985E-11        -0.66939E-19         0.00000E+00
    0.11985E-11        -0.26193E-19         0.00000E+00
    0.11985E-11        -0.45111E-19         0.00000E+00
    0.11985E-11        -0.26921E-19         0.00000E+00
    0.11985E-11        -0.45839E-19         0.00000E+00
    0.11985E-11        -0.94587E-20         0.00000E+00
    0.15760E-11         0.88039E-19         0.00000E+00
    0.15760E-11         0.10332E-18         0.00000E+00
    0.15760E-11         0.14552E-20         0.00000E+00
    0.15760E-11        -0.62573E-19         0.00000E+00
    0.15760E-11        -0.26193E-19         0.00000E+00
    0.15760E-11        -0.11278E-18         0.00000E+00
    0.15760E-11        -0.71668E-19         0.00000E+00
    0.15760E-11         0.46930E-19         0.00000E+00
    0.15760E-11         0.31650E-19         0.00000E+00
    0.15760E-11         0.42928E-19         0.00000E+00
    0.15760E-11        -0.14552E-19         0.00000E+00
    0.15760E-11         0.72760E-21         0.00000E+00
    0.15760E-11         0.26193E-19         0.00000E+00
    0.15760E-11         0.16735E-19         0.00000E+00
    0.15760E-11         0.94587E-20         0.00000E+00
    0.20725E-11         0.10186E-18         0.00000E+00
    0.20725E-11         0.16589E-18         0.00000E+00
    0.20725E-11         0.75670E-19         0.00000E+00
    0.20725E-11        -0.53842E-19         0.00000E+00
    0.20725E-11        -0.61118E-19         0.00000E+00
    0.20725E-11        -0.89494E-19         0.00000E+00
    0.20725E-11        -0.69122E-19         0.00000E+00
    0.20725E-11         0.64756E-19         0.00000E+00
    0.20725E-11         0.11096E-18         0.00000E+00
    0.20725E-11         0.13097E-18         0.00000E+00
    0.20725E-11         0.74215E-19         0.00000E+00
    0.20725E-11         0.69122E-19         0.00000E+00
    0.20725E-11         0.85856E-19         0.00000E+00
    0.20725E-11         0.92405E-19         0.00000E+00
    0.20725E-11         0.32742E-19         0.00000E+00
    0.27255E-11         0.15789E-18         0.00000E+00
    0.27255E-11         0.21755E-18         0.00000E+00
    0.27255E-11         0.44383E-19         0.00000E+00
    0.27255E-11         0.13097E-19         0.00000E+00
    0.27255E-11         0.24738E-19         0.00000E+00
    0.27255E-11        -0.51659E-19         0.00000E+00
    0.27255E-11        -0.76398E-19         0.00000E+00
    0.27255E-11         0.21100E-19         0.00000E+00
    0.27255E-11         0.95315E-19         0.00000E+00
    0.27255E-11         0.12878E-18         0.00000E+00
    0.27255E-11         0.17753E-18         0.00000E+00
    0.27255E-11         0.17462E-18         0.00000E+00
    0.27255E-11         0.14406E-18         0.00000E+00
    0.27255E-11         0.92041E-19         0.00000E+00
    0.27255E-11         0.28012E-19         0.00000E+00
    0.35841E-11         0.14115E-18         0.00000E+00
    0.35841E-11         0.20300E-18         0.00000E+00
    0.35841E-11         0.10114E-18         0.00000E+00
    0.35841E-11         0.12806E-18         0.00000E+00
    0.35841E-11         0.95315E-19         0.00000E+00
    0.35841E-11        -0.13824E-19         0.00000E+00
    0.35841E-11        -0.41109E-19         0.00000E+00
    0.35841E-11         0.65484E-20         0.00000E+00
    0.35841E-11         0.44383E-19         0.00000E+00
    0.35841E-11         0.12515E-18         0.00000E+00
    0.35841E-11         0.18263E-18         0.00000E+00
    0.35841E-11         0.20918E-18         0.00000E+00
    0.35841E-11         0.19354E-18         0.00000E+00
    0.35841E-11         0.10041E-18         0.00000E+00
    0.35841E-11         0.26193E-19         0.00000E+00
    0.47132E-11         0.66939E-19         0.00000E+00
    0.47132E-11         0.10477E-18         0.00000E+00
    0.47132E-11         0.11678E-18         0.00000E+00
    0.47132E-11         0.99681E-19         0.00000E+00
    0.47132E-11         0.10914E-18         0.00000E+00
    0.47132E-11         0.90949E-19         0.00000E+00
    0.47132E-11         0.12078E-18         0.00000E+00
    0.47132E-11         0.64756E-19         0.00000E+00
    0.47132E-11         0.95315E-19         0.00000E+00
    0.47132E-11         0.12587E-18         0.00000E+00
    0.47132E-11         0.11059E-18         0.00000E+00
    0.47132E-11         0.14697E-18         0.00000E+00
    0.47132E-11         0.14770E-18         0.00000E+00
    0.47132E-11         0.13024E-18         0.00000E+00
    0.47132E-11        -0.29104E-20         0.00000E+00
    0.61980E-11         0.56025E-19         0.00000E+00
    0.61980E-11         0.73487E-19         0.00000E+00
    0.61980E-11         0.58208E-19         0.00000E+00
    0.61980E-11         0.93860E-19         0.00000E+00
    0.61980E-11         0.11714E-18         0.00000E+00
    0.61980E-11         0.18772E-18         0.00000E+00
    0.61980E-11         0.26412E-18         0.00000E+00
    0.61980E-11         0.18263E-18         0.00000E+00
    0.61980E-11         0.15280E-18         0.00000E+00
    0.61980E-11         0.72760E-19         0.00000E+00
    0.61980E-11         0.14552E-19         0.00000E+00
    0.61980E-11         0.42928E-19         0.00000E+00
    0.61980E-11         0.26193E-19         0.00000E+00
    0.61980E-11         0.23283E-19         0.00000E+00
    0.61980E-11        -0.16735E-19         0.00000E+00
    0.81506E-11         0.66211E-19         0.00000E+00
    0.81506E-11         0.12078E-18         0.00000E+00
    0.81506E-11         0.92405E-19         0.00000E+00
    0.81506E-11         0.83310E-19         0.00000E+00
    0.81506E-11         0.18081E-18         0.00000E+00
    0.81506E-11         0.25975E-18         0.00000E+00
    0.81506E-11         0.25539E-18         0.00000E+00
    0.81506E-11         0.24120E-18         0.00000E+00
    0.81506E-11         0.62573E-19         0.00000E+00
    0.81506E-11        -0.11278E-19         0.00000E+00
    0.81506E-11        -0.62209E-19         0.00000E+00
    0.81506E-11        -0.10223E-18         0.00000E+00
    0.81506E-11        -0.11860E-18         0.00000E+00
    0.81506E-11        -0.11278E-18         0.00000E+00
    0.81506E-11        -0.13824E-19         0.00000E+00
    0.10718E-10         0.10768E-18         0.00000E+00
    0.10718E-10         0.20300E-18         0.00000E+00
    0.10718E-10         0.13097E-18         0.00000E+00
    0.10718E-10         0.54570E-19         0.00000E+00
    0.10718E-10         0.18772E-18         0.00000E+00
    0.10718E-10         0.25393E-18         0.00000E+00
    0.10718E-10         0.22410E-18         0.00000E+00
    0.10718E-10         0.14988E-18         0.00000E+00
    0.10718E-10        -0.23283E-19         0.00000E+00
    0.10718E-10        -0.80763E-19         0.00000E+00
    0.10718E-10        -0.11350E-18         0.00000E+00
    0.10718E-10        -0.20154E-18         0.00000E+00
    0.10718E-10        -0.19354E-18         0.00000E+00
    0.10718E-10        -0.12296E-18         0.00000E+00
    0.10718E-10        -0.15280E-19         0.00000E+00
    0.14095E-10         0.17317E-18         0.00000E+00
    0.14095E-10         0.27321E-18         0.00000E+00
    0.14095E-10         0.18772E-18         0.00000E+00
    0.14095E-10         0.20300E-18         0.00000E+00
    0.14095E-10         0.19572E-18         0.00000E+00
    0.14095E-10         0.17317E-18         0.00000E+00
    0.14095E-10         0.17026E-18         0.00000E+00
    0.14095E-10         0.66939E-19         0.00000E+00
    0.14095E-10         0.10186E-19         0.00000E+00
    0.14095E-10        -0.96770E-19         0.00000E+00
    0.14095E-10        -0.13606E-18         0.00000E+00
    0.14095E-10        -0.15061E-18         0.00000E+00
    0.14095E-10        -0.15789E-18         0.00000E+00
    0.14095E-10        -0.84401E-19         0.00000E+00
    0.14095E-10        -0.17826E-19         0.00000E+00
    0.18536E-10         0.18626E-18         0.00000E+00
    0.18536E-10         0.36889E-18         0.00000E+00
    0.18536E-10         0.32887E-18         0.00000E+00
    0.18536E-10         0.32960E-18         0.00000E+00
    0.18536E-10         0.28740E-18         0.00000E+00
    0.18536E-10         0.16080E-18         0.00000E+00
    0.18536E-10         0.89494E-19         0.00000E+00
    0.18536E-10         0.11496E-18         0.00000E+00
    0.18536E-10         0.12151E-18         0.00000E+00
    0.18536E-10         0.15280E-19         0.00000E+00
    0.18536E-10        -0.88767E-19         0.00000E+00
    0.18536E-10        -0.10659E-18         0.00000E+00
    0.18536E-10        -0.87311E-19         0.00000E+00
    0.18536E-10        -0.90949E-19         0.00000E+00
    0.18536E-10        -0.61118E-19         0.00000E+00
    0.24375E-10         0.17899E-18         0.00000E+00
    0.24375E-10         0.47512E-18         0.00000E+00
    0.24375E-10         0.47658E-18         0.00000E+00
    0.24375E-10         0.33906E-18         0.00000E+00
    0.24375E-10         0.25975E-18         0.00000E+00
    0.24375E-10         0.12042E-18         0.00000E+00
    0.24375E-10         0.15134E-18         0.00000E+00
    0.24375E-10         0.20991E-18         0.00000E+00
    0.24375E-10         0.22119E-18         0.00000E+00
    0.24375E-10         0.16516E-18         0.00000E+00
    0.24375E-10         0.14552E-20         0.00000E+00
    0.24375E-10        -0.12733E-19         0.00000E+00
    0.24375E-10        -0.27285E-19         0.00000E+00
    0.24375E-10        -0.78580E-19         0.00000E+00
    0.24375E-10        -0.27649E-19         0.00000E+00
    0.32054E-10         0.23138E-18         0.00000E+00
    0.32054E-10         0.48676E-18         0.00000E+00
    0.32054E-10         0.55661E-18         0.00000E+00
    0.32054E-10         0.38162E-18         0.00000E+00
    0.32054E-10         0.18408E-18         0.00000E+00
    0.32054E-10         0.11933E-18         0.00000E+00
    0.32054E-10         0.21973E-18         0.00000E+00
    0.32054E-10         0.26885E-18         0.00000E+00
    0.32054E-10         0.25175E-18         0.00000E+00
    0.32054E-10         0.19427E-18         0.00000E+00
    0.32054E-10         0.13970E-18         0.00000E+00
    0.32054E-10         0.13788E-18         0.00000E+00
    0.32054E-10         0.10332E-18         0.00000E+00
    0.32054E-10         0.59663E-19         0.00000E+00
    0.32054E-10         0.32742E-19         0.00000E+00
    0.42152E-10         0.15862E-18         0.00000E+00
    0.42152E-10         0.41400E-18         0.00000E+00
    0.42152E-10         0.54715E-18         0.00000E+00
    0.42152E-10         0.41400E-18         0.00000E+00
    0.42152E-10         0.21973E-18         0.00000E+00
    0.42152E-10         0.16298E-18         0.00000E+00
    0.42152E-10         0.16080E-18         0.00000E+00
    0.42152E-10         0.21537E-18         0.00000E+00
    0.42152E-10         0.29031E-18         0.00000E+00
    0.42152E-10         0.27139E-18         0.00000E+00
    0.42152E-10         0.32160E-18         0.00000E+00
    0.42152E-10         0.23356E-18         0.00000E+00
    0.42152E-10         0.21391E-18         0.00000E+00
    0.42152E-10         0.13715E-18         0.00000E+00
    0.42152E-10         0.11642E-19         0.00000E+00
    0.55431E-10         0.15207E-18         0.00000E+00
    0.55431E-10         0.36453E-18         0.00000E+00
    0.55431E-10         0.40491E-18         0.00000E+00
    0.55431E-10         0.36234E-18         0.00000E+00
    0.55431E-10         0.20009E-18         0.00000E+00
    0.55431E-10         0.42564E-19         0.00000E+00
    0.55431E-10         0.74215E-19         0.00000E+00
    0.55431E-10         0.19354E-18         0.00000E+00
    0.55431E-10         0.31068E-18         0.00000E+00
    0.55431E-10         0.34706E-18         0.00000E+00
    0.55431E-10         0.38563E-18         0.00000E+00
    0.55431E-10         0.26339E-18         0.00000E+00
    0.55431E-10         0.19209E-18         0.00000E+00
    0.55431E-10         0.11496E-18         0.00000E+00
    0.55431E-10         0.28740E-19         0.00000E+00
    0.72894E-10         0.12151E-18         0.00000E+00
    0.72894E-10         0.31650E-18         0.00000E+00
    0.72894E-10         0.33979E-18         0.00000E+00
    0.72894E-10         0.24156E-18         0.00000E+00
    0.72894E-10         0.51659E-19         0.00000E+00
    0.72894E-10        -0.63301E-19         0.00000E+00
    0.72894E-10         0.85856E-19         0.00000E+00
    0.72894E-10         0.19136E-18         0.00000E+00
    0.72894E-10         0.24011E-18         0.00000E+00
    0.72894E-10         0.25466E-18         0.00000E+00
    0.72894E-10         0.29104E-18         0.00000E+00
    0.72894E-10         0.23574E-18         0.00000E+00
    0.72894E-10         0.20300E-18         0.00000E+00
    0.72894E-10         0.16444E-18         0.00000E+00
    0.72894E-10         0.79308E-19         0.00000E+00
    0.95859E-10         0.65847E-19         0.00000E+00
    0.95859E-10         0.25684E-18         0.00000E+00
    0.95859E-10         0.27794E-18         0.00000E+00
    0.95859E-10         0.85129E-19         0.00000E+00
    0.95859E-10         0.72760E-20         0.00000E+00
    0.95859E-10         0.21828E-19         0.00000E+00
    0.95859E-10         0.10186E-18         0.00000E+00
    0.95859E-10         0.69122E-19         0.00000E+00
    0.95859E-10         0.15461E-18         0.00000E+00
    0.95859E-10         0.17426E-18         0.00000E+00
    0.95859E-10         0.23647E-18         0.00000E+00
    0.95859E-10         0.27576E-18         0.00000E+00
    0.95859E-10         0.20918E-18         0.00000E+00
    0.95859E-10         0.18699E-18         0.00000E+00
    0.95859E-10         0.78580E-19         0.00000E+00
    0.12606E-09         0.81127E-19         0.00000E+00
    0.12606E-09         0.18626E-18         0.00000E+00
    0.12606E-09         0.89494E-19         0.00000E+00
    0.12606E-09         0.21100E-19         0.00000E+00
    0.12606E-09         0.66211E-19         0.00000E+00
    0.12606E-09         0.45111E-19         0.00000E+00
    0.12606E-09         0.15280E-19         0.00000E+00
    0.12606E-09        -0.50204E-19         0.00000E+00
    0.12606E-09         0.98589E-19         0.00000E+00
    0.12606E-09         0.23501E-18         0.00000E+00
    0.12606E-09         0.31287E-18         0.00000E+00
    0.12606E-09         0.32160E-18         0.00000E+00
    0.12606E-09         0.17972E-18         0.00000E+00
    0.12606E-09         0.16007E-18         0.00000E+00
    0.12606E-09         0.20373E-19         0.00000E+00
    0.16577E-09         0.89494E-19         0.00000E+00
    0.16577E-09         0.12733E-18         0.00000E+00
    0.16577E-09        -0.23283E-19         0.00000E+00
    0.16577E-09        -0.14552E-20         0.00000E+00
    0.16577E-09         0.43656E-19         0.00000E+00
    0.16577E-09        -0.12369E-19         0.00000E+00
    0.16577E-09        -0.48021E-19         0.00000E+00
    0.16577E-09        -0.11423E-18         0.00000E+00
    0.16577E-09         0.71304E-19         0.00000E+00
    0.16577E-09         0.26121E-18         0.00000E+00
    0.16577E-09         0.32051E-18         0.00000E+00
    0.16577E-09         0.29686E-18         0.00000E+00
    0.16577E-09         0.19645E-18         0.00000E+00
    0.16577E-09         0.82582E-19         0.00000E+00
    0.16577E-09        -0.94587E-20         0.00000E+00
    0.21799E-09         0.56025E-19         0.00000E+00
    0.21799E-09         0.48021E-19         0.00000E+00
    0.21799E-09        -0.62209E-19         0.00000E+00
    0.21799E-09        -0.21100E-19         0.00000E+00
    0.21799E-09         0.28740E-19         0.00000E+00
    0.21799E-09         0.66211E-19         0.00000E+00
    0.21799E-09         0.00000E+00         0.00000E+00
    0.21799E-09        -0.50204E-19         0.00000E+00
    0.21799E-09         0.45839E-19         0.00000E+00
    0.21799E-09         0.13824E-18         0.00000E+00
    0.21799E-09         0.15825E-18         0.00000E+00
    0.21799E-09         0.17899E-18         0.00000E+00
    0.21799E-09         0.13533E-18         0.00000E+00
    0.21799E-09         0.18554E-19         0.00000E+00
    0.21799E-09         0.52387E-19         0.00000E+00
    0.28667E-09        -0.34925E-19         0.00000E+00
    0.28667E-09        -0.53114E-19         0.00000E+00
    0.28667E-09        -0.64028E-19         0.00000E+00
    0.28667E-09        -0.64392E-19         0.00000E+00
    0.28667E-09         0.34197E-19         0.00000E+00
    0.28667E-09         0.16516E-18         0.00000E+00
    0.28667E-09         0.17208E-18         0.00000E+00
    0.28667E-09         0.46930E-19         0.00000E+00
    0.28667E-09         0.36380E-20         0.00000E+00
    0.28667E-09        -0.45111E-19         0.00000E+00
    0.28667E-09         0.33469E-19         0.00000E+00
    0.28667E-09         0.66211E-19         0.00000E+00
    0.28667E-09         0.31287E-19         0.00000E+00
    0.28667E-09         0.80036E-19         0.00000E+00
    0.28667E-09         0.39290E-19         0.00000E+00
    0.37698E-09         0.45111E-19         0.00000E+00
    0.37698E-09         0.37835E-19         0.00000E+00
    0.37698E-09        -0.29104E-19         0.00000E+00
    0.37698E-09        -0.79308E-19         0.00000E+00
    0.37698E-09        -0.21464E-19         0.00000E+00
    0.37698E-09         0.16880E-18         0.00000E+00
    0.37698E-09         0.22192E-18         0.00000E+00
    0.37698E-09         0.11532E-18         0.00000E+00
    0.37698E-09        -0.50932E-20         0.00000E+00
    0.37698E-09        -0.30559E-19         0.00000E+00
    0.37698E-09         0.26921E-19         0.00000E+00
    0.37698E-09         0.82946E-19         0.00000E+00
    0.37698E-09         0.51659E-19         0.00000E+00
    0.37698E-09         0.60390E-19         0.00000E+00
    0.37698E-09        -0.36380E-20         0.00000E+00
    0.49575E-09         0.99681E-19         0.00000E+00
    0.49575E-09         0.84401E-19         0.00000E+00
    0.49575E-09         0.34197E-19         0.00000E+00
    0.49575E-09         0.15061E-18         0.00000E+00
    0.49575E-09         0.70941E-19         0.00000E+00
    0.49575E-09         0.13169E-18         0.00000E+00
    0.49575E-09         0.11714E-18         0.00000E+00
    0.49575E-09         0.17899E-18         0.00000E+00
    0.49575E-09         0.80763E-19         0.00000E+00
    0.49575E-09         0.77125E-19         0.00000E+00
    0.49575E-09         0.50204E-19         0.00000E+00
    0.49575E-09         0.77853E-19         0.00000E+00
    0.49575E-09         0.14843E-18         0.00000E+00
    0.49575E-09         0.34925E-19         0.00000E+00
    0.49575E-09         0.48749E-19         0.00000E+00
    0.65192E-09         0.80763E-19         0.00000E+00
    0.65192E-09         0.10914E-19         0.00000E+00
    0.65192E-09         0.26921E-19         0.00000E+00
    0.65192E-09         0.28340E-18         0.00000E+00
    0.65192E-09         0.29504E-18         0.00000E+00
    0.65192E-09         0.17244E-18         0.00000E+00
    0.65192E-09         0.17390E-18         0.00000E+00
    0.65192E-09         0.19172E-18         0.00000E+00
    0.65192E-09         0.16371E-18         0.00000E+00
    0.65192E-09         0.13970E-18         0.00000E+00
    0.65192E-09         0.92405E-19         0.00000E+00
    0.65192E-09         0.94587E-20         0.00000E+00
    0.65192E-09         0.12769E-18         0.00000E+00
    0.65192E-09         0.15862E-18         0.00000E+00
    0.65192E-09         0.49840E-19         0.00000E+00
    0.85730E-09        -0.10186E-19         0.00000E+00
    0.85730E-09        -0.80763E-19         0.00000E+00
    0.85730E-09        -0.26193E-19         0.00000E+00
    0.85730E-09         0.14988E-18         0.00000E+00
    0.85730E-09         0.31359E-18         0.00000E+00
    0.85730E-09         0.30268E-18         0.00000E+00
    0.85730E-09         0.26703E-18         0.00000E+00
    0.85730E-09         0.23028E-18         0.00000E+00
    0.85730E-09         0.22264E-18         0.00000E+00
    0.85730E-09         0.13897E-18         0.00000E+00
    0.85730E-09         0.14625E-18         0.00000E+00
    0.85730E-09         0.39654E-19         0.00000E+00
    0.85730E-09         0.84037E-19         0.00000E+00
    0.85730E-09         0.13606E-18         0.00000E+00
    0.85730E-09         0.21828E-20         0.00000E+00
    0.11274E-08        -0.10186E-18         0.00000E+00
    0.11274E-08        -0.11860E-18         0.00000E+00
    0.11274E-08        -0.10732E-18         0.00000E+00
    0.11274E-08        -0.27285E-19         0.00000E+00
    0.11274E-08         0.15752E-18         0.00000E+00
    0.11274E-08         0.35616E-18         0.00000E+00
    0.11274E-08         0.28267E-18         0.00000E+00
    0.11274E-08         0.30050E-18         0.00000E+00
    0.11274E-08         0.27212E-18         0.00000E+00
    0.11274E-08         0.13242E-18         0.00000E+00
    0.11274E-08         0.12078E-18         0.00000E+00
    0.11274E-08         0.14552E-18         0.00000E+00
    0.11274E-08         0.10041E-18         0.00000E+00
    0.11274E-08        -0.94587E-20         0.00000E+00
    0.11274E-08        -0.18190E-19         0.00000E+00
    0.14826E-08        -0.76398E-19         0.00000E+00
    0.14826E-08        -0.16589E-18         0.00000E+00
    0.14826E-08        -0.21391E-18         0.00000E+00
    0.14826E-08        -0.17608E-18         0.00000E+00
    0.14826E-08        -0.11642E-19         0.00000E+00
    0.14826E-08         0.19354E-18         0.00000E+00
    0.14826E-08         0.34124E-18         0.00000E+00
    0.14826E-08         0.28376E-18         0.00000E+00
    0.14826E-08         0.27067E-18         0.00000E+00
    0.14826E-08         0.19791E-18         0.00000E+00
    0.14826E-08         0.10041E-18         0.00000E+00
    0.14826E-08         0.13242E-18         0.00000E+00
    0.14826E-08         0.17462E-19         0.00000E+00
    0.14826E-08        -0.96770E-19         0.00000E+00
    0.14826E-08        -0.29468E-19         0.00000E+00
    0.19496E-08        -0.10186E-18         0.00000E+00
    0.19496E-08        -0.25466E-18         0.00000E+00
    0.19496E-08        -0.30268E-18         0.00000E+00
    0.19496E-08        -0.31287E-18         0.00000E+00
    0.19496E-08        -0.17026E-18         0.00000E+00
    0.19496E-08         0.24011E-19         0.00000E+00
    0.19496E-08         0.31141E-18         0.00000E+00
    0.19496E-08         0.27721E-18         0.00000E+00
    0.19496E-08         0.21901E-18         0.00000E+00
    0.19496E-08         0.16880E-18         0.00000E+00
    0.19496E-08         0.90949E-19         0.00000E+00
    0.19496E-08        -0.94587E-20         0.00000E+00
    0.19496E-08        -0.98953E-19         0.00000E+00
    0.19496E-08        -0.43656E-19         0.00000E+00
    0.19496E-08        -0.65484E-20         0.00000E+00
    0.25638E-08        -0.44383E-19         0.00000E+00
    0.25638E-08        -0.13169E-18         0.00000E+00
    0.25638E-08        -0.27285E-18         0.00000E+00
    0.25638E-08        -0.32305E-18         0.00000E+00
    0.25638E-08        -0.15716E-18         0.00000E+00
    0.25638E-08        -0.66939E-19         0.00000E+00
    0.25638E-08         0.10805E-18         0.00000E+00
    0.25638E-08         0.20955E-18         0.00000E+00
    0.25638E-08         0.66211E-19         0.00000E+00
    0.25638E-08         0.73487E-19         0.00000E+00
    0.25638E-08        -0.94587E-20         0.00000E+00
    0.25638E-08        -0.10987E-18         0.00000E+00
    0.25638E-08        -0.12806E-18         0.00000E+00
    0.25638E-08        -0.11642E-19         0.00000E+00
    0.25638E-08         0.14552E-20         0.00000E+00
    0.33715E-08         0.41837E-19         0.00000E+00
    0.33715E-08        -0.23283E-19         0.00000E+00
    0.33715E-08        -0.74215E-19         0.00000E+00
    0.33715E-08        -0.11860E-18         0.00000E+00
    0.33715E-08        -0.12878E-18         0.00000E+00
    0.33715E-08        -0.13315E-18         0.00000E+00
    0.33715E-08        -0.62573E-19         0.00000E+00
    0.33715E-08         0.41473E-19         0.00000E+00
    0.33715E-08         0.17462E-19         0.00000E+00
    0.33715E-08        -0.61846E-19         0.00000E+00
    0.33715E-08        -0.86948E-19         0.00000E+00
    0.33715E-08        -0.99317E-19         0.00000E+00
    0.33715E-08        -0.12078E-18         0.00000E+00
    0.33715E-08        -0.12551E-18         0.00000E+00
    0.33715E-08        -0.38199E-19         0.00000E+00
    0.44337E-08         0.18554E-19         0.00000E+00
    0.44337E-08         0.13461E-19         0.00000E+00
    0.44337E-08         0.48385E-19         0.00000E+00
    0.44337E-08         0.12733E-19         0.00000E+00
    0.44337E-08        -0.14625E-18         0.00000E+00
    0.44337E-08        -0.13388E-18         0.00000E+00
    0.44337E-08        -0.93860E-19         0.00000E+00
    0.44337E-08        -0.29831E-19         0.00000E+00
    0.44337E-08         0.31287E-19         0.00000E+00
    0.44337E-08        -0.78580E-19         0.00000E+00
    0.44337E-08        -0.23647E-19         0.00000E+00
    0.44337E-08        -0.61118E-19         0.00000E+00
    0.44337E-08        -0.11350E-18         0.00000E+00
    0.44337E-08        -0.13933E-18         0.00000E+00
    0.44337E-08        -0.25830E-19         0.00000E+00
    0.58304E-08         0.29831E-19         0.00000E+00
    0.58304E-08         0.77125E-19         0.00000E+00
    0.58304E-08         0.18190E-20         0.00000E+00
    0.58304E-08        -0.73487E-19         0.00000E+00
    0.58304E-08        -0.77853E-19         0.00000E+00
    0.58304E-08        -0.48749E-19         0.00000E+00
    0.58304E-08        -0.94587E-20         0.00000E+00
    0.58304E-08        -0.65484E-19         0.00000E+00
    0.58304E-08         0.80036E-20         0.00000E+00
    0.58304E-08         0.81491E-19         0.00000E+00
    0.58304E-08         0.10405E-18         0.00000E+00
    0.58304E-08        -0.41473E-19         0.00000E+00
    0.58304E-08        -0.59663E-19         0.00000E+00
    0.58304E-08        -0.50932E-19         0.00000E+00
    0.58304E-08         0.21828E-20         0.00000E+00
    0.76672E-08        -0.69122E-20         0.00000E+00
    0.76672E-08         0.42928E-19         0.00000E+00
    0.76672E-08        -0.11496E-18         0.00000E+00
    0.76672E-08        -0.16662E-18         0.00000E+00
    0.76672E-08        -0.27649E-19         0.00000E+00
    0.76672E-08         0.24011E-19         0.00000E+00
    0.76672E-08         0.17462E-19         0.00000E+00
    0.76672E-08        -0.72032E-19         0.00000E+00
    0.76672E-08        -0.65484E-20         0.00000E+00
    0.76672E-08         0.18044E-18         0.00000E+00
    0.76672E-08         0.15643E-18         0.00000E+00
    0.76672E-08         0.30559E-19         0.00000E+00
    0.76672E-08        -0.26921E-19         0.00000E+00
    0.76672E-08        -0.60390E-19         0.00000E+00
    0.76672E-08        -0.22555E-19         0.00000E+00
    0.10083E-07        -0.18917E-19         0.00000E+00
    0.10083E-07         0.50932E-20         0.00000E+00
    0.10083E-07        -0.15571E-18         0.00000E+00
    0.10083E-07        -0.19863E-18         0.00000E+00
    0.10083E-07        -0.68394E-19         0.00000E+00
    0.10083E-07         0.48021E-19         0.00000E+00
    0.10083E-07        -0.47294E-19         0.00000E+00
    0.10083E-07        -0.16007E-19         0.00000E+00
    0.10083E-07        -0.58208E-19         0.00000E+00
    0.10083E-07         0.66211E-19         0.00000E+00
    0.10083E-07         0.17390E-18         0.00000E+00
    0.10083E-07         0.11059E-18         0.00000E+00
    0.10083E-07        -0.61118E-19         0.00000E+00
    0.10083E-07        -0.11132E-18         0.00000E+00
    0.10083E-07        -0.57480E-19         0.00000E+00
    0.13259E-07        -0.28376E-19         0.00000E+00
    0.13259E-07        -0.14552E-19         0.00000E+00
    0.13259E-07        -0.79308E-19         0.00000E+00
    0.13259E-07        -0.15061E-18         0.00000E+00
    0.13259E-07        -0.48749E-19         0.00000E+00
    0.13259E-07         0.90949E-19         0.00000E+00
    0.13259E-07         0.94587E-20         0.00000E+00
    0.13259E-07        -0.42928E-19         0.00000E+00
    0.13259E-07        -0.98225E-19         0.00000E+00
    0.13259E-07        -0.11787E-18         0.00000E+00
    0.13259E-07         0.48749E-19         0.00000E+00
    0.13259E-07        -0.16735E-19         0.00000E+00
    0.13259E-07        -0.77853E-19         0.00000E+00
    0.13259E-07        -0.35652E-19         0.00000E+00
    0.13259E-07        -0.20373E-19         0.00000E+00
    0.17436E-07         0.29104E-20         0.00000E+00
    0.17436E-07         0.32742E-19         0.00000E+00
    0.17436E-07         0.22555E-19         0.00000E+00
    0.17436E-07         0.94587E-20         0.00000E+00
    0.17436E-07         0.12515E-18         0.00000E+00
    0.17436E-07         0.14261E-18         0.00000E+00
    0.17436E-07         0.99681E-19         0.00000E+00
    0.17436E-07        -0.17462E-18         0.00000E+00
    0.17436E-07        -0.16153E-18         0.00000E+00
    0.17436E-07        -0.12951E-18         0.00000E+00
    0.17436E-07        -0.13169E-18         0.00000E+00
    0.17436E-07        -0.19936E-18         0.00000E+00
    0.17436E-07        -0.58571E-19         0.00000E+00
    0.17436E-07         0.62573E-19         0.00000E+00
    0.17436E-07         0.72760E-20         0.00000E+00
    0.22929E-07         0.66939E-19         0.00000E+00
    0.22929E-07         0.16662E-18         0.00000E+00
    0.22929E-07         0.20373E-18         0.00000E+00
    0.22929E-07         0.15571E-18         0.00000E+00
    0.22929E-07         0.24738E-18         0.00000E+00
    0.22929E-07         0.15352E-18         0.00000E+00
    0.22929E-07        -0.19645E-19         0.00000E+00
    0.22929E-07        -0.25466E-18         0.00000E+00
    0.22929E-07        -0.14843E-18         0.00000E+00
    0.22929E-07        -0.74215E-19         0.00000E+00
    0.22929E-07        -0.73851E-19         0.00000E+00
    0.22929E-07        -0.21828E-20         0.00000E+00
    0.22929E-07         0.16371E-19         0.00000E+00
    0.22929E-07         0.11933E-18         0.00000E+00
    0.22929E-07         0.63301E-19         0.00000E+00
    0.30153E-07        -0.20373E-19         0.00000E+00
    0.30153E-07         0.10223E-18         0.00000E+00
    0.30153E-07         0.26630E-18         0.00000E+00
    0.30153E-07         0.30341E-18         0.00000E+00
    0.30153E-07         0.23574E-18         0.00000E+00
    0.30153E-07         0.62573E-19         0.00000E+00
    0.30153E-07        -0.18263E-18         0.00000E+00
    0.30153E-07        -0.16371E-18         0.00000E+00
    0.30153E-07         0.34197E-19         0.00000E+00
    0.30153E-07         0.30559E-19         0.00000E+00
    0.30153E-07         0.34561E-19         0.00000E+00
    0.30153E-07         0.19791E-18         0.00000E+00
    0.30153E-07         0.16516E-18         0.00000E+00
    0.30153E-07         0.14334E-18         0.00000E+00
    0.30153E-07         0.95315E-19         0.00000E+00
    0.39652E-07        -0.71668E-19         0.00000E+00
    0.39652E-07         0.50204E-19         0.00000E+00
    0.39652E-07         0.14188E-18         0.00000E+00
    0.39652E-07         0.23829E-18         0.00000E+00
    0.39652E-07         0.95315E-19         0.00000E+00
    0.39652E-07         0.13824E-19         0.00000E+00
    0.39652E-07        -0.62573E-19         0.00000E+00
    0.39652E-07        -0.72760E-20         0.00000E+00
    0.39652E-07         0.93860E-19         0.00000E+00
    0.39652E-07         0.10332E-18         0.00000E+00
    0.39652E-07         0.82946E-19         0.00000E+00
    0.39652E-07         0.86220E-19         0.00000E+00
    0.39652E-07         0.13752E-18         0.00000E+00
    0.39652E-07         0.48749E-19         0.00000E+00
    0.39652E-07        -0.30559E-19         0.00000E+00
    0.52144E-07         0.10186E-19         0.00000E+00
    0.52144E-07         0.16043E-18         0.00000E+00
    0.52144E-07         0.18481E-18         0.00000E+00
    0.52144E-07         0.61846E-19         0.00000E+00
    0.52144E-07         0.40745E-19         0.00000E+00
    0.52144E-07         0.13315E-18         0.00000E+00
    0.52144E-07         0.10987E-18         0.00000E+00
    0.52144E-07        -0.21100E-19         0.00000E+00
    0.52144E-07        -0.64756E-19         0.00000E+00
    0.52144E-07        -0.48021E-19         0.00000E+00
    0.52144E-07         0.40745E-19         0.00000E+00
    0.52144E-07         0.13097E-19         0.00000E+00
    0.52144E-07         0.83674E-20         0.00000E+00
    0.52144E-07         0.17462E-19         0.00000E+00
    0.52144E-07        -0.26921E-19         0.00000E+00
    0.68571E-07         0.13461E-18         0.00000E+00
    0.68571E-07         0.22810E-18         0.00000E+00
    0.68571E-07         0.20082E-18         0.00000E+00
    0.68571E-07         0.11278E-18         0.00000E+00
    0.68571E-07         0.22483E-18         0.00000E+00
    0.68571E-07         0.26266E-18         0.00000E+00
    0.68571E-07         0.12296E-18         0.00000E+00
    0.68571E-07        -0.77125E-19         0.00000E+00
    0.68571E-07        -0.15170E-18         0.00000E+00
    0.68571E-07        -0.19500E-18         0.00000E+00
    0.68571E-07        -0.14334E-18         0.00000E+00
    0.68571E-07         0.16371E-19         0.00000E+00
    0.68571E-07        -0.54933E-19         0.00000E+00
    0.68571E-07         0.18917E-19         0.00000E+00
    0.68571E-07         0.71304E-19         0.00000E+00
    0.90173E-07         0.10696E-18         0.00000E+00
    0.90173E-07         0.22119E-18         0.00000E+00
    0.90173E-07         0.29104E-18         0.00000E+00
    0.90173E-07         0.34306E-18         0.00000E+00
    0.90173E-07         0.41255E-18         0.00000E+00
    0.90173E-07         0.32451E-18         0.00000E+00
    0.90173E-07         0.14043E-18         0.00000E+00
    0.90173E-07         0.56752E-19         0.00000E+00
    0.90173E-07        -0.10368E-18         0.00000E+00
    0.90173E-07        -0.18081E-18         0.00000E+00
    0.90173E-07        -0.17171E-18         0.00000E+00
    0.90173E-07        -0.94587E-19         0.00000E+00
    0.90173E-07        -0.10587E-18         0.00000E+00
    0.90173E-07        -0.79308E-19         0.00000E+00
    0.90173E-07        -0.21100E-19         0.00000E+00
    0.11858E-06        -0.10186E-19         0.00000E+00
    0.11858E-06         0.15571E-18         0.00000E+00
    0.11858E-06         0.38126E-18         0.00000E+00
    0.11858E-06         0.51950E-18         0.00000E+00
    0.11858E-06         0.57917E-18         0.00000E+00
    0.11858E-06         0.39363E-18         0.00000E+00
    0.11858E-06         0.26266E-18         0.00000E+00
    0.11858E-06         0.18408E-18         0.00000E+00
    0.11858E-06         0.74215E-19         0.00000E+00
    0.11858E-06         0.47294E-19         0.00000E+00
    0.11858E-06        -0.16735E-19         0.00000E+00
    0.11858E-06        -0.15425E-18         0.00000E+00
    0.11858E-06        -0.74215E-19         0.00000E+00
    0.11858E-06        -0.46566E-19         0.00000E+00
    0.11858E-06        -0.12151E-18         0.00000E+00
    0.15594E-06        -0.40018E-20         0.00000E+00
    0.15594E-06         0.10623E-18         0.00000E+00
    0.15594E-06         0.28085E-18         0.00000E+00
    0.15594E-06         0.40309E-18         0.00000E+00
    0.15594E-06         0.55297E-18         0.00000E+00
    0.15594E-06         0.50932E-18         0.00000E+00
    0.15594E-06         0.48494E-18         0.00000E+00
    0.15594E-06         0.39981E-18         0.00000E+00
    0.15594E-06         0.39581E-18         0.00000E+00
    0.15594E-06         0.35434E-18         0.00000E+00
    0.15594E-06         0.13752E-18         0.00000E+00
    0.15594E-06         0.28376E-19         0.00000E+00
    0.15594E-06         0.11642E-19         0.00000E+00
    0.15594E-06         0.12369E-19         0.00000E+00
    0.15594E-06        -0.48749E-19         0.00000E+00
    0.20506E-06         0.42201E-19         0.00000E+00
    0.20506E-06         0.65847E-19         0.00000E+00
    0.20506E-06         0.25611E-18         0.00000E+00
    0.20506E-06         0.27649E-18         0.00000E+00
    0.20506E-06         0.36671E-18         0.00000E+00
    0.20506E-06         0.60645E-18         0.00000E+00
    0.20506E-06         0.70504E-18         0.00000E+00
    0.20506E-06         0.76398E-18         0.00000E+00
    0.20506E-06         0.64174E-18         0.00000E+00
    0.20506E-06         0.44311E-18         0.00000E+00
    0.20506E-06         0.29904E-18         0.00000E+00
    0.20506E-06         0.27285E-18         0.00000E+00
    0.20506E-06         0.21610E-18         0.00000E+00
    0.20506E-06         0.34925E-19         0.00000E+00
    0.20506E-06         0.55297E-19         0.00000E+00
    0.26967E-06         0.26193E-19         0.00000E+00
    0.26967E-06         0.11787E-18         0.00000E+00
    0.26967E-06         0.23938E-18         0.00000E+00
    0.26967E-06         0.30705E-18         0.00000E+00
    0.26967E-06         0.40454E-18         0.00000E+00
    0.26967E-06         0.67193E-18         0.00000E+00
    0.26967E-06         0.84729E-18         0.00000E+00
    0.26967E-06         0.91204E-18         0.00000E+00
    0.26967E-06         0.73560E-18         0.00000E+00
    0.26967E-06         0.51296E-18         0.00000E+00
    0.26967E-06         0.47949E-18         0.00000E+00
    0.26967E-06         0.39799E-18         0.00000E+00
    0.26967E-06         0.36016E-18         0.00000E+00
    0.26967E-06         0.89494E-19         0.00000E+00
    0.26967E-06         0.36380E-19         0.00000E+00
    0.35462E-06         0.38563E-19         0.00000E+00
    0.35462E-06         0.17099E-18         0.00000E+00
    0.35462E-06         0.24629E-18         0.00000E+00
    0.35462E-06         0.44238E-18         0.00000E+00
    0.35462E-06         0.55115E-18         0.00000E+00
    0.35462E-06         0.70540E-18         0.00000E+00
    0.35462E-06         0.84292E-18         0.00000E+00
    0.35462E-06         0.83674E-18         0.00000E+00
    0.35462E-06         0.77343E-18         0.00000E+00
    0.35462E-06         0.63083E-18         0.00000E+00
    0.35462E-06         0.51805E-18         0.00000E+00
    0.35462E-06         0.37980E-18         0.00000E+00
    0.35462E-06         0.21100E-18         0.00000E+00
    0.35462E-06         0.82582E-19         0.00000E+00
    0.35462E-06         0.28376E-19         0.00000E+00
    0.46634E-06         0.14843E-18         0.00000E+00
    0.46634E-06         0.31650E-18         0.00000E+00
    0.46634E-06         0.49331E-18         0.00000E+00
    0.46634E-06         0.61409E-18         0.00000E+00
    0.46634E-06         0.71195E-18         0.00000E+00
    0.46634E-06         0.72177E-18         0.00000E+00
    0.46634E-06         0.70140E-18         0.00000E+00
    0.46634E-06         0.71959E-18         0.00000E+00
    0.46634E-06         0.67848E-18         0.00000E+00
    0.46634E-06         0.52969E-18         0.00000E+00
    0.46634E-06         0.37871E-18         0.00000E+00
    0.46634E-06         0.21100E-18         0.00000E+00
    0.46634E-06         0.39654E-19         0.00000E+00
    0.46634E-06        -0.15280E-19         0.00000E+00
    0.46634E-06         0.40625E-35         0.00000E+00
    0.61326E-06         0.15789E-18         0.00000E+00
    0.61326E-06         0.50422E-18         0.00000E+00
    0.61326E-06         0.75997E-18         0.00000E+00
    0.61326E-06         0.86184E-18         0.00000E+00
    0.61326E-06         0.75815E-18         0.00000E+00
    0.61326E-06         0.59808E-18         0.00000E+00
    0.61326E-06         0.50568E-18         0.00000E+00
    0.61326E-06         0.53769E-18         0.00000E+00
    0.61326E-06         0.51659E-18         0.00000E+00
    0.61326E-06         0.45111E-18         0.00000E+00
    0.61326E-06         0.30195E-18         0.00000E+00
    0.61326E-06         0.96043E-19         0.00000E+00
    0.61326E-06         0.64756E-19         0.00000E+00
    0.61326E-06        -0.25102E-19         0.00000E+00
    0.61326E-06        -0.44383E-19         0.00000E+00
    0.80646E-06         0.26921E-19         0.00000E+00
    0.80646E-06         0.46639E-18         0.00000E+00
    0.80646E-06         0.72978E-18         0.00000E+00
    0.80646E-06         0.86948E-18         0.00000E+00
    0.80646E-06         0.67666E-18         0.00000E+00
    0.80646E-06         0.48240E-18         0.00000E+00
    0.80646E-06         0.45402E-18         0.00000E+00
    0.80646E-06         0.44129E-18         0.00000E+00
    0.80646E-06         0.49695E-18         0.00000E+00
    0.80646E-06         0.52969E-18         0.00000E+00
    0.80646E-06         0.34779E-18         0.00000E+00
    0.80646E-06         0.20555E-18         0.00000E+00
    0.80646E-06         0.70941E-19         0.00000E+00
    0.80646E-06         0.13606E-18         0.00000E+00
    0.80646E-06         0.41837E-19         0.00000E+00
    0.10605E-05         0.11460E-18         0.00000E+00
    0.10605E-05         0.37180E-18         0.00000E+00
    0.10605E-05         0.52496E-18         0.00000E+00
    0.10605E-05         0.58935E-18         0.00000E+00
    0.10605E-05         0.65029E-18         0.00000E+00
    0.10605E-05         0.56280E-18         0.00000E+00
    0.10605E-05         0.60027E-18         0.00000E+00
    0.10605E-05         0.59499E-18         0.00000E+00
    0.10605E-05         0.56898E-18         0.00000E+00
    0.10605E-05         0.54588E-18         0.00000E+00
    0.10605E-05         0.43292E-18         0.00000E+00
    0.10605E-05         0.30486E-18         0.00000E+00
    0.10605E-05         0.12824E-18         0.00000E+00
    0.10605E-05         0.13697E-18         0.00000E+00
    0.10605E-05         0.84037E-19         0.00000E+00
    0.13946E-05         0.18827E-18         0.00000E+00
    0.13946E-05         0.32833E-18         0.00000E+00
    0.13946E-05         0.46257E-18         0.00000E+00
    0.13946E-05         0.55934E-18         0.00000E+00
    0.13946E-05         0.64356E-18         0.00000E+00
    0.13946E-05         0.64319E-18         0.00000E+00
    0.13946E-05         0.64629E-18         0.00000E+00
    0.13946E-05         0.63101E-18         0.00000E+00
    0.13946E-05         0.67976E-18         0.00000E+00
    0.13946E-05         0.53806E-18         0.00000E+00
    0.13946E-05         0.42310E-18         0.00000E+00
    0.13946E-05         0.32487E-18         0.00000E+00
    0.13946E-05         0.22592E-18         0.00000E+00
    0.13946E-05         0.47839E-19         0.00000E+00
    0.13946E-05         0.21100E-19         0.00000E+00
    0.18340E-05         0.11132E-18         0.00000E+00
    0.18340E-05         0.24374E-18         0.00000E+00
    0.18340E-05         0.33906E-18         0.00000E+00
    0.18340E-05         0.61700E-18         0.00000E+00
    0.18340E-05         0.67448E-18         0.00000E+00
    0.18340E-05         0.74724E-18         0.00000E+00
    0.18340E-05         0.67012E-18         0.00000E+00
    0.18340E-05         0.59808E-18         0.00000E+00
    0.18340E-05         0.69995E-18         0.00000E+00
    0.18340E-05         0.42146E-18         0.00000E+00
    0.18340E-05         0.27794E-18         0.00000E+00
    0.18340E-05         0.26339E-18         0.00000E+00
    0.18340E-05         0.17462E-18         0.00000E+00
    0.18340E-05         0.10950E-18         0.00000E+00
    0.18340E-05        -0.16371E-20         0.00000E+00
    0.24117E-05        -0.12733E-19         0.00000E+00
    0.24117E-05        -0.29104E-19         0.00000E+00
    0.24117E-05         0.13843E-18         0.00000E+00
    0.24117E-05         0.46093E-18         0.00000E+00
    0.24117E-05         0.71959E-18         0.00000E+00
    0.24117E-05         0.84183E-18         0.00000E+00
    0.24117E-05         0.78544E-18         0.00000E+00
    0.24117E-05         0.70067E-18         0.00000E+00
    0.24117E-05         0.46603E-18         0.00000E+00
    0.24117E-05         0.24083E-18         0.00000E+00
    0.24117E-05         0.22192E-19         0.00000E+00
    0.24117E-05         0.57480E-19         0.00000E+00
    0.24117E-05        -0.98225E-20         0.00000E+00
    0.24117E-05         0.47112E-19         0.00000E+00
    0.24117E-05         0.34015E-19         0.00000E+00
    0.31715E-05        -0.45839E-19         0.00000E+00
    0.31715E-05        -0.11642E-18         0.00000E+00
    0.31715E-05         0.72760E-19         0.00000E+00
    0.31715E-05         0.30304E-18         0.00000E+00
    0.31715E-05         0.68394E-18         0.00000E+00
    0.31715E-05         0.87748E-18         0.00000E+00
    0.31715E-05         0.74942E-18         0.00000E+00
    0.31715E-05         0.50750E-18         0.00000E+00
    0.31715E-05         0.22719E-18         0.00000E+00
    0.31715E-05         0.67303E-19         0.00000E+00
    0.31715E-05        -0.15498E-18         0.00000E+00
    0.31715E-05        -0.26157E-18         0.00000E+00
    0.31715E-05        -0.25248E-18         0.00000E+00
    0.31715E-05        -0.12842E-18         0.00000E+00
    0.31715E-05        -0.27285E-19         0.00000E+00
    0.41707E-05         0.42201E-19         0.00000E+00
    0.41707E-05         0.25830E-19         0.00000E+00
    0.41707E-05         0.16007E-19         0.00000E+00
    0.41707E-05         0.34906E-18         0.00000E+00
    0.41707E-05         0.60027E-18         0.00000E+00
    0.41707E-05         0.66866E-18         0.00000E+00
    0.41707E-05         0.48785E-18         0.00000E+00
    0.41707E-05         0.25684E-18         0.00000E+00
    0.41707E-05         0.15516E-18         0.00000E+00
    0.41707E-05        -0.13133E-18         0.00000E+00
    0.41707E-05        -0.27940E-18         0.00000E+00
    0.41707E-05        -0.40527E-18         0.00000E+00
    0.41707E-05        -0.27576E-18         0.00000E+00
    0.41707E-05        -0.12133E-18         0.00000E+00
    0.41707E-05        -0.93860E-19         0.00000E+00
    0.54846E-05         0.87311E-19         0.00000E+00
    0.54846E-05        -0.11223E-18         0.00000E+00
    0.54846E-05         0.63301E-19         0.00000E+00
    0.54846E-05         0.21519E-18         0.00000E+00
    0.54846E-05         0.34524E-18         0.00000E+00
    0.54846E-05         0.75124E-19         0.00000E+00
    0.54846E-05         0.22064E-18         0.00000E+00
    0.54846E-05         0.56025E-19         0.00000E+00
    0.54846E-05         0.62391E-19         0.00000E+00
    0.54846E-05        -0.33469E-19         0.00000E+00
    0.54846E-05        -0.18808E-18         0.00000E+00
    0.54846E-05        -0.26284E-18         0.00000E+00
    0.54846E-05        -0.22919E-19         0.00000E+00
    0.54846E-05        -0.74579E-20         0.00000E+00
    0.54846E-05        -0.46202E-19         0.00000E+00
POINT_DATA       1456
VECTORS vDarcyNodal double 
    0.34156E-16        -0.64028E-19         0.00000E+00
    0.34101E-16        -0.11059E-18         0.00000E+00
    0.34046E-16        -0.15716E-18         0.00000E+00
    0.34050E-16        -0.14552E-18         0.00000E+00
    0.34139E-16        -0.17753E-18         0.00000E+00
    0.34171E-16        -0.23865E-18         0.00000E+00
    0.34164E-16        -0.26193E-18         0.00000E+00
    0.34123E-16        -0.25611E-18         0.00000E+00
    0.34114E-16        -0.22701E-18         0.00000E+00
    0.34139E-16        -0.20664E-18         0.00000E+00
    0.34153E-16        -0.17462E-18         0.00000E+00
    0.34118E-16        -0.11350E-18         0.00000E+00
    0.34107E-16        -0.61118E-19         0.00000E+00
    0.34104E-16        -0.34925E-19         0.00000E+00
    0.34110E-16        -0.23283E-19         0.00000E+00
    0.34116E-16        -0.17462E-19         0.00000E+00
    0.69510E-16         0.23283E-19         0.00000E+00
    0.69484E-16        -0.17462E-19         0.00000E+00
    0.69461E-16        -0.11350E-18         0.00000E+00
    0.69472E-16        -0.22410E-18         0.00000E+00
    0.69528E-16        -0.27649E-18         0.00000E+00
    0.69579E-16        -0.26193E-18         0.00000E+00
    0.69591E-16        -0.22701E-18         0.00000E+00
    0.69570E-16        -0.21537E-18         0.00000E+00
    0.69554E-16        -0.23865E-18         0.00000E+00
    0.69547E-16        -0.23238E-18         0.00000E+00
    0.69531E-16        -0.15671E-18         0.00000E+00
    0.69522E-16        -0.76121E-19         0.00000E+00
    0.69516E-16        -0.47017E-19         0.00000E+00
    0.69516E-16        -0.37835E-19         0.00000E+00
    0.69517E-16        -0.32014E-19         0.00000E+00
    0.69517E-16        -0.29104E-19         0.00000E+00
    0.14425E-15         0.17462E-19         0.00000E+00
    0.14429E-15        -0.26193E-19         0.00000E+00
    0.14429E-15        -0.13097E-18         0.00000E+00
    0.14428E-15        -0.25611E-18         0.00000E+00
    0.14429E-15        -0.35798E-18         0.00000E+00
    0.14433E-15        -0.34634E-18         0.00000E+00
    0.14436E-15        -0.25029E-18         0.00000E+00
    0.14436E-15        -0.19791E-18         0.00000E+00
    0.14435E-15        -0.18917E-18         0.00000E+00
    0.14431E-15        -0.16790E-18         0.00000E+00
    0.14427E-15        -0.13152E-18         0.00000E+00
    0.14428E-15        -0.89669E-19         0.00000E+00
    0.14429E-15        -0.51834E-19         0.00000E+00
    0.14430E-15        -0.37835E-19         0.00000E+00
    0.14430E-15        -0.26193E-19         0.00000E+00
    0.14429E-15        -0.17462E-19         0.00000E+00
    0.23004E-15        -0.94238E-19         0.00000E+00
    0.23004E-15        -0.90222E-19         0.00000E+00
    0.23000E-15        -0.98953E-19         0.00000E+00
    0.22999E-15        -0.22119E-18         0.00000E+00
    0.22999E-15        -0.36616E-18         0.00000E+00
    0.22997E-15        -0.36089E-18         0.00000E+00
    0.22996E-15        -0.26831E-18         0.00000E+00
    0.22998E-15        -0.20428E-18         0.00000E+00
    0.22999E-15        -0.16534E-18         0.00000E+00
    0.22996E-15        -0.11877E-18         0.00000E+00
    0.22993E-15        -0.10297E-18         0.00000E+00
    0.22991E-15        -0.10533E-18         0.00000E+00
    0.22992E-15        -0.78027E-19         0.00000E+00
    0.22993E-15        -0.46566E-19         0.00000E+00
    0.22993E-15        -0.11642E-19         0.00000E+00
    0.22993E-15         0.17462E-19         0.00000E+00
    0.33303E-15         0.29104E-19         0.00000E+00
    0.33302E-15         0.34925E-19         0.00000E+00
    0.33304E-15        -0.49477E-19         0.00000E+00
    0.33306E-15        -0.23865E-18         0.00000E+00
    0.33300E-15        -0.32887E-18         0.00000E+00
    0.33297E-15        -0.29104E-18         0.00000E+00
    0.33299E-15        -0.27358E-18         0.00000E+00
    0.33301E-15        -0.25611E-18         0.00000E+00
    0.33299E-15        -0.15716E-18         0.00000E+00
    0.33295E-15        -0.62224E-19         0.00000E+00
    0.33293E-15        -0.40396E-19         0.00000E+00
    0.33291E-15        -0.67288E-19         0.00000E+00
    0.33289E-15        -0.89116E-19         0.00000E+00
    0.33290E-15        -0.61118E-19         0.00000E+00
    0.33290E-15        -0.17462E-19         0.00000E+00
    0.33291E-15         0.00000E+00         0.00000E+00
    0.46111E-15        -0.52387E-19         0.00000E+00
    0.46111E-15        -0.10186E-18         0.00000E+00
    0.46114E-15        -0.16880E-18         0.00000E+00
    0.46115E-15        -0.16700E-18         0.00000E+00
    0.46113E-15        -0.22881E-18         0.00000E+00
    0.46113E-15        -0.34412E-18         0.00000E+00
    0.46113E-15        -0.32596E-18         0.00000E+00
    0.46112E-15        -0.19866E-18         0.00000E+00
    0.46111E-15        -0.73865E-19         0.00000E+00
    0.46109E-15        -0.25088E-19         0.00000E+00
    0.46107E-15        -0.25844E-19         0.00000E+00
    0.46106E-15        -0.37835E-19         0.00000E+00
    0.46104E-15        -0.55297E-19         0.00000E+00
    0.46102E-15        -0.61118E-19         0.00000E+00
    0.46102E-15        -0.29453E-19         0.00000E+00
    0.46103E-15        -0.58208E-20         0.00000E+00
    0.62412E-15         0.18161E-19         0.00000E+00
    0.62412E-15        -0.26193E-19         0.00000E+00
    0.62408E-15        -0.12078E-18         0.00000E+00
    0.62404E-15        -0.20664E-18         0.00000E+00
    0.62405E-15        -0.27975E-18         0.00000E+00
    0.62405E-15        -0.30268E-18         0.00000E+00
    0.62403E-15        -0.26741E-18         0.00000E+00
    0.62403E-15        -0.20920E-18         0.00000E+00
    0.62403E-15        -0.10803E-18         0.00000E+00
    0.62402E-15        -0.18045E-20         0.00000E+00
    0.62401E-15         0.16706E-19         0.00000E+00
    0.62400E-15        -0.14203E-19         0.00000E+00
    0.62399E-15        -0.20722E-19         0.00000E+00
    0.62398E-15        -0.34925E-19         0.00000E+00
    0.62397E-15        -0.32014E-19         0.00000E+00
    0.62397E-15        -0.11642E-19         0.00000E+00
    0.83430E-15        -0.54599E-19         0.00000E+00
    0.83426E-15        -0.32014E-19         0.00000E+00
    0.83416E-15        -0.26543E-19         0.00000E+00
    0.83411E-15        -0.12806E-18         0.00000E+00
    0.83410E-15        -0.25320E-18         0.00000E+00
    0.83408E-15        -0.30850E-18         0.00000E+00
    0.83409E-15        -0.29395E-18         0.00000E+00
    0.83407E-15        -0.19209E-18         0.00000E+00
    0.83403E-15        -0.49127E-19         0.00000E+00
    0.83403E-15         0.20722E-19         0.00000E+00
    0.83403E-15         0.11059E-20         0.00000E+00
    0.83404E-15        -0.17462E-19         0.00000E+00
    0.83404E-15        -0.15658E-19         0.00000E+00
    0.83404E-15        -0.22177E-19         0.00000E+00
    0.83403E-15        -0.20373E-19         0.00000E+00
    0.83403E-15        -0.10943E-19         0.00000E+00
    0.11074E-14         0.14552E-18         0.00000E+00
    0.11073E-14         0.20373E-18         0.00000E+00
    0.11073E-14         0.13679E-18         0.00000E+00
    0.11072E-14        -0.10186E-18         0.00000E+00
    0.11072E-14        -0.23865E-18         0.00000E+00
    0.11071E-14        -0.28231E-18         0.00000E+00
    0.11071E-14        -0.23865E-18         0.00000E+00
    0.11070E-14        -0.11933E-18         0.00000E+00
    0.11070E-14        -0.40745E-19         0.00000E+00
    0.11070E-14        -0.75663E-21         0.00000E+00
    0.11071E-14         0.21538E-20         0.00000E+00
    0.11071E-14        -0.25437E-19         0.00000E+00
    0.11071E-14        -0.29802E-19         0.00000E+00
    0.11071E-14        -0.26193E-19         0.00000E+00
    0.11071E-14        -0.14552E-19         0.00000E+00
    0.11070E-14        -0.58208E-20         0.00000E+00
    0.14639E-14         0.88825E-19         0.00000E+00
    0.14639E-14         0.14919E-18         0.00000E+00
    0.14640E-14         0.16805E-18         0.00000E+00
    0.14640E-14         0.19616E-19         0.00000E+00
    0.14639E-14        -0.12806E-18         0.00000E+00
    0.14638E-14        -0.12806E-18         0.00000E+00
    0.14637E-14        -0.87311E-19         0.00000E+00
    0.14636E-14        -0.78580E-19         0.00000E+00
    0.14636E-14        -0.87311E-19         0.00000E+00
    0.14637E-14        -0.10186E-18         0.00000E+00
    0.14637E-14        -0.75670E-19         0.00000E+00
    0.14637E-14        -0.11642E-19         0.00000E+00
    0.14637E-14         0.87311E-20         0.00000E+00
    0.14637E-14        -0.43656E-20         0.00000E+00
    0.14637E-14         0.87311E-20         0.00000E+00
    0.14637E-14         0.17462E-19         0.00000E+00
    0.19311E-14         0.58208E-19         0.00000E+00
    0.19311E-14         0.93132E-19         0.00000E+00
    0.19311E-14         0.11642E-18         0.00000E+00
    0.19311E-14         0.77824E-19         0.00000E+00
    0.19311E-14         0.53144E-19         0.00000E+00
    0.19310E-14         0.53900E-19         0.00000E+00
    0.19309E-14         0.23283E-19         0.00000E+00
    0.19309E-14        -0.56811E-19         0.00000E+00
    0.19308E-14        -0.10699E-18         0.00000E+00
    0.19308E-14        -0.98196E-19         0.00000E+00
    0.19308E-14        -0.63330E-19         0.00000E+00
    0.19308E-14        -0.43656E-19         0.00000E+00
    0.19309E-14        -0.32014E-19         0.00000E+00
    0.19309E-14         0.87311E-20         0.00000E+00
    0.19309E-14         0.22585E-19         0.00000E+00
    0.19309E-14         0.11642E-19         0.00000E+00
    0.25439E-14         0.11059E-18         0.00000E+00
    0.25439E-14         0.15716E-18         0.00000E+00
    0.25440E-14         0.14552E-18         0.00000E+00
    0.25440E-14         0.81491E-19         0.00000E+00
    0.25439E-14         0.15134E-18         0.00000E+00
    0.25439E-14         0.16589E-18         0.00000E+00
    0.25438E-14         0.81491E-19         0.00000E+00
    0.25438E-14         0.23283E-19         0.00000E+00
    0.25437E-14        -0.34925E-19         0.00000E+00
    0.25437E-14        -0.61118E-19         0.00000E+00
    0.25437E-14        -0.81491E-19         0.00000E+00
    0.25437E-14        -0.84401E-19         0.00000E+00
    0.25437E-14        -0.37835E-19         0.00000E+00
    0.25437E-14        -0.94297E-20         0.00000E+00
    0.25437E-14        -0.29104E-20         0.00000E+00
    0.25438E-14         0.10128E-19         0.00000E+00
    0.33487E-14         0.72179E-20         0.00000E+00
    0.33487E-14         0.23283E-19         0.00000E+00
    0.33487E-14         0.71304E-19         0.00000E+00
    0.33487E-14         0.16589E-18         0.00000E+00
    0.33488E-14         0.24523E-18         0.00000E+00
    0.33488E-14         0.20082E-18         0.00000E+00
    0.33487E-14         0.13167E-18         0.00000E+00
    0.33487E-14         0.92376E-19         0.00000E+00
    0.33487E-14         0.31316E-19         0.00000E+00
    0.33486E-14        -0.38534E-19         0.00000E+00
    0.33486E-14        -0.78638E-19         0.00000E+00
    0.33486E-14        -0.64785E-19         0.00000E+00
    0.33486E-14        -0.42899E-19         0.00000E+00
    0.33486E-14        -0.29104E-19         0.00000E+00
    0.33486E-14        -0.23283E-19         0.00000E+00
    0.33486E-14        -0.29104E-19         0.00000E+00
    0.44063E-14         0.47963E-19         0.00000E+00
    0.44062E-14         0.48720E-19         0.00000E+00
    0.44062E-14         0.21129E-19         0.00000E+00
    0.44063E-14         0.26950E-19         0.00000E+00
    0.44063E-14         0.11059E-18         0.00000E+00
    0.44064E-14         0.20879E-18         0.00000E+00
    0.44064E-14         0.21607E-18         0.00000E+00
    0.44064E-14         0.14261E-18         0.00000E+00
    0.44063E-14         0.84401E-19         0.00000E+00
    0.44063E-14         0.17462E-19         0.00000E+00
    0.44063E-14        -0.34925E-19         0.00000E+00
    0.44062E-14        -0.40745E-19         0.00000E+00
    0.44062E-14        -0.31258E-19         0.00000E+00
    0.44062E-14        -0.29104E-19         0.00000E+00
    0.44062E-14        -0.19674E-19         0.00000E+00
    0.44062E-14        -0.58208E-20         0.00000E+00
    0.57965E-14         0.45053E-19         0.00000E+00
    0.57965E-14         0.64028E-19         0.00000E+00
    0.57965E-14         0.35681E-19         0.00000E+00
    0.57965E-14        -0.23283E-19         0.00000E+00
    0.57965E-14         0.55297E-19         0.00000E+00
    0.57965E-14         0.15425E-18         0.00000E+00
    0.57965E-14         0.16589E-18         0.00000E+00
    0.57965E-14         0.16880E-18         0.00000E+00
    0.57965E-14         0.14767E-18         0.00000E+00
    0.57965E-14         0.86555E-19         0.00000E+00
    0.57965E-14         0.37136E-19         0.00000E+00
    0.57964E-14         0.20373E-19         0.00000E+00
    0.57964E-14        -0.94878E-20         0.00000E+00
    0.57964E-14        -0.37078E-19         0.00000E+00
    0.57964E-14        -0.23283E-19         0.00000E+00
    0.57964E-14        -0.13155E-19         0.00000E+00
    0.76242E-14         0.75786E-19         0.00000E+00
    0.76242E-14         0.62631E-19         0.00000E+00
    0.76242E-14         0.34925E-19         0.00000E+00
    0.76242E-14         0.34925E-19         0.00000E+00
    0.76242E-14         0.69849E-19         0.00000E+00
    0.76242E-14         0.13679E-18         0.00000E+00
    0.76243E-14         0.13388E-18         0.00000E+00
    0.76243E-14         0.79977E-19         0.00000E+00
    0.76243E-14         0.10908E-18         0.00000E+00
    0.76243E-14         0.12806E-18         0.00000E+00
    0.76243E-14         0.93132E-19         0.00000E+00
    0.76243E-14         0.55297E-19         0.00000E+00
    0.76243E-14         0.14552E-19         0.00000E+00
    0.76242E-14        -0.11642E-19         0.00000E+00
    0.76242E-14        -0.43075E-20         0.00000E+00
    0.76242E-14        -0.27943E-20         0.00000E+00
    0.10027E-13         0.34925E-19         0.00000E+00
    0.10027E-13         0.58208E-19         0.00000E+00
    0.10027E-13         0.72760E-19         0.00000E+00
    0.10027E-13         0.32014E-19         0.00000E+00
    0.10027E-13        -0.26193E-19         0.00000E+00
    0.10027E-13        -0.26193E-19         0.00000E+00
    0.10028E-13         0.55297E-19         0.00000E+00
    0.10028E-13         0.11933E-18         0.00000E+00
    0.10028E-13         0.14552E-18         0.00000E+00
    0.10028E-13         0.10326E-18         0.00000E+00
    0.10028E-13         0.34867E-19         0.00000E+00
    0.10028E-13         0.27707E-19         0.00000E+00
    0.10028E-13         0.40803E-19         0.00000E+00
    0.10028E-13         0.32014E-19         0.00000E+00
    0.10028E-13         0.11642E-19         0.00000E+00
    0.10028E-13         0.11642E-19         0.00000E+00
    0.13187E-13        -0.20489E-19         0.00000E+00
    0.13187E-13        -0.34925E-19         0.00000E+00
    0.13187E-13        -0.21770E-19         0.00000E+00
    0.13187E-13        -0.58208E-20         0.00000E+00
    0.13187E-13        -0.69849E-19         0.00000E+00
    0.13187E-13        -0.10338E-18         0.00000E+00
    0.13188E-13        -0.33527E-19         0.00000E+00
    0.13188E-13         0.66939E-19         0.00000E+00
    0.13188E-13         0.11059E-18         0.00000E+00
    0.13188E-13         0.10477E-18         0.00000E+00
    0.13188E-13         0.84401E-19         0.00000E+00
    0.13188E-13         0.43656E-19         0.00000E+00
    0.13188E-13         0.18976E-19         0.00000E+00
    0.13188E-13         0.14552E-19         0.00000E+00
    0.13188E-13        -0.58065E-22         0.00000E+00
    0.13188E-13        -0.17462E-19         0.00000E+00
    0.17343E-13        -0.66823E-19         0.00000E+00
    0.17343E-13        -0.77067E-19         0.00000E+00
    0.17343E-13        -0.78638E-19         0.00000E+00
    0.17343E-13        -0.12957E-18         0.00000E+00
    0.17343E-13        -0.20373E-18         0.00000E+00
    0.17343E-13        -0.20082E-18         0.00000E+00
    0.17343E-13        -0.12224E-18         0.00000E+00
    0.17343E-13         0.14552E-19         0.00000E+00
    0.17343E-13         0.11933E-18         0.00000E+00
    0.17343E-13         0.14843E-18         0.00000E+00
    0.17343E-13         0.12224E-18         0.00000E+00
    0.17343E-13         0.72760E-19         0.00000E+00
    0.17343E-13         0.46566E-19         0.00000E+00
    0.17343E-13         0.26193E-19         0.00000E+00
    0.17343E-13         0.58208E-20         0.00000E+00
    0.17343E-13         0.00000E+00         0.00000E+00
    0.22807E-13         0.14436E-19         0.00000E+00
    0.22807E-13         0.43656E-20         0.00000E+00
    0.22807E-13        -0.94529E-19         0.00000E+00
    0.22807E-13        -0.24156E-18         0.00000E+00
    0.22807E-13        -0.30268E-18         0.00000E+00
    0.22807E-13        -0.27358E-18         0.00000E+00
    0.22807E-13        -0.16589E-18         0.00000E+00
    0.22807E-13        -0.87311E-20         0.00000E+00
    0.22807E-13         0.12224E-18         0.00000E+00
    0.22807E-13         0.17171E-18         0.00000E+00
    0.22807E-13         0.12806E-18         0.00000E+00
    0.22807E-13         0.66823E-19         0.00000E+00
    0.22807E-13         0.46508E-19         0.00000E+00
    0.22807E-13         0.53900E-19         0.00000E+00
    0.22807E-13         0.32014E-19         0.00000E+00
    0.22807E-13         0.11642E-19         0.00000E+00
    0.29992E-13        -0.13388E-18         0.00000E+00
    0.29993E-13        -0.12515E-18         0.00000E+00
    0.29993E-13        -0.98953E-19         0.00000E+00
    0.29993E-13        -0.14267E-18         0.00000E+00
    0.29993E-13        -0.25460E-18         0.00000E+00
    0.29993E-13        -0.27783E-18         0.00000E+00
    0.29992E-13        -0.20373E-18         0.00000E+00
    0.29992E-13        -0.67055E-19         0.00000E+00
    0.29993E-13         0.66881E-19         0.00000E+00
    0.29993E-13         0.10338E-18         0.00000E+00
    0.29993E-13         0.95985E-19         0.00000E+00
    0.29993E-13         0.55297E-19         0.00000E+00
    0.29993E-13         0.17462E-19         0.00000E+00
    0.29993E-13         0.52387E-19         0.00000E+00
    0.29993E-13         0.59721E-19         0.00000E+00
    0.29993E-13         0.40745E-19         0.00000E+00
    0.39442E-13        -0.13388E-18         0.00000E+00
    0.39442E-13        -0.18626E-18         0.00000E+00
    0.39442E-13        -0.21537E-18         0.00000E+00
    0.39442E-13        -0.21828E-18         0.00000E+00
    0.39442E-13        -0.19500E-18         0.00000E+00
    0.39442E-13        -0.11933E-18         0.00000E+00
    0.39442E-13        -0.91735E-19         0.00000E+00
    0.39442E-13        -0.72818E-19         0.00000E+00
    0.39442E-13        -0.34867E-19         0.00000E+00
    0.39442E-13        -0.57627E-20         0.00000E+00
    0.39442E-13         0.43075E-20         0.00000E+00
    0.39442E-13        -0.10244E-19         0.00000E+00
    0.39442E-13        -0.87311E-20         0.00000E+00
    0.39442E-13        -0.17462E-19         0.00000E+00
    0.39442E-13        -0.26193E-19         0.00000E+00
    0.39442E-13        -0.17462E-19         0.00000E+00
    0.51868E-13        -0.93132E-19         0.00000E+00
    0.51868E-13        -0.13388E-18         0.00000E+00
    0.51868E-13        -0.16880E-18         0.00000E+00
    0.51868E-13        -0.15425E-18         0.00000E+00
    0.51868E-13        -0.11350E-18         0.00000E+00
    0.51868E-13        -0.58208E-19         0.00000E+00
    0.51868E-13        -0.32014E-19         0.00000E+00
    0.51868E-13        -0.66939E-19         0.00000E+00
    0.51868E-13        -0.87311E-19         0.00000E+00
    0.51868E-13        -0.81491E-19         0.00000E+00
    0.51868E-13        -0.84401E-19         0.00000E+00
    0.51868E-13        -0.61118E-19         0.00000E+00
    0.51868E-13        -0.64028E-19         0.00000E+00
    0.51868E-13        -0.68336E-19         0.00000E+00
    0.51868E-13        -0.49477E-19         0.00000E+00
    0.51868E-13        -0.43772E-19         0.00000E+00
    0.68208E-13        -0.86150E-20         0.00000E+00
    0.68208E-13        -0.29104E-20         0.00000E+00
    0.68208E-13         0.34867E-19         0.00000E+00
    0.68208E-13         0.55297E-19         0.00000E+00
    0.68208E-13         0.58208E-20         0.00000E+00
    0.68208E-13        -0.90222E-19         0.00000E+00
    0.68208E-13        -0.18044E-18         0.00000E+00
    0.68208E-13        -0.19791E-18         0.00000E+00
    0.68208E-13        -0.17462E-18         0.00000E+00
    0.68208E-13        -0.13679E-18         0.00000E+00
    0.68208E-13        -0.10035E-18         0.00000E+00
    0.68208E-13        -0.11642E-18         0.00000E+00
    0.68208E-13        -0.12375E-18         0.00000E+00
    0.68208E-13        -0.85856E-19         0.00000E+00
    0.68208E-13        -0.37835E-19         0.00000E+00
    0.68208E-13        -0.17462E-19         0.00000E+00
    0.89696E-13         0.72643E-19         0.00000E+00
    0.89696E-13         0.55297E-19         0.00000E+00
    0.89696E-13         0.10244E-19         0.00000E+00
    0.89696E-13         0.32014E-19         0.00000E+00
    0.89696E-13         0.17462E-19         0.00000E+00
    0.89696E-13        -0.78580E-19         0.00000E+00
    0.89696E-13        -0.15716E-18         0.00000E+00
    0.89696E-13        -0.20373E-18         0.00000E+00
    0.89696E-13        -0.23283E-18         0.00000E+00
    0.89696E-13        -0.21537E-18         0.00000E+00
    0.89696E-13        -0.20087E-18         0.00000E+00
    0.89696E-13        -0.21834E-18         0.00000E+00
    0.89696E-13        -0.14110E-18         0.00000E+00
    0.89696E-13        -0.78522E-19         0.00000E+00
    0.89697E-13        -0.61176E-19         0.00000E+00
    0.89696E-13        -0.37951E-19         0.00000E+00
    0.11795E-12         0.00000E+00         0.00000E+00
    0.11795E-12         0.14552E-19         0.00000E+00
    0.11795E-12         0.86731E-20         0.00000E+00
    0.11795E-12        -0.29104E-20         0.00000E+00
    0.11795E-12        -0.10128E-19         0.00000E+00
    0.11795E-12        -0.75670E-19         0.00000E+00
    0.11795E-12        -0.14261E-18         0.00000E+00
    0.11795E-12        -0.18335E-18         0.00000E+00
    0.11795E-12        -0.21985E-18         0.00000E+00
    0.11795E-12        -0.25617E-18         0.00000E+00
    0.11795E-12        -0.27497E-18         0.00000E+00
    0.11795E-12        -0.21677E-18         0.00000E+00
    0.11795E-12        -0.17317E-18         0.00000E+00
    0.11795E-12        -0.13103E-18         0.00000E+00
    0.11795E-12        -0.37835E-19         0.00000E+00
    0.11795E-12         0.11642E-19         0.00000E+00
    0.15511E-12         0.34925E-19         0.00000E+00
    0.15511E-12        -0.11700E-19         0.00000E+00
    0.15511E-12        -0.82946E-19         0.00000E+00
    0.15511E-12        -0.12224E-18         0.00000E+00
    0.15511E-12        -0.11350E-18         0.00000E+00
    0.15511E-12        -0.94587E-19         0.00000E+00
    0.15511E-12        -0.10477E-18         0.00000E+00
    0.15511E-12        -0.19214E-18         0.00000E+00
    0.15511E-12        -0.25623E-18         0.00000E+00
    0.15511E-12        -0.23271E-18         0.00000E+00
    0.15511E-12        -0.21089E-18         0.00000E+00
    0.15511E-12        -0.18056E-18         0.00000E+00
    0.15511E-12        -0.16304E-18         0.00000E+00
    0.15511E-12        -0.11933E-18         0.00000E+00
    0.15511E-12        -0.43656E-19         0.00000E+00
    0.15511E-12        -0.86150E-20         0.00000E+00
    0.20398E-12        -0.10198E-18         0.00000E+00
    0.20398E-12        -0.13248E-18         0.00000E+00
    0.20398E-12        -0.12224E-18         0.00000E+00
    0.20398E-12        -0.12654E-18         0.00000E+00
    0.20398E-12        -0.15856E-18         0.00000E+00
    0.20398E-12        -0.12957E-18         0.00000E+00
    0.20398E-12        -0.16298E-18         0.00000E+00
    0.20398E-12        -0.24587E-18         0.00000E+00
    0.20398E-12        -0.25029E-18         0.00000E+00
    0.20398E-12        -0.20530E-18         0.00000E+00
    0.20398E-12        -0.18778E-18         0.00000E+00
    0.20398E-12        -0.15571E-18         0.00000E+00
    0.20398E-12        -0.12515E-18         0.00000E+00
    0.20398E-12        -0.10035E-18         0.00000E+00
    0.20398E-12        -0.55297E-19         0.00000E+00
    0.20398E-12        -0.40745E-19         0.00000E+00
    0.26824E-12        -0.14272E-18         0.00000E+00
    0.26824E-12        -0.15710E-18         0.00000E+00
    0.26824E-12        -0.13382E-18         0.00000E+00
    0.26824E-12        -0.10047E-18         0.00000E+00
    0.26824E-12        -0.13388E-18         0.00000E+00
    0.26824E-12        -0.19360E-18         0.00000E+00
    0.26824E-12        -0.26333E-18         0.00000E+00
    0.26824E-12        -0.29977E-18         0.00000E+00
    0.26824E-12        -0.28097E-18         0.00000E+00
    0.26824E-12        -0.21537E-18         0.00000E+00
    0.26824E-12        -0.13679E-18         0.00000E+00
    0.26824E-12        -0.12224E-18         0.00000E+00
    0.26824E-12        -0.84343E-19         0.00000E+00
    0.26824E-12        -0.45111E-19         0.00000E+00
    0.26824E-12        -0.32014E-19         0.00000E+00
    0.26824E-12        -0.86150E-20         0.00000E+00
    0.35275E-12        -0.84169E-19         0.00000E+00
    0.35275E-12        -0.14261E-18         0.00000E+00
    0.35275E-12        -0.17474E-18         0.00000E+00
    0.35275E-12        -0.22107E-18         0.00000E+00
    0.35275E-12        -0.29238E-18         0.00000E+00
    0.35275E-12        -0.24750E-18         0.00000E+00
    0.35275E-12        -0.20664E-18         0.00000E+00
    0.35275E-12        -0.26048E-18         0.00000E+00
    0.35275E-12        -0.27660E-18         0.00000E+00
    0.35275E-12        -0.19209E-18         0.00000E+00
    0.35275E-12        -0.14261E-18         0.00000E+00
    0.35275E-12        -0.98953E-19         0.00000E+00
    0.35275E-12        -0.49593E-19         0.00000E+00
    0.35275E-12        -0.14552E-19         0.00000E+00
    0.35275E-12         0.16239E-19         0.00000E+00
    0.35275E-12         0.14784E-19         0.00000E+00
    0.46388E-12        -0.10477E-18         0.00000E+00
    0.46388E-12        -0.14843E-18         0.00000E+00
    0.46388E-12        -0.21828E-18         0.00000E+00
    0.46388E-12        -0.24156E-18         0.00000E+00
    0.46388E-12        -0.25320E-18         0.00000E+00
    0.46388E-12        -0.26776E-18         0.00000E+00
    0.46388E-12        -0.25320E-18         0.00000E+00
    0.46388E-12        -0.24447E-18         0.00000E+00
    0.46388E-12        -0.27358E-18         0.00000E+00
    0.46388E-12        -0.20082E-18         0.00000E+00
    0.46388E-12        -0.69849E-19         0.00000E+00
    0.46388E-12        -0.29104E-19         0.00000E+00
    0.46388E-12        -0.46566E-19         0.00000E+00
    0.46388E-12        -0.87311E-19         0.00000E+00
    0.46388E-12        -0.65367E-19         0.00000E+00
    0.46388E-12        -0.23051E-19         0.00000E+00
    0.61002E-12        -0.14552E-18         0.00000E+00
    0.61002E-12        -0.22410E-18         0.00000E+00
    0.61002E-12        -0.25902E-18         0.00000E+00
    0.61002E-12        -0.20082E-18         0.00000E+00
    0.61002E-12        -0.18626E-18         0.00000E+00
    0.61002E-12        -0.21828E-18         0.00000E+00
    0.61002E-12        -0.22835E-18         0.00000E+00
    0.61002E-12        -0.23865E-18         0.00000E+00
    0.61002E-12        -0.26351E-18         0.00000E+00
    0.61002E-12        -0.22410E-18         0.00000E+00
    0.61002E-12        -0.11350E-18         0.00000E+00
    0.61002E-12         0.00000E+00         0.00000E+00
    0.61002E-12         0.17462E-19         0.00000E+00
    0.61002E-12        -0.21828E-19         0.00000E+00
    0.61002E-12        -0.33353E-19         0.00000E+00
    0.61002E-12        -0.20140E-19         0.00000E+00
    0.80219E-12        -0.64028E-19         0.00000E+00
    0.80219E-12        -0.13388E-18         0.00000E+00
    0.80219E-12        -0.19051E-18         0.00000E+00
    0.80219E-12        -0.15716E-18         0.00000E+00
    0.80219E-12        -0.18056E-18         0.00000E+00
    0.80219E-12        -0.22410E-18         0.00000E+00
    0.80219E-12        -0.26484E-18         0.00000E+00
    0.80219E-12        -0.24750E-18         0.00000E+00
    0.80219E-12        -0.16880E-18         0.00000E+00
    0.80219E-12        -0.15995E-18         0.00000E+00
    0.80219E-12        -0.13981E-18         0.00000E+00
    0.80219E-12        -0.40745E-19         0.00000E+00
    0.80219E-12         0.23399E-19         0.00000E+00
    0.80219E-12         0.12981E-19         0.00000E+00
    0.80219E-12        -0.87311E-20         0.00000E+00
    0.80219E-12        -0.20140E-19         0.00000E+00
    0.10549E-11        -0.87311E-19         0.00000E+00
    0.10549E-11        -0.93132E-19         0.00000E+00
    0.10549E-11        -0.13388E-18         0.00000E+00
    0.10549E-11        -0.16880E-18         0.00000E+00
    0.10549E-11        -0.12806E-18         0.00000E+00
    0.10549E-11        -0.75670E-19         0.00000E+00
    0.10549E-11        -0.12806E-18         0.00000E+00
    0.10549E-11        -0.17765E-18         0.00000E+00
    0.10549E-11        -0.11496E-18         0.00000E+00
    0.10549E-11        -0.81491E-19         0.00000E+00
    0.10549E-11        -0.56869E-19         0.00000E+00
    0.10549E-11        -0.49477E-19         0.00000E+00
    0.10549E-11        -0.59547E-19         0.00000E+00
    0.10549E-11        -0.46566E-19         0.00000E+00
    0.10549E-11        -0.34925E-19         0.00000E+00
    0.10549E-11        -0.55885E-20         0.00000E+00
    0.13872E-11         0.52387E-19         0.00000E+00
    0.13872E-11         0.37835E-19         0.00000E+00
    0.13872E-11        -0.32014E-19         0.00000E+00
    0.13872E-11        -0.87311E-19         0.00000E+00
    0.13872E-11        -0.17462E-19         0.00000E+00
    0.13872E-11        -0.23283E-19         0.00000E+00
    0.13872E-11        -0.81491E-19         0.00000E+00
    0.13872E-11        -0.26193E-19         0.00000E+00
    0.13872E-11        -0.29104E-20         0.00000E+00
    0.13872E-11        -0.26193E-19         0.00000E+00
    0.13872E-11        -0.32014E-19         0.00000E+00
    0.13872E-11        -0.23283E-19         0.00000E+00
    0.13872E-11        -0.23283E-19         0.00000E+00
    0.13872E-11        -0.29104E-19         0.00000E+00
    0.13872E-11        -0.19034E-19         0.00000E+00
    0.13872E-11        -0.14784E-19         0.00000E+00
    0.18243E-11         0.12224E-18         0.00000E+00
    0.18243E-11         0.15134E-18         0.00000E+00
    0.18243E-11         0.13970E-18         0.00000E+00
    0.18243E-11         0.26193E-19         0.00000E+00
    0.18243E-11        -0.75670E-19         0.00000E+00
    0.18243E-11        -0.11642E-18         0.00000E+00
    0.18243E-11        -0.98953E-19         0.00000E+00
    0.18243E-11         0.86150E-20         0.00000E+00
    0.18243E-11         0.84401E-19         0.00000E+00
    0.18243E-11         0.10186E-18         0.00000E+00
    0.18243E-11         0.59547E-19         0.00000E+00
    0.18243E-11         0.58208E-20         0.00000E+00
    0.18243E-11         0.43656E-19         0.00000E+00
    0.18243E-11         0.68510E-19         0.00000E+00
    0.18243E-11         0.52387E-19         0.00000E+00
    0.18243E-11         0.43423E-19         0.00000E+00
    0.23990E-11         0.87311E-19         0.00000E+00
    0.23990E-11         0.12090E-18         0.00000E+00
    0.23990E-11         0.10635E-18         0.00000E+00
    0.23990E-11        -0.29104E-20         0.00000E+00
    0.23990E-11        -0.43656E-19         0.00000E+00
    0.23990E-11        -0.37835E-19         0.00000E+00
    0.23990E-11        -0.55413E-19         0.00000E+00
    0.23990E-11        -0.13213E-19         0.00000E+00
    0.23990E-11         0.85972E-19         0.00000E+00
    0.23990E-11         0.14261E-18         0.00000E+00
    0.23990E-11         0.14395E-18         0.00000E+00
    0.23990E-11         0.14272E-18         0.00000E+00
    0.23990E-11         0.11350E-18         0.00000E+00
    0.23990E-11         0.10454E-18         0.00000E+00
    0.23990E-11         0.66939E-19         0.00000E+00
    0.23990E-11         0.23515E-19         0.00000E+00
    0.31548E-11         0.22701E-18         0.00000E+00
    0.31548E-11         0.25320E-18         0.00000E+00
    0.31548E-11         0.15716E-18         0.00000E+00
    0.31548E-11         0.66939E-19         0.00000E+00
    0.31548E-11         0.84401E-19         0.00000E+00
    0.31548E-11         0.87311E-20         0.00000E+00
    0.31548E-11        -0.72760E-19         0.00000E+00
    0.31548E-11        -0.40745E-19         0.00000E+00
    0.31548E-11         0.32014E-19         0.00000E+00
    0.31548E-11         0.84401E-19         0.00000E+00
    0.31548E-11         0.16298E-18         0.00000E+00
    0.31548E-11         0.21234E-18         0.00000E+00
    0.31548E-11         0.20518E-18         0.00000E+00
    0.31548E-11         0.13836E-18         0.00000E+00
    0.31548E-11         0.52387E-19         0.00000E+00
    0.31548E-11         0.23283E-19         0.00000E+00
    0.41486E-11         0.49709E-19         0.00000E+00
    0.41486E-11         0.91793E-19         0.00000E+00
    0.41486E-11         0.14977E-18         0.00000E+00
    0.41486E-11         0.16432E-18         0.00000E+00
    0.41486E-11         0.13970E-18         0.00000E+00
    0.41486E-11         0.69965E-19         0.00000E+00
    0.41486E-11         0.16007E-19         0.00000E+00
    0.41486E-11         0.10070E-19         0.00000E+00
    0.41486E-11         0.20373E-19         0.00000E+00
    0.41486E-11         0.84401E-19         0.00000E+00
    0.41486E-11         0.14843E-18         0.00000E+00
    0.41486E-11         0.18335E-18         0.00000E+00
    0.41486E-11         0.19791E-18         0.00000E+00
    0.41486E-11         0.16007E-18         0.00000E+00
    0.41486E-11         0.78580E-19         0.00000E+00
    0.41486E-11         0.29104E-19         0.00000E+00
    0.54556E-11         0.81491E-19         0.00000E+00
    0.54556E-11         0.81491E-19         0.00000E+00
    0.54556E-11         0.69965E-19         0.00000E+00
    0.54556E-11         0.48021E-19         0.00000E+00
    0.54556E-11         0.66823E-19         0.00000E+00
    0.54556E-11         0.13097E-18         0.00000E+00
    0.54556E-11         0.19791E-18         0.00000E+00
    0.54556E-11         0.17462E-18         0.00000E+00
    0.54556E-11         0.13970E-18         0.00000E+00
    0.54556E-11         0.13970E-18         0.00000E+00
    0.54556E-11         0.87311E-19         0.00000E+00
    0.54556E-11         0.78580E-19         0.00000E+00
    0.54556E-11         0.10186E-18         0.00000E+00
    0.54556E-11         0.11350E-18         0.00000E+00
    0.54556E-11         0.50816E-19         0.00000E+00
    0.54556E-11        -0.23515E-19         0.00000E+00
    0.71743E-11         0.34925E-19         0.00000E+00
    0.71743E-11         0.46566E-19         0.00000E+00
    0.71743E-11         0.58208E-19         0.00000E+00
    0.71743E-11         0.10466E-18         0.00000E+00
    0.71743E-11         0.13679E-18         0.00000E+00
    0.71743E-11         0.16746E-18         0.00000E+00
    0.71743E-11         0.25320E-18         0.00000E+00
    0.71743E-11         0.26776E-18         0.00000E+00
    0.71743E-11         0.19209E-18         0.00000E+00
    0.71743E-11         0.87311E-19         0.00000E+00
    0.71743E-11         0.00000E+00         0.00000E+00
    0.71743E-11        -0.17462E-19         0.00000E+00
    0.71743E-11        -0.29104E-19         0.00000E+00
    0.71743E-11        -0.68510E-19         0.00000E+00
    0.71743E-11        -0.43772E-19         0.00000E+00
    0.71743E-11        -0.58208E-20         0.00000E+00
    0.94345E-11         0.10477E-18         0.00000E+00
    0.94345E-11         0.13970E-18         0.00000E+00
    0.94345E-11         0.15134E-18         0.00000E+00
    0.94345E-11         0.72760E-19         0.00000E+00
    0.94345E-11         0.12806E-18         0.00000E+00
    0.94345E-11         0.27358E-18         0.00000E+00
    0.94345E-11         0.25902E-18         0.00000E+00
    0.94345E-11         0.22689E-18         0.00000E+00
    0.94345E-11         0.11048E-18         0.00000E+00
    0.94345E-11        -0.37835E-19         0.00000E+00
    0.94345E-11        -0.72760E-19         0.00000E+00
    0.94345E-11        -0.14552E-18         0.00000E+00
    0.94345E-11        -0.19209E-18         0.00000E+00
    0.94345E-11        -0.16589E-18         0.00000E+00
    0.94345E-11        -0.84401E-19         0.00000E+00
    0.94345E-11        -0.23283E-19         0.00000E+00
    0.12407E-10         0.11059E-18         0.00000E+00
    0.12407E-10         0.16869E-18         0.00000E+00
    0.12407E-10         0.18324E-18         0.00000E+00
    0.12407E-10         0.11362E-18         0.00000E+00
    0.12407E-10         0.11350E-18         0.00000E+00
    0.12407E-10         0.17160E-18         0.00000E+00
    0.12407E-10         0.22410E-18         0.00000E+00
    0.12407E-10         0.14843E-18         0.00000E+00
    0.12407E-10         0.14552E-19         0.00000E+00
    0.12407E-10        -0.64028E-19         0.00000E+00
    0.12407E-10        -0.12224E-18         0.00000E+00
    0.12407E-10        -0.17171E-18         0.00000E+00
    0.12407E-10        -0.20227E-18         0.00000E+00
    0.12407E-10        -0.15268E-18         0.00000E+00
    0.12407E-10        -0.55297E-19         0.00000E+00
    0.12407E-10        -0.60533E-20         0.00000E+00
    0.16315E-10         0.23283E-18         0.00000E+00
    0.16315E-10         0.27369E-18         0.00000E+00
    0.16315E-10         0.27358E-18         0.00000E+00
    0.16315E-10         0.27783E-18         0.00000E+00
    0.16315E-10         0.28522E-18         0.00000E+00
    0.16315E-10         0.20082E-18         0.00000E+00
    0.16315E-10         0.12515E-18         0.00000E+00
    0.16315E-10         0.90222E-19         0.00000E+00
    0.16315E-10         0.64028E-19         0.00000E+00
    0.16315E-10        -0.23283E-19         0.00000E+00
    0.16315E-10        -0.11339E-18         0.00000E+00
    0.16315E-10        -0.11642E-18         0.00000E+00
    0.16315E-10        -0.10780E-18         0.00000E+00
    0.16315E-10        -0.93016E-19         0.00000E+00
    0.16315E-10        -0.49477E-19         0.00000E+00
    0.16315E-10        -0.32247E-19         0.00000E+00
    0.21455E-10         0.13388E-18         0.00000E+00
    0.21455E-10         0.28231E-18         0.00000E+00
    0.21455E-10         0.42492E-18         0.00000E+00
    0.21455E-10         0.37835E-18         0.00000E+00
    0.21455E-10         0.33178E-18         0.00000E+00
    0.21455E-10         0.25029E-18         0.00000E+00
    0.21455E-10         0.12806E-18         0.00000E+00
    0.21455E-10         0.11933E-18         0.00000E+00
    0.21455E-10         0.17753E-18         0.00000E+00
    0.21455E-10         0.15425E-18         0.00000E+00
    0.21455E-10         0.32014E-19         0.00000E+00
    0.21455E-10        -0.78580E-19         0.00000E+00
    0.21455E-10        -0.84401E-19         0.00000E+00
    0.21455E-10        -0.85973E-19         0.00000E+00
    0.21455E-10        -0.98953E-19         0.00000E+00
    0.21455E-10        -0.89989E-19         0.00000E+00
    0.28214E-10         0.21560E-18         0.00000E+00
    0.28214E-10         0.36950E-18         0.00000E+00
    0.28214E-10         0.52375E-18         0.00000E+00
    0.28214E-10         0.43522E-18         0.00000E+00
    0.28214E-10         0.27078E-18         0.00000E+00
    0.28214E-10         0.13231E-18         0.00000E+00
    0.28214E-10         0.14686E-18         0.00000E+00
    0.28214E-10         0.24156E-18         0.00000E+00
    0.28214E-10         0.25600E-18         0.00000E+00
    0.28214E-10         0.22858E-18         0.00000E+00
    0.28214E-10         0.12817E-18         0.00000E+00
    0.28214E-10         0.62457E-19         0.00000E+00
    0.28214E-10         0.43656E-19         0.00000E+00
    0.28214E-10        -0.23167E-19         0.00000E+00
    0.28214E-10        -0.29104E-20         0.00000E+00
    0.28214E-10         0.40745E-19         0.00000E+00
    0.37103E-10         0.24447E-18         0.00000E+00
    0.37103E-10         0.35349E-18         0.00000E+00
    0.37103E-10         0.52532E-18         0.00000E+00
    0.37103E-10         0.50204E-18         0.00000E+00
    0.37103E-10         0.29686E-18         0.00000E+00
    0.37103E-10         0.17608E-18         0.00000E+00
    0.37103E-10         0.20082E-18         0.00000E+00
    0.37103E-10         0.24884E-18         0.00000E+00
    0.37103E-10         0.26473E-18         0.00000E+00
    0.37103E-10         0.21537E-18         0.00000E+00
    0.37103E-10         0.20384E-18         0.00000E+00
    0.37103E-10         0.21246E-18         0.00000E+00
    0.37103E-10         0.20070E-18         0.00000E+00
    0.37103E-10         0.18638E-18         0.00000E+00
    0.37103E-10         0.98953E-19         0.00000E+00
    0.37103E-10         0.37602E-19         0.00000E+00
    0.48792E-10         0.69849E-19         0.00000E+00
    0.48792E-10         0.21671E-18         0.00000E+00
    0.48792E-10         0.43801E-18         0.00000E+00
    0.48792E-10         0.45996E-18         0.00000E+00
    0.48792E-10         0.34051E-18         0.00000E+00
    0.48792E-10         0.20082E-18         0.00000E+00
    0.48792E-10         0.11775E-18         0.00000E+00
    0.48792E-10         0.12660E-18         0.00000E+00
    0.48792E-10         0.24011E-18         0.00000E+00
    0.48792E-10         0.34476E-18         0.00000E+00
    0.48792E-10         0.38999E-18         0.00000E+00
    0.48792E-10         0.34645E-18         0.00000E+00
    0.48792E-10         0.25041E-18         0.00000E+00
    0.48792E-10         0.16420E-18         0.00000E+00
    0.48792E-10         0.53725E-19         0.00000E+00
    0.48792E-10        -0.84977E-20         0.00000E+00
    0.64163E-10         0.22701E-18         0.00000E+00
    0.64163E-10         0.29686E-18         0.00000E+00
    0.64163E-10         0.33760E-18         0.00000E+00
    0.64163E-10         0.31141E-18         0.00000E+00
    0.64163E-10         0.22119E-18         0.00000E+00
    0.64163E-10         0.40628E-19         0.00000E+00
    0.64163E-10         0.00000E+00         0.00000E+00
    0.64163E-10         0.13690E-18         0.00000E+00
    0.64163E-10         0.26193E-18         0.00000E+00
    0.64163E-10         0.31432E-18         0.00000E+00
    0.64163E-10         0.34343E-18         0.00000E+00
    0.64163E-10         0.30111E-18         0.00000E+00
    0.64163E-10         0.20215E-18         0.00000E+00
    0.64163E-10         0.13970E-18         0.00000E+00
    0.64163E-10         0.93132E-19         0.00000E+00
    0.64163E-10         0.69849E-19         0.00000E+00
    0.84377E-10         0.14786E-19         0.00000E+00
    0.84377E-10         0.14552E-18         0.00000E+00
    0.84377E-10         0.32585E-18         0.00000E+00
    0.84377E-10         0.27358E-18         0.00000E+00
    0.84377E-10         0.66939E-19         0.00000E+00
    0.84377E-10        -0.58208E-19         0.00000E+00
    0.84377E-10         0.20373E-19         0.00000E+00
    0.84377E-10         0.13970E-18         0.00000E+00
    0.84377E-10         0.16880E-18         0.00000E+00
    0.84377E-10         0.18044E-18         0.00000E+00
    0.84377E-10         0.20082E-18         0.00000E+00
    0.84377E-10         0.22119E-18         0.00000E+00
    0.84377E-10         0.23004E-18         0.00000E+00
    0.84377E-10         0.22567E-18         0.00000E+00
    0.84377E-10         0.14977E-18         0.00000E+00
    0.84377E-10         0.92898E-19         0.00000E+00
    0.11096E-09         0.11036E-18         0.00000E+00
    0.11096E-09         0.17911E-18         0.00000E+00
    0.11096E-09         0.21112E-18         0.00000E+00
    0.11096E-09         0.94470E-19         0.00000E+00
    0.11096E-09         0.24856E-19         0.00000E+00
    0.11096E-09         0.84519E-19         0.00000E+00
    0.11096E-09         0.98953E-19         0.00000E+00
    0.11096E-09         0.30324E-19         0.00000E+00
    0.11096E-09         0.52387E-19         0.00000E+00
    0.11096E-09         0.15134E-18         0.00000E+00
    0.11096E-09         0.21513E-18         0.00000E+00
    0.11096E-09         0.28813E-18         0.00000E+00
    0.11096E-09         0.25041E-18         0.00000E+00
    0.11096E-09         0.17183E-18         0.00000E+00
    0.11096E-09         0.11496E-18         0.00000E+00
    0.11096E-09         0.64028E-19         0.00000E+00
    0.14591E-09         0.52387E-19         0.00000E+00
    0.14591E-09         0.84519E-19         0.00000E+00
    0.14591E-09         0.55297E-19         0.00000E+00
    0.14591E-09         0.15889E-19         0.00000E+00
    0.14591E-09         0.64028E-19         0.00000E+00
    0.14591E-09         0.30677E-19         0.00000E+00
    0.14591E-09        -0.37835E-19         0.00000E+00
    0.14591E-09        -0.64146E-19         0.00000E+00
    0.14591E-09        -0.59387E-20         0.00000E+00
    0.14591E-09         0.17608E-18         0.00000E+00
    0.14591E-09         0.33045E-18         0.00000E+00
    0.14591E-09         0.34634E-18         0.00000E+00
    0.14591E-09         0.24726E-18         0.00000E+00
    0.14591E-09         0.16589E-18         0.00000E+00
    0.14591E-09         0.58326E-19         0.00000E+00
    0.14591E-09        -0.29104E-19         0.00000E+00
    0.19188E-09         0.12806E-18         0.00000E+00
    0.19188E-09         0.13545E-18         0.00000E+00
    0.19188E-09         0.50932E-19         0.00000E+00
    0.19188E-09        -0.40864E-19         0.00000E+00
    0.19188E-09        -0.23283E-19         0.00000E+00
    0.19188E-09         0.11855E-21         0.00000E+00
    0.19188E-09        -0.23283E-19         0.00000E+00
    0.19188E-09        -0.96280E-19         0.00000E+00
    0.19188E-09        -0.35043E-19         0.00000E+00
    0.19188E-09         0.15146E-18         0.00000E+00
    0.19188E-09         0.25029E-18         0.00000E+00
    0.19188E-09         0.27055E-18         0.00000E+00
    0.19188E-09         0.23865E-18         0.00000E+00
    0.19188E-09         0.11217E-18         0.00000E+00
    0.19188E-09         0.14552E-19         0.00000E+00
    0.19188E-09         0.11404E-19         0.00000E+00
    0.25233E-09        -0.23283E-19         0.00000E+00
    0.25233E-09        -0.32014E-19         0.00000E+00
    0.25233E-09        -0.59782E-19         0.00000E+00
    0.25233E-09        -0.42201E-19         0.00000E+00
    0.25233E-09         0.29104E-19         0.00000E+00
    0.25233E-09         0.94587E-19         0.00000E+00
    0.25233E-09         0.90341E-19         0.00000E+00
    0.25233E-09         0.46447E-19         0.00000E+00
    0.25233E-09         0.30320E-19         0.00000E+00
    0.25233E-09         0.29223E-19         0.00000E+00
    0.25233E-09         0.40865E-19         0.00000E+00
    0.25233E-09         0.66939E-19         0.00000E+00
    0.25233E-09         0.72760E-19         0.00000E+00
    0.25233E-09         0.39171E-19         0.00000E+00
    0.25233E-09         0.58208E-19         0.00000E+00
    0.25233E-09         0.10477E-18         0.00000E+00
    0.33183E-09        -0.52387E-19         0.00000E+00
    0.33183E-09        -0.58208E-19         0.00000E+00
    0.33183E-09        -0.58208E-19         0.00000E+00
    0.33183E-09        -0.90102E-19         0.00000E+00
    0.33183E-09        -0.59663E-19         0.00000E+00
    0.33183E-09         0.10477E-18         0.00000E+00
    0.33183E-09         0.24738E-18         0.00000E+00
    0.33183E-09         0.17887E-18         0.00000E+00
    0.33183E-09         0.23163E-19         0.00000E+00
    0.33183E-09        -0.72760E-19         0.00000E+00
    0.33183E-09        -0.60998E-19         0.00000E+00
    0.33183E-09         0.29104E-19         0.00000E+00
    0.33183E-09         0.23283E-19         0.00000E+00
    0.33183E-09         0.69849E-19         0.00000E+00
    0.33183E-09         0.65484E-19         0.00000E+00
    0.33183E-09        -0.14552E-19         0.00000E+00
    0.43636E-09         0.13994E-18         0.00000E+00
    0.43636E-09         0.13691E-18         0.00000E+00
    0.43636E-09         0.64028E-19         0.00000E+00
    0.43636E-09        -0.14552E-19         0.00000E+00
    0.43636E-09        -0.35046E-19         0.00000E+00
    0.43636E-09         0.46444E-19         0.00000E+00
    0.43636E-09         0.14552E-18         0.00000E+00
    0.43636E-09         0.15874E-18         0.00000E+00
    0.43636E-09         0.90344E-19         0.00000E+00
    0.43636E-09         0.39047E-19         0.00000E+00
    0.43636E-09         0.47778E-19         0.00000E+00
    0.43636E-09         0.74336E-19         0.00000E+00
    0.43636E-09         0.11072E-18         0.00000E+00
    0.43636E-09         0.37835E-19         0.00000E+00
    0.43636E-09        -0.87311E-20         0.00000E+00
    0.43636E-09         0.11642E-19         0.00000E+00
    0.57383E-09         0.64028E-19         0.00000E+00
    0.57383E-09         0.46566E-19         0.00000E+00
    0.57383E-09         0.55297E-19         0.00000E+00
    0.57383E-09         0.20082E-18         0.00000E+00
    0.57383E-09         0.25611E-18         0.00000E+00
    0.57383E-09         0.15716E-18         0.00000E+00
    0.57383E-09         0.10477E-18         0.00000E+00
    0.57383E-09         0.14261E-18         0.00000E+00
    0.57383E-09         0.17462E-18         0.00000E+00
    0.57383E-09         0.11933E-18         0.00000E+00
    0.57383E-09         0.75670E-19         0.00000E+00
    0.57383E-09         0.55297E-19         0.00000E+00
    0.57383E-09         0.11933E-18         0.00000E+00
    0.57383E-09         0.14685E-18         0.00000E+00
    0.57383E-09         0.93132E-19         0.00000E+00
    0.57383E-09         0.87558E-19         0.00000E+00
    0.75461E-09         0.98953E-19         0.00000E+00
    0.75461E-09         0.43656E-19         0.00000E+00
    0.75461E-09        -0.18792E-19         0.00000E+00
    0.75461E-09         0.11192E-18         0.00000E+00
    0.75461E-09         0.32002E-18         0.00000E+00
    0.75461E-09         0.30863E-18         0.00000E+00
    0.75461E-09         0.24738E-18         0.00000E+00
    0.75461E-09         0.22979E-18         0.00000E+00
    0.75461E-09         0.18032E-18         0.00000E+00
    0.75461E-09         0.17766E-18         0.00000E+00
    0.75461E-09         0.15874E-18         0.00000E+00
    0.75461E-09         0.52387E-19         0.00000E+00
    0.75461E-09         0.21954E-19         0.00000E+00
    0.75461E-09         0.14406E-18         0.00000E+00
    0.75461E-09         0.11920E-18         0.00000E+00
    0.75461E-09         0.17462E-19         0.00000E+00
    0.99234E-09        -0.12224E-18         0.00000E+00
    0.99234E-09        -0.13970E-18         0.00000E+00
    0.99234E-09        -0.93132E-19         0.00000E+00
    0.99234E-09         0.11642E-19         0.00000E+00
    0.99234E-09         0.14261E-18         0.00000E+00
    0.99234E-09         0.30850E-18         0.00000E+00
    0.99234E-09         0.32596E-18         0.00000E+00
    0.99234E-09         0.26776E-18         0.00000E+00
    0.99234E-09         0.27477E-18         0.00000E+00
    0.99234E-09         0.18164E-18         0.00000E+00
    0.99234E-09         0.12806E-18         0.00000E+00
    0.99234E-09         0.13268E-18         0.00000E+00
    0.99234E-09         0.10067E-18         0.00000E+00
    0.99234E-09         0.75670E-19         0.00000E+00
    0.99234E-09         0.20373E-19         0.00000E+00
    0.99234E-09        -0.58208E-20         0.00000E+00
    0.13050E-08        -0.89691E-19         0.00000E+00
    0.13050E-08        -0.79770E-19         0.00000E+00
    0.13050E-08        -0.12978E-18         0.00000E+00
    0.13050E-08        -0.14843E-18         0.00000E+00
    0.13050E-08        -0.17462E-19         0.00000E+00
    0.13050E-08         0.20082E-18         0.00000E+00
    0.13050E-08         0.31141E-18         0.00000E+00
    0.13050E-08         0.31260E-18         0.00000E+00
    0.13050E-08         0.29977E-18         0.00000E+00
    0.13050E-08         0.22410E-18         0.00000E+00
    0.13050E-08         0.12515E-18         0.00000E+00
    0.13050E-08         0.13679E-18         0.00000E+00
    0.13050E-08         0.15425E-18         0.00000E+00
    0.13050E-08         0.13362E-19         0.00000E+00
    0.13050E-08        -0.53577E-19         0.00000E+00
    0.13050E-08        -0.29104E-19         0.00000E+00
    0.17161E-08        -0.64028E-19         0.00000E+00
    0.17161E-08        -0.15716E-18         0.00000E+00
    0.17161E-08        -0.24738E-18         0.00000E+00
    0.17161E-08        -0.23865E-18         0.00000E+00
    0.17161E-08        -0.16880E-18         0.00000E+00
    0.17161E-08        -0.17462E-19         0.00000E+00
    0.17161E-08         0.22410E-18         0.00000E+00
    0.17161E-08         0.30850E-18         0.00000E+00
    0.17161E-08         0.25611E-18         0.00000E+00
    0.17161E-08         0.25029E-18         0.00000E+00
    0.17161E-08         0.17462E-18         0.00000E+00
    0.17161E-08         0.96043E-19         0.00000E+00
    0.17161E-08         0.87311E-20         0.00000E+00
    0.17161E-08        -0.86132E-19         0.00000E+00
    0.17161E-08        -0.78580E-19         0.00000E+00
    0.17161E-08        -0.31463E-19         0.00000E+00
    0.22567E-08        -0.13970E-18         0.00000E+00
    0.22567E-08        -0.19791E-18         0.00000E+00
    0.22567E-08        -0.30850E-18         0.00000E+00
    0.22567E-08        -0.38126E-18         0.00000E+00
    0.22567E-08        -0.32014E-18         0.00000E+00
    0.22567E-08        -0.12806E-18         0.00000E+00
    0.22567E-08         0.11642E-18         0.00000E+00
    0.22567E-08         0.28231E-18         0.00000E+00
    0.22567E-08         0.23865E-18         0.00000E+00
    0.22567E-08         0.13679E-18         0.00000E+00
    0.22567E-08         0.84401E-19         0.00000E+00
    0.22567E-08        -0.17462E-19         0.00000E+00
    0.22567E-08        -0.11933E-18         0.00000E+00
    0.22567E-08        -0.55297E-19         0.00000E+00
    0.22567E-08         0.26193E-19         0.00000E+00
    0.22567E-08         0.17462E-19         0.00000E+00
    0.29677E-08         0.46566E-19         0.00000E+00
    0.29677E-08         0.20373E-19         0.00000E+00
    0.29677E-08        -0.96043E-19         0.00000E+00
    0.29677E-08        -0.21828E-18         0.00000E+00
    0.29677E-08        -0.16589E-18         0.00000E+00
    0.29677E-08        -0.98953E-19         0.00000E+00
    0.29677E-08        -0.69849E-19         0.00000E+00
    0.29677E-08         0.40745E-19         0.00000E+00
    0.29677E-08         0.34925E-19         0.00000E+00
    0.29677E-08         0.00000E+00         0.00000E+00
    0.29677E-08        -0.19225E-19         0.00000E+00
    0.29677E-08        -0.97805E-19         0.00000E+00
    0.29677E-08        -0.12193E-18         0.00000E+00
    0.29677E-08        -0.79728E-19         0.00000E+00
    0.29677E-08        -0.33469E-19         0.00000E+00
    0.29677E-08        -0.17462E-19         0.00000E+00
    0.39026E-08         0.38497E-19         0.00000E+00
    0.39026E-08        -0.29104E-20         0.00000E+00
    0.39026E-08         0.11243E-20         0.00000E+00
    0.39026E-08         0.23283E-19         0.00000E+00
    0.39026E-08        -0.84401E-19         0.00000E+00
    0.39026E-08        -0.16589E-18         0.00000E+00
    0.39026E-08        -0.12515E-18         0.00000E+00
    0.39026E-08        -0.58208E-19         0.00000E+00
    0.39026E-08         0.22159E-19         0.00000E+00
    0.39026E-08        -0.40745E-19         0.00000E+00
    0.39026E-08        -0.12872E-18         0.00000E+00
    0.39026E-08        -0.88767E-19         0.00000E+00
    0.39026E-08        -0.97167E-19         0.00000E+00
    0.39026E-08        -0.15895E-18         0.00000E+00
    0.39026E-08        -0.12515E-18         0.00000E+00
    0.39026E-08        -0.57546E-19         0.00000E+00
    0.51320E-08         0.80072E-20         0.00000E+00
    0.51320E-08         0.34925E-19         0.00000E+00
    0.51320E-08         0.61118E-19         0.00000E+00
    0.51320E-08         0.40745E-19         0.00000E+00
    0.51320E-08        -0.48021E-19         0.00000E+00
    0.51320E-08        -0.11241E-18         0.00000E+00
    0.51320E-08        -0.98953E-19         0.00000E+00
    0.51320E-08        -0.61118E-19         0.00000E+00
    0.51320E-08        -0.17462E-19         0.00000E+00
    0.51320E-08        -0.58208E-20         0.00000E+00
    0.51320E-08         0.20373E-19         0.00000E+00
    0.51320E-08         0.58208E-20         0.00000E+00
    0.51320E-08        -0.72760E-19         0.00000E+00
    0.51320E-08        -0.98953E-19         0.00000E+00
    0.51320E-08        -0.41839E-19         0.00000E+00
    0.51320E-08         0.94551E-20         0.00000E+00
    0.67488E-08         0.52387E-19         0.00000E+00
    0.67488E-08         0.72760E-19         0.00000E+00
    0.67488E-08         0.14552E-19         0.00000E+00
    0.67488E-08        -0.11350E-18         0.00000E+00
    0.67488E-08        -0.10186E-18         0.00000E+00
    0.67488E-08        -0.14552E-19         0.00000E+00
    0.67488E-08         0.40745E-19         0.00000E+00
    0.67488E-08        -0.14552E-19         0.00000E+00
    0.67488E-08        -0.40745E-19         0.00000E+00
    0.67488E-08         0.90222E-19         0.00000E+00
    0.67488E-08         0.16007E-18         0.00000E+00
    0.67488E-08         0.61118E-19         0.00000E+00
    0.67488E-08        -0.26193E-19         0.00000E+00
    0.67488E-08        -0.14552E-19         0.00000E+00
    0.67488E-08        -0.58208E-20         0.00000E+00
    0.67488E-08         0.00000E+00         0.00000E+00
    0.88749E-08        -0.62031E-19         0.00000E+00
    0.88749E-08        -0.34925E-19         0.00000E+00
    0.88749E-08        -0.87311E-19         0.00000E+00
    0.88749E-08        -0.16635E-18         0.00000E+00
    0.88749E-08        -0.90222E-19         0.00000E+00
    0.88749E-08         0.11642E-19         0.00000E+00
    0.88749E-08         0.58208E-20         0.00000E+00
    0.88749E-08        -0.34925E-19         0.00000E+00
    0.88749E-08        -0.37835E-19         0.00000E+00
    0.88749E-08         0.81491E-19         0.00000E+00
    0.88749E-08         0.17462E-18         0.00000E+00
    0.88749E-08         0.12515E-18         0.00000E+00
    0.88749E-08         0.29104E-19         0.00000E+00
    0.88749E-08        -0.69849E-19         0.00000E+00
    0.88749E-08        -0.75213E-19         0.00000E+00
    0.88749E-08        -0.48563E-19         0.00000E+00
    0.11671E-07         0.17462E-19         0.00000E+00
    0.11671E-07         0.17462E-19         0.00000E+00
    0.11671E-07        -0.64028E-19         0.00000E+00
    0.11671E-07        -0.18626E-18         0.00000E+00
    0.11671E-07        -0.17753E-18         0.00000E+00
    0.11671E-07        -0.32014E-19         0.00000E+00
    0.11671E-07         0.00000E+00         0.00000E+00
    0.11671E-07        -0.26193E-19         0.00000E+00
    0.11671E-07        -0.34925E-19         0.00000E+00
    0.11671E-07        -0.72760E-19         0.00000E+00
    0.11671E-07         0.61118E-19         0.00000E+00
    0.11671E-07         0.15425E-18         0.00000E+00
    0.11671E-07         0.17462E-19         0.00000E+00
    0.11671E-07        -0.10186E-18         0.00000E+00
    0.11671E-07        -0.90222E-19         0.00000E+00
    0.11671E-07        -0.64028E-19         0.00000E+00
    0.15348E-07        -0.75670E-19         0.00000E+00
    0.15348E-07        -0.66939E-19         0.00000E+00
    0.15348E-07        -0.32014E-19         0.00000E+00
    0.15348E-07        -0.43656E-19         0.00000E+00
    0.15348E-07        -0.23283E-19         0.00000E+00
    0.15348E-07         0.75670E-19         0.00000E+00
    0.15348E-07         0.10186E-18         0.00000E+00
    0.15348E-07        -0.58208E-20         0.00000E+00
    0.15348E-07        -0.10186E-18         0.00000E+00
    0.15348E-07        -0.13970E-18         0.00000E+00
    0.15348E-07        -0.13388E-18         0.00000E+00
    0.15348E-07        -0.12806E-18         0.00000E+00
    0.15348E-07        -0.11642E-18         0.00000E+00
    0.15348E-07        -0.14552E-19         0.00000E+00
    0.15348E-07         0.34925E-19         0.00000E+00
    0.15348E-07         0.29104E-19         0.00000E+00
    0.20183E-07         0.81491E-19         0.00000E+00
    0.20183E-07         0.98953E-19         0.00000E+00
    0.20183E-07         0.84401E-19         0.00000E+00
    0.20183E-07         0.72760E-19         0.00000E+00
    0.20183E-07         0.15716E-18         0.00000E+00
    0.20183E-07         0.19500E-18         0.00000E+00
    0.20183E-07         0.14261E-18         0.00000E+00
    0.20183E-07        -0.64028E-19         0.00000E+00
    0.20183E-07        -0.22701E-18         0.00000E+00
    0.20183E-07        -0.14843E-18         0.00000E+00
    0.20183E-07        -0.12734E-18         0.00000E+00
    0.20183E-07        -0.20447E-18         0.00000E+00
    0.20183E-07        -0.14623E-18         0.00000E+00
    0.20183E-07         0.20373E-19         0.00000E+00
    0.20183E-07         0.41458E-19         0.00000E+00
    0.20183E-07        -0.58208E-20         0.00000E+00
    0.26541E-07         0.51283E-19         0.00000E+00
    0.26541E-07         0.13242E-18         0.00000E+00
    0.26541E-07         0.29014E-18         0.00000E+00
    0.26541E-07         0.28903E-18         0.00000E+00
    0.26541E-07         0.24829E-18         0.00000E+00
    0.26541E-07         0.21447E-18         0.00000E+00
    0.26541E-07        -0.90300E-21         0.00000E+00
    0.26541E-07        -0.20664E-18         0.00000E+00
    0.26541E-07        -0.17462E-18         0.00000E+00
    0.26541E-07        -0.78580E-19         0.00000E+00
    0.26541E-07        -0.26193E-19         0.00000E+00
    0.26541E-07         0.12224E-18         0.00000E+00
    0.26541E-07         0.15716E-18         0.00000E+00
    0.26541E-07         0.12133E-18         0.00000E+00
    0.26541E-07         0.14261E-18         0.00000E+00
    0.26541E-07         0.12986E-18         0.00000E+00
    0.34902E-07        -0.93132E-19         0.00000E+00
    0.34902E-07        -0.55297E-19         0.00000E+00
    0.34902E-07         0.81491E-19         0.00000E+00
    0.34902E-07         0.28265E-18         0.00000E+00
    0.34902E-07         0.29138E-18         0.00000E+00
    0.34902E-07         0.86971E-19         0.00000E+00
    0.34902E-07        -0.11676E-18         0.00000E+00
    0.34902E-07        -0.13679E-18         0.00000E+00
    0.34902E-07         0.46566E-19         0.00000E+00
    0.34902E-07         0.14295E-18         0.00000E+00
    0.34902E-07         0.90222E-19         0.00000E+00
    0.34902E-07         0.11350E-18         0.00000E+00
    0.34902E-07         0.20698E-18         0.00000E+00
    0.34902E-07         0.18335E-18         0.00000E+00
    0.34902E-07         0.96043E-19         0.00000E+00
    0.34902E-07         0.64028E-19         0.00000E+00
    0.45898E-07        -0.49351E-19         0.00000E+00
    0.45898E-07         0.32014E-19         0.00000E+00
    0.45898E-07         0.10762E-18         0.00000E+00
    0.45898E-07         0.96043E-19         0.00000E+00
    0.45898E-07         0.43656E-19         0.00000E+00
    0.45898E-07         0.26193E-19         0.00000E+00
    0.45898E-07         0.72760E-19         0.00000E+00
    0.45898E-07         0.66939E-19         0.00000E+00
    0.45898E-07         0.37835E-19         0.00000E+00
    0.45898E-07         0.58208E-19         0.00000E+00
    0.45898E-07         0.98953E-19         0.00000E+00
    0.45898E-07         0.58208E-19         0.00000E+00
    0.45898E-07         0.17462E-19         0.00000E+00
    0.45898E-07         0.29734E-20         0.00000E+00
    0.45898E-07        -0.74152E-19         0.00000E+00
    0.45898E-07        -0.12224E-18         0.00000E+00
    0.60357E-07         0.64028E-19         0.00000E+00
    0.60357E-07         0.13418E-18         0.00000E+00
    0.60357E-07         0.23459E-18         0.00000E+00
    0.60357E-07         0.14843E-18         0.00000E+00
    0.60357E-07         0.61118E-19         0.00000E+00
    0.60357E-07         0.14843E-18         0.00000E+00
    0.60357E-07         0.16880E-18         0.00000E+00
    0.60357E-07         0.17462E-19         0.00000E+00
    0.60357E-07        -0.12981E-18         0.00000E+00
    0.60357E-07        -0.16910E-18         0.00000E+00
    0.60357E-07        -0.10477E-18         0.00000E+00
    0.60357E-07        -0.98839E-20         0.00000E+00
    0.60357E-07         0.58208E-20         0.00000E+00
    0.60357E-07         0.25891E-19         0.00000E+00
    0.60357E-07         0.72760E-19         0.00000E+00
    0.60357E-07         0.81491E-19         0.00000E+00
    0.79372E-07         0.20373E-18         0.00000E+00
    0.79372E-07         0.22701E-18         0.00000E+00
    0.79372E-07         0.19209E-18         0.00000E+00
    0.79372E-07         0.16298E-18         0.00000E+00
    0.79372E-07         0.27649E-18         0.00000E+00
    0.79372E-07         0.33760E-18         0.00000E+00
    0.79372E-07         0.21537E-18         0.00000E+00
    0.79372E-07         0.29776E-19         0.00000E+00
    0.79372E-07        -0.98281E-19         0.00000E+00
    0.79372E-07        -0.18044E-18         0.00000E+00
    0.79372E-07        -0.23865E-18         0.00000E+00
    0.79372E-07        -0.12291E-18         0.00000E+00
    0.79372E-07        -0.43656E-19         0.00000E+00
    0.79372E-07        -0.68394E-19         0.00000E+00
    0.79372E-07         0.20373E-19         0.00000E+00
    0.79372E-07         0.71194E-19         0.00000E+00
    0.10438E-06         0.17462E-19         0.00000E+00
    0.10438E-06         0.10186E-18         0.00000E+00
    0.10438E-06         0.31428E-18         0.00000E+00
    0.10438E-06         0.47439E-18         0.00000E+00
    0.10438E-06         0.48171E-18         0.00000E+00
    0.10438E-06         0.39872E-18         0.00000E+00
    0.10438E-06         0.25320E-18         0.00000E+00
    0.10438E-06         0.16880E-18         0.00000E+00
    0.10438E-06         0.53882E-19         0.00000E+00
    0.10438E-06        -0.10477E-18         0.00000E+00
    0.10438E-06        -0.11791E-18         0.00000E+00
    0.10438E-06        -0.14552E-18         0.00000E+00
    0.10438E-06        -0.15571E-18         0.00000E+00
    0.10438E-06        -0.11787E-18         0.00000E+00
    0.10438E-06        -0.12515E-18         0.00000E+00
    0.10438E-06        -0.12224E-18         0.00000E+00
    0.13726E-06        -0.36254E-19         0.00000E+00
    0.13726E-06         0.44446E-19         0.00000E+00
    0.13726E-06         0.22410E-18         0.00000E+00
    0.13726E-06         0.42704E-18         0.00000E+00
    0.13726E-06         0.60893E-18         0.00000E+00
    0.13726E-06         0.56977E-18         0.00000E+00
    0.13726E-06         0.40824E-18         0.00000E+00
    0.13726E-06         0.28231E-18         0.00000E+00
    0.13726E-06         0.20360E-18         0.00000E+00
    0.13726E-06         0.22847E-18         0.00000E+00
    0.13726E-06         0.15068E-18         0.00000E+00
    0.13726E-06        -0.26193E-19         0.00000E+00
    0.13726E-06        -0.72760E-19         0.00000E+00
    0.13726E-06        -0.51563E-20         0.00000E+00
    0.13726E-06        -0.52387E-19         0.00000E+00
    0.13726E-06        -0.13388E-18         0.00000E+00
    0.18050E-06         0.21229E-19         0.00000E+00
    0.18050E-06         0.53842E-19         0.00000E+00
    0.18050E-06         0.16401E-18         0.00000E+00
    0.18050E-06         0.25714E-18         0.00000E+00
    0.18050E-06         0.34634E-18         0.00000E+00
    0.18050E-06         0.49185E-18         0.00000E+00
    0.18050E-06         0.58499E-18         0.00000E+00
    0.18050E-06         0.60536E-18         0.00000E+00
    0.18050E-06         0.59372E-18         0.00000E+00
    0.18050E-06         0.51950E-18         0.00000E+00
    0.18050E-06         0.34051E-18         0.00000E+00
    0.18050E-06         0.18960E-18         0.00000E+00
    0.18050E-06         0.10871E-18         0.00000E+00
    0.18050E-06         0.29104E-19         0.00000E+00
    0.18050E-06         0.14552E-19         0.00000E+00
    0.18050E-06         0.36978E-19         0.00000E+00
    0.23737E-06         0.58208E-19         0.00000E+00
    0.23737E-06         0.54252E-19         0.00000E+00
    0.23737E-06         0.16007E-18         0.00000E+00
    0.23737E-06         0.27171E-18         0.00000E+00
    0.23737E-06         0.29727E-18         0.00000E+00
    0.23737E-06         0.47876E-18         0.00000E+00
    0.23737E-06         0.71991E-18         0.00000E+00
    0.23737E-06         0.86438E-18         0.00000E+00
    0.23737E-06         0.81782E-18         0.00000E+00
    0.23737E-06         0.56461E-18         0.00000E+00
    0.23737E-06         0.40163E-18         0.00000E+00
    0.23737E-06         0.38126E-18         0.00000E+00
    0.23737E-06         0.36962E-18         0.00000E+00
    0.23737E-06         0.22119E-18         0.00000E+00
    0.23737E-06         0.75670E-19         0.00000E+00
    0.23737E-06         0.69849E-19         0.00000E+00
    0.31215E-06         0.41311E-20         0.00000E+00
    0.31215E-06         0.94587E-19         0.00000E+00
    0.31215E-06         0.19439E-18         0.00000E+00
    0.31215E-06         0.27128E-18         0.00000E+00
    0.31215E-06         0.41327E-18         0.00000E+00
    0.31215E-06         0.59808E-18         0.00000E+00
    0.31215E-06         0.79744E-18         0.00000E+00
    0.31215E-06         0.89349E-18         0.00000E+00
    0.31215E-06         0.83007E-18         0.00000E+00
    0.31215E-06         0.68685E-18         0.00000E+00
    0.31215E-06         0.59372E-18         0.00000E+00
    0.31215E-06         0.49477E-18         0.00000E+00
    0.31215E-06         0.38126E-18         0.00000E+00
    0.31215E-06         0.22701E-18         0.00000E+00
    0.31215E-06         0.52387E-19         0.00000E+00
    0.31215E-06         0.00000E+00         0.00000E+00
    0.41048E-06         0.75670E-19         0.00000E+00
    0.41048E-06         0.11454E-18         0.00000E+00
    0.41048E-06         0.21973E-18         0.00000E+00
    0.41048E-06         0.41369E-18         0.00000E+00
    0.41048E-06         0.57584E-18         0.00000E+00
    0.41048E-06         0.65484E-18         0.00000E+00
    0.41048E-06         0.75130E-18         0.00000E+00
    0.41048E-06         0.78580E-18         0.00000E+00
    0.41048E-06         0.78102E-18         0.00000E+00
    0.41048E-06         0.72281E-18         0.00000E+00
    0.41048E-06         0.55194E-18         0.00000E+00
    0.41048E-06         0.39769E-18         0.00000E+00
    0.41048E-06         0.20560E-18         0.00000E+00
    0.41048E-06         0.62154E-19         0.00000E+00
    0.41048E-06         0.55913E-19         0.00000E+00
    0.41048E-06         0.52387E-19         0.00000E+00
    0.53980E-06         0.22701E-18         0.00000E+00
    0.53980E-06         0.35293E-18         0.00000E+00
    0.53980E-06         0.58790E-18         0.00000E+00
    0.53980E-06         0.69267E-18         0.00000E+00
    0.53980E-06         0.74797E-18         0.00000E+00
    0.53980E-06         0.78212E-18         0.00000E+00
    0.53980E-06         0.67812E-18         0.00000E+00
    0.53980E-06         0.63737E-18         0.00000E+00
    0.53980E-06         0.61409E-18         0.00000E+00
    0.53980E-06         0.48312E-18         0.00000E+00
    0.53980E-06         0.36089E-18         0.00000E+00
    0.53980E-06         0.19209E-18         0.00000E+00
    0.53980E-06         0.40745E-19         0.00000E+00
    0.53980E-06        -0.37835E-19         0.00000E+00
    0.53980E-06        -0.72760E-19         0.00000E+00
    0.53980E-06        -0.58208E-19         0.00000E+00
    0.70986E-06         0.93132E-19         0.00000E+00
    0.70986E-06         0.31432E-18         0.00000E+00
    0.70986E-06         0.67521E-18         0.00000E+00
    0.70986E-06         0.92841E-18         0.00000E+00
    0.70986E-06         0.87311E-18         0.00000E+00
    0.70986E-06         0.57917E-18         0.00000E+00
    0.70986E-06         0.42783E-18         0.00000E+00
    0.70986E-06         0.40163E-18         0.00000E+00
    0.70986E-06         0.44238E-18         0.00000E+00
    0.70986E-06         0.48894E-18         0.00000E+00
    0.70986E-06         0.39581E-18         0.00000E+00
    0.70986E-06         0.20373E-18         0.00000E+00
    0.70986E-06         0.11716E-18         0.00000E+00
    0.70986E-06         0.80781E-19         0.00000E+00
    0.70986E-06         0.14552E-20         0.00000E+00
    0.70986E-06        -0.34925E-19         0.00000E+00
    0.93349E-06        -0.42575E-19         0.00000E+00
    0.93349E-06         0.18044E-18         0.00000E+00
    0.93349E-06         0.52042E-18         0.00000E+00
    0.93349E-06         0.67521E-18         0.00000E+00
    0.93349E-06         0.67812E-18         0.00000E+00
    0.93349E-06         0.57971E-18         0.00000E+00
    0.93349E-06         0.50932E-18         0.00000E+00
    0.93349E-06         0.49714E-18         0.00000E+00
    0.93349E-06         0.50350E-18         0.00000E+00
    0.93349E-06         0.53842E-18         0.00000E+00
    0.93349E-06         0.48258E-18         0.00000E+00
    0.93349E-06         0.34925E-18         0.00000E+00
    0.93349E-06         0.15770E-18         0.00000E+00
    0.93349E-06         0.12806E-18         0.00000E+00
    0.93349E-06         0.17462E-18         0.00000E+00
    0.93349E-06         0.11933E-18         0.00000E+00
    0.12276E-05         0.26776E-18         0.00000E+00
    0.12276E-05         0.29325E-18         0.00000E+00
    0.12276E-05         0.36892E-18         0.00000E+00
    0.12276E-05         0.45181E-18         0.00000E+00
    0.12276E-05         0.56316E-18         0.00000E+00
    0.12276E-05         0.62358E-18         0.00000E+00
    0.12276E-05         0.65484E-18         0.00000E+00
    0.12276E-05         0.70431E-18         0.00000E+00
    0.12276E-05         0.66357E-18         0.00000E+00
    0.12276E-05         0.57626E-18         0.00000E+00
    0.12276E-05         0.49768E-18         0.00000E+00
    0.12276E-05         0.38708E-18         0.00000E+00
    0.12276E-05         0.27358E-18         0.00000E+00
    0.12276E-05         0.14622E-18         0.00000E+00
    0.12276E-05         0.46566E-19         0.00000E+00
    0.12276E-05         0.27711E-19         0.00000E+00
    0.16143E-05         0.11294E-18         0.00000E+00
    0.16143E-05         0.20955E-18         0.00000E+00
    0.16143E-05         0.40628E-18         0.00000E+00
    0.16143E-05         0.58499E-18         0.00000E+00
    0.16143E-05         0.64319E-18         0.00000E+00
    0.16143E-05         0.65193E-18         0.00000E+00
    0.16143E-05         0.63446E-18         0.00000E+00
    0.16143E-05         0.57888E-18         0.00000E+00
    0.16143E-05         0.64756E-18         0.00000E+00
    0.16143E-05         0.64057E-18         0.00000E+00
    0.16143E-05         0.46566E-18         0.00000E+00
    0.16143E-05         0.36089E-18         0.00000E+00
    0.16143E-05         0.27911E-18         0.00000E+00
    0.16143E-05         0.14406E-18         0.00000E+00
    0.16143E-05         0.27649E-19         0.00000E+00
    0.16143E-05        -0.92978E-20         0.00000E+00
    0.21229E-05         0.77047E-19         0.00000E+00
    0.21229E-05         0.14770E-18         0.00000E+00
    0.21229E-05         0.19358E-18         0.00000E+00
    0.21229E-05         0.37107E-18         0.00000E+00
    0.21229E-05         0.65047E-18         0.00000E+00
    0.21229E-05         0.77271E-18         0.00000E+00
    0.21229E-05         0.78580E-18         0.00000E+00
    0.21229E-05         0.69413E-18         0.00000E+00
    0.21229E-05         0.65047E-18         0.00000E+00
    0.21229E-05         0.48021E-18         0.00000E+00
    0.21229E-05         0.21751E-18         0.00000E+00
    0.21229E-05         0.16513E-18         0.00000E+00
    0.21229E-05         0.15862E-18         0.00000E+00
    0.21229E-05         0.14115E-18         0.00000E+00
    0.21229E-05         0.82946E-19         0.00000E+00
    0.21229E-05         0.87311E-20         0.00000E+00
    0.27916E-05        -0.14843E-18         0.00000E+00
    0.27916E-05        -0.21266E-18         0.00000E+00
    0.27916E-05        -0.61118E-19         0.00000E+00
    0.27916E-05         0.24759E-18         0.00000E+00
    0.27916E-05         0.52678E-18         0.00000E+00
    0.27916E-05         0.78726E-18         0.00000E+00
    0.27916E-05         0.83819E-18         0.00000E+00
    0.27916E-05         0.79017E-18         0.00000E+00
    0.27916E-05         0.51514E-18         0.00000E+00
    0.27916E-05         0.22555E-18         0.00000E+00
    0.27916E-05        -0.20560E-21         0.00000E+00
    0.27916E-05        -0.10914E-18         0.00000E+00
    0.27916E-05        -0.90016E-19         0.00000E+00
    0.27916E-05        -0.12826E-18         0.00000E+00
    0.27916E-05        -0.23489E-19         0.00000E+00
    0.27916E-05         0.61118E-19         0.00000E+00
    0.36711E-05         0.55297E-19         0.00000E+00
    0.36711E-05         0.20373E-19         0.00000E+00
    0.36711E-05         0.17462E-19         0.00000E+00
    0.36711E-05         0.15716E-18         0.00000E+00
    0.36711E-05         0.45984E-18         0.00000E+00
    0.36711E-05         0.77416E-18         0.00000E+00
    0.36711E-05         0.78871E-18         0.00000E+00
    0.36711E-05         0.46712E-18         0.00000E+00
    0.36711E-05         0.21973E-18         0.00000E+00
    0.36711E-05         0.68394E-19         0.00000E+00
    0.36711E-05        -0.11787E-18         0.00000E+00
    0.36711E-05        -0.30850E-18         0.00000E+00
    0.36711E-05        -0.39581E-18         0.00000E+00
    0.36711E-05        -0.28728E-18         0.00000E+00
    0.36711E-05        -0.16298E-18         0.00000E+00
    0.36711E-05        -0.10357E-18         0.00000E+00
    0.48276E-05         0.29104E-19         0.00000E+00
    0.48276E-05         0.47294E-19         0.00000E+00
    0.48276E-05         0.21828E-19         0.00000E+00
    0.48276E-05         0.20445E-18         0.00000E+00
    0.48276E-05         0.48822E-18         0.00000E+00
    0.48276E-05         0.49404E-18         0.00000E+00
    0.48276E-05         0.36816E-18         0.00000E+00
    0.48276E-05         0.28340E-18         0.00000E+00
    0.48276E-05         0.19209E-18         0.00000E+00
    0.48276E-05        -0.43656E-19         0.00000E+00
    0.48276E-05        -0.28704E-18         0.00000E+00
    0.48276E-05        -0.37689E-18         0.00000E+00
    0.48276E-05        -0.28595E-18         0.00000E+00
    0.48276E-05        -0.10405E-18         0.00000E+00
    0.48276E-05        -0.53842E-19         0.00000E+00
    0.48276E-05        -0.93132E-19         0.00000E+00
    0.54846E-05         0.11691E-18         0.00000E+00
    0.54846E-05        -0.58456E-19         0.00000E+00
    0.54846E-05        -0.58456E-19         0.00000E+00
    0.54846E-05         0.58456E-19         0.00000E+00
    0.54846E-05         0.58456E-19         0.00000E+00
    0.54846E-05        -0.58456E-19         0.00000E+00
    0.54846E-05        -0.58456E-19         0.00000E+00
    0.54846E-05        -0.72222E-34         0.00000E+00
    0.54846E-05        -0.58456E-19         0.00000E+00
    0.54846E-05         0.58456E-19         0.00000E+00
    0.54846E-05         0.58456E-19         0.00000E+00
    0.54846E-05        -0.58456E-19         0.00000E+00
    0.54846E-05        -0.60185E-34         0.00000E+00
    0.54846E-05         0.58456E-19         0.00000E+00
    0.54846E-05         0.00000E+00         0.00000E+00
    0.54846E-05         0.00000E+00         0.00000E+00
CELL_DATA       1350
TENSORS stressef double 
    0.41921E+08         0.44994E-08         0.00000E+00
    0.44994E-08         0.15600E+09         0.00000E+00
    0.00000E+00         0.00000E+00         0.39583E+08
 
    0.25438E+06         0.54933E-08         0.00000E+00
    0.54933E-08        -0.10671E+08         0.00000E+00
    0.00000E+00         0.00000E+00        -0.20833E+07
 
    0.25438E+06         0.54933E-08         0.00000E+00
    0.54933E-08        -0.10671E+08         0.00000E+00
    0.00000E+00         0.00000E+00        -0.20833E+07
 
    0.25438E+06        -0.57824E-09         0.00000E+00
   -0.57824E-09        -0.10671E+08         0.00000E+00
    0.00000E+00         0.00000E+00        -0.20833E+07
 
    0.25438E+06         0.15902E-08         0.00000E+00
    0.15902E-08        -0.10671E+08         0.00000E+00
    0.00000E+00         0.00000E+00        -0.20833E+07
 
    0.25438E+06        -0.23130E-08         0.00000E+00
   -0.23130E-08        -0.10671E+08         0.00000E+00
    0.00000E+00         0.00000E+00        -0.20833E+07
 
    0.25438E+06        -0.72280E-09         0.00000E+00
   -0.72280E-09        -0.10671E+08         0.00000E+00
    0.00000E+00         0.00000E+00        -0.20833E+07
 
    0.25438E+06         0.28912E-08         0.00000E+00
    0.28912E-08        -0.10671E+08         0.00000E+00
    0.00000E+00         0.00000E+00        -0.20833E+07
 
    0.25438E+06         0.11565E-08         0.00000E+00
    0.11565E-08        -0.10671E+08         0.00000E+00
    0.00000E+00         0.00000E+00        -0.20833E+07
 
    0.25438E+06        -0.17347E-08         0.00000E+00
   -0.17347E-08        -0.10671E+08         0.00000E+00
    0.00000E+00         0.00000E+00        -0.20833E+07
 
    0.25438E+06        -0.28912E-09         0.00000E+00
   -0.28912E-09        -0.10671E+08         0.00000E+00
    0.00000E+00         0.00000E+00        -0.20833E+07
 
    0.25438E+06        -0.72280E-10         0.00000E+00
   -0.72280E-10        -0.10671E+08         0.00000E+00
    0.00000E+00         0.00000E+00        -0.20833E+07
 
    0.25438E+06        -0.36140E-09         0.00000E+00
   -0.36140E-09        -0.10671E+08         0.00000E+00
    0.00000E+00         0.00000E+00        -0.20833E+07
 
    0.25438E+06         0.10481E-08         0.00000E+00
    0.10481E-08        -0.10671E+08         0.00000E+00
    0.00000E+00         0.00000E+00        -0.20833E+07
 
    0.25438E+06         0.39754E-09         0.00000E+00
    0.39754E-09        -0.10671E+08         0.00000E+00
    0.00000E+00         0.00000E+00        -0.20833E+07
 
    0.41921E+08        -0.77701E-09         0.00000E+00
   -0.77701E-09         0.15600E+09         0.00000E+00
    0.00000E+00         0.00000E+00         0.39583E+08
 
    0.25438E+06        -0.70835E-08         0.00000E+00
   -0.70835E-08        -0.10671E+08         0.00000E+00
    0.00000E+00         0.00000E+00        -0.20833E+07
 
    0.25438E+06         0.24575E-08         0.00000E+00
    0.24575E-08        -0.10671E+08         0.00000E+00
    0.00000E+00         0.00000E+00        -0.20833E+07
 
    0.25438E+06         0.36140E-08         0.00000E+00
    0.36140E-08        -0.10671E+08         0.00000E+00
    0.00000E+00         0.00000E+00        -0.20833E+07
 
    0.25438E+06         0.36140E-08         0.00000E+00
    0.36140E-08        -0.10671E+08         0.00000E+00
    0.00000E+00         0.00000E+00        -0.20833E+07
 
    0.25438E+06        -0.23130E-08         0.00000E+00
   -0.23130E-08        -0.10671E+08         0.00000E+00
    0.00000E+00         0.00000E+00        -0.20833E+07
 
    0.25438E+06         0.28912E-08         0.00000E+00
    0.28912E-08        -0.10671E+08         0.00000E+00
    0.00000E+00         0.00000E+00        -0.20833E+07
 
    0.25438E+06         0.34694E-08         0.00000E+00
    0.34694E-08        -0.10671E+08         0.00000E+00
    0.00000E+00         0.00000E+00        -0.20833E+07
 
    0.25438E+06         0.33249E-08         0.00000E+00
    0.33249E-08        -0.10671E+08         0.00000E+00
    0.00000E+00         0.00000E+00        -0.20833E+07
 
    0.25438E+06         0.11565E-08         0.00000E+00
    0.11565E-08        -0.10671E+08         0.00000E+00
    0.00000E+00         0.00000E+00        -0.20833E+07
 
    0.25438E+06         0.10842E-08         0.00000E+00
    0.10842E-08        -0.10671E+08         0.00000E+00
    0.00000E+00         0.00000E+00        -0.20833E+07
 
    0.25438E+06        -0.25849E-25         0.00000E+00
   -0.25849E-25        -0.10671E+08         0.00000E+00
    0.00000E+00         0.00000E+00        -0.20833E+07
 
    0.25438E+06         0.46982E-09         0.00000E+00
    0.46982E-09        -0.10671E+08         0.00000E+00
    0.00000E+00         0.00000E+00        -0.20833E+07
 
    0.25438E+06        -0.18070E-09         0.00000E+00
   -0.18070E-09        -0.10671E+08         0.00000E+00
    0.00000E+00         0.00000E+00        -0.20833E+07
 
    0.25438E+06         0.41561E-09         0.00000E+00
    0.41561E-09        -0.10671E+08         0.00000E+00
    0.00000E+00         0.00000E+00        -0.20833E+07
 
    0.41921E+08        -0.72280E-09         0.00000E+00
   -0.72280E-09         0.15600E+09         0.00000E+00
    0.00000E+00         0.00000E+00         0.39583E+08
 
    0.25438E+06         0.10119E-08         0.00000E+00
    0.10119E-08        -0.10671E+08         0.00000E+00
    0.00000E+00         0.00000E+00        -0.20833E+07
 
    0.25438E+06        -0.86736E-09         0.00000E+00
   -0.86736E-09        -0.10671E+08         0.00000E+00
    0.00000E+00         0.00000E+00        -0.20833E+07
 
    0.25438E+06         0.13010E-08         0.00000E+00
    0.13010E-08        -0.10671E+08         0.00000E+00
    0.00000E+00         0.00000E+00        -0.20833E+07
 
    0.25438E+06         0.27466E-08         0.00000E+00
    0.27466E-08        -0.10671E+08         0.00000E+00
    0.00000E+00         0.00000E+00        -0.20833E+07
 
    0.25438E+06        -0.43368E-09         0.00000E+00
   -0.43368E-09        -0.10671E+08         0.00000E+00
    0.00000E+00         0.00000E+00        -0.20833E+07
 
    0.25438E+06        -0.18793E-08         0.00000E+00
   -0.18793E-08        -0.10671E+08         0.00000E+00
    0.00000E+00         0.00000E+00        -0.20833E+07
 
    0.25438E+06        -0.20238E-08         0.00000E+00
   -0.20238E-08        -0.10671E+08         0.00000E+00
    0.00000E+00         0.00000E+00        -0.20833E+07
 
    0.25438E+06         0.11565E-08         0.00000E+00
    0.11565E-08        -0.10671E+08         0.00000E+00
    0.00000E+00         0.00000E+00        -0.20833E+07
 
    0.25438E+06         0.28912E-08         0.00000E+00
    0.28912E-08        -0.10671E+08         0.00000E+00
    0.00000E+00         0.00000E+00        -0.20833E+07
 
    0.25438E+06         0.34694E-08         0.00000E+00
    0.34694E-08        -0.10671E+08         0.00000E+00
    0.00000E+00         0.00000E+00        -0.20833E+07
 
    0.25438E+06         0.23852E-08         0.00000E+00
    0.23852E-08        -0.10671E+08         0.00000E+00
    0.00000E+00         0.00000E+00        -0.20833E+07
 
    0.25438E+06         0.19516E-08         0.00000E+00
    0.19516E-08        -0.10671E+08         0.00000E+00
    0.00000E+00         0.00000E+00        -0.20833E+07
 
    0.25438E+06         0.79508E-09         0.00000E+00
    0.79508E-09        -0.10671E+08         0.00000E+00
    0.00000E+00         0.00000E+00        -0.20833E+07
 
    0.25438E+06         0.61438E-09         0.00000E+00
    0.61438E-09        -0.10671E+08         0.00000E+00
    0.00000E+00         0.00000E+00        -0.20833E+07
 
    0.41921E+08         0.49946E-07         0.00000E+00
    0.49946E-07         0.15600E+09         0.00000E+00
    0.00000E+00         0.00000E+00         0.39583E+08
 
    0.25438E+06        -0.49150E-08         0.00000E+00
   -0.49150E-08        -0.10671E+08         0.00000E+00
    0.00000E+00         0.00000E+00        -0.20833E+07
 
    0.25438E+06        -0.28912E-09         0.00000E+00
   -0.28912E-09        -0.10671E+08         0.00000E+00
    0.00000E+00         0.00000E+00        -0.20833E+07
 
    0.25438E+06        -0.28912E-09         0.00000E+00
   -0.28912E-09        -0.10671E+08         0.00000E+00
    0.00000E+00         0.00000E+00        -0.20833E+07
 
    0.25438E+06        -0.28912E-08         0.00000E+00
   -0.28912E-08        -0.10671E+08         0.00000E+00
    0.00000E+00         0.00000E+00        -0.20833E+07
 
    0.25438E+06         0.57824E-09         0.00000E+00
    0.57824E-09        -0.10671E+08         0.00000E+00
    0.00000E+00         0.00000E+00        -0.20833E+07
 
    0.25438E+06         0.28912E-08         0.00000E+00
    0.28912E-08        -0.10671E+08         0.00000E+00
    0.00000E+00         0.00000E+00        -0.20833E+07
 
    0.25438E+06         0.33249E-08         0.00000E+00
    0.33249E-08        -0.10671E+08         0.00000E+00
    0.00000E+00         0.00000E+00        -0.20833E+07
 
    0.25438E+06         0.22407E-08         0.00000E+00
    0.22407E-08        -0.10671E+08         0.00000E+00
    0.00000E+00         0.00000E+00        -0.20833E+07
 
    0.25438E+06         0.11565E-08         0.00000E+00
    0.11565E-08        -0.10671E+08         0.00000E+00
    0.00000E+00         0.00000E+00        -0.20833E+07
 
    0.25438E+06         0.15902E-08         0.00000E+00
    0.15902E-08        -0.10671E+08         0.00000E+00
    0.00000E+00         0.00000E+00        -0.20833E+07
 
    0.25438E+06        -0.65052E-09         0.00000E+00
   -0.65052E-09        -0.10671E+08         0.00000E+00
    0.00000E+00         0.00000E+00        -0.20833E+07
 
    0.25438E+06         0.12288E-08         0.00000E+00
    0.12288E-08        -0.10671E+08         0.00000E+00
    0.00000E+00         0.00000E+00        -0.20833E+07
 
    0.25438E+06        -0.72280E-09         0.00000E+00
   -0.72280E-09        -0.10671E+08         0.00000E+00
    0.00000E+00         0.00000E+00        -0.20833E+07
 
    0.25438E+06         0.10842E-08         0.00000E+00
    0.10842E-08        -0.10671E+08         0.00000E+00
    0.00000E+00         0.00000E+00        -0.20833E+07
 
    0.41921E+08        -0.86808E-07         0.00000E+00
   -0.86808E-07         0.15600E+09         0.00000E+00
    0.00000E+00         0.00000E+00         0.39583E+08
 
    0.25438E+06         0.78063E-08         0.00000E+00
    0.78063E-08        -0.10671E+08         0.00000E+00
    0.00000E+00         0.00000E+00        -0.20833E+07
 
    0.25438E+06         0.14456E-08         0.00000E+00
    0.14456E-08        -0.10671E+08         0.00000E+00
    0.00000E+00         0.00000E+00        -0.20833E+07
 
    0.25438E+06         0.21684E-08         0.00000E+00
    0.21684E-08        -0.10671E+08         0.00000E+00
    0.00000E+00         0.00000E+00        -0.20833E+07
 
    0.25438E+06         0.37586E-08         0.00000E+00
    0.37586E-08        -0.10671E+08         0.00000E+00
    0.00000E+00         0.00000E+00        -0.20833E+07
 
    0.25438E+06        -0.72280E-09         0.00000E+00
   -0.72280E-09        -0.10671E+08         0.00000E+00
    0.00000E+00         0.00000E+00        -0.20833E+07
 
    0.25438E+06         0.14456E-09         0.00000E+00
    0.14456E-09        -0.10671E+08         0.00000E+00
    0.00000E+00         0.00000E+00        -0.20833E+07
 
    0.25438E+06        -0.72280E-09         0.00000E+00
   -0.72280E-09        -0.10671E+08         0.00000E+00
    0.00000E+00         0.00000E+00        -0.20833E+07
 
    0.25438E+06        -0.86736E-09         0.00000E+00
   -0.86736E-09        -0.10671E+08         0.00000E+00
    0.00000E+00         0.00000E+00        -0.20833E+07
 
    0.25438E+06         0.15179E-08         0.00000E+00
    0.15179E-08        -0.10671E+08         0.00000E+00
    0.00000E+00         0.00000E+00        -0.20833E+07
 
    0.25438E+06         0.28912E-09         0.00000E+00
    0.28912E-09        -0.10671E+08         0.00000E+00
    0.00000E+00         0.00000E+00        -0.20833E+07
 
    0.25438E+06         0.36140E-09         0.00000E+00
    0.36140E-09        -0.10671E+08         0.00000E+00
    0.00000E+00         0.00000E+00        -0.20833E+07
 
    0.25438E+06         0.10119E-08         0.00000E+00
    0.10119E-08        -0.10671E+08         0.00000E+00
    0.00000E+00         0.00000E+00        -0.20833E+07
 
    0.25438E+06         0.43368E-09         0.00000E+00
    0.43368E-09        -0.10671E+08         0.00000E+00
    0.00000E+00         0.00000E+00        -0.20833E+07
 
    0.25438E+06         0.13010E-08         0.00000E+00
    0.13010E-08        -0.10671E+08         0.00000E+00
    0.00000E+00         0.00000E+00        -0.20833E+07
 
    0.41921E+08         0.37658E-07         0.00000E+00
    0.37658E-07         0.15600E+09         0.00000E+00
    0.00000E+00         0.00000E+00         0.39583E+08
 
    0.25438E+06        -0.10553E-07         0.00000E+00
   -0.10553E-07        -0.10671E+08         0.00000E+00
    0.00000E+00         0.00000E+00        -0.20833E+07
 
    0.25438E+06        -0.67943E-08         0.00000E+00
   -0.67943E-08        -0.10671E+08         0.00000E+00
    0.00000E+00         0.00000E+00        -0.20833E+07
 
    0.25438E+06        -0.28912E-08         0.00000E+00
   -0.28912E-08        -0.10671E+08         0.00000E+00
    0.00000E+00         0.00000E+00        -0.20833E+07
 
    0.25438E+06         0.28912E-08         0.00000E+00
    0.28912E-08        -0.10671E+08         0.00000E+00
    0.00000E+00         0.00000E+00        -0.20833E+07
 
    0.25438E+06         0.34694E-08         0.00000E+00
    0.34694E-08        -0.10671E+08         0.00000E+00
    0.00000E+00         0.00000E+00        -0.20833E+07
 
    0.25438E+06         0.18793E-08         0.00000E+00
    0.18793E-08        -0.10671E+08         0.00000E+00
    0.00000E+00         0.00000E+00        -0.20833E+07
 
    0.25438E+06        -0.12288E-08         0.00000E+00
   -0.12288E-08        -0.10671E+08         0.00000E+00
    0.00000E+00         0.00000E+00        -0.20833E+07
 
    0.25438E+06         0.10119E-08         0.00000E+00
    0.10119E-08        -0.10671E+08         0.00000E+00
    0.00000E+00         0.00000E+00        -0.20833E+07
 
    0.25438E+06         0.20238E-08         0.00000E+00
    0.20238E-08        -0.10671E+08         0.00000E+00
    0.00000E+00         0.00000E+00        -0.20833E+07
 
    0.25438E+06         0.28912E-08         0.00000E+00
    0.28912E-08        -0.10671E+08         0.00000E+00
    0.00000E+00         0.00000E+00        -0.20833E+07
 
    0.25438E+06         0.43368E-08         0.00000E+00
    0.43368E-08        -0.10671E+08         0.00000E+00
    0.00000E+00         0.00000E+00        -0.20833E+07
 
    0.25438E+06        -0.79508E-09         0.00000E+00
   -0.79508E-09        -0.10671E+08         0.00000E+00
    0.00000E+00         0.00000E+00        -0.20833E+07
 
    0.25438E+06         0.72280E-09         0.00000E+00
    0.72280E-09        -0.10671E+08         0.00000E+00
    0.00000E+00         0.00000E+00        -0.20833E+07
 
    0.25438E+06         0.21684E-09         0.00000E+00
    0.21684E-09        -0.10671E+08         0.00000E+00
    0.00000E+00         0.00000E+00        -0.20833E+07
 
    0.41921E+08         0.58981E-07         0.00000E+00
    0.58981E-07         0.15600E+09         0.00000E+00
    0.00000E+00         0.00000E+00         0.39583E+08
 
    0.25438E+06         0.11276E-07         0.00000E+00
    0.11276E-07        -0.10671E+08         0.00000E+00
    0.00000E+00         0.00000E+00        -0.20833E+07
 
    0.25438E+06         0.37586E-08         0.00000E+00
    0.37586E-08        -0.10671E+08         0.00000E+00
    0.00000E+00         0.00000E+00        -0.20833E+07
 
    0.25438E+06         0.46259E-08         0.00000E+00
    0.46259E-08        -0.10671E+08         0.00000E+00
    0.00000E+00         0.00000E+00        -0.20833E+07
 
    0.25438E+06        -0.10119E-08         0.00000E+00
   -0.10119E-08        -0.10671E+08         0.00000E+00
    0.00000E+00         0.00000E+00        -0.20833E+07
 
    0.25438E+06        -0.39031E-08         0.00000E+00
   -0.39031E-08        -0.10671E+08         0.00000E+00
    0.00000E+00         0.00000E+00        -0.20833E+07
 
    0.25438E+06         0.86736E-09         0.00000E+00
    0.86736E-09        -0.10671E+08         0.00000E+00
    0.00000E+00         0.00000E+00        -0.20833E+07
 
    0.25438E+06         0.57824E-09         0.00000E+00
    0.57824E-09        -0.10671E+08         0.00000E+00
    0.00000E+00         0.00000E+00        -0.20833E+07
 
    0.25438E+06         0.86736E-09         0.00000E+00
    0.86736E-09        -0.10671E+08         0.00000E+00
    0.00000E+00         0.00000E+00        -0.20833E+07
 
    0.25438E+06         0.21684E-08         0.00000E+00
    0.21684E-08        -0.10671E+08         0.00000E+00
    0.00000E+00         0.00000E+00        -0.20833E+07
 
    0.25438E+06        -0.14456E-09         0.00000E+00
   -0.14456E-09        -0.10671E+08         0.00000E+00
    0.00000E+00         0.00000E+00        -0.20833E+07
 
    0.25438E+06         0.00000E+00         0.00000E+00
    0.00000E+00        -0.10671E+08         0.00000E+00
    0.00000E+00         0.00000E+00        -0.20833E+07
 
    0.25438E+06        -0.18070E-08         0.00000E+00
   -0.18070E-08        -0.10671E+08         0.00000E+00
    0.00000E+00         0.00000E+00        -0.20833E+07
 
    0.25438E+06        -0.28912E-09         0.00000E+00
   -0.28912E-09        -0.10671E+08         0.00000E+00
    0.00000E+00         0.00000E+00        -0.20833E+07
 
    0.25438E+06         0.11565E-08         0.00000E+00
    0.11565E-08        -0.10671E+08         0.00000E+00
    0.00000E+00         0.00000E+00        -0.20833E+07
 
    0.41921E+08        -0.59414E-07         0.00000E+00
   -0.59414E-07         0.15600E+09         0.00000E+00
    0.00000E+00         0.00000E+00         0.39583E+08
 
    0.25438E+06        -0.10842E-07         0.00000E+00
   -0.10842E-07        -0.10671E+08         0.00000E+00
    0.00000E+00         0.00000E+00        -0.20833E+07
 
    0.25438E+06        -0.54933E-08         0.00000E+00
   -0.54933E-08        -0.10671E+08         0.00000E+00
    0.00000E+00         0.00000E+00        -0.20833E+07
 
    0.25438E+06         0.53487E-08         0.00000E+00
    0.53487E-08        -0.10671E+08         0.00000E+00
    0.00000E+00         0.00000E+00        -0.20833E+07
 
    0.25438E+06         0.53487E-08         0.00000E+00
    0.53487E-08        -0.10671E+08         0.00000E+00
    0.00000E+00         0.00000E+00        -0.20833E+07
 
    0.25438E+06         0.43368E-08         0.00000E+00
    0.43368E-08        -0.10671E+08         0.00000E+00
    0.00000E+00         0.00000E+00        -0.20833E+07
 
    0.25438E+06         0.31803E-08         0.00000E+00
    0.31803E-08        -0.10671E+08         0.00000E+00
    0.00000E+00         0.00000E+00        -0.20833E+07
 
    0.25438E+06         0.57824E-09         0.00000E+00
    0.57824E-09        -0.10671E+08         0.00000E+00
    0.00000E+00         0.00000E+00        -0.20833E+07
 
    0.25438E+06         0.15902E-08         0.00000E+00
    0.15902E-08        -0.10671E+08         0.00000E+00
    0.00000E+00         0.00000E+00        -0.20833E+07
 
    0.25438E+06         0.23130E-08         0.00000E+00
    0.23130E-08        -0.10671E+08         0.00000E+00
    0.00000E+00         0.00000E+00        -0.20833E+07
 
    0.25438E+06         0.34694E-08         0.00000E+00
    0.34694E-08        -0.10671E+08         0.00000E+00
    0.00000E+00         0.00000E+00        -0.20833E+07
 
    0.25438E+06        -0.10119E-08         0.00000E+00
   -0.10119E-08        -0.10671E+08         0.00000E+00
    0.00000E+00         0.00000E+00        -0.20833E+07
 
    0.25438E+06        -0.21684E-09         0.00000E+00
   -0.21684E-09        -0.10671E+08         0.00000E+00
    0.00000E+00         0.00000E+00        -0.20833E+07
 
    0.25438E+06         0.65052E-09         0.00000E+00
    0.65052E-09        -0.10671E+08         0.00000E+00
    0.00000E+00         0.00000E+00        -0.20833E+07
 
    0.25438E+06         0.28912E-09         0.00000E+00
    0.28912E-09        -0.10671E+08         0.00000E+00
    0.00000E+00         0.00000E+00        -0.20833E+07
 
    0.41921E+08        -0.82110E-07         0.00000E+00
   -0.82110E-07         0.15600E+09         0.00000E+00
    0.00000E+00         0.00000E+00         0.39583E+08
 
    0.25438E+06         0.79508E-08         0.00000E+00
    0.79508E-08        -0.10671E+08         0.00000E+00
    0.00000E+00         0.00000E+00        -0.20833E+07
 
    0.25438E+06        -0.14456E-08         0.00000E+00
   -0.14456E-08        -0.10671E+08         0.00000E+00
    0.00000E+00         0.00000E+00        -0.20833E+07
 
    0.25438E+06         0.31803E-08         0.00000E+00
    0.31803E-08        -0.10671E+08         0.00000E+00
    0.00000E+00         0.00000E+00        -0.20833E+07
 
    0.25438E+06         0.72280E-09         0.00000E+00
    0.72280E-09        -0.10671E+08         0.00000E+00
    0.00000E+00         0.00000E+00        -0.20833E+07
 
    0.25438E+06        -0.43368E-09         0.00000E+00
   -0.43368E-09        -0.10671E+08         0.00000E+00
    0.00000E+00         0.00000E+00        -0.20833E+07
 
    0.25438E+06         0.54933E-08         0.00000E+00
    0.54933E-08        -0.10671E+08         0.00000E+00
    0.00000E+00         0.00000E+00        -0.20833E+07
 
    0.25438E+06         0.86736E-09         0.00000E+00
    0.86736E-09        -0.10671E+08         0.00000E+00
    0.00000E+00         0.00000E+00        -0.20833E+07
 
    0.25438E+06         0.49150E-08         0.00000E+00
    0.49150E-08        -0.10671E+08         0.00000E+00
    0.00000E+00         0.00000E+00        -0.20833E+07
 
    0.25438E+06        -0.28912E-09         0.00000E+00
   -0.28912E-09        -0.10671E+08         0.00000E+00
    0.00000E+00         0.00000E+00        -0.20833E+07
 
    0.25438E+06         0.72280E-09         0.00000E+00
    0.72280E-09        -0.10671E+08         0.00000E+00
    0.00000E+00         0.00000E+00        -0.20833E+07
 
    0.25438E+06        -0.28912E-09         0.00000E+00
   -0.28912E-09        -0.10671E+08         0.00000E+00
    0.00000E+00         0.00000E+00        -0.20833E+07
 
    0.25438E+06         0.50596E-09         0.00000E+00
    0.50596E-09        -0.10671E+08         0.00000E+00
    0.00000E+00         0.00000E+00        -0.20833E+07
 
    0.25438E+06        -0.43368E-09         0.00000E+00
   -0.43368E-09        -0.10671E+08         0.00000E+00
    0.00000E+00         0.00000E+00        -0.20833E+07
 
    0.25438E+06         0.14456E-09         0.00000E+00
    0.14456E-09        -0.10671E+08         0.00000E+00
    0.00000E+00         0.00000E+00        -0.20833E+07
 
    0.41921E+08         0.14789E-06         0.00000E+00
    0.14789E-06         0.15600E+09         0.00000E+00
    0.00000E+00         0.00000E+00         0.39583E+08
 
    0.25438E+06        -0.36140E-08         0.00000E+00
   -0.36140E-08        -0.10671E+08         0.00000E+00
    0.00000E+00         0.00000E+00        -0.20833E+07
 
    0.25438E+06         0.23130E-08         0.00000E+00
    0.23130E-08        -0.10671E+08         0.00000E+00
    0.00000E+00         0.00000E+00        -0.20833E+07
 
    0.25438E+06         0.72280E-09         0.00000E+00
    0.72280E-09        -0.10671E+08         0.00000E+00
    0.00000E+00         0.00000E+00        -0.20833E+07
 
    0.25438E+06         0.14456E-08         0.00000E+00
    0.14456E-08        -0.10671E+08         0.00000E+00
    0.00000E+00         0.00000E+00        -0.20833E+07
 
    0.25438E+06         0.20238E-08         0.00000E+00
    0.20238E-08        -0.10671E+08         0.00000E+00
    0.00000E+00         0.00000E+00        -0.20833E+07
 
    0.25438E+06         0.13010E-08         0.00000E+00
    0.13010E-08        -0.10671E+08         0.00000E+00
    0.00000E+00         0.00000E+00        -0.20833E+07
 
    0.25438E+06         0.28912E-09         0.00000E+00
    0.28912E-09        -0.10671E+08         0.00000E+00
    0.00000E+00         0.00000E+00        -0.20833E+07
 
    0.25438E+06         0.17347E-08         0.00000E+00
    0.17347E-08        -0.10671E+08         0.00000E+00
    0.00000E+00         0.00000E+00        -0.20833E+07
 
    0.25438E+06        -0.57824E-09         0.00000E+00
   -0.57824E-09        -0.10671E+08         0.00000E+00
    0.00000E+00         0.00000E+00        -0.20833E+07
 
    0.25438E+06         0.20238E-08         0.00000E+00
    0.20238E-08        -0.10671E+08         0.00000E+00
    0.00000E+00         0.00000E+00        -0.20833E+07
 
    0.25438E+06        -0.14456E-08         0.00000E+00
   -0.14456E-08        -0.10671E+08         0.00000E+00
    0.00000E+00         0.00000E+00        -0.20833E+07
 
    0.25438E+06        -0.14456E-09         0.00000E+00
   -0.14456E-09        -0.10671E+08         0.00000E+00
    0.00000E+00         0.00000E+00        -0.20833E+07
 
    0.25438E+06         0.21684E-08         0.00000E+00
    0.21684E-08        -0.10671E+08         0.00000E+00
    0.00000E+00         0.00000E+00        -0.20833E+07
 
    0.25438E+06         0.14456E-09         0.00000E+00
    0.14456E-09        -0.10671E+08         0.00000E+00
    0.00000E+00         0.00000E+00        -0.20833E+07
 
    0.41921E+08        -0.11565E-08         0.00000E+00
   -0.11565E-08         0.15600E+09         0.00000E+00
    0.00000E+00         0.00000E+00         0.39583E+08
 
    0.25438E+06        -0.24575E-08         0.00000E+00
   -0.24575E-08        -0.10671E+08         0.00000E+00
    0.00000E+00         0.00000E+00        -0.20833E+07
 
    0.25438E+06        -0.56379E-08         0.00000E+00
   -0.56379E-08        -0.10671E+08         0.00000E+00
    0.00000E+00         0.00000E+00        -0.20833E+07
 
    0.25438E+06        -0.43368E-08         0.00000E+00
   -0.43368E-08        -0.10671E+08         0.00000E+00
    0.00000E+00         0.00000E+00        -0.20833E+07
 
    0.25438E+06        -0.24575E-08         0.00000E+00
   -0.24575E-08        -0.10671E+08         0.00000E+00
    0.00000E+00         0.00000E+00        -0.20833E+07
 
    0.25438E+06         0.00000E+00         0.00000E+00
    0.00000E+00        -0.10671E+08         0.00000E+00
    0.00000E+00         0.00000E+00        -0.20833E+07
 
    0.25438E+06        -0.72280E-09         0.00000E+00
   -0.72280E-09        -0.10671E+08         0.00000E+00
    0.00000E+00         0.00000E+00        -0.20833E+07
 
    0.25438E+06         0.24575E-08         0.00000E+00
    0.24575E-08        -0.10671E+08         0.00000E+00
    0.00000E+00         0.00000E+00        -0.20833E+07
 
    0.25438E+06         0.24575E-08         0.00000E+00
    0.24575E-08        -0.10671E+08         0.00000E+00
    0.00000E+00         0.00000E+00        -0.20833E+07
 
    0.25438E+06        -0.57824E-09         0.00000E+00
   -0.57824E-09        -0.10671E+08         0.00000E+00
    0.00000E+00         0.00000E+00        -0.20833E+07
 
    0.25438E+06         0.31803E-08         0.00000E+00
    0.31803E-08        -0.10671E+08         0.00000E+00
    0.00000E+00         0.00000E+00        -0.20833E+07
 
    0.25438E+06        -0.65052E-09         0.00000E+00
   -0.65052E-09        -0.10671E+08         0.00000E+00
    0.00000E+00         0.00000E+00        -0.20833E+07
 
    0.25438E+06         0.14456E-08         0.00000E+00
    0.14456E-08        -0.10671E+08         0.00000E+00
    0.00000E+00         0.00000E+00        -0.20833E+07
 
    0.25438E+06        -0.28912E-09         0.00000E+00
   -0.28912E-09        -0.10671E+08         0.00000E+00
    0.00000E+00         0.00000E+00        -0.20833E+07
 
    0.25438E+06         0.00000E+00         0.00000E+00
    0.00000E+00        -0.10671E+08         0.00000E+00
    0.00000E+00         0.00000E+00        -0.20833E+07
 
    0.41921E+08        -0.10611E-06         0.00000E+00
   -0.10611E-06         0.15600E+09         0.00000E+00
    0.00000E+00         0.00000E+00         0.39583E+08
 
    0.25438E+06        -0.23130E-08         0.00000E+00
   -0.23130E-08        -0.10671E+08         0.00000E+00
    0.00000E+00         0.00000E+00        -0.20833E+07
 
    0.25438E+06        -0.63607E-08         0.00000E+00
   -0.63607E-08        -0.10671E+08         0.00000E+00
    0.00000E+00         0.00000E+00        -0.20833E+07
 
    0.25438E+06        -0.36140E-08         0.00000E+00
   -0.36140E-08        -0.10671E+08         0.00000E+00
    0.00000E+00         0.00000E+00        -0.20833E+07
 
    0.25438E+06        -0.72280E-09         0.00000E+00
   -0.72280E-09        -0.10671E+08         0.00000E+00
    0.00000E+00         0.00000E+00        -0.20833E+07
 
    0.25438E+06         0.14456E-09         0.00000E+00
    0.14456E-09        -0.10671E+08         0.00000E+00
    0.00000E+00         0.00000E+00        -0.20833E+07
 
    0.25438E+06        -0.20238E-08         0.00000E+00
   -0.20238E-08        -0.10671E+08         0.00000E+00
    0.00000E+00         0.00000E+00        -0.20833E+07
 
    0.25438E+06         0.28912E-09         0.00000E+00
    0.28912E-09        -0.10671E+08         0.00000E+00
    0.00000E+00         0.00000E+00        -0.20833E+07
 
    0.25438E+06         0.47705E-08         0.00000E+00
    0.47705E-08        -0.10671E+08         0.00000E+00
    0.00000E+00         0.00000E+00        -0.20833E+07
 
    0.25438E+06         0.33249E-08         0.00000E+00
    0.33249E-08        -0.10671E+08         0.00000E+00
    0.00000E+00         0.00000E+00        -0.20833E+07
 
    0.25438E+06        -0.13010E-08         0.00000E+00
   -0.13010E-08        -0.10671E+08         0.00000E+00
    0.00000E+00         0.00000E+00        -0.20833E+07
 
    0.25438E+06         0.28912E-09         0.00000E+00
    0.28912E-09        -0.10671E+08         0.00000E+00
    0.00000E+00         0.00000E+00        -0.20833E+07
 
    0.25438E+06         0.28912E-09         0.00000E+00
    0.28912E-09        -0.10671E+08         0.00000E+00
    0.00000E+00         0.00000E+00        -0.20833E+07
 
    0.25438E+06         0.21684E-08         0.00000E+00
    0.21684E-08        -0.10671E+08         0.00000E+00
    0.00000E+00         0.00000E+00        -0.20833E+07
 
    0.25438E+06        -0.14456E-08         0.00000E+00
   -0.14456E-08        -0.10671E+08         0.00000E+00
    0.00000E+00         0.00000E+00        -0.20833E+07
 
    0.41921E+08         0.55077E-07         0.00000E+00
    0.55077E-07         0.15600E+09         0.00000E+00
    0.00000E+00         0.00000E+00         0.39583E+08
 
    0.25438E+06        -0.23130E-08         0.00000E+00
   -0.23130E-08        -0.10671E+08         0.00000E+00
    0.00000E+00         0.00000E+00        -0.20833E+07
 
    0.25438E+06         0.52042E-08         0.00000E+00
    0.52042E-08        -0.10671E+08         0.00000E+00
    0.00000E+00         0.00000E+00        -0.20833E+07
 
    0.25438E+06         0.52042E-08         0.00000E+00
    0.52042E-08        -0.10671E+08         0.00000E+00
    0.00000E+00         0.00000E+00        -0.20833E+07
 
    0.25438E+06        -0.34694E-08         0.00000E+00
   -0.34694E-08        -0.10671E+08         0.00000E+00
    0.00000E+00         0.00000E+00        -0.20833E+07
 
    0.25438E+06        -0.11565E-08         0.00000E+00
   -0.11565E-08        -0.10671E+08         0.00000E+00
    0.00000E+00         0.00000E+00        -0.20833E+07
 
    0.25438E+06         0.27466E-08         0.00000E+00
    0.27466E-08        -0.10671E+08         0.00000E+00
    0.00000E+00         0.00000E+00        -0.20833E+07
 
    0.25438E+06         0.10119E-08         0.00000E+00
    0.10119E-08        -0.10671E+08         0.00000E+00
    0.00000E+00         0.00000E+00        -0.20833E+07
 
    0.25438E+06        -0.17347E-08         0.00000E+00
   -0.17347E-08        -0.10671E+08         0.00000E+00
    0.00000E+00         0.00000E+00        -0.20833E+07
 
    0.25438E+06        -0.15902E-08         0.00000E+00
   -0.15902E-08        -0.10671E+08         0.00000E+00
    0.00000E+00         0.00000E+00        -0.20833E+07
 
    0.25438E+06         0.14456E-09         0.00000E+00
    0.14456E-09        -0.10671E+08         0.00000E+00
    0.00000E+00         0.00000E+00        -0.20833E+07
 
    0.25438E+06         0.18793E-08         0.00000E+00
    0.18793E-08        -0.10671E+08         0.00000E+00
    0.00000E+00         0.00000E+00        -0.20833E+07
 
    0.25438E+06         0.14456E-08         0.00000E+00
    0.14456E-08        -0.10671E+08         0.00000E+00
    0.00000E+00         0.00000E+00        -0.20833E+07
 
    0.25438E+06         0.13010E-08         0.00000E+00
    0.13010E-08        -0.10671E+08         0.00000E+00
    0.00000E+00         0.00000E+00        -0.20833E+07
 
    0.25438E+06        -0.86736E-09         0.00000E+00
   -0.86736E-09        -0.10671E+08         0.00000E+00
    0.00000E+00         0.00000E+00        -0.20833E+07
 
    0.41921E+08        -0.73726E-08         0.00000E+00
   -0.73726E-08         0.15600E+09         0.00000E+00
    0.00000E+00         0.00000E+00         0.39583E+08
 
    0.25438E+06        -0.52042E-08         0.00000E+00
   -0.52042E-08        -0.10671E+08         0.00000E+00
    0.00000E+00         0.00000E+00        -0.20833E+07
 
    0.25438E+06        -0.40477E-08         0.00000E+00
   -0.40477E-08        -0.10671E+08         0.00000E+00
    0.00000E+00         0.00000E+00        -0.20833E+07
 
    0.25438E+06         0.23130E-08         0.00000E+00
    0.23130E-08        -0.10671E+08         0.00000E+00
    0.00000E+00         0.00000E+00        -0.20833E+07
 
    0.25438E+06         0.86736E-08         0.00000E+00
    0.86736E-08        -0.10671E+08         0.00000E+00
    0.00000E+00         0.00000E+00        -0.20833E+07
 
    0.25438E+06         0.57824E-09         0.00000E+00
    0.57824E-09        -0.10671E+08         0.00000E+00
    0.00000E+00         0.00000E+00        -0.20833E+07
 
    0.25438E+06         0.28912E-09         0.00000E+00
    0.28912E-09        -0.10671E+08         0.00000E+00
    0.00000E+00         0.00000E+00        -0.20833E+07
 
    0.25438E+06         0.72280E-09         0.00000E+00
    0.72280E-09        -0.10671E+08         0.00000E+00
    0.00000E+00         0.00000E+00        -0.20833E+07
 
    0.25438E+06         0.17347E-08         0.00000E+00
    0.17347E-08        -0.10671E+08         0.00000E+00
    0.00000E+00         0.00000E+00        -0.20833E+07
 
    0.25438E+06         0.10119E-08         0.00000E+00
    0.10119E-08        -0.10671E+08         0.00000E+00
    0.00000E+00         0.00000E+00        -0.20833E+07
 
    0.25438E+06         0.43368E-09         0.00000E+00
    0.43368E-09        -0.10671E+08         0.00000E+00
    0.00000E+00         0.00000E+00        -0.20833E+07
 
    0.25438E+06         0.86736E-09         0.00000E+00
    0.86736E-09        -0.10671E+08         0.00000E+00
    0.00000E+00         0.00000E+00        -0.20833E+07
 
    0.25438E+06         0.34694E-08         0.00000E+00
    0.34694E-08        -0.10671E+08         0.00000E+00
    0.00000E+00         0.00000E+00        -0.20833E+07
 
    0.25438E+06        -0.15902E-08         0.00000E+00
   -0.15902E-08        -0.10671E+08         0.00000E+00
    0.00000E+00         0.00000E+00        -0.20833E+07
 
    0.25438E+06         0.86736E-09         0.00000E+00
    0.86736E-09        -0.10671E+08         0.00000E+00
    0.00000E+00         0.00000E+00        -0.20833E+07
 
    0.41921E+08         0.31803E-08         0.00000E+00
    0.31803E-08         0.15600E+09         0.00000E+00
    0.00000E+00         0.00000E+00         0.39583E+08
 
    0.25438E+06         0.17347E-08         0.00000E+00
    0.17347E-08        -0.10671E+08         0.00000E+00
    0.00000E+00         0.00000E+00        -0.20833E+07
 
    0.25438E+06         0.20238E-08         0.00000E+00
    0.20238E-08        -0.10671E+08         0.00000E+00
    0.00000E+00         0.00000E+00        -0.20833E+07
 
    0.25438E+06        -0.66498E-08         0.00000E+00
   -0.66498E-08        -0.10671E+08         0.00000E+00
    0.00000E+00         0.00000E+00        -0.20833E+07
 
    0.25438E+06        -0.23130E-08         0.00000E+00
   -0.23130E-08        -0.10671E+08         0.00000E+00
    0.00000E+00         0.00000E+00        -0.20833E+07
 
    0.25438E+06        -0.11565E-08         0.00000E+00
   -0.11565E-08        -0.10671E+08         0.00000E+00
    0.00000E+00         0.00000E+00        -0.20833E+07
 
    0.25438E+06         0.53487E-08         0.00000E+00
    0.53487E-08        -0.10671E+08         0.00000E+00
    0.00000E+00         0.00000E+00        -0.20833E+07
 
    0.25438E+06        -0.86736E-09         0.00000E+00
   -0.86736E-09        -0.10671E+08         0.00000E+00
    0.00000E+00         0.00000E+00        -0.20833E+07
 
    0.25438E+06         0.13010E-08         0.00000E+00
    0.13010E-08        -0.10671E+08         0.00000E+00
    0.00000E+00         0.00000E+00        -0.20833E+07
 
    0.25438E+06        -0.21684E-08         0.00000E+00
   -0.21684E-08        -0.10671E+08         0.00000E+00
    0.00000E+00         0.00000E+00        -0.20833E+07
 
    0.25438E+06        -0.14456E-08         0.00000E+00
   -0.14456E-08        -0.10671E+08         0.00000E+00
    0.00000E+00         0.00000E+00        -0.20833E+07
 
    0.25438E+06         0.17347E-08         0.00000E+00
    0.17347E-08        -0.10671E+08         0.00000E+00
    0.00000E+00         0.00000E+00        -0.20833E+07
 
    0.25438E+06         0.17347E-08         0.00000E+00
    0.17347E-08        -0.10671E+08         0.00000E+00
    0.00000E+00         0.00000E+00        -0.20833E+07
 
    0.25438E+06        -0.27466E-08         0.00000E+00
   -0.27466E-08        -0.10671E+08         0.00000E+00
    0.00000E+00         0.00000E+00        -0.20833E+07
 
    0.25438E+06         0.26021E-08         0.00000E+00
    0.26021E-08        -0.10671E+08         0.00000E+00
    0.00000E+00         0.00000E+00        -0.20833E+07
 
    0.41921E+08         0.26021E-08         0.00000E+00
    0.26021E-08         0.15600E+09         0.00000E+00
    0.00000E+00         0.00000E+00         0.39583E+08
 
    0.25438E+06        -0.23130E-08         0.00000E+00
   -0.23130E-08        -0.10671E+08         0.00000E+00
    0.00000E+00         0.00000E+00        -0.20833E+07
 
    0.25438E+06        -0.37586E-08         0.00000E+00
   -0.37586E-08        -0.10671E+08         0.00000E+00
    0.00000E+00         0.00000E+00        -0.20833E+07
 
    0.25438E+06        -0.37586E-08         0.00000E+00
   -0.37586E-08        -0.10671E+08         0.00000E+00
    0.00000E+00         0.00000E+00        -0.20833E+07
 
    0.25438E+06        -0.20238E-08         0.00000E+00
   -0.20238E-08        -0.10671E+08         0.00000E+00
    0.00000E+00         0.00000E+00        -0.20833E+07
 
    0.25438E+06         0.28912E-09         0.00000E+00
    0.28912E-09        -0.10671E+08         0.00000E+00
    0.00000E+00         0.00000E+00        -0.20833E+07
 
    0.25438E+06        -0.18793E-08         0.00000E+00
   -0.18793E-08        -0.10671E+08         0.00000E+00
    0.00000E+00         0.00000E+00        -0.20833E+07
 
    0.25438E+06        -0.24575E-08         0.00000E+00
   -0.24575E-08        -0.10671E+08         0.00000E+00
    0.00000E+00         0.00000E+00        -0.20833E+07
 
    0.25438E+06        -0.17347E-08         0.00000E+00
   -0.17347E-08        -0.10671E+08         0.00000E+00
    0.00000E+00         0.00000E+00        -0.20833E+07
 
    0.25438E+06        -0.47705E-08         0.00000E+00
   -0.47705E-08        -0.10671E+08         0.00000E+00
    0.00000E+00         0.00000E+00        -0.20833E+07
 
    0.25438E+06        -0.57824E-09         0.00000E+00
   -0.57824E-09        -0.10671E+08         0.00000E+00
    0.00000E+00         0.00000E+00        -0.20833E+07
 
    0.25438E+06         0.13010E-08         0.00000E+00
    0.13010E-08        -0.10671E+08         0.00000E+00
    0.00000E+00         0.00000E+00        -0.20833E+07
 
    0.25438E+06        -0.18793E-08         0.00000E+00
   -0.18793E-08        -0.10671E+08         0.00000E+00
    0.00000E+00         0.00000E+00        -0.20833E+07
 
    0.25438E+06         0.11565E-08         0.00000E+00
    0.11565E-08        -0.10671E+08         0.00000E+00
    0.00000E+00         0.00000E+00        -0.20833E+07
 
    0.25438E+06         0.28912E-09         0.00000E+00
    0.28912E-09        -0.10671E+08         0.00000E+00
    0.00000E+00         0.00000E+00        -0.20833E+07
 
    0.41921E+08        -0.57824E-08         0.00000E+00
   -0.57824E-08         0.15600E+09         0.00000E+00
    0.00000E+00         0.00000E+00         0.39583E+08
 
    0.25438E+06         0.00000E+00         0.00000E+00
    0.00000E+00        -0.10671E+08         0.00000E+00
    0.00000E+00         0.00000E+00        -0.20833E+07
 
    0.25438E+06        -0.14456E-08         0.00000E+00
   -0.14456E-08        -0.10671E+08         0.00000E+00
    0.00000E+00         0.00000E+00        -0.20833E+07
 
    0.25438E+06        -0.14456E-08         0.00000E+00
   -0.14456E-08        -0.10671E+08         0.00000E+00
    0.00000E+00         0.00000E+00        -0.20833E+07
 
    0.25438E+06        -0.37586E-08         0.00000E+00
   -0.37586E-08        -0.10671E+08         0.00000E+00
    0.00000E+00         0.00000E+00        -0.20833E+07
 
    0.25438E+06        -0.26021E-08         0.00000E+00
   -0.26021E-08        -0.10671E+08         0.00000E+00
    0.00000E+00         0.00000E+00        -0.20833E+07
 
    0.25438E+06         0.23130E-08         0.00000E+00
    0.23130E-08        -0.10671E+08         0.00000E+00
    0.00000E+00         0.00000E+00        -0.20833E+07
 
    0.25438E+06         0.10119E-08         0.00000E+00
    0.10119E-08        -0.10671E+08         0.00000E+00
    0.00000E+00         0.00000E+00        -0.20833E+07
 
    0.25438E+06         0.44814E-08         0.00000E+00
    0.44814E-08        -0.10671E+08         0.00000E+00
    0.00000E+00         0.00000E+00        -0.20833E+07
 
    0.25438E+06         0.30358E-08         0.00000E+00
    0.30358E-08        -0.10671E+08         0.00000E+00
    0.00000E+00         0.00000E+00        -0.20833E+07
 
    0.25438E+06         0.00000E+00         0.00000E+00
    0.00000E+00        -0.10671E+08         0.00000E+00
    0.00000E+00         0.00000E+00        -0.20833E+07
 
    0.25438E+06        -0.15902E-08         0.00000E+00
   -0.15902E-08        -0.10671E+08         0.00000E+00
    0.00000E+00         0.00000E+00        -0.20833E+07
 
    0.25438E+06        -0.57824E-09         0.00000E+00
   -0.57824E-09        -0.10671E+08         0.00000E+00
    0.00000E+00         0.00000E+00        -0.20833E+07
 
    0.25438E+06        -0.50596E-08         0.00000E+00
   -0.50596E-08        -0.10671E+08         0.00000E+00
    0.00000E+00         0.00000E+00        -0.20833E+07
 
    0.25438E+06        -0.14456E-08         0.00000E+00
   -0.14456E-08        -0.10671E+08         0.00000E+00
    0.00000E+00         0.00000E+00        -0.20833E+07
 
    0.41921E+08         0.55800E-07         0.00000E+00
    0.55800E-07         0.15600E+09         0.00000E+00
    0.00000E+00         0.00000E+00         0.39583E+08
 
    0.25438E+06         0.31803E-08         0.00000E+00
    0.31803E-08        -0.10671E+08         0.00000E+00
    0.00000E+00         0.00000E+00        -0.20833E+07
 
    0.25438E+06         0.49150E-08         0.00000E+00
    0.49150E-08        -0.10671E+08         0.00000E+00
    0.00000E+00         0.00000E+00        -0.20833E+07
 
    0.25438E+06        -0.52042E-08         0.00000E+00
   -0.52042E-08        -0.10671E+08         0.00000E+00
    0.00000E+00         0.00000E+00        -0.20833E+07
 
    0.25438E+06         0.31803E-08         0.00000E+00
    0.31803E-08        -0.10671E+08         0.00000E+00
    0.00000E+00         0.00000E+00        -0.20833E+07
 
    0.25438E+06        -0.23130E-08         0.00000E+00
   -0.23130E-08        -0.10671E+08         0.00000E+00
    0.00000E+00         0.00000E+00        -0.20833E+07
 
    0.25438E+06         0.14456E-08         0.00000E+00
    0.14456E-08        -0.10671E+08         0.00000E+00
    0.00000E+00         0.00000E+00        -0.20833E+07
 
    0.25438E+06        -0.10119E-08         0.00000E+00
   -0.10119E-08        -0.10671E+08         0.00000E+00
    0.00000E+00         0.00000E+00        -0.20833E+07
 
    0.25438E+06        -0.30358E-08         0.00000E+00
   -0.30358E-08        -0.10671E+08         0.00000E+00
    0.00000E+00         0.00000E+00        -0.20833E+07
 
    0.25438E+06        -0.30358E-08         0.00000E+00
   -0.30358E-08        -0.10671E+08         0.00000E+00
    0.00000E+00         0.00000E+00        -0.20833E+07
 
    0.25438E+06        -0.72280E-09         0.00000E+00
   -0.72280E-09        -0.10671E+08         0.00000E+00
    0.00000E+00         0.00000E+00        -0.20833E+07
 
    0.25438E+06         0.49150E-08         0.00000E+00
    0.49150E-08        -0.10671E+08         0.00000E+00
    0.00000E+00         0.00000E+00        -0.20833E+07
 
    0.25438E+06         0.00000E+00         0.00000E+00
    0.00000E+00        -0.10671E+08         0.00000E+00
    0.00000E+00         0.00000E+00        -0.20833E+07
 
    0.25438E+06        -0.17347E-08         0.00000E+00
   -0.17347E-08        -0.10671E+08         0.00000E+00
    0.00000E+00         0.00000E+00        -0.20833E+07
 
    0.25438E+06         0.23130E-08         0.00000E+00
    0.23130E-08        -0.10671E+08         0.00000E+00
    0.00000E+00         0.00000E+00        -0.20833E+07
 
    0.41921E+08        -0.44525E-07         0.00000E+00
   -0.44525E-07         0.15600E+09         0.00000E+00
    0.00000E+00         0.00000E+00         0.39583E+08
 
    0.25438E+06        -0.37586E-08         0.00000E+00
   -0.37586E-08        -0.10671E+08         0.00000E+00
    0.00000E+00         0.00000E+00        -0.20833E+07
 
    0.25438E+06         0.10408E-07         0.00000E+00
    0.10408E-07        -0.10671E+08         0.00000E+00
    0.00000E+00         0.00000E+00        -0.20833E+07
 
    0.25438E+06        -0.17347E-08         0.00000E+00
   -0.17347E-08        -0.10671E+08         0.00000E+00
    0.00000E+00         0.00000E+00        -0.20833E+07
 
    0.25438E+06         0.43368E-08         0.00000E+00
    0.43368E-08        -0.10671E+08         0.00000E+00
    0.00000E+00         0.00000E+00        -0.20833E+07
 
    0.25438E+06        -0.20238E-08         0.00000E+00
   -0.20238E-08        -0.10671E+08         0.00000E+00
    0.00000E+00         0.00000E+00        -0.20833E+07
 
    0.25438E+06        -0.36140E-08         0.00000E+00
   -0.36140E-08        -0.10671E+08         0.00000E+00
    0.00000E+00         0.00000E+00        -0.20833E+07
 
    0.25438E+06        -0.26021E-08         0.00000E+00
   -0.26021E-08        -0.10671E+08         0.00000E+00
    0.00000E+00         0.00000E+00        -0.20833E+07
 
    0.25438E+06        -0.18793E-08         0.00000E+00
   -0.18793E-08        -0.10671E+08         0.00000E+00
    0.00000E+00         0.00000E+00        -0.20833E+07
 
    0.25438E+06        -0.10119E-08         0.00000E+00
   -0.10119E-08        -0.10671E+08         0.00000E+00
    0.00000E+00         0.00000E+00        -0.20833E+07
 
    0.25438E+06        -0.13010E-08         0.00000E+00
   -0.13010E-08        -0.10671E+08         0.00000E+00
    0.00000E+00         0.00000E+00        -0.20833E+07
 
    0.25438E+06        -0.20238E-08         0.00000E+00
   -0.20238E-08        -0.10671E+08         0.00000E+00
    0.00000E+00         0.00000E+00        -0.20833E+07
 
    0.25438E+06        -0.34694E-08         0.00000E+00
   -0.34694E-08        -0.10671E+08         0.00000E+00
    0.00000E+00         0.00000E+00        -0.20833E+07
 
    0.25438E+06        -0.14456E-09         0.00000E+00
   -0.14456E-09        -0.10671E+08         0.00000E+00
    0.00000E+00         0.00000E+00        -0.20833E+07
 
    0.25438E+06         0.31803E-08         0.00000E+00
    0.31803E-08        -0.10671E+08         0.00000E+00
    0.00000E+00         0.00000E+00        -0.20833E+07
 
    0.41921E+08         0.58691E-07         0.00000E+00
    0.58691E-07         0.15600E+09         0.00000E+00
    0.00000E+00         0.00000E+00         0.39583E+08
 
    0.25438E+06         0.28912E-09         0.00000E+00
    0.28912E-09        -0.10671E+08         0.00000E+00
    0.00000E+00         0.00000E+00        -0.20833E+07
 
    0.25438E+06        -0.17347E-08         0.00000E+00
   -0.17347E-08        -0.10671E+08         0.00000E+00
    0.00000E+00         0.00000E+00        -0.20833E+07
 
    0.25438E+06        -0.14456E-08         0.00000E+00
   -0.14456E-08        -0.10671E+08         0.00000E+00
    0.00000E+00         0.00000E+00        -0.20833E+07
 
    0.25438E+06        -0.11565E-08         0.00000E+00
   -0.11565E-08        -0.10671E+08         0.00000E+00
    0.00000E+00         0.00000E+00        -0.20833E+07
 
    0.25438E+06         0.17347E-08         0.00000E+00
    0.17347E-08        -0.10671E+08         0.00000E+00
    0.00000E+00         0.00000E+00        -0.20833E+07
 
    0.25438E+06         0.11565E-08         0.00000E+00
    0.11565E-08        -0.10671E+08         0.00000E+00
    0.00000E+00         0.00000E+00        -0.20833E+07
 
    0.25438E+06         0.37586E-08         0.00000E+00
    0.37586E-08        -0.10671E+08         0.00000E+00
    0.00000E+00         0.00000E+00        -0.20833E+07
 
    0.25438E+06         0.30358E-08         0.00000E+00
    0.30358E-08        -0.10671E+08         0.00000E+00
    0.00000E+00         0.00000E+00        -0.20833E+07
 
    0.25438E+06        -0.37586E-08         0.00000E+00
   -0.37586E-08        -0.10671E+08         0.00000E+00
    0.00000E+00         0.00000E+00        -0.20833E+07
 
    0.25438E+06        -0.28912E-08         0.00000E+00
   -0.28912E-08        -0.10671E+08         0.00000E+00
    0.00000E+00         0.00000E+00        -0.20833E+07
 
    0.25438E+06         0.31803E-08         0.00000E+00
    0.31803E-08        -0.10671E+08         0.00000E+00
    0.00000E+00         0.00000E+00        -0.20833E+07
 
    0.25438E+06        -0.34694E-08         0.00000E+00
   -0.34694E-08        -0.10671E+08         0.00000E+00
    0.00000E+00         0.00000E+00        -0.20833E+07
 
    0.25438E+06         0.13010E-08         0.00000E+00
    0.13010E-08        -0.10671E+08         0.00000E+00
    0.00000E+00         0.00000E+00        -0.20833E+07
 
    0.25438E+06         0.57824E-09         0.00000E+00
    0.57824E-09        -0.10671E+08         0.00000E+00
    0.00000E+00         0.00000E+00        -0.20833E+07
 
    0.41921E+08        -0.50307E-07         0.00000E+00
   -0.50307E-07         0.15600E+09         0.00000E+00
    0.00000E+00         0.00000E+00         0.39583E+08
 
    0.25438E+06         0.11565E-07         0.00000E+00
    0.11565E-07        -0.10671E+08         0.00000E+00
    0.00000E+00         0.00000E+00        -0.20833E+07
 
    0.25438E+06         0.49150E-08         0.00000E+00
    0.49150E-08        -0.10671E+08         0.00000E+00
    0.00000E+00         0.00000E+00        -0.20833E+07
 
    0.25438E+06         0.31803E-08         0.00000E+00
    0.31803E-08        -0.10671E+08         0.00000E+00
    0.00000E+00         0.00000E+00        -0.20833E+07
 
    0.25438E+06         0.31803E-08         0.00000E+00
    0.31803E-08        -0.10671E+08         0.00000E+00
    0.00000E+00         0.00000E+00        -0.20833E+07
 
    0.25438E+06         0.14456E-08         0.00000E+00
    0.14456E-08        -0.10671E+08         0.00000E+00
    0.00000E+00         0.00000E+00        -0.20833E+07
 
    0.25438E+06        -0.59270E-08         0.00000E+00
   -0.59270E-08        -0.10671E+08         0.00000E+00
    0.00000E+00         0.00000E+00        -0.20833E+07
 
    0.25438E+06         0.86736E-09         0.00000E+00
    0.86736E-09        -0.10671E+08         0.00000E+00
    0.00000E+00         0.00000E+00        -0.20833E+07
 
    0.25438E+06         0.33249E-08         0.00000E+00
    0.33249E-08        -0.10671E+08         0.00000E+00
    0.00000E+00         0.00000E+00        -0.20833E+07
 
    0.25438E+06         0.23130E-08         0.00000E+00
    0.23130E-08        -0.10671E+08         0.00000E+00
    0.00000E+00         0.00000E+00        -0.20833E+07
 
    0.25438E+06         0.28912E-09         0.00000E+00
    0.28912E-09        -0.10671E+08         0.00000E+00
    0.00000E+00         0.00000E+00        -0.20833E+07
 
    0.25438E+06         0.00000E+00         0.00000E+00
    0.00000E+00        -0.10671E+08         0.00000E+00
    0.00000E+00         0.00000E+00        -0.20833E+07
 
    0.25438E+06        -0.57824E-09         0.00000E+00
   -0.57824E-09        -0.10671E+08         0.00000E+00
    0.00000E+00         0.00000E+00        -0.20833E+07
 
    0.25438E+06        -0.23130E-08         0.00000E+00
   -0.23130E-08        -0.10671E+08         0.00000E+00
    0.00000E+00         0.00000E+00        -0.20833E+07
 
    0.25438E+06        -0.28912E-09         0.00000E+00
   -0.28912E-09        -0.10671E+08         0.00000E+00
    0.00000E+00         0.00000E+00        -0.20833E+07
 
    0.41921E+08        -0.46259E-08         0.00000E+00
   -0.46259E-08         0.15600E+09         0.00000E+00
    0.00000E+00         0.00000E+00         0.39583E+08
 
    0.25438E+06        -0.40477E-08         0.00000E+00
   -0.40477E-08        -0.10671E+08         0.00000E+00
    0.00000E+00         0.00000E+00        -0.20833E+07
 
    0.25438E+06        -0.49150E-08         0.00000E+00
   -0.49150E-08        -0.10671E+08         0.00000E+00
    0.00000E+00         0.00000E+00        -0.20833E+07
 
    0.25438E+06        -0.14456E-08         0.00000E+00
   -0.14456E-08        -0.10671E+08         0.00000E+00
    0.00000E+00         0.00000E+00        -0.20833E+07
 
    0.25438E+06        -0.17347E-08         0.00000E+00
   -0.17347E-08        -0.10671E+08         0.00000E+00
    0.00000E+00         0.00000E+00        -0.20833E+07
 
    0.25438E+06        -0.17347E-08         0.00000E+00
   -0.17347E-08        -0.10671E+08         0.00000E+00
    0.00000E+00         0.00000E+00        -0.20833E+07
 
    0.25438E+06         0.24575E-08         0.00000E+00
    0.24575E-08        -0.10671E+08         0.00000E+00
    0.00000E+00         0.00000E+00        -0.20833E+07
 
    0.25438E+06        -0.36140E-08         0.00000E+00
   -0.36140E-08        -0.10671E+08         0.00000E+00
    0.00000E+00         0.00000E+00        -0.20833E+07
 
    0.25438E+06        -0.40477E-08         0.00000E+00
   -0.40477E-08        -0.10671E+08         0.00000E+00
    0.00000E+00         0.00000E+00        -0.20833E+07
 
    0.25438E+06        -0.43368E-08         0.00000E+00
   -0.43368E-08        -0.10671E+08         0.00000E+00
    0.00000E+00         0.00000E+00        -0.20833E+07
 
    0.25438E+06        -0.23130E-08         0.00000E+00
   -0.23130E-08        -0.10671E+08         0.00000E+00
    0.00000E+00         0.00000E+00        -0.20833E+07
 
    0.25438E+06         0.86736E-09         0.00000E+00
    0.86736E-09        -0.10671E+08         0.00000E+00
    0.00000E+00         0.00000E+00        -0.20833E+07
 
    0.25438E+06         0.00000E+00         0.00000E+00
    0.00000E+00        -0.10671E+08         0.00000E+00
    0.00000E+00         0.00000E+00        -0.20833E+07
 
    0.25438E+06        -0.57824E-09         0.00000E+00
   -0.57824E-09        -0.10671E+08         0.00000E+00
    0.00000E+00         0.00000E+00        -0.20833E+07
 
    0.25438E+06        -0.49150E-08         0.00000E+00
   -0.49150E-08        -0.10671E+08         0.00000E+00
    0.00000E+00         0.00000E+00        -0.20833E+07
 
    0.41921E+08         0.80954E-08         0.00000E+00
    0.80954E-08         0.15600E+09         0.00000E+00
    0.00000E+00         0.00000E+00         0.39583E+08
 
    0.25438E+06         0.40477E-08         0.00000E+00
    0.40477E-08        -0.10671E+08         0.00000E+00
    0.00000E+00         0.00000E+00        -0.20833E+07
 
    0.25438E+06         0.66498E-08         0.00000E+00
    0.66498E-08        -0.10671E+08         0.00000E+00
    0.00000E+00         0.00000E+00        -0.20833E+07
 
    0.25438E+06        -0.17347E-08         0.00000E+00
   -0.17347E-08        -0.10671E+08         0.00000E+00
    0.00000E+00         0.00000E+00        -0.20833E+07
 
    0.25438E+06        -0.46259E-08         0.00000E+00
   -0.46259E-08        -0.10671E+08         0.00000E+00
    0.00000E+00         0.00000E+00        -0.20833E+07
 
    0.25438E+06        -0.14456E-08         0.00000E+00
   -0.14456E-08        -0.10671E+08         0.00000E+00
    0.00000E+00         0.00000E+00        -0.20833E+07
 
    0.25438E+06        -0.37586E-08         0.00000E+00
   -0.37586E-08        -0.10671E+08         0.00000E+00
    0.00000E+00         0.00000E+00        -0.20833E+07
 
    0.25438E+06        -0.20238E-08         0.00000E+00
   -0.20238E-08        -0.10671E+08         0.00000E+00
    0.00000E+00         0.00000E+00        -0.20833E+07
 
    0.25438E+06         0.00000E+00         0.00000E+00
    0.00000E+00        -0.10671E+08         0.00000E+00
    0.00000E+00         0.00000E+00        -0.20833E+07
 
    0.25438E+06        -0.31803E-08         0.00000E+00
   -0.31803E-08        -0.10671E+08         0.00000E+00
    0.00000E+00         0.00000E+00        -0.20833E+07
 
    0.25438E+06        -0.57824E-09         0.00000E+00
   -0.57824E-09        -0.10671E+08         0.00000E+00
    0.00000E+00         0.00000E+00        -0.20833E+07
 
    0.25438E+06        -0.86736E-09         0.00000E+00
   -0.86736E-09        -0.10671E+08         0.00000E+00
    0.00000E+00         0.00000E+00        -0.20833E+07
 
    0.25438E+06        -0.86736E-09         0.00000E+00
   -0.86736E-09        -0.10671E+08         0.00000E+00
    0.00000E+00         0.00000E+00        -0.20833E+07
 
    0.25438E+06        -0.86736E-08         0.00000E+00
   -0.86736E-08        -0.10671E+08         0.00000E+00
    0.00000E+00         0.00000E+00        -0.20833E+07
 
    0.25438E+06         0.86736E-09         0.00000E+00
    0.86736E-09        -0.10671E+08         0.00000E+00
    0.00000E+00         0.00000E+00        -0.20833E+07
 
    0.41921E+08         0.52620E-07         0.00000E+00
    0.52620E-07         0.15600E+09         0.00000E+00
    0.00000E+00         0.00000E+00         0.39583E+08
 
    0.25438E+06         0.17347E-08         0.00000E+00
    0.17347E-08        -0.10671E+08         0.00000E+00
    0.00000E+00         0.00000E+00        -0.20833E+07
 
    0.25438E+06        -0.20238E-08         0.00000E+00
   -0.20238E-08        -0.10671E+08         0.00000E+00
    0.00000E+00         0.00000E+00        -0.20833E+07
 
    0.25438E+06        -0.28912E-08         0.00000E+00
   -0.28912E-08        -0.10671E+08         0.00000E+00
    0.00000E+00         0.00000E+00        -0.20833E+07
 
    0.25438E+06         0.14456E-08         0.00000E+00
    0.14456E-08        -0.10671E+08         0.00000E+00
    0.00000E+00         0.00000E+00        -0.20833E+07
 
    0.25438E+06        -0.57824E-09         0.00000E+00
   -0.57824E-09        -0.10671E+08         0.00000E+00
    0.00000E+00         0.00000E+00        -0.20833E+07
 
    0.25438E+06         0.49150E-08         0.00000E+00
    0.49150E-08        -0.10671E+08         0.00000E+00
    0.00000E+00         0.00000E+00        -0.20833E+07
 
    0.25438E+06        -0.57824E-09         0.00000E+00
   -0.57824E-09        -0.10671E+08         0.00000E+00
    0.00000E+00         0.00000E+00        -0.20833E+07
 
    0.25438E+06         0.31803E-08         0.00000E+00
    0.31803E-08        -0.10671E+08         0.00000E+00
    0.00000E+00         0.00000E+00        -0.20833E+07
 
    0.25438E+06        -0.23130E-08         0.00000E+00
   -0.23130E-08        -0.10671E+08         0.00000E+00
    0.00000E+00         0.00000E+00        -0.20833E+07
 
    0.25438E+06        -0.46259E-08         0.00000E+00
   -0.46259E-08        -0.10671E+08         0.00000E+00
    0.00000E+00         0.00000E+00        -0.20833E+07
 
    0.25438E+06         0.28912E-08         0.00000E+00
    0.28912E-08        -0.10671E+08         0.00000E+00
    0.00000E+00         0.00000E+00        -0.20833E+07
 
    0.25438E+06         0.00000E+00         0.00000E+00
    0.00000E+00        -0.10671E+08         0.00000E+00
    0.00000E+00         0.00000E+00        -0.20833E+07
 
    0.25438E+06        -0.86736E-09         0.00000E+00
   -0.86736E-09        -0.10671E+08         0.00000E+00
    0.00000E+00         0.00000E+00        -0.20833E+07
 
    0.25438E+06         0.00000E+00         0.00000E+00
    0.00000E+00        -0.10671E+08         0.00000E+00
    0.00000E+00         0.00000E+00        -0.20833E+07
 
    0.41921E+08         0.26021E-08         0.00000E+00
    0.26021E-08         0.15600E+09         0.00000E+00
    0.00000E+00         0.00000E+00         0.39583E+08
 
    0.25438E+06        -0.86736E-09         0.00000E+00
   -0.86736E-09        -0.10671E+08         0.00000E+00
    0.00000E+00         0.00000E+00        -0.20833E+07
 
    0.25438E+06         0.57824E-09         0.00000E+00
    0.57824E-09        -0.10671E+08         0.00000E+00
    0.00000E+00         0.00000E+00        -0.20833E+07
 
    0.25438E+06         0.26021E-08         0.00000E+00
    0.26021E-08        -0.10671E+08         0.00000E+00
    0.00000E+00         0.00000E+00        -0.20833E+07
 
    0.25438E+06         0.54933E-08         0.00000E+00
    0.54933E-08        -0.10671E+08         0.00000E+00
    0.00000E+00         0.00000E+00        -0.20833E+07
 
    0.25438E+06         0.11565E-08         0.00000E+00
    0.11565E-08        -0.10671E+08         0.00000E+00
    0.00000E+00         0.00000E+00        -0.20833E+07
 
    0.25438E+06        -0.26021E-08         0.00000E+00
   -0.26021E-08        -0.10671E+08         0.00000E+00
    0.00000E+00         0.00000E+00        -0.20833E+07
 
    0.25438E+06         0.28912E-09         0.00000E+00
    0.28912E-09        -0.10671E+08         0.00000E+00
    0.00000E+00         0.00000E+00        -0.20833E+07
 
    0.25438E+06         0.83845E-08         0.00000E+00
    0.83845E-08        -0.10671E+08         0.00000E+00
    0.00000E+00         0.00000E+00        -0.20833E+07
 
    0.25438E+06        -0.17347E-08         0.00000E+00
   -0.17347E-08        -0.10671E+08         0.00000E+00
    0.00000E+00         0.00000E+00        -0.20833E+07
 
    0.25438E+06         0.57824E-09         0.00000E+00
    0.57824E-09        -0.10671E+08         0.00000E+00
    0.00000E+00         0.00000E+00        -0.20833E+07
 
    0.25438E+06         0.28912E-09         0.00000E+00
    0.28912E-09        -0.10671E+08         0.00000E+00
    0.00000E+00         0.00000E+00        -0.20833E+07
 
    0.25438E+06        -0.17347E-08         0.00000E+00
   -0.17347E-08        -0.10671E+08         0.00000E+00
    0.00000E+00         0.00000E+00        -0.20833E+07
 
    0.25438E+06         0.26021E-08         0.00000E+00
    0.26021E-08        -0.10671E+08         0.00000E+00
    0.00000E+00         0.00000E+00        -0.20833E+07
 
    0.25438E+06         0.17347E-08         0.00000E+00
    0.17347E-08        -0.10671E+08         0.00000E+00
    0.00000E+00         0.00000E+00        -0.20833E+07
 
    0.41921E+08        -0.51463E-07         0.00000E+00
   -0.51463E-07         0.15600E+09         0.00000E+00
    0.00000E+00         0.00000E+00         0.39583E+08
 
    0.25438E+06        -0.92519E-08         0.00000E+00
   -0.92519E-08        -0.10671E+08         0.00000E+00
    0.00000E+00         0.00000E+00        -0.20833E+07
 
    0.25438E+06         0.14456E-08         0.00000E+00
    0.14456E-08        -0.10671E+08         0.00000E+00
    0.00000E+00         0.00000E+00        -0.20833E+07
 
    0.25438E+06         0.40477E-08         0.00000E+00
    0.40477E-08        -0.10671E+08         0.00000E+00
    0.00000E+00         0.00000E+00        -0.20833E+07
 
    0.25438E+06        -0.28912E-09         0.00000E+00
   -0.28912E-09        -0.10671E+08         0.00000E+00
    0.00000E+00         0.00000E+00        -0.20833E+07
 
    0.25438E+06         0.37586E-08         0.00000E+00
    0.37586E-08        -0.10671E+08         0.00000E+00
    0.00000E+00         0.00000E+00        -0.20833E+07
 
    0.25438E+06         0.00000E+00         0.00000E+00
    0.00000E+00        -0.10671E+08         0.00000E+00
    0.00000E+00         0.00000E+00        -0.20833E+07
 
    0.25438E+06         0.28912E-08         0.00000E+00
    0.28912E-08        -0.10671E+08         0.00000E+00
    0.00000E+00         0.00000E+00        -0.20833E+07
 
    0.25438E+06         0.57824E-09         0.00000E+00
    0.57824E-09        -0.10671E+08         0.00000E+00
    0.00000E+00         0.00000E+00        -0.20833E+07
 
    0.25438E+06        -0.34694E-08         0.00000E+00
   -0.34694E-08        -0.10671E+08         0.00000E+00
    0.00000E+00         0.00000E+00        -0.20833E+07
 
    0.25438E+06         0.31803E-08         0.00000E+00
    0.31803E-08        -0.10671E+08         0.00000E+00
    0.00000E+00         0.00000E+00        -0.20833E+07
 
    0.25438E+06         0.17347E-08         0.00000E+00
    0.17347E-08        -0.10671E+08         0.00000E+00
    0.00000E+00         0.00000E+00        -0.20833E+07
 
    0.25438E+06         0.46259E-08         0.00000E+00
    0.46259E-08        -0.10671E+08         0.00000E+00
    0.00000E+00         0.00000E+00        -0.20833E+07
 
    0.25438E+06        -0.75171E-08         0.00000E+00
   -0.75171E-08        -0.10671E+08         0.00000E+00
    0.00000E+00         0.00000E+00        -0.20833E+07
 
    0.25438E+06         0.20238E-08         0.00000E+00
    0.20238E-08        -0.10671E+08         0.00000E+00
    0.00000E+00         0.00000E+00        -0.20833E+07
 
    0.41921E+08         0.23130E-08         0.00000E+00
    0.23130E-08         0.15600E+09         0.00000E+00
    0.00000E+00         0.00000E+00         0.39583E+08
 
    0.25438E+06         0.66498E-08         0.00000E+00
    0.66498E-08        -0.10671E+08         0.00000E+00
    0.00000E+00         0.00000E+00        -0.20833E+07
 
    0.25438E+06         0.49150E-08         0.00000E+00
    0.49150E-08        -0.10671E+08         0.00000E+00
    0.00000E+00         0.00000E+00        -0.20833E+07
 
    0.25438E+06         0.54933E-08         0.00000E+00
    0.54933E-08        -0.10671E+08         0.00000E+00
    0.00000E+00         0.00000E+00        -0.20833E+07
 
    0.25438E+06        -0.17347E-08         0.00000E+00
   -0.17347E-08        -0.10671E+08         0.00000E+00
    0.00000E+00         0.00000E+00        -0.20833E+07
 
    0.25438E+06         0.92519E-08         0.00000E+00
    0.92519E-08        -0.10671E+08         0.00000E+00
    0.00000E+00         0.00000E+00        -0.20833E+07
 
    0.25438E+06         0.46259E-08         0.00000E+00
    0.46259E-08        -0.10671E+08         0.00000E+00
    0.00000E+00         0.00000E+00        -0.20833E+07
 
    0.25438E+06         0.92519E-08         0.00000E+00
    0.92519E-08        -0.10671E+08         0.00000E+00
    0.00000E+00         0.00000E+00        -0.20833E+07
 
    0.25438E+06         0.11565E-08         0.00000E+00
    0.11565E-08        -0.10671E+08         0.00000E+00
    0.00000E+00         0.00000E+00        -0.20833E+07
 
    0.25438E+06         0.26021E-08         0.00000E+00
    0.26021E-08        -0.10671E+08         0.00000E+00
    0.00000E+00         0.00000E+00        -0.20833E+07
 
    0.25438E+06         0.66498E-08         0.00000E+00
    0.66498E-08        -0.10671E+08         0.00000E+00
    0.00000E+00         0.00000E+00        -0.20833E+07
 
    0.25438E+06        -0.23130E-08         0.00000E+00
   -0.23130E-08        -0.10671E+08         0.00000E+00
    0.00000E+00         0.00000E+00        -0.20833E+07
 
    0.25438E+06        -0.57824E-08         0.00000E+00
   -0.57824E-08        -0.10671E+08         0.00000E+00
    0.00000E+00         0.00000E+00        -0.20833E+07
 
    0.25438E+06        -0.20238E-08         0.00000E+00
   -0.20238E-08        -0.10671E+08         0.00000E+00
    0.00000E+00         0.00000E+00        -0.20833E+07
 
    0.25438E+06        -0.11565E-08         0.00000E+00
   -0.11565E-08        -0.10671E+08         0.00000E+00
    0.00000E+00         0.00000E+00        -0.20833E+07
 
    0.41921E+08         0.51463E-07         0.00000E+00
    0.51463E-07         0.15600E+09         0.00000E+00
    0.00000E+00         0.00000E+00         0.39583E+08
 
    0.25438E+06         0.23130E-08         0.00000E+00
    0.23130E-08        -0.10671E+08         0.00000E+00
    0.00000E+00         0.00000E+00        -0.20833E+07
 
    0.25438E+06         0.78063E-08         0.00000E+00
    0.78063E-08        -0.10671E+08         0.00000E+00
    0.00000E+00         0.00000E+00        -0.20833E+07
 
    0.25438E+06         0.37586E-08         0.00000E+00
    0.37586E-08        -0.10671E+08         0.00000E+00
    0.00000E+00         0.00000E+00        -0.20833E+07
 
    0.25438E+06        -0.31803E-08         0.00000E+00
   -0.31803E-08        -0.10671E+08         0.00000E+00
    0.00000E+00         0.00000E+00        -0.20833E+07
 
    0.25438E+06        -0.72280E-08         0.00000E+00
   -0.72280E-08        -0.10671E+08         0.00000E+00
    0.00000E+00         0.00000E+00        -0.20833E+07
 
    0.25438E+06        -0.10987E-07         0.00000E+00
   -0.10987E-07        -0.10671E+08         0.00000E+00
    0.00000E+00         0.00000E+00        -0.20833E+07
 
    0.25438E+06        -0.43368E-08         0.00000E+00
   -0.43368E-08        -0.10671E+08         0.00000E+00
    0.00000E+00         0.00000E+00        -0.20833E+07
 
    0.25438E+06        -0.28912E-08         0.00000E+00
   -0.28912E-08        -0.10671E+08         0.00000E+00
    0.00000E+00         0.00000E+00        -0.20833E+07
 
    0.25438E+06        -0.52042E-08         0.00000E+00
   -0.52042E-08        -0.10671E+08         0.00000E+00
    0.00000E+00         0.00000E+00        -0.20833E+07
 
    0.25438E+06         0.63607E-08         0.00000E+00
    0.63607E-08        -0.10671E+08         0.00000E+00
    0.00000E+00         0.00000E+00        -0.20833E+07
 
    0.25438E+06         0.83845E-08         0.00000E+00
    0.83845E-08        -0.10671E+08         0.00000E+00
    0.00000E+00         0.00000E+00        -0.20833E+07
 
    0.25438E+06         0.23130E-08         0.00000E+00
    0.23130E-08        -0.10671E+08         0.00000E+00
    0.00000E+00         0.00000E+00        -0.20833E+07
 
    0.25438E+06        -0.28912E-08         0.00000E+00
   -0.28912E-08        -0.10671E+08         0.00000E+00
    0.00000E+00         0.00000E+00        -0.20833E+07
 
    0.25438E+06         0.34694E-08         0.00000E+00
    0.34694E-08        -0.10671E+08         0.00000E+00
    0.00000E+00         0.00000E+00        -0.20833E+07
 
    0.41921E+08        -0.50885E-07         0.00000E+00
   -0.50885E-07         0.15600E+09         0.00000E+00
    0.00000E+00         0.00000E+00         0.39583E+08
 
    0.25438E+06        -0.83845E-08         0.00000E+00
   -0.83845E-08        -0.10671E+08         0.00000E+00
    0.00000E+00         0.00000E+00        -0.20833E+07
 
    0.25438E+06        -0.57824E-09         0.00000E+00
   -0.57824E-09        -0.10671E+08         0.00000E+00
    0.00000E+00         0.00000E+00        -0.20833E+07
 
    0.25438E+06         0.95410E-08         0.00000E+00
    0.95410E-08        -0.10671E+08         0.00000E+00
    0.00000E+00         0.00000E+00        -0.20833E+07
 
    0.25438E+06         0.57824E-09         0.00000E+00
    0.57824E-09        -0.10671E+08         0.00000E+00
    0.00000E+00         0.00000E+00        -0.20833E+07
 
    0.25438E+06         0.17347E-08         0.00000E+00
    0.17347E-08        -0.10671E+08         0.00000E+00
    0.00000E+00         0.00000E+00        -0.20833E+07
 
    0.25438E+06         0.60715E-08         0.00000E+00
    0.60715E-08        -0.10671E+08         0.00000E+00
    0.00000E+00         0.00000E+00        -0.20833E+07
 
    0.25438E+06         0.83845E-08         0.00000E+00
    0.83845E-08        -0.10671E+08         0.00000E+00
    0.00000E+00         0.00000E+00        -0.20833E+07
 
    0.25438E+06         0.20238E-08         0.00000E+00
    0.20238E-08        -0.10671E+08         0.00000E+00
    0.00000E+00         0.00000E+00        -0.20833E+07
 
    0.25438E+06        -0.75171E-08         0.00000E+00
   -0.75171E-08        -0.10671E+08         0.00000E+00
    0.00000E+00         0.00000E+00        -0.20833E+07
 
    0.25438E+06        -0.23130E-08         0.00000E+00
   -0.23130E-08        -0.10671E+08         0.00000E+00
    0.00000E+00         0.00000E+00        -0.20833E+07
 
    0.25438E+06         0.28912E-09         0.00000E+00
    0.28912E-09        -0.10671E+08         0.00000E+00
    0.00000E+00         0.00000E+00        -0.20833E+07
 
    0.25438E+06         0.57824E-08         0.00000E+00
    0.57824E-08        -0.10671E+08         0.00000E+00
    0.00000E+00         0.00000E+00        -0.20833E+07
 
    0.25438E+06         0.34694E-08         0.00000E+00
    0.34694E-08        -0.10671E+08         0.00000E+00
    0.00000E+00         0.00000E+00        -0.20833E+07
 
    0.25438E+06        -0.31803E-08         0.00000E+00
   -0.31803E-08        -0.10671E+08         0.00000E+00
    0.00000E+00         0.00000E+00        -0.20833E+07
 
    0.41921E+08         0.51463E-07         0.00000E+00
    0.51463E-07         0.15600E+09         0.00000E+00
    0.00000E+00         0.00000E+00         0.39583E+08
 
    0.25438E+06         0.12721E-07         0.00000E+00
    0.12721E-07        -0.10671E+08         0.00000E+00
    0.00000E+00         0.00000E+00        -0.20833E+07
 
    0.25438E+06         0.00000E+00         0.00000E+00
    0.00000E+00        -0.10671E+08         0.00000E+00
    0.00000E+00         0.00000E+00        -0.20833E+07
 
    0.25438E+06        -0.80954E-08         0.00000E+00
   -0.80954E-08        -0.10671E+08         0.00000E+00
    0.00000E+00         0.00000E+00        -0.20833E+07
 
    0.25438E+06         0.28912E-09         0.00000E+00
    0.28912E-09        -0.10671E+08         0.00000E+00
    0.00000E+00         0.00000E+00        -0.20833E+07
 
    0.25438E+06         0.46259E-08         0.00000E+00
    0.46259E-08        -0.10671E+08         0.00000E+00
    0.00000E+00         0.00000E+00        -0.20833E+07
 
    0.25438E+06         0.28912E-09         0.00000E+00
    0.28912E-09        -0.10671E+08         0.00000E+00
    0.00000E+00         0.00000E+00        -0.20833E+07
 
    0.25438E+06         0.17347E-08         0.00000E+00
    0.17347E-08        -0.10671E+08         0.00000E+00
    0.00000E+00         0.00000E+00        -0.20833E+07
 
    0.25438E+06        -0.57824E-09         0.00000E+00
   -0.57824E-09        -0.10671E+08         0.00000E+00
    0.00000E+00         0.00000E+00        -0.20833E+07
 
    0.25438E+06         0.17347E-08         0.00000E+00
    0.17347E-08        -0.10671E+08         0.00000E+00
    0.00000E+00         0.00000E+00        -0.20833E+07
 
    0.25438E+06         0.20238E-08         0.00000E+00
    0.20238E-08        -0.10671E+08         0.00000E+00
    0.00000E+00         0.00000E+00        -0.20833E+07
 
    0.25438E+06         0.66498E-08         0.00000E+00
    0.66498E-08        -0.10671E+08         0.00000E+00
    0.00000E+00         0.00000E+00        -0.20833E+07
 
    0.25438E+06        -0.26021E-08         0.00000E+00
   -0.26021E-08        -0.10671E+08         0.00000E+00
    0.00000E+00         0.00000E+00        -0.20833E+07
 
    0.25438E+06        -0.34694E-08         0.00000E+00
   -0.34694E-08        -0.10671E+08         0.00000E+00
    0.00000E+00         0.00000E+00        -0.20833E+07
 
    0.25438E+06         0.52042E-08         0.00000E+00
    0.52042E-08        -0.10671E+08         0.00000E+00
    0.00000E+00         0.00000E+00        -0.20833E+07
 
    0.41921E+08        -0.53198E-07         0.00000E+00
   -0.53198E-07         0.15600E+09         0.00000E+00
    0.00000E+00         0.00000E+00         0.39583E+08
 
    0.25438E+06         0.46259E-08         0.00000E+00
    0.46259E-08        -0.10671E+08         0.00000E+00
    0.00000E+00         0.00000E+00        -0.20833E+07
 
    0.25438E+06         0.46259E-08         0.00000E+00
    0.46259E-08        -0.10671E+08         0.00000E+00
    0.00000E+00         0.00000E+00        -0.20833E+07
 
    0.25438E+06         0.49150E-08         0.00000E+00
    0.49150E-08        -0.10671E+08         0.00000E+00
    0.00000E+00         0.00000E+00        -0.20833E+07
 
    0.25438E+06        -0.28912E-08         0.00000E+00
   -0.28912E-08        -0.10671E+08         0.00000E+00
    0.00000E+00         0.00000E+00        -0.20833E+07
 
    0.25438E+06         0.86736E-09         0.00000E+00
    0.86736E-09        -0.10671E+08         0.00000E+00
    0.00000E+00         0.00000E+00        -0.20833E+07
 
    0.25438E+06         0.34694E-08         0.00000E+00
    0.34694E-08        -0.10671E+08         0.00000E+00
    0.00000E+00         0.00000E+00        -0.20833E+07
 
    0.25438E+06        -0.80954E-08         0.00000E+00
   -0.80954E-08        -0.10671E+08         0.00000E+00
    0.00000E+00         0.00000E+00        -0.20833E+07
 
    0.25438E+06        -0.54933E-08         0.00000E+00
   -0.54933E-08        -0.10671E+08         0.00000E+00
    0.00000E+00         0.00000E+00        -0.20833E+07
 
    0.25438E+06         0.46259E-08         0.00000E+00
    0.46259E-08        -0.10671E+08         0.00000E+00
    0.00000E+00         0.00000E+00        -0.20833E+07
 
    0.25438E+06        -0.23130E-08         0.00000E+00
   -0.23130E-08        -0.10671E+08         0.00000E+00
    0.00000E+00         0.00000E+00        -0.20833E+07
 
    0.25438E+06         0.20238E-08         0.00000E+00
    0.20238E-08        -0.10671E+08         0.00000E+00
    0.00000E+00         0.00000E+00        -0.20833E+07
 
    0.25438E+06        -0.52042E-08         0.00000E+00
   -0.52042E-08        -0.10671E+08         0.00000E+00
    0.00000E+00         0.00000E+00        -0.20833E+07
 
    0.25438E+06        -0.86736E-09         0.00000E+00
   -0.86736E-09        -0.10671E+08         0.00000E+00
    0.00000E+00         0.00000E+00        -0.20833E+07
 
    0.25438E+06        -0.86736E-08         0.00000E+00
   -0.86736E-08        -0.10671E+08         0.00000E+00
    0.00000E+00         0.00000E+00        -0.20833E+07
 
    0.41921E+08         0.50885E-07         0.00000E+00
    0.50885E-07         0.15600E+09         0.00000E+00
    0.00000E+00         0.00000E+00         0.39583E+08
 
    0.25438E+06         0.20238E-08         0.00000E+00
    0.20238E-08        -0.10671E+08         0.00000E+00
    0.00000E+00         0.00000E+00        -0.20833E+07
 
    0.25438E+06         0.72280E-08         0.00000E+00
    0.72280E-08        -0.10671E+08         0.00000E+00
    0.00000E+00         0.00000E+00        -0.20833E+07
 
    0.25438E+06         0.23130E-08         0.00000E+00
    0.23130E-08        -0.10671E+08         0.00000E+00
    0.00000E+00         0.00000E+00        -0.20833E+07
 
    0.25438E+06         0.83845E-08         0.00000E+00
    0.83845E-08        -0.10671E+08         0.00000E+00
    0.00000E+00         0.00000E+00        -0.20833E+07
 
    0.25438E+06         0.37586E-08         0.00000E+00
    0.37586E-08        -0.10671E+08         0.00000E+00
    0.00000E+00         0.00000E+00        -0.20833E+07
 
    0.25438E+06         0.80954E-08         0.00000E+00
    0.80954E-08        -0.10671E+08         0.00000E+00
    0.00000E+00         0.00000E+00        -0.20833E+07
 
    0.25438E+06         0.23130E-08         0.00000E+00
    0.23130E-08        -0.10671E+08         0.00000E+00
    0.00000E+00         0.00000E+00        -0.20833E+07
 
    0.25438E+06        -0.86736E-09         0.00000E+00
   -0.86736E-09        -0.10671E+08         0.00000E+00
    0.00000E+00         0.00000E+00        -0.20833E+07
 
    0.25438E+06         0.52042E-08         0.00000E+00
    0.52042E-08        -0.10671E+08         0.00000E+00
    0.00000E+00         0.00000E+00        -0.20833E+07
 
    0.25438E+06        -0.28912E-08         0.00000E+00
   -0.28912E-08        -0.10671E+08         0.00000E+00
    0.00000E+00         0.00000E+00        -0.20833E+07
 
    0.25438E+06         0.14456E-08         0.00000E+00
    0.14456E-08        -0.10671E+08         0.00000E+00
    0.00000E+00         0.00000E+00        -0.20833E+07
 
    0.25438E+06         0.57824E-09         0.00000E+00
    0.57824E-09        -0.10671E+08         0.00000E+00
    0.00000E+00         0.00000E+00        -0.20833E+07
 
    0.25438E+06         0.52042E-08         0.00000E+00
    0.52042E-08        -0.10671E+08         0.00000E+00
    0.00000E+00         0.00000E+00        -0.20833E+07
 
    0.25438E+06         0.69389E-08         0.00000E+00
    0.69389E-08        -0.10671E+08         0.00000E+00
    0.00000E+00         0.00000E+00        -0.20833E+07
 
    0.41921E+08        -0.54933E-07         0.00000E+00
   -0.54933E-07         0.15600E+09         0.00000E+00
    0.00000E+00         0.00000E+00         0.39583E+08
 
    0.25438E+06        -0.10697E-07         0.00000E+00
   -0.10697E-07        -0.10671E+08         0.00000E+00
    0.00000E+00         0.00000E+00        -0.20833E+07
 
    0.25438E+06         0.52042E-08         0.00000E+00
    0.52042E-08        -0.10671E+08         0.00000E+00
    0.00000E+00         0.00000E+00        -0.20833E+07
 
    0.25438E+06        -0.26021E-08         0.00000E+00
   -0.26021E-08        -0.10671E+08         0.00000E+00
    0.00000E+00         0.00000E+00        -0.20833E+07
 
    0.25438E+06        -0.20238E-08         0.00000E+00
   -0.20238E-08        -0.10671E+08         0.00000E+00
    0.00000E+00         0.00000E+00        -0.20833E+07
 
    0.25438E+06         0.20238E-08         0.00000E+00
    0.20238E-08        -0.10671E+08         0.00000E+00
    0.00000E+00         0.00000E+00        -0.20833E+07
 
    0.25438E+06        -0.11565E-08         0.00000E+00
   -0.11565E-08        -0.10671E+08         0.00000E+00
    0.00000E+00         0.00000E+00        -0.20833E+07
 
    0.25438E+06         0.80954E-08         0.00000E+00
    0.80954E-08        -0.10671E+08         0.00000E+00
    0.00000E+00         0.00000E+00        -0.20833E+07
 
    0.25438E+06         0.57824E-09         0.00000E+00
    0.57824E-09        -0.10671E+08         0.00000E+00
    0.00000E+00         0.00000E+00        -0.20833E+07
 
    0.25438E+06        -0.98301E-08         0.00000E+00
   -0.98301E-08        -0.10671E+08         0.00000E+00
    0.00000E+00         0.00000E+00        -0.20833E+07
 
    0.25438E+06        -0.23130E-08         0.00000E+00
   -0.23130E-08        -0.10671E+08         0.00000E+00
    0.00000E+00         0.00000E+00        -0.20833E+07
 
    0.25438E+06        -0.37586E-08         0.00000E+00
   -0.37586E-08        -0.10671E+08         0.00000E+00
    0.00000E+00         0.00000E+00        -0.20833E+07
 
    0.25438E+06         0.54933E-08         0.00000E+00
    0.54933E-08        -0.10671E+08         0.00000E+00
    0.00000E+00         0.00000E+00        -0.20833E+07
 
    0.25438E+06        -0.13010E-07         0.00000E+00
   -0.13010E-07        -0.10671E+08         0.00000E+00
    0.00000E+00         0.00000E+00        -0.20833E+07
 
    0.25438E+06        -0.17347E-08         0.00000E+00
   -0.17347E-08        -0.10671E+08         0.00000E+00
    0.00000E+00         0.00000E+00        -0.20833E+07
 
    0.41921E+08         0.56089E-07         0.00000E+00
    0.56089E-07         0.15600E+09         0.00000E+00
    0.00000E+00         0.00000E+00         0.39583E+08
 
    0.25438E+06        -0.10119E-07         0.00000E+00
   -0.10119E-07        -0.10671E+08         0.00000E+00
    0.00000E+00         0.00000E+00        -0.20833E+07
 
    0.25438E+06         0.43368E-08         0.00000E+00
    0.43368E-08        -0.10671E+08         0.00000E+00
    0.00000E+00         0.00000E+00        -0.20833E+07
 
    0.25438E+06        -0.26021E-08         0.00000E+00
   -0.26021E-08        -0.10671E+08         0.00000E+00
    0.00000E+00         0.00000E+00        -0.20833E+07
 
    0.25438E+06        -0.46259E-08         0.00000E+00
   -0.46259E-08        -0.10671E+08         0.00000E+00
    0.00000E+00         0.00000E+00        -0.20833E+07
 
    0.25438E+06        -0.20238E-08         0.00000E+00
   -0.20238E-08        -0.10671E+08         0.00000E+00
    0.00000E+00         0.00000E+00        -0.20833E+07
 
    0.25438E+06         0.12721E-07         0.00000E+00
    0.12721E-07        -0.10671E+08         0.00000E+00
    0.00000E+00         0.00000E+00        -0.20833E+07
 
    0.25438E+06         0.11276E-07         0.00000E+00
    0.11276E-07        -0.10671E+08         0.00000E+00
    0.00000E+00         0.00000E+00        -0.20833E+07
 
    0.25438E+06         0.46259E-08         0.00000E+00
    0.46259E-08        -0.10671E+08         0.00000E+00
    0.00000E+00         0.00000E+00        -0.20833E+07
 
    0.25438E+06         0.86736E-08         0.00000E+00
    0.86736E-08        -0.10671E+08         0.00000E+00
    0.00000E+00         0.00000E+00        -0.20833E+07
 
    0.25438E+06         0.13878E-07         0.00000E+00
    0.13878E-07        -0.10671E+08         0.00000E+00
    0.00000E+00         0.00000E+00        -0.20833E+07
 
    0.25438E+06        -0.46259E-08         0.00000E+00
   -0.46259E-08        -0.10671E+08         0.00000E+00
    0.00000E+00         0.00000E+00        -0.20833E+07
 
    0.25438E+06         0.26021E-08         0.00000E+00
    0.26021E-08        -0.10671E+08         0.00000E+00
    0.00000E+00         0.00000E+00        -0.20833E+07
 
    0.25438E+06         0.80954E-08         0.00000E+00
    0.80954E-08        -0.10671E+08         0.00000E+00
    0.00000E+00         0.00000E+00        -0.20833E+07
 
    0.25438E+06         0.40477E-08         0.00000E+00
    0.40477E-08        -0.10671E+08         0.00000E+00
    0.00000E+00         0.00000E+00        -0.20833E+07
 
    0.41921E+08        -0.50307E-07         0.00000E+00
   -0.50307E-07         0.15600E+09         0.00000E+00
    0.00000E+00         0.00000E+00         0.39583E+08
 
    0.25438E+06        -0.17347E-08         0.00000E+00
   -0.17347E-08        -0.10671E+08         0.00000E+00
    0.00000E+00         0.00000E+00        -0.20833E+07
 
    0.25438E+06        -0.89627E-08         0.00000E+00
   -0.89627E-08        -0.10671E+08         0.00000E+00
    0.00000E+00         0.00000E+00        -0.20833E+07
 
    0.25438E+06        -0.23130E-08         0.00000E+00
   -0.23130E-08        -0.10671E+08         0.00000E+00
    0.00000E+00         0.00000E+00        -0.20833E+07
 
    0.25438E+06         0.14456E-08         0.00000E+00
    0.14456E-08        -0.10671E+08         0.00000E+00
    0.00000E+00         0.00000E+00        -0.20833E+07
 
    0.25438E+06         0.57824E-09         0.00000E+00
    0.57824E-09        -0.10671E+08         0.00000E+00
    0.00000E+00         0.00000E+00        -0.20833E+07
 
    0.25438E+06         0.72280E-08         0.00000E+00
    0.72280E-08        -0.10671E+08         0.00000E+00
    0.00000E+00         0.00000E+00        -0.20833E+07
 
    0.25438E+06         0.28912E-08         0.00000E+00
    0.28912E-08        -0.10671E+08         0.00000E+00
    0.00000E+00         0.00000E+00        -0.20833E+07
 
    0.25438E+06        -0.75171E-08         0.00000E+00
   -0.75171E-08        -0.10671E+08         0.00000E+00
    0.00000E+00         0.00000E+00        -0.20833E+07
 
    0.25438E+06        -0.46259E-08         0.00000E+00
   -0.46259E-08        -0.10671E+08         0.00000E+00
    0.00000E+00         0.00000E+00        -0.20833E+07
 
    0.25438E+06         0.46259E-08         0.00000E+00
    0.46259E-08        -0.10671E+08         0.00000E+00
    0.00000E+00         0.00000E+00        -0.20833E+07
 
    0.25438E+06         0.43368E-08         0.00000E+00
    0.43368E-08        -0.10671E+08         0.00000E+00
    0.00000E+00         0.00000E+00        -0.20833E+07
 
    0.25438E+06        -0.28912E-09         0.00000E+00
   -0.28912E-09        -0.10671E+08         0.00000E+00
    0.00000E+00         0.00000E+00        -0.20833E+07
 
    0.25438E+06         0.52042E-08         0.00000E+00
    0.52042E-08        -0.10671E+08         0.00000E+00
    0.00000E+00         0.00000E+00        -0.20833E+07
 
    0.25438E+06        -0.28912E-08         0.00000E+00
   -0.28912E-08        -0.10671E+08         0.00000E+00
    0.00000E+00         0.00000E+00        -0.20833E+07
 
    0.41921E+08         0.28912E-08         0.00000E+00
    0.28912E-08         0.15600E+09         0.00000E+00
    0.00000E+00         0.00000E+00         0.39583E+08
 
    0.25438E+06         0.17347E-08         0.00000E+00
    0.17347E-08        -0.10671E+08         0.00000E+00
    0.00000E+00         0.00000E+00        -0.20833E+07
 
    0.25438E+06         0.34694E-08         0.00000E+00
    0.34694E-08        -0.10671E+08         0.00000E+00
    0.00000E+00         0.00000E+00        -0.20833E+07
 
    0.25438E+06        -0.20238E-08         0.00000E+00
   -0.20238E-08        -0.10671E+08         0.00000E+00
    0.00000E+00         0.00000E+00        -0.20833E+07
 
    0.25438E+06        -0.49150E-08         0.00000E+00
   -0.49150E-08        -0.10671E+08         0.00000E+00
    0.00000E+00         0.00000E+00        -0.20833E+07
 
    0.25438E+06        -0.52042E-08         0.00000E+00
   -0.52042E-08        -0.10671E+08         0.00000E+00
    0.00000E+00         0.00000E+00        -0.20833E+07
 
    0.25438E+06        -0.17347E-08         0.00000E+00
   -0.17347E-08        -0.10671E+08         0.00000E+00
    0.00000E+00         0.00000E+00        -0.20833E+07
 
    0.25438E+06        -0.92519E-08         0.00000E+00
   -0.92519E-08        -0.10671E+08         0.00000E+00
    0.00000E+00         0.00000E+00        -0.20833E+07
 
    0.25438E+06         0.57824E-09         0.00000E+00
    0.57824E-09        -0.10671E+08         0.00000E+00
    0.00000E+00         0.00000E+00        -0.20833E+07
 
    0.25438E+06        -0.80954E-08         0.00000E+00
   -0.80954E-08        -0.10671E+08         0.00000E+00
    0.00000E+00         0.00000E+00        -0.20833E+07
 
    0.25438E+06         0.52042E-08         0.00000E+00
    0.52042E-08        -0.10671E+08         0.00000E+00
    0.00000E+00         0.00000E+00        -0.20833E+07
 
    0.25438E+06         0.10408E-07         0.00000E+00
    0.10408E-07        -0.10671E+08         0.00000E+00
    0.00000E+00         0.00000E+00        -0.20833E+07
 
    0.25438E+06        -0.11276E-07         0.00000E+00
   -0.11276E-07        -0.10671E+08         0.00000E+00
    0.00000E+00         0.00000E+00        -0.20833E+07
 
    0.25438E+06        -0.17347E-08         0.00000E+00
   -0.17347E-08        -0.10671E+08         0.00000E+00
    0.00000E+00         0.00000E+00        -0.20833E+07
 
    0.25438E+06        -0.17347E-08         0.00000E+00
   -0.17347E-08        -0.10671E+08         0.00000E+00
    0.00000E+00         0.00000E+00        -0.20833E+07
 
    0.41921E+08         0.00000E+00         0.00000E+00
    0.00000E+00         0.15600E+09         0.00000E+00
    0.00000E+00         0.00000E+00         0.39583E+08
 
    0.25438E+06         0.72280E-08         0.00000E+00
    0.72280E-08        -0.10671E+08         0.00000E+00
    0.00000E+00         0.00000E+00        -0.20833E+07
 
    0.25438E+06        -0.37586E-08         0.00000E+00
   -0.37586E-08        -0.10671E+08         0.00000E+00
    0.00000E+00         0.00000E+00        -0.20833E+07
 
    0.25438E+06        -0.34694E-08         0.00000E+00
   -0.34694E-08        -0.10671E+08         0.00000E+00
    0.00000E+00         0.00000E+00        -0.20833E+07
 
    0.25438E+06         0.20238E-08         0.00000E+00
    0.20238E-08        -0.10671E+08         0.00000E+00
    0.00000E+00         0.00000E+00        -0.20833E+07
 
    0.25438E+06        -0.17347E-08         0.00000E+00
   -0.17347E-08        -0.10671E+08         0.00000E+00
    0.00000E+00         0.00000E+00        -0.20833E+07
 
    0.25438E+06         0.13878E-07         0.00000E+00
    0.13878E-07        -0.10671E+08         0.00000E+00
    0.00000E+00         0.00000E+00        -0.20833E+07
 
    0.25438E+06         0.11565E-08         0.00000E+00
    0.11565E-08        -0.10671E+08         0.00000E+00
    0.00000E+00         0.00000E+00        -0.20833E+07
 
    0.25438E+06         0.11565E-08         0.00000E+00
    0.11565E-08        -0.10671E+08         0.00000E+00
    0.00000E+00         0.00000E+00        -0.20833E+07
 
    0.25438E+06        -0.28912E-08         0.00000E+00
   -0.28912E-08        -0.10671E+08         0.00000E+00
    0.00000E+00         0.00000E+00        -0.20833E+07
 
    0.25438E+06        -0.28912E-09         0.00000E+00
   -0.28912E-09        -0.10671E+08         0.00000E+00
    0.00000E+00         0.00000E+00        -0.20833E+07
 
    0.25438E+06        -0.28912E-08         0.00000E+00
   -0.28912E-08        -0.10671E+08         0.00000E+00
    0.00000E+00         0.00000E+00        -0.20833E+07
 
    0.25438E+06         0.40477E-08         0.00000E+00
    0.40477E-08        -0.10671E+08         0.00000E+00
    0.00000E+00         0.00000E+00        -0.20833E+07
 
    0.25438E+06         0.10987E-07         0.00000E+00
    0.10987E-07        -0.10671E+08         0.00000E+00
    0.00000E+00         0.00000E+00        -0.20833E+07
 
    0.25438E+06         0.00000E+00         0.00000E+00
    0.00000E+00        -0.10671E+08         0.00000E+00
    0.00000E+00         0.00000E+00        -0.20833E+07
 
    0.41921E+08         0.52620E-07         0.00000E+00
    0.52620E-07         0.15600E+09         0.00000E+00
    0.00000E+00         0.00000E+00         0.39583E+08
 
    0.25438E+06         0.14456E-08         0.00000E+00
    0.14456E-08        -0.10671E+08         0.00000E+00
    0.00000E+00         0.00000E+00        -0.20833E+07
 
    0.25438E+06         0.75171E-08         0.00000E+00
    0.75171E-08        -0.10671E+08         0.00000E+00
    0.00000E+00         0.00000E+00        -0.20833E+07
 
    0.25438E+06         0.00000E+00         0.00000E+00
    0.00000E+00        -0.10671E+08         0.00000E+00
    0.00000E+00         0.00000E+00        -0.20833E+07
 
    0.25438E+06         0.40477E-08         0.00000E+00
    0.40477E-08        -0.10671E+08         0.00000E+00
    0.00000E+00         0.00000E+00        -0.20833E+07
 
    0.25438E+06         0.43368E-08         0.00000E+00
    0.43368E-08        -0.10671E+08         0.00000E+00
    0.00000E+00         0.00000E+00        -0.20833E+07
 
    0.25438E+06         0.46259E-08         0.00000E+00
    0.46259E-08        -0.10671E+08         0.00000E+00
    0.00000E+00         0.00000E+00        -0.20833E+07
 
    0.25438E+06        -0.57824E-09         0.00000E+00
   -0.57824E-09        -0.10671E+08         0.00000E+00
    0.00000E+00         0.00000E+00        -0.20833E+07
 
    0.25438E+06        -0.46259E-08         0.00000E+00
   -0.46259E-08        -0.10671E+08         0.00000E+00
    0.00000E+00         0.00000E+00        -0.20833E+07
 
    0.25438E+06         0.17347E-08         0.00000E+00
    0.17347E-08        -0.10671E+08         0.00000E+00
    0.00000E+00         0.00000E+00        -0.20833E+07
 
    0.25438E+06        -0.23130E-08         0.00000E+00
   -0.23130E-08        -0.10671E+08         0.00000E+00
    0.00000E+00         0.00000E+00        -0.20833E+07
 
    0.25438E+06         0.14456E-08         0.00000E+00
    0.14456E-08        -0.10671E+08         0.00000E+00
    0.00000E+00         0.00000E+00        -0.20833E+07
 
    0.25438E+06        -0.72280E-08         0.00000E+00
   -0.72280E-08        -0.10671E+08         0.00000E+00
    0.00000E+00         0.00000E+00        -0.20833E+07
 
    0.25438E+06        -0.52042E-08         0.00000E+00
   -0.52042E-08        -0.10671E+08         0.00000E+00
    0.00000E+00         0.00000E+00        -0.20833E+07
 
    0.25438E+06        -0.57824E-09         0.00000E+00
   -0.57824E-09        -0.10671E+08         0.00000E+00
    0.00000E+00         0.00000E+00        -0.20833E+07
 
    0.41921E+08         0.14456E-07         0.00000E+00
    0.14456E-07         0.15600E+09         0.00000E+00
    0.00000E+00         0.00000E+00         0.39583E+08
 
    0.25438E+06        -0.46259E-08         0.00000E+00
   -0.46259E-08        -0.10671E+08         0.00000E+00
    0.00000E+00         0.00000E+00        -0.20833E+07
 
    0.25438E+06         0.10119E-07         0.00000E+00
    0.10119E-07        -0.10671E+08         0.00000E+00
    0.00000E+00         0.00000E+00        -0.20833E+07
 
    0.25438E+06         0.89627E-08         0.00000E+00
    0.89627E-08        -0.10671E+08         0.00000E+00
    0.00000E+00         0.00000E+00        -0.20833E+07
 
    0.25438E+06         0.28912E-08         0.00000E+00
    0.28912E-08        -0.10671E+08         0.00000E+00
    0.00000E+00         0.00000E+00        -0.20833E+07
 
    0.25438E+06         0.11565E-07         0.00000E+00
    0.11565E-07        -0.10671E+08         0.00000E+00
    0.00000E+00         0.00000E+00        -0.20833E+07
 
    0.25438E+06        -0.28912E-08         0.00000E+00
   -0.28912E-08        -0.10671E+08         0.00000E+00
    0.00000E+00         0.00000E+00        -0.20833E+07
 
    0.25438E+06         0.17347E-08         0.00000E+00
    0.17347E-08        -0.10671E+08         0.00000E+00
    0.00000E+00         0.00000E+00        -0.20833E+07
 
    0.25438E+06         0.57824E-09         0.00000E+00
    0.57824E-09        -0.10671E+08         0.00000E+00
    0.00000E+00         0.00000E+00        -0.20833E+07
 
    0.25438E+06        -0.57824E-08         0.00000E+00
   -0.57824E-08        -0.10671E+08         0.00000E+00
    0.00000E+00         0.00000E+00        -0.20833E+07
 
    0.25438E+06         0.63607E-08         0.00000E+00
    0.63607E-08        -0.10671E+08         0.00000E+00
    0.00000E+00         0.00000E+00        -0.20833E+07
 
    0.25438E+06        -0.54933E-08         0.00000E+00
   -0.54933E-08        -0.10671E+08         0.00000E+00
    0.00000E+00         0.00000E+00        -0.20833E+07
 
    0.25438E+06         0.75171E-08         0.00000E+00
    0.75171E-08        -0.10671E+08         0.00000E+00
    0.00000E+00         0.00000E+00        -0.20833E+07
 
    0.25438E+06        -0.11565E-08         0.00000E+00
   -0.11565E-08        -0.10671E+08         0.00000E+00
    0.00000E+00         0.00000E+00        -0.20833E+07
 
    0.25438E+06         0.17347E-08         0.00000E+00
    0.17347E-08        -0.10671E+08         0.00000E+00
    0.00000E+00         0.00000E+00        -0.20833E+07
 
    0.41921E+08        -0.49150E-07         0.00000E+00
   -0.49150E-07         0.15600E+09         0.00000E+00
    0.00000E+00         0.00000E+00         0.39583E+08
 
    0.25438E+06         0.43368E-08         0.00000E+00
    0.43368E-08        -0.10671E+08         0.00000E+00
    0.00000E+00         0.00000E+00        -0.20833E+07
 
    0.25438E+06         0.11565E-08         0.00000E+00
    0.11565E-08        -0.10671E+08         0.00000E+00
    0.00000E+00         0.00000E+00        -0.20833E+07
 
    0.25438E+06         0.31803E-08         0.00000E+00
    0.31803E-08        -0.10671E+08         0.00000E+00
    0.00000E+00         0.00000E+00        -0.20833E+07
 
    0.25438E+06         0.17347E-08         0.00000E+00
    0.17347E-08        -0.10671E+08         0.00000E+00
    0.00000E+00         0.00000E+00        -0.20833E+07
 
    0.25438E+06         0.98301E-08         0.00000E+00
    0.98301E-08        -0.10671E+08         0.00000E+00
    0.00000E+00         0.00000E+00        -0.20833E+07
 
    0.25438E+06         0.75171E-08         0.00000E+00
    0.75171E-08        -0.10671E+08         0.00000E+00
    0.00000E+00         0.00000E+00        -0.20833E+07
 
    0.25438E+06         0.57824E-08         0.00000E+00
    0.57824E-08        -0.10671E+08         0.00000E+00
    0.00000E+00         0.00000E+00        -0.20833E+07
 
    0.25438E+06         0.69389E-08         0.00000E+00
    0.69389E-08        -0.10671E+08         0.00000E+00
    0.00000E+00         0.00000E+00        -0.20833E+07
 
    0.25438E+06        -0.57824E-08         0.00000E+00
   -0.57824E-08        -0.10671E+08         0.00000E+00
    0.00000E+00         0.00000E+00        -0.20833E+07
 
    0.25438E+06         0.92519E-08         0.00000E+00
    0.92519E-08        -0.10671E+08         0.00000E+00
    0.00000E+00         0.00000E+00        -0.20833E+07
 
    0.25438E+06        -0.75171E-08         0.00000E+00
   -0.75171E-08        -0.10671E+08         0.00000E+00
    0.00000E+00         0.00000E+00        -0.20833E+07
 
    0.25438E+06         0.43368E-08         0.00000E+00
    0.43368E-08        -0.10671E+08         0.00000E+00
    0.00000E+00         0.00000E+00        -0.20833E+07
 
    0.25438E+06         0.34694E-08         0.00000E+00
    0.34694E-08        -0.10671E+08         0.00000E+00
    0.00000E+00         0.00000E+00        -0.20833E+07
 
    0.25438E+06        -0.52042E-08         0.00000E+00
   -0.52042E-08        -0.10671E+08         0.00000E+00
    0.00000E+00         0.00000E+00        -0.20833E+07
 
    0.41921E+08         0.54355E-07         0.00000E+00
    0.54355E-07         0.15600E+09         0.00000E+00
    0.00000E+00         0.00000E+00         0.39583E+08
 
    0.25438E+06         0.14456E-08         0.00000E+00
    0.14456E-08        -0.10671E+08         0.00000E+00
    0.00000E+00         0.00000E+00        -0.20833E+07
 
    0.25438E+06         0.52042E-08         0.00000E+00
    0.52042E-08        -0.10671E+08         0.00000E+00
    0.00000E+00         0.00000E+00        -0.20833E+07
 
    0.25438E+06         0.17347E-08         0.00000E+00
    0.17347E-08        -0.10671E+08         0.00000E+00
    0.00000E+00         0.00000E+00        -0.20833E+07
 
    0.25438E+06        -0.17347E-08         0.00000E+00
   -0.17347E-08        -0.10671E+08         0.00000E+00
    0.00000E+00         0.00000E+00        -0.20833E+07
 
    0.25438E+06        -0.46259E-08         0.00000E+00
   -0.46259E-08        -0.10671E+08         0.00000E+00
    0.00000E+00         0.00000E+00        -0.20833E+07
 
    0.25438E+06        -0.86736E-08         0.00000E+00
   -0.86736E-08        -0.10671E+08         0.00000E+00
    0.00000E+00         0.00000E+00        -0.20833E+07
 
    0.25438E+06         0.23130E-08         0.00000E+00
    0.23130E-08        -0.10671E+08         0.00000E+00
    0.00000E+00         0.00000E+00        -0.20833E+07
 
    0.25438E+06         0.28912E-08         0.00000E+00
    0.28912E-08        -0.10671E+08         0.00000E+00
    0.00000E+00         0.00000E+00        -0.20833E+07
 
    0.25438E+06         0.52042E-08         0.00000E+00
    0.52042E-08        -0.10671E+08         0.00000E+00
    0.00000E+00         0.00000E+00        -0.20833E+07
 
    0.25438E+06        -0.66498E-08         0.00000E+00
   -0.66498E-08        -0.10671E+08         0.00000E+00
    0.00000E+00         0.00000E+00        -0.20833E+07
 
    0.25438E+06        -0.86736E-09         0.00000E+00
   -0.86736E-09        -0.10671E+08         0.00000E+00
    0.00000E+00         0.00000E+00        -0.20833E+07
 
    0.25438E+06         0.00000E+00         0.00000E+00
    0.00000E+00        -0.10671E+08         0.00000E+00
    0.00000E+00         0.00000E+00        -0.20833E+07
 
    0.25438E+06        -0.17347E-08         0.00000E+00
   -0.17347E-08        -0.10671E+08         0.00000E+00
    0.00000E+00         0.00000E+00        -0.20833E+07
 
    0.25438E+06         0.17347E-08         0.00000E+00
    0.17347E-08        -0.10671E+08         0.00000E+00
    0.00000E+00         0.00000E+00        -0.20833E+07
 
    0.41921E+08        -0.51463E-07         0.00000E+00
   -0.51463E-07         0.15600E+09         0.00000E+00
    0.00000E+00         0.00000E+00         0.39583E+08
 
    0.25438E+06        -0.95410E-08         0.00000E+00
   -0.95410E-08        -0.10671E+08         0.00000E+00
    0.00000E+00         0.00000E+00        -0.20833E+07
 
    0.25438E+06        -0.89627E-08         0.00000E+00
   -0.89627E-08        -0.10671E+08         0.00000E+00
    0.00000E+00         0.00000E+00        -0.20833E+07
 
    0.25438E+06        -0.12721E-07         0.00000E+00
   -0.12721E-07        -0.10671E+08         0.00000E+00
    0.00000E+00         0.00000E+00        -0.20833E+07
 
    0.25438E+06        -0.11565E-08         0.00000E+00
   -0.11565E-08        -0.10671E+08         0.00000E+00
    0.00000E+00         0.00000E+00        -0.20833E+07
 
    0.25438E+06        -0.17347E-08         0.00000E+00
   -0.17347E-08        -0.10671E+08         0.00000E+00
    0.00000E+00         0.00000E+00        -0.20833E+07
 
    0.25438E+06        -0.75171E-08         0.00000E+00
   -0.75171E-08        -0.10671E+08         0.00000E+00
    0.00000E+00         0.00000E+00        -0.20833E+07
 
    0.25438E+06         0.63607E-08         0.00000E+00
    0.63607E-08        -0.10671E+08         0.00000E+00
    0.00000E+00         0.00000E+00        -0.20833E+07
 
    0.25438E+06         0.52042E-08         0.00000E+00
    0.52042E-08        -0.10671E+08         0.00000E+00
    0.00000E+00         0.00000E+00        -0.20833E+07
 
    0.25438E+06         0.63607E-08         0.00000E+00
    0.63607E-08        -0.10671E+08         0.00000E+00
    0.00000E+00         0.00000E+00        -0.20833E+07
 
    0.25438E+06        -0.40477E-08         0.00000E+00
   -0.40477E-08        -0.10671E+08         0.00000E+00
    0.00000E+00         0.00000E+00        -0.20833E+07
 
    0.25438E+06         0.26021E-08         0.00000E+00
    0.26021E-08        -0.10671E+08         0.00000E+00
    0.00000E+00         0.00000E+00        -0.20833E+07
 
    0.25438E+06         0.46259E-08         0.00000E+00
    0.46259E-08        -0.10671E+08         0.00000E+00
    0.00000E+00         0.00000E+00        -0.20833E+07
 
    0.25438E+06         0.17347E-08         0.00000E+00
    0.17347E-08        -0.10671E+08         0.00000E+00
    0.00000E+00         0.00000E+00        -0.20833E+07
 
    0.25438E+06         0.92519E-08         0.00000E+00
    0.92519E-08        -0.10671E+08         0.00000E+00
    0.00000E+00         0.00000E+00        -0.20833E+07
 
    0.41921E+08         0.49729E-07         0.00000E+00
    0.49729E-07         0.15600E+09         0.00000E+00
    0.00000E+00         0.00000E+00         0.39583E+08
 
    0.25438E+06        -0.75171E-08         0.00000E+00
   -0.75171E-08        -0.10671E+08         0.00000E+00
    0.00000E+00         0.00000E+00        -0.20833E+07
 
    0.25438E+06         0.34694E-08         0.00000E+00
    0.34694E-08        -0.10671E+08         0.00000E+00
    0.00000E+00         0.00000E+00        -0.20833E+07
 
    0.25438E+06        -0.11565E-07         0.00000E+00
   -0.11565E-07        -0.10671E+08         0.00000E+00
    0.00000E+00         0.00000E+00        -0.20833E+07
 
    0.25438E+06         0.11565E-07         0.00000E+00
    0.11565E-07        -0.10671E+08         0.00000E+00
    0.00000E+00         0.00000E+00        -0.20833E+07
 
    0.25438E+06         0.28912E-08         0.00000E+00
    0.28912E-08        -0.10671E+08         0.00000E+00
    0.00000E+00         0.00000E+00        -0.20833E+07
 
    0.25438E+06         0.00000E+00         0.00000E+00
    0.00000E+00        -0.10671E+08         0.00000E+00
    0.00000E+00         0.00000E+00        -0.20833E+07
 
    0.25438E+06        -0.17347E-08         0.00000E+00
   -0.17347E-08        -0.10671E+08         0.00000E+00
    0.00000E+00         0.00000E+00        -0.20833E+07
 
    0.25438E+06         0.40477E-08         0.00000E+00
    0.40477E-08        -0.10671E+08         0.00000E+00
    0.00000E+00         0.00000E+00        -0.20833E+07
 
    0.25438E+06         0.28912E-08         0.00000E+00
    0.28912E-08        -0.10671E+08         0.00000E+00
    0.00000E+00         0.00000E+00        -0.20833E+07
 
    0.25438E+06         0.40477E-08         0.00000E+00
    0.40477E-08        -0.10671E+08         0.00000E+00
    0.00000E+00         0.00000E+00        -0.20833E+07
 
    0.25438E+06         0.28912E-08         0.00000E+00
    0.28912E-08        -0.10671E+08         0.00000E+00
    0.00000E+00         0.00000E+00        -0.20833E+07
 
    0.25438E+06         0.34694E-08         0.00000E+00
    0.34694E-08        -0.10671E+08         0.00000E+00
    0.00000E+00         0.00000E+00        -0.20833E+07
 
    0.25438E+06         0.46259E-08         0.00000E+00
    0.46259E-08        -0.10671E+08         0.00000E+00
    0.00000E+00         0.00000E+00        -0.20833E+07
 
    0.25438E+06         0.69389E-08         0.00000E+00
    0.69389E-08        -0.10671E+08         0.00000E+00
    0.00000E+00         0.00000E+00        -0.20833E+07
 
    0.41921E+08         0.92519E-08         0.00000E+00
    0.92519E-08         0.15600E+09         0.00000E+00
    0.00000E+00         0.00000E+00         0.39583E+08
 
    0.25438E+06        -0.57824E-09         0.00000E+00
   -0.57824E-09        -0.10671E+08         0.00000E+00
    0.00000E+00         0.00000E+00        -0.20833E+07
 
    0.25438E+06         0.75171E-08         0.00000E+00
    0.75171E-08        -0.10671E+08         0.00000E+00
    0.00000E+00         0.00000E+00        -0.20833E+07
 
    0.25438E+06         0.34694E-08         0.00000E+00
    0.34694E-08        -0.10671E+08         0.00000E+00
    0.00000E+00         0.00000E+00        -0.20833E+07
 
    0.25438E+06         0.80954E-08         0.00000E+00
    0.80954E-08        -0.10671E+08         0.00000E+00
    0.00000E+00         0.00000E+00        -0.20833E+07
 
    0.25438E+06         0.34694E-08         0.00000E+00
    0.34694E-08        -0.10671E+08         0.00000E+00
    0.00000E+00         0.00000E+00        -0.20833E+07
 
    0.25438E+06         0.11565E-08         0.00000E+00
    0.11565E-08        -0.10671E+08         0.00000E+00
    0.00000E+00         0.00000E+00        -0.20833E+07
 
    0.25438E+06        -0.69389E-08         0.00000E+00
   -0.69389E-08        -0.10671E+08         0.00000E+00
    0.00000E+00         0.00000E+00        -0.20833E+07
 
    0.25438E+06         0.17347E-08         0.00000E+00
    0.17347E-08        -0.10671E+08         0.00000E+00
    0.00000E+00         0.00000E+00        -0.20833E+07
 
    0.25438E+06        -0.40477E-08         0.00000E+00
   -0.40477E-08        -0.10671E+08         0.00000E+00
    0.00000E+00         0.00000E+00        -0.20833E+07
 
    0.25438E+06        -0.26021E-08         0.00000E+00
   -0.26021E-08        -0.10671E+08         0.00000E+00
    0.00000E+00         0.00000E+00        -0.20833E+07
 
    0.25438E+06         0.86736E-08         0.00000E+00
    0.86736E-08        -0.10671E+08         0.00000E+00
    0.00000E+00         0.00000E+00        -0.20833E+07
 
    0.25438E+06        -0.80954E-08         0.00000E+00
   -0.80954E-08        -0.10671E+08         0.00000E+00
    0.00000E+00         0.00000E+00        -0.20833E+07
 
    0.25438E+06         0.75171E-08         0.00000E+00
    0.75171E-08        -0.10671E+08         0.00000E+00
    0.00000E+00         0.00000E+00        -0.20833E+07
 
    0.25438E+06        -0.75171E-08         0.00000E+00
   -0.75171E-08        -0.10671E+08         0.00000E+00
    0.00000E+00         0.00000E+00        -0.20833E+07
 
    0.41921E+08        -0.75171E-08         0.00000E+00
   -0.75171E-08         0.15600E+09         0.00000E+00
    0.00000E+00         0.00000E+00         0.39583E+08
 
    0.25438E+06        -0.11565E-08         0.00000E+00
   -0.11565E-08        -0.10671E+08         0.00000E+00
    0.00000E+00         0.00000E+00        -0.20833E+07
 
    0.25438E+06        -0.63607E-08         0.00000E+00
   -0.63607E-08        -0.10671E+08         0.00000E+00
    0.00000E+00         0.00000E+00        -0.20833E+07
 
    0.25438E+06         0.52042E-08         0.00000E+00
    0.52042E-08        -0.10671E+08         0.00000E+00
    0.00000E+00         0.00000E+00        -0.20833E+07
 
    0.25438E+06         0.23130E-08         0.00000E+00
    0.23130E-08        -0.10671E+08         0.00000E+00
    0.00000E+00         0.00000E+00        -0.20833E+07
 
    0.25438E+06         0.75171E-08         0.00000E+00
    0.75171E-08        -0.10671E+08         0.00000E+00
    0.00000E+00         0.00000E+00        -0.20833E+07
 
    0.25438E+06         0.28912E-08         0.00000E+00
    0.28912E-08        -0.10671E+08         0.00000E+00
    0.00000E+00         0.00000E+00        -0.20833E+07
 
    0.25438E+06        -0.23130E-08         0.00000E+00
   -0.23130E-08        -0.10671E+08         0.00000E+00
    0.00000E+00         0.00000E+00        -0.20833E+07
 
    0.25438E+06         0.11565E-08         0.00000E+00
    0.11565E-08        -0.10671E+08         0.00000E+00
    0.00000E+00         0.00000E+00        -0.20833E+07
 
    0.25438E+06        -0.80954E-08         0.00000E+00
   -0.80954E-08        -0.10671E+08         0.00000E+00
    0.00000E+00         0.00000E+00        -0.20833E+07
 
    0.25438E+06        -0.57824E-08         0.00000E+00
   -0.57824E-08        -0.10671E+08         0.00000E+00
    0.00000E+00         0.00000E+00        -0.20833E+07
 
    0.25438E+06         0.10119E-07         0.00000E+00
    0.10119E-07        -0.10671E+08         0.00000E+00
    0.00000E+00         0.00000E+00        -0.20833E+07
 
    0.25438E+06        -0.13878E-07         0.00000E+00
   -0.13878E-07        -0.10671E+08         0.00000E+00
    0.00000E+00         0.00000E+00        -0.20833E+07
 
    0.25438E+06         0.63607E-08         0.00000E+00
    0.63607E-08        -0.10671E+08         0.00000E+00
    0.00000E+00         0.00000E+00        -0.20833E+07
 
    0.25438E+06        -0.69389E-08         0.00000E+00
   -0.69389E-08        -0.10671E+08         0.00000E+00
    0.00000E+00         0.00000E+00        -0.20833E+07
 
    0.41921E+08        -0.52042E-07         0.00000E+00
   -0.52042E-07         0.15600E+09         0.00000E+00
    0.00000E+00         0.00000E+00         0.39583E+08
 
    0.25438E+06        -0.63607E-08         0.00000E+00
   -0.63607E-08        -0.10671E+08         0.00000E+00
    0.00000E+00         0.00000E+00        -0.20833E+07
 
    0.25438E+06         0.75171E-08         0.00000E+00
    0.75171E-08        -0.10671E+08         0.00000E+00
    0.00000E+00         0.00000E+00        -0.20833E+07
 
    0.25438E+06         0.11565E-08         0.00000E+00
    0.11565E-08        -0.10671E+08         0.00000E+00
    0.00000E+00         0.00000E+00        -0.20833E+07
 
    0.25438E+06         0.57824E-08         0.00000E+00
    0.57824E-08        -0.10671E+08         0.00000E+00
    0.00000E+00         0.00000E+00        -0.20833E+07
 
    0.25438E+06         0.63607E-08         0.00000E+00
    0.63607E-08        -0.10671E+08         0.00000E+00
    0.00000E+00         0.00000E+00        -0.20833E+07
 
    0.25438E+06        -0.28912E-08         0.00000E+00
   -0.28912E-08        -0.10671E+08         0.00000E+00
    0.00000E+00         0.00000E+00        -0.20833E+07
 
    0.25438E+06         0.40477E-08         0.00000E+00
    0.40477E-08        -0.10671E+08         0.00000E+00
    0.00000E+00         0.00000E+00        -0.20833E+07
 
    0.25438E+06         0.46259E-08         0.00000E+00
    0.46259E-08        -0.10671E+08         0.00000E+00
    0.00000E+00         0.00000E+00        -0.20833E+07
 
    0.25438E+06         0.17347E-08         0.00000E+00
    0.17347E-08        -0.10671E+08         0.00000E+00
    0.00000E+00         0.00000E+00        -0.20833E+07
 
    0.25438E+06         0.17347E-08         0.00000E+00
    0.17347E-08        -0.10671E+08         0.00000E+00
    0.00000E+00         0.00000E+00        -0.20833E+07
 
    0.25438E+06        -0.52042E-08         0.00000E+00
   -0.52042E-08        -0.10671E+08         0.00000E+00
    0.00000E+00         0.00000E+00        -0.20833E+07
 
    0.25438E+06        -0.34694E-08         0.00000E+00
   -0.34694E-08        -0.10671E+08         0.00000E+00
    0.00000E+00         0.00000E+00        -0.20833E+07
 
    0.25438E+06        -0.92519E-08         0.00000E+00
   -0.92519E-08        -0.10671E+08         0.00000E+00
    0.00000E+00         0.00000E+00        -0.20833E+07
 
    0.25438E+06         0.34694E-08         0.00000E+00
    0.34694E-08        -0.10671E+08         0.00000E+00
    0.00000E+00         0.00000E+00        -0.20833E+07
 
    0.41921E+08         0.46259E-08         0.00000E+00
    0.46259E-08         0.15600E+09         0.00000E+00
    0.00000E+00         0.00000E+00         0.39583E+08
 
    0.25438E+06         0.46259E-08         0.00000E+00
    0.46259E-08        -0.10671E+08         0.00000E+00
    0.00000E+00         0.00000E+00        -0.20833E+07
 
    0.25438E+06         0.40477E-08         0.00000E+00
    0.40477E-08        -0.10671E+08         0.00000E+00
    0.00000E+00         0.00000E+00        -0.20833E+07
 
    0.25438E+06         0.40477E-08         0.00000E+00
    0.40477E-08        -0.10671E+08         0.00000E+00
    0.00000E+00         0.00000E+00        -0.20833E+07
 
    0.25438E+06        -0.34694E-08         0.00000E+00
   -0.34694E-08        -0.10671E+08         0.00000E+00
    0.00000E+00         0.00000E+00        -0.20833E+07
 
    0.25438E+06         0.86736E-08         0.00000E+00
    0.86736E-08        -0.10671E+08         0.00000E+00
    0.00000E+00         0.00000E+00        -0.20833E+07
 
    0.25438E+06        -0.11565E-08         0.00000E+00
   -0.11565E-08        -0.10671E+08         0.00000E+00
    0.00000E+00         0.00000E+00        -0.20833E+07
 
    0.25438E+06         0.13300E-07         0.00000E+00
    0.13300E-07        -0.10671E+08         0.00000E+00
    0.00000E+00         0.00000E+00        -0.20833E+07
 
    0.25438E+06         0.10408E-07         0.00000E+00
    0.10408E-07        -0.10671E+08         0.00000E+00
    0.00000E+00         0.00000E+00        -0.20833E+07
 
    0.25438E+06        -0.57824E-09         0.00000E+00
   -0.57824E-09        -0.10671E+08         0.00000E+00
    0.00000E+00         0.00000E+00        -0.20833E+07
 
    0.25438E+06         0.78063E-08         0.00000E+00
    0.78063E-08        -0.10671E+08         0.00000E+00
    0.00000E+00         0.00000E+00        -0.20833E+07
 
    0.25438E+06        -0.80954E-08         0.00000E+00
   -0.80954E-08        -0.10671E+08         0.00000E+00
    0.00000E+00         0.00000E+00        -0.20833E+07
 
    0.25438E+06        -0.34694E-08         0.00000E+00
   -0.34694E-08        -0.10671E+08         0.00000E+00
    0.00000E+00         0.00000E+00        -0.20833E+07
 
    0.25438E+06        -0.57824E-09         0.00000E+00
   -0.57824E-09        -0.10671E+08         0.00000E+00
    0.00000E+00         0.00000E+00        -0.20833E+07
 
    0.25438E+06         0.17347E-08         0.00000E+00
    0.17347E-08        -0.10671E+08         0.00000E+00
    0.00000E+00         0.00000E+00        -0.20833E+07
 
    0.41921E+08         0.56089E-07         0.00000E+00
    0.56089E-07         0.15600E+09         0.00000E+00
    0.00000E+00         0.00000E+00         0.39583E+08
 
    0.25438E+06         0.11565E-08         0.00000E+00
    0.11565E-08        -0.10671E+08         0.00000E+00
    0.00000E+00         0.00000E+00        -0.20833E+07
 
    0.25438E+06         0.57824E-09         0.00000E+00
    0.57824E-09        -0.10671E+08         0.00000E+00
    0.00000E+00         0.00000E+00        -0.20833E+07
 
    0.25438E+06         0.63607E-08         0.00000E+00
    0.63607E-08        -0.10671E+08         0.00000E+00
    0.00000E+00         0.00000E+00        -0.20833E+07
 
    0.25438E+06        -0.52042E-08         0.00000E+00
   -0.52042E-08        -0.10671E+08         0.00000E+00
    0.00000E+00         0.00000E+00        -0.20833E+07
 
    0.25438E+06         0.75171E-08         0.00000E+00
    0.75171E-08        -0.10671E+08         0.00000E+00
    0.00000E+00         0.00000E+00        -0.20833E+07
 
    0.25438E+06         0.69389E-08         0.00000E+00
    0.69389E-08        -0.10671E+08         0.00000E+00
    0.00000E+00         0.00000E+00        -0.20833E+07
 
    0.25438E+06        -0.34694E-08         0.00000E+00
   -0.34694E-08        -0.10671E+08         0.00000E+00
    0.00000E+00         0.00000E+00        -0.20833E+07
 
    0.25438E+06         0.17347E-08         0.00000E+00
    0.17347E-08        -0.10671E+08         0.00000E+00
    0.00000E+00         0.00000E+00        -0.20833E+07
 
    0.25438E+06         0.46259E-08         0.00000E+00
    0.46259E-08        -0.10671E+08         0.00000E+00
    0.00000E+00         0.00000E+00        -0.20833E+07
 
    0.25438E+06         0.15613E-07         0.00000E+00
    0.15613E-07        -0.10671E+08         0.00000E+00
    0.00000E+00         0.00000E+00        -0.20833E+07
 
    0.25438E+06        -0.57824E-08         0.00000E+00
   -0.57824E-08        -0.10671E+08         0.00000E+00
    0.00000E+00         0.00000E+00        -0.20833E+07
 
    0.25438E+06         0.98301E-08         0.00000E+00
    0.98301E-08        -0.10671E+08         0.00000E+00
    0.00000E+00         0.00000E+00        -0.20833E+07
 
    0.25438E+06         0.98301E-08         0.00000E+00
    0.98301E-08        -0.10671E+08         0.00000E+00
    0.00000E+00         0.00000E+00        -0.20833E+07
 
    0.25438E+06         0.63607E-08         0.00000E+00
    0.63607E-08        -0.10671E+08         0.00000E+00
    0.00000E+00         0.00000E+00        -0.20833E+07
 
    0.41921E+08        -0.49729E-07         0.00000E+00
   -0.49729E-07         0.15600E+09         0.00000E+00
    0.00000E+00         0.00000E+00         0.39583E+08
 
    0.25437E+06        -0.34694E-08         0.00000E+00
   -0.34694E-08        -0.10671E+08         0.00000E+00
    0.00000E+00         0.00000E+00        -0.20833E+07
 
    0.25437E+06         0.57824E-09         0.00000E+00
    0.57824E-09        -0.10671E+08         0.00000E+00
    0.00000E+00         0.00000E+00        -0.20833E+07
 
    0.25437E+06         0.46259E-08         0.00000E+00
    0.46259E-08        -0.10671E+08         0.00000E+00
    0.00000E+00         0.00000E+00        -0.20833E+07
 
    0.25437E+06        -0.46259E-08         0.00000E+00
   -0.46259E-08        -0.10671E+08         0.00000E+00
    0.00000E+00         0.00000E+00        -0.20833E+07
 
    0.25437E+06         0.57824E-09         0.00000E+00
    0.57824E-09        -0.10671E+08         0.00000E+00
    0.00000E+00         0.00000E+00        -0.20833E+07
 
    0.25437E+06        -0.75171E-08         0.00000E+00
   -0.75171E-08        -0.10671E+08         0.00000E+00
    0.00000E+00         0.00000E+00        -0.20833E+07
 
    0.25437E+06        -0.11565E-07         0.00000E+00
   -0.11565E-07        -0.10671E+08         0.00000E+00
    0.00000E+00         0.00000E+00        -0.20833E+07
 
    0.25437E+06        -0.23130E-08         0.00000E+00
   -0.23130E-08        -0.10671E+08         0.00000E+00
    0.00000E+00         0.00000E+00        -0.20833E+07
 
    0.25437E+06        -0.17347E-08         0.00000E+00
   -0.17347E-08        -0.10671E+08         0.00000E+00
    0.00000E+00         0.00000E+00        -0.20833E+07
 
    0.25437E+06         0.15323E-07         0.00000E+00
    0.15323E-07        -0.10671E+08         0.00000E+00
    0.00000E+00         0.00000E+00        -0.20833E+07
 
    0.25437E+06         0.14456E-07         0.00000E+00
    0.14456E-07        -0.10671E+08         0.00000E+00
    0.00000E+00         0.00000E+00        -0.20833E+07
 
    0.25437E+06         0.63607E-08         0.00000E+00
    0.63607E-08        -0.10671E+08         0.00000E+00
    0.00000E+00         0.00000E+00        -0.20833E+07
 
    0.25437E+06        -0.57824E-09         0.00000E+00
   -0.57824E-09        -0.10671E+08         0.00000E+00
    0.00000E+00         0.00000E+00        -0.20833E+07
 
    0.25437E+06         0.11565E-08         0.00000E+00
    0.11565E-08        -0.10671E+08         0.00000E+00
    0.00000E+00         0.00000E+00        -0.20833E+07
 
    0.41921E+08         0.52620E-07         0.00000E+00
    0.52620E-07         0.15600E+09         0.00000E+00
    0.00000E+00         0.00000E+00         0.39583E+08
 
    0.25437E+06        -0.23130E-08         0.00000E+00
   -0.23130E-08        -0.10671E+08         0.00000E+00
    0.00000E+00         0.00000E+00        -0.20833E+07
 
    0.25437E+06         0.23130E-08         0.00000E+00
    0.23130E-08        -0.10671E+08         0.00000E+00
    0.00000E+00         0.00000E+00        -0.20833E+07
 
    0.25437E+06         0.28912E-08         0.00000E+00
    0.28912E-08        -0.10671E+08         0.00000E+00
    0.00000E+00         0.00000E+00        -0.20833E+07
 
    0.25437E+06        -0.63607E-08         0.00000E+00
   -0.63607E-08        -0.10671E+08         0.00000E+00
    0.00000E+00         0.00000E+00        -0.20833E+07
 
    0.25437E+06         0.11565E-08         0.00000E+00
    0.11565E-08        -0.10671E+08         0.00000E+00
    0.00000E+00         0.00000E+00        -0.20833E+07
 
    0.25437E+06        -0.52042E-08         0.00000E+00
   -0.52042E-08        -0.10671E+08         0.00000E+00
    0.00000E+00         0.00000E+00        -0.20833E+07
 
    0.25437E+06        -0.11565E-08         0.00000E+00
   -0.11565E-08        -0.10671E+08         0.00000E+00
    0.00000E+00         0.00000E+00        -0.20833E+07
 
    0.25437E+06        -0.57824E-09         0.00000E+00
   -0.57824E-09        -0.10671E+08         0.00000E+00
    0.00000E+00         0.00000E+00        -0.20833E+07
 
    0.25437E+06        -0.17347E-08         0.00000E+00
   -0.17347E-08        -0.10671E+08         0.00000E+00
    0.00000E+00         0.00000E+00        -0.20833E+07
 
    0.25437E+06        -0.86736E-08         0.00000E+00
   -0.86736E-08        -0.10671E+08         0.00000E+00
    0.00000E+00         0.00000E+00        -0.20833E+07
 
    0.25437E+06        -0.17347E-08         0.00000E+00
   -0.17347E-08        -0.10671E+08         0.00000E+00
    0.00000E+00         0.00000E+00        -0.20833E+07
 
    0.25437E+06        -0.98301E-08         0.00000E+00
   -0.98301E-08        -0.10671E+08         0.00000E+00
    0.00000E+00         0.00000E+00        -0.20833E+07
 
    0.25437E+06         0.57824E-09         0.00000E+00
    0.57824E-09        -0.10671E+08         0.00000E+00
    0.00000E+00         0.00000E+00        -0.20833E+07
 
    0.25437E+06         0.57824E-09         0.00000E+00
    0.57824E-09        -0.10671E+08         0.00000E+00
    0.00000E+00         0.00000E+00        -0.20833E+07
 
    0.41921E+08         0.13878E-07         0.00000E+00
    0.13878E-07         0.15600E+09         0.00000E+00
    0.00000E+00         0.00000E+00         0.39583E+08
 
    0.25437E+06        -0.57824E-08         0.00000E+00
   -0.57824E-08        -0.10671E+08         0.00000E+00
    0.00000E+00         0.00000E+00        -0.20833E+07
 
    0.25437E+06         0.12721E-07         0.00000E+00
    0.12721E-07        -0.10671E+08         0.00000E+00
    0.00000E+00         0.00000E+00        -0.20833E+07
 
    0.25437E+06        -0.11565E-07         0.00000E+00
   -0.11565E-07        -0.10671E+08         0.00000E+00
    0.00000E+00         0.00000E+00        -0.20833E+07
 
    0.25437E+06         0.57824E-08         0.00000E+00
    0.57824E-08        -0.10671E+08         0.00000E+00
    0.00000E+00         0.00000E+00        -0.20833E+07
 
    0.25437E+06         0.28912E-08         0.00000E+00
    0.28912E-08        -0.10671E+08         0.00000E+00
    0.00000E+00         0.00000E+00        -0.20833E+07
 
    0.25437E+06         0.40477E-08         0.00000E+00
    0.40477E-08        -0.10671E+08         0.00000E+00
    0.00000E+00         0.00000E+00        -0.20833E+07
 
    0.25437E+06         0.57824E-09         0.00000E+00
    0.57824E-09        -0.10671E+08         0.00000E+00
    0.00000E+00         0.00000E+00        -0.20833E+07
 
    0.25437E+06         0.75171E-08         0.00000E+00
    0.75171E-08        -0.10671E+08         0.00000E+00
    0.00000E+00         0.00000E+00        -0.20833E+07
 
    0.25437E+06         0.63607E-08         0.00000E+00
    0.63607E-08        -0.10671E+08         0.00000E+00
    0.00000E+00         0.00000E+00        -0.20833E+07
 
    0.25437E+06        -0.17347E-08         0.00000E+00
   -0.17347E-08        -0.10671E+08         0.00000E+00
    0.00000E+00         0.00000E+00        -0.20833E+07
 
    0.25437E+06        -0.86736E-08         0.00000E+00
   -0.86736E-08        -0.10671E+08         0.00000E+00
    0.00000E+00         0.00000E+00        -0.20833E+07
 
    0.25437E+06        -0.52042E-08         0.00000E+00
   -0.52042E-08        -0.10671E+08         0.00000E+00
    0.00000E+00         0.00000E+00        -0.20833E+07
 
    0.25437E+06        -0.46259E-08         0.00000E+00
   -0.46259E-08        -0.10671E+08         0.00000E+00
    0.00000E+00         0.00000E+00        -0.20833E+07
 
    0.25437E+06        -0.11565E-08         0.00000E+00
   -0.11565E-08        -0.10671E+08         0.00000E+00
    0.00000E+00         0.00000E+00        -0.20833E+07
 
    0.41921E+08        -0.52042E-07         0.00000E+00
   -0.52042E-07         0.15600E+09         0.00000E+00
    0.00000E+00         0.00000E+00         0.39583E+08
 
    0.25437E+06        -0.40477E-08         0.00000E+00
   -0.40477E-08        -0.10671E+08         0.00000E+00
    0.00000E+00         0.00000E+00        -0.20833E+07
 
    0.25437E+06         0.40477E-08         0.00000E+00
    0.40477E-08        -0.10671E+08         0.00000E+00
    0.00000E+00         0.00000E+00        -0.20833E+07
 
    0.25437E+06        -0.28912E-08         0.00000E+00
   -0.28912E-08        -0.10671E+08         0.00000E+00
    0.00000E+00         0.00000E+00        -0.20833E+07
 
    0.25437E+06         0.57824E-08         0.00000E+00
    0.57824E-08        -0.10671E+08         0.00000E+00
    0.00000E+00         0.00000E+00        -0.20833E+07
 
    0.25437E+06         0.28912E-08         0.00000E+00
    0.28912E-08        -0.10671E+08         0.00000E+00
    0.00000E+00         0.00000E+00        -0.20833E+07
 
    0.25437E+06         0.57824E-09         0.00000E+00
    0.57824E-09        -0.10671E+08         0.00000E+00
    0.00000E+00         0.00000E+00        -0.20833E+07
 
    0.25437E+06         0.57824E-09         0.00000E+00
    0.57824E-09        -0.10671E+08         0.00000E+00
    0.00000E+00         0.00000E+00        -0.20833E+07
 
    0.25437E+06         0.10408E-07         0.00000E+00
    0.10408E-07        -0.10671E+08         0.00000E+00
    0.00000E+00         0.00000E+00        -0.20833E+07
 
    0.25437E+06         0.23130E-08         0.00000E+00
    0.23130E-08        -0.10671E+08         0.00000E+00
    0.00000E+00         0.00000E+00        -0.20833E+07
 
    0.25437E+06        -0.13878E-07         0.00000E+00
   -0.13878E-07        -0.10671E+08         0.00000E+00
    0.00000E+00         0.00000E+00        -0.20833E+07
 
    0.25437E+06        -0.92519E-08         0.00000E+00
   -0.92519E-08        -0.10671E+08         0.00000E+00
    0.00000E+00         0.00000E+00        -0.20833E+07
 
    0.25437E+06         0.63607E-08         0.00000E+00
    0.63607E-08        -0.10671E+08         0.00000E+00
    0.00000E+00         0.00000E+00        -0.20833E+07
 
    0.25437E+06        -0.23130E-08         0.00000E+00
   -0.23130E-08        -0.10671E+08         0.00000E+00
    0.00000E+00         0.00000E+00        -0.20833E+07
 
    0.25437E+06         0.11565E-08         0.00000E+00
    0.11565E-08        -0.10671E+08         0.00000E+00
    0.00000E+00         0.00000E+00        -0.20833E+07
 
    0.41921E+08         0.00000E+00         0.00000E+00
    0.00000E+00         0.15600E+09         0.00000E+00
    0.00000E+00         0.00000E+00         0.39583E+08
 
    0.25437E+06        -0.46259E-08         0.00000E+00
   -0.46259E-08        -0.10671E+08         0.00000E+00
    0.00000E+00         0.00000E+00        -0.20833E+07
 
    0.25437E+06         0.57824E-08         0.00000E+00
    0.57824E-08        -0.10671E+08         0.00000E+00
    0.00000E+00         0.00000E+00        -0.20833E+07
 
    0.25437E+06         0.92519E-08         0.00000E+00
    0.92519E-08        -0.10671E+08         0.00000E+00
    0.00000E+00         0.00000E+00        -0.20833E+07
 
    0.25437E+06        -0.10987E-07         0.00000E+00
   -0.10987E-07        -0.10671E+08         0.00000E+00
    0.00000E+00         0.00000E+00        -0.20833E+07
 
    0.25437E+06         0.69389E-08         0.00000E+00
    0.69389E-08        -0.10671E+08         0.00000E+00
    0.00000E+00         0.00000E+00        -0.20833E+07
 
    0.25437E+06        -0.40477E-08         0.00000E+00
   -0.40477E-08        -0.10671E+08         0.00000E+00
    0.00000E+00         0.00000E+00        -0.20833E+07
 
    0.25437E+06         0.17347E-07         0.00000E+00
    0.17347E-07        -0.10671E+08         0.00000E+00
    0.00000E+00         0.00000E+00        -0.20833E+07
 
    0.25437E+06         0.23130E-08         0.00000E+00
    0.23130E-08        -0.10671E+08         0.00000E+00
    0.00000E+00         0.00000E+00        -0.20833E+07
 
    0.25437E+06        -0.12143E-07         0.00000E+00
   -0.12143E-07        -0.10671E+08         0.00000E+00
    0.00000E+00         0.00000E+00        -0.20833E+07
 
    0.25437E+06        -0.11565E-07         0.00000E+00
   -0.11565E-07        -0.10671E+08         0.00000E+00
    0.00000E+00         0.00000E+00        -0.20833E+07
 
    0.25437E+06        -0.11565E-08         0.00000E+00
   -0.11565E-08        -0.10671E+08         0.00000E+00
    0.00000E+00         0.00000E+00        -0.20833E+07
 
    0.25437E+06        -0.23130E-08         0.00000E+00
   -0.23130E-08        -0.10671E+08         0.00000E+00
    0.00000E+00         0.00000E+00        -0.20833E+07
 
    0.25437E+06        -0.28912E-08         0.00000E+00
   -0.28912E-08        -0.10671E+08         0.00000E+00
    0.00000E+00         0.00000E+00        -0.20833E+07
 
    0.25437E+06         0.34694E-08         0.00000E+00
    0.34694E-08        -0.10671E+08         0.00000E+00
    0.00000E+00         0.00000E+00        -0.20833E+07
 
    0.41921E+08         0.12721E-07         0.00000E+00
    0.12721E-07         0.15600E+09         0.00000E+00
    0.00000E+00         0.00000E+00         0.39583E+08
 
    0.25437E+06         0.69389E-08         0.00000E+00
    0.69389E-08        -0.10671E+08         0.00000E+00
    0.00000E+00         0.00000E+00        -0.20833E+07
 
    0.25437E+06         0.13878E-07         0.00000E+00
    0.13878E-07        -0.10671E+08         0.00000E+00
    0.00000E+00         0.00000E+00        -0.20833E+07
 
    0.25437E+06         0.92519E-08         0.00000E+00
    0.92519E-08        -0.10671E+08         0.00000E+00
    0.00000E+00         0.00000E+00        -0.20833E+07
 
    0.25437E+06         0.34694E-08         0.00000E+00
    0.34694E-08        -0.10671E+08         0.00000E+00
    0.00000E+00         0.00000E+00        -0.20833E+07
 
    0.25437E+06         0.00000E+00         0.00000E+00
    0.00000E+00        -0.10671E+08         0.00000E+00
    0.00000E+00         0.00000E+00        -0.20833E+07
 
    0.25437E+06        -0.17347E-07         0.00000E+00
   -0.17347E-07        -0.10671E+08         0.00000E+00
    0.00000E+00         0.00000E+00        -0.20833E+07
 
    0.25437E+06         0.57824E-09         0.00000E+00
    0.57824E-09        -0.10671E+08         0.00000E+00
    0.00000E+00         0.00000E+00        -0.20833E+07
 
    0.25437E+06         0.17347E-08         0.00000E+00
    0.17347E-08        -0.10671E+08         0.00000E+00
    0.00000E+00         0.00000E+00        -0.20833E+07
 
    0.25437E+06         0.75171E-08         0.00000E+00
    0.75171E-08        -0.10671E+08         0.00000E+00
    0.00000E+00         0.00000E+00        -0.20833E+07
 
    0.25437E+06        -0.57824E-09         0.00000E+00
   -0.57824E-09        -0.10671E+08         0.00000E+00
    0.00000E+00         0.00000E+00        -0.20833E+07
 
    0.25437E+06         0.34694E-08         0.00000E+00
    0.34694E-08        -0.10671E+08         0.00000E+00
    0.00000E+00         0.00000E+00        -0.20833E+07
 
    0.25437E+06        -0.40477E-08         0.00000E+00
   -0.40477E-08        -0.10671E+08         0.00000E+00
    0.00000E+00         0.00000E+00        -0.20833E+07
 
    0.25437E+06         0.63607E-08         0.00000E+00
    0.63607E-08        -0.10671E+08         0.00000E+00
    0.00000E+00         0.00000E+00        -0.20833E+07
 
    0.25437E+06         0.46259E-08         0.00000E+00
    0.46259E-08        -0.10671E+08         0.00000E+00
    0.00000E+00         0.00000E+00        -0.20833E+07
 
    0.41921E+08         0.57824E-07         0.00000E+00
    0.57824E-07         0.15600E+09         0.00000E+00
    0.00000E+00         0.00000E+00         0.39583E+08
 
    0.25436E+06        -0.57824E-08         0.00000E+00
   -0.57824E-08        -0.10671E+08         0.00000E+00
    0.00000E+00         0.00000E+00        -0.20833E+07
 
    0.25436E+06        -0.46259E-08         0.00000E+00
   -0.46259E-08        -0.10671E+08         0.00000E+00
    0.00000E+00         0.00000E+00        -0.20833E+07
 
    0.25436E+06        -0.11565E-07         0.00000E+00
   -0.11565E-07        -0.10671E+08         0.00000E+00
    0.00000E+00         0.00000E+00        -0.20833E+07
 
    0.25436E+06        -0.92519E-08         0.00000E+00
   -0.92519E-08        -0.10671E+08         0.00000E+00
    0.00000E+00         0.00000E+00        -0.20833E+07
 
    0.25436E+06         0.13300E-07         0.00000E+00
    0.13300E-07        -0.10671E+08         0.00000E+00
    0.00000E+00         0.00000E+00        -0.20833E+07
 
    0.25436E+06        -0.17347E-08         0.00000E+00
   -0.17347E-08        -0.10671E+08         0.00000E+00
    0.00000E+00         0.00000E+00        -0.20833E+07
 
    0.25436E+06        -0.11565E-08         0.00000E+00
   -0.11565E-08        -0.10671E+08         0.00000E+00
    0.00000E+00         0.00000E+00        -0.20833E+07
 
    0.25436E+06        -0.40477E-08         0.00000E+00
   -0.40477E-08        -0.10671E+08         0.00000E+00
    0.00000E+00         0.00000E+00        -0.20833E+07
 
    0.25436E+06        -0.10408E-07         0.00000E+00
   -0.10408E-07        -0.10671E+08         0.00000E+00
    0.00000E+00         0.00000E+00        -0.20833E+07
 
    0.25436E+06        -0.11565E-07         0.00000E+00
   -0.11565E-07        -0.10671E+08         0.00000E+00
    0.00000E+00         0.00000E+00        -0.20833E+07
 
    0.25436E+06        -0.69389E-08         0.00000E+00
   -0.69389E-08        -0.10671E+08         0.00000E+00
    0.00000E+00         0.00000E+00        -0.20833E+07
 
    0.25436E+06         0.80954E-08         0.00000E+00
    0.80954E-08        -0.10671E+08         0.00000E+00
    0.00000E+00         0.00000E+00        -0.20833E+07
 
    0.25436E+06        -0.10987E-07         0.00000E+00
   -0.10987E-07        -0.10671E+08         0.00000E+00
    0.00000E+00         0.00000E+00        -0.20833E+07
 
    0.25436E+06         0.23130E-08         0.00000E+00
    0.23130E-08        -0.10671E+08         0.00000E+00
    0.00000E+00         0.00000E+00        -0.20833E+07
 
    0.41921E+08        -0.55511E-07         0.00000E+00
   -0.55511E-07         0.15600E+09         0.00000E+00
    0.00000E+00         0.00000E+00         0.39583E+08
 
    0.25436E+06         0.46259E-08         0.00000E+00
    0.46259E-08        -0.10671E+08         0.00000E+00
    0.00000E+00         0.00000E+00        -0.20833E+07
 
    0.25436E+06         0.57824E-08         0.00000E+00
    0.57824E-08        -0.10671E+08         0.00000E+00
    0.00000E+00         0.00000E+00        -0.20833E+07
 
    0.25436E+06         0.34694E-08         0.00000E+00
    0.34694E-08        -0.10671E+08         0.00000E+00
    0.00000E+00         0.00000E+00        -0.20833E+07
 
    0.25436E+06        -0.11565E-08         0.00000E+00
   -0.11565E-08        -0.10671E+08         0.00000E+00
    0.00000E+00         0.00000E+00        -0.20833E+07
 
    0.25436E+06         0.14456E-07         0.00000E+00
    0.14456E-07        -0.10671E+08         0.00000E+00
    0.00000E+00         0.00000E+00        -0.20833E+07
 
    0.25436E+06         0.12721E-07         0.00000E+00
    0.12721E-07        -0.10671E+08         0.00000E+00
    0.00000E+00         0.00000E+00        -0.20833E+07
 
    0.25436E+06        -0.57824E-09         0.00000E+00
   -0.57824E-09        -0.10671E+08         0.00000E+00
    0.00000E+00         0.00000E+00        -0.20833E+07
 
    0.25436E+06         0.12721E-07         0.00000E+00
    0.12721E-07        -0.10671E+08         0.00000E+00
    0.00000E+00         0.00000E+00        -0.20833E+07
 
    0.25436E+06        -0.11565E-08         0.00000E+00
   -0.11565E-08        -0.10671E+08         0.00000E+00
    0.00000E+00         0.00000E+00        -0.20833E+07
 
    0.25436E+06        -0.11565E-08         0.00000E+00
   -0.11565E-08        -0.10671E+08         0.00000E+00
    0.00000E+00         0.00000E+00        -0.20833E+07
 
    0.25436E+06        -0.12721E-07         0.00000E+00
   -0.12721E-07        -0.10671E+08         0.00000E+00
    0.00000E+00         0.00000E+00        -0.20833E+07
 
    0.25436E+06         0.11565E-08         0.00000E+00
    0.11565E-08        -0.10671E+08         0.00000E+00
    0.00000E+00         0.00000E+00        -0.20833E+07
 
    0.25436E+06        -0.52042E-08         0.00000E+00
   -0.52042E-08        -0.10671E+08         0.00000E+00
    0.00000E+00         0.00000E+00        -0.20833E+07
 
    0.25436E+06         0.57824E-08         0.00000E+00
    0.57824E-08        -0.10671E+08         0.00000E+00
    0.00000E+00         0.00000E+00        -0.20833E+07
 
    0.41921E+08         0.55511E-07         0.00000E+00
    0.55511E-07         0.15600E+09         0.00000E+00
    0.00000E+00         0.00000E+00         0.39583E+08
 
    0.25435E+06         0.46259E-08         0.00000E+00
    0.46259E-08        -0.10671E+08         0.00000E+00
    0.00000E+00         0.00000E+00        -0.20833E+07
 
    0.25435E+06        -0.23130E-08         0.00000E+00
   -0.23130E-08        -0.10671E+08         0.00000E+00
    0.00000E+00         0.00000E+00        -0.20833E+07
 
    0.25435E+06         0.17347E-07         0.00000E+00
    0.17347E-07        -0.10671E+08         0.00000E+00
    0.00000E+00         0.00000E+00        -0.20833E+07
 
    0.25435E+06        -0.18504E-07         0.00000E+00
   -0.18504E-07        -0.10671E+08         0.00000E+00
    0.00000E+00         0.00000E+00        -0.20833E+07
 
    0.25435E+06        -0.23130E-08         0.00000E+00
   -0.23130E-08        -0.10671E+08         0.00000E+00
    0.00000E+00         0.00000E+00        -0.20833E+07
 
    0.25435E+06         0.75171E-08         0.00000E+00
    0.75171E-08        -0.10671E+08         0.00000E+00
    0.00000E+00         0.00000E+00        -0.20833E+07
 
    0.25435E+06        -0.10408E-07         0.00000E+00
   -0.10408E-07        -0.10671E+08         0.00000E+00
    0.00000E+00         0.00000E+00        -0.20833E+07
 
    0.25435E+06         0.80954E-08         0.00000E+00
    0.80954E-08        -0.10671E+08         0.00000E+00
    0.00000E+00         0.00000E+00        -0.20833E+07
 
    0.25435E+06         0.23130E-08         0.00000E+00
    0.23130E-08        -0.10671E+08         0.00000E+00
    0.00000E+00         0.00000E+00        -0.20833E+07
 
    0.25435E+06        -0.40477E-08         0.00000E+00
   -0.40477E-08        -0.10671E+08         0.00000E+00
    0.00000E+00         0.00000E+00        -0.20833E+07
 
    0.25435E+06         0.00000E+00         0.00000E+00
    0.00000E+00        -0.10671E+08         0.00000E+00
    0.00000E+00         0.00000E+00        -0.20833E+07
 
    0.25435E+06        -0.10987E-07         0.00000E+00
   -0.10987E-07        -0.10671E+08         0.00000E+00
    0.00000E+00         0.00000E+00        -0.20833E+07
 
    0.25435E+06         0.15034E-07         0.00000E+00
    0.15034E-07        -0.10671E+08         0.00000E+00
    0.00000E+00         0.00000E+00        -0.20833E+07
 
    0.25435E+06         0.00000E+00         0.00000E+00
    0.00000E+00        -0.10671E+08         0.00000E+00
    0.00000E+00         0.00000E+00        -0.20833E+07
 
    0.41921E+08        -0.62450E-07         0.00000E+00
   -0.62450E-07         0.15600E+09         0.00000E+00
    0.00000E+00         0.00000E+00         0.39583E+08
 
    0.25434E+06        -0.13878E-07         0.00000E+00
   -0.13878E-07        -0.10671E+08         0.00000E+00
    0.00000E+00         0.00000E+00        -0.20833E+07
 
    0.25434E+06        -0.19660E-07         0.00000E+00
   -0.19660E-07        -0.10671E+08         0.00000E+00
    0.00000E+00         0.00000E+00        -0.20833E+07
 
    0.25434E+06        -0.17347E-07         0.00000E+00
   -0.17347E-07        -0.10671E+08         0.00000E+00
    0.00000E+00         0.00000E+00        -0.20833E+07
 
    0.25434E+06        -0.18504E-07         0.00000E+00
   -0.18504E-07        -0.10671E+08         0.00000E+00
    0.00000E+00         0.00000E+00        -0.20833E+07
 
    0.25434E+06        -0.86736E-08         0.00000E+00
   -0.86736E-08        -0.10671E+08         0.00000E+00
    0.00000E+00         0.00000E+00        -0.20833E+07
 
    0.25434E+06        -0.57824E-09         0.00000E+00
   -0.57824E-09        -0.10671E+08         0.00000E+00
    0.00000E+00         0.00000E+00        -0.20833E+07
 
    0.25434E+06         0.57824E-09         0.00000E+00
    0.57824E-09        -0.10671E+08         0.00000E+00
    0.00000E+00         0.00000E+00        -0.20833E+07
 
    0.25434E+06         0.75171E-08         0.00000E+00
    0.75171E-08        -0.10671E+08         0.00000E+00
    0.00000E+00         0.00000E+00        -0.20833E+07
 
    0.25434E+06         0.11565E-07         0.00000E+00
    0.11565E-07        -0.10671E+08         0.00000E+00
    0.00000E+00         0.00000E+00        -0.20833E+07
 
    0.25434E+06         0.46259E-08         0.00000E+00
    0.46259E-08        -0.10671E+08         0.00000E+00
    0.00000E+00         0.00000E+00        -0.20833E+07
 
    0.25434E+06        -0.10408E-07         0.00000E+00
   -0.10408E-07        -0.10671E+08         0.00000E+00
    0.00000E+00         0.00000E+00        -0.20833E+07
 
    0.25434E+06        -0.34694E-08         0.00000E+00
   -0.34694E-08        -0.10671E+08         0.00000E+00
    0.00000E+00         0.00000E+00        -0.20833E+07
 
    0.25434E+06         0.12721E-07         0.00000E+00
    0.12721E-07        -0.10671E+08         0.00000E+00
    0.00000E+00         0.00000E+00        -0.20833E+07
 
    0.25434E+06         0.11565E-08         0.00000E+00
    0.11565E-08        -0.10671E+08         0.00000E+00
    0.00000E+00         0.00000E+00        -0.20833E+07
 
    0.41921E+08         0.38164E-07         0.00000E+00
    0.38164E-07         0.15600E+09         0.00000E+00
    0.00000E+00         0.00000E+00         0.39583E+08
 
    0.25433E+06         0.57824E-09         0.00000E+00
    0.57824E-09        -0.10671E+08         0.00000E+00
    0.00000E+00         0.00000E+00        -0.20833E+07
 
    0.25433E+06         0.57824E-08         0.00000E+00
    0.57824E-08        -0.10671E+08         0.00000E+00
    0.00000E+00         0.00000E+00        -0.20833E+07
 
    0.25433E+06        -0.11565E-08         0.00000E+00
   -0.11565E-08        -0.10671E+08         0.00000E+00
    0.00000E+00         0.00000E+00        -0.20833E+07
 
    0.25433E+06         0.69389E-08         0.00000E+00
    0.69389E-08        -0.10671E+08         0.00000E+00
    0.00000E+00         0.00000E+00        -0.20833E+07
 
    0.25433E+06        -0.34694E-08         0.00000E+00
   -0.34694E-08        -0.10671E+08         0.00000E+00
    0.00000E+00         0.00000E+00        -0.20833E+07
 
    0.25433E+06         0.16191E-07         0.00000E+00
    0.16191E-07        -0.10671E+08         0.00000E+00
    0.00000E+00         0.00000E+00        -0.20833E+07
 
    0.25433E+06        -0.63607E-08         0.00000E+00
   -0.63607E-08        -0.10671E+08         0.00000E+00
    0.00000E+00         0.00000E+00        -0.20833E+07
 
    0.25433E+06        -0.19082E-07         0.00000E+00
   -0.19082E-07        -0.10671E+08         0.00000E+00
    0.00000E+00         0.00000E+00        -0.20833E+07
 
    0.25433E+06        -0.46259E-08         0.00000E+00
   -0.46259E-08        -0.10671E+08         0.00000E+00
    0.00000E+00         0.00000E+00        -0.20833E+07
 
    0.25433E+06        -0.34694E-08         0.00000E+00
   -0.34694E-08        -0.10671E+08         0.00000E+00
    0.00000E+00         0.00000E+00        -0.20833E+07
 
    0.25433E+06        -0.46259E-08         0.00000E+00
   -0.46259E-08        -0.10671E+08         0.00000E+00
    0.00000E+00         0.00000E+00        -0.20833E+07
 
    0.25433E+06        -0.57824E-08         0.00000E+00
   -0.57824E-08        -0.10671E+08         0.00000E+00
    0.00000E+00         0.00000E+00        -0.20833E+07
 
    0.25433E+06        -0.20238E-07         0.00000E+00
   -0.20238E-07        -0.10671E+08         0.00000E+00
    0.00000E+00         0.00000E+00        -0.20833E+07
 
    0.25433E+06        -0.23130E-08         0.00000E+00
   -0.23130E-08        -0.10671E+08         0.00000E+00
    0.00000E+00         0.00000E+00        -0.20833E+07
 
    0.41921E+08        -0.53198E-07         0.00000E+00
   -0.53198E-07         0.15600E+09         0.00000E+00
    0.00000E+00         0.00000E+00         0.39583E+08
 
    0.25432E+06         0.10408E-07         0.00000E+00
    0.10408E-07        -0.10671E+08         0.00000E+00
    0.00000E+00         0.00000E+00        -0.20833E+07
 
    0.25432E+06         0.18504E-07         0.00000E+00
    0.18504E-07        -0.10671E+08         0.00000E+00
    0.00000E+00         0.00000E+00        -0.20833E+07
 
    0.25432E+06         0.69389E-08         0.00000E+00
    0.69389E-08        -0.10671E+08         0.00000E+00
    0.00000E+00         0.00000E+00        -0.20833E+07
 
    0.25432E+06        -0.57824E-09         0.00000E+00
   -0.57824E-09        -0.10671E+08         0.00000E+00
    0.00000E+00         0.00000E+00        -0.20833E+07
 
    0.25432E+06         0.92519E-08         0.00000E+00
    0.92519E-08        -0.10671E+08         0.00000E+00
    0.00000E+00         0.00000E+00        -0.20833E+07
 
    0.25432E+06         0.34694E-08         0.00000E+00
    0.34694E-08        -0.10671E+08         0.00000E+00
    0.00000E+00         0.00000E+00        -0.20833E+07
 
    0.25432E+06         0.92519E-08         0.00000E+00
    0.92519E-08        -0.10671E+08         0.00000E+00
    0.00000E+00         0.00000E+00        -0.20833E+07
 
    0.25432E+06         0.86736E-08         0.00000E+00
    0.86736E-08        -0.10671E+08         0.00000E+00
    0.00000E+00         0.00000E+00        -0.20833E+07
 
    0.25432E+06         0.63607E-08         0.00000E+00
    0.63607E-08        -0.10671E+08         0.00000E+00
    0.00000E+00         0.00000E+00        -0.20833E+07
 
    0.25432E+06         0.57824E-09         0.00000E+00
    0.57824E-09        -0.10671E+08         0.00000E+00
    0.00000E+00         0.00000E+00        -0.20833E+07
 
    0.25432E+06        -0.69389E-08         0.00000E+00
   -0.69389E-08        -0.10671E+08         0.00000E+00
    0.00000E+00         0.00000E+00        -0.20833E+07
 
    0.25432E+06         0.17347E-08         0.00000E+00
    0.17347E-08        -0.10671E+08         0.00000E+00
    0.00000E+00         0.00000E+00        -0.20833E+07
 
    0.25432E+06        -0.57824E-09         0.00000E+00
   -0.57824E-09        -0.10671E+08         0.00000E+00
    0.00000E+00         0.00000E+00        -0.20833E+07
 
    0.25432E+06        -0.69389E-08         0.00000E+00
   -0.69389E-08        -0.10671E+08         0.00000E+00
    0.00000E+00         0.00000E+00        -0.20833E+07
 
    0.41921E+08         0.60137E-07         0.00000E+00
    0.60137E-07         0.15600E+09         0.00000E+00
    0.00000E+00         0.00000E+00         0.39583E+08
 
    0.25430E+06        -0.80954E-08         0.00000E+00
   -0.80954E-08        -0.10671E+08         0.00000E+00
    0.00000E+00         0.00000E+00        -0.20834E+07
 
    0.25430E+06        -0.34694E-08         0.00000E+00
   -0.34694E-08        -0.10671E+08         0.00000E+00
    0.00000E+00         0.00000E+00        -0.20834E+07
 
    0.25430E+06        -0.46259E-08         0.00000E+00
   -0.46259E-08        -0.10671E+08         0.00000E+00
    0.00000E+00         0.00000E+00        -0.20834E+07
 
    0.25430E+06         0.00000E+00         0.00000E+00
    0.00000E+00        -0.10671E+08         0.00000E+00
    0.00000E+00         0.00000E+00        -0.20834E+07
 
    0.25430E+06         0.12143E-07         0.00000E+00
    0.12143E-07        -0.10671E+08         0.00000E+00
    0.00000E+00         0.00000E+00        -0.20834E+07
 
    0.25430E+06         0.00000E+00         0.00000E+00
    0.00000E+00        -0.10671E+08         0.00000E+00
    0.00000E+00         0.00000E+00        -0.20834E+07
 
    0.25430E+06        -0.13878E-07         0.00000E+00
   -0.13878E-07        -0.10671E+08         0.00000E+00
    0.00000E+00         0.00000E+00        -0.20834E+07
 
    0.25430E+06        -0.52042E-08         0.00000E+00
   -0.52042E-08        -0.10671E+08         0.00000E+00
    0.00000E+00         0.00000E+00        -0.20834E+07
 
    0.25430E+06         0.86736E-08         0.00000E+00
    0.86736E-08        -0.10671E+08         0.00000E+00
    0.00000E+00         0.00000E+00        -0.20834E+07
 
    0.25430E+06        -0.75171E-08         0.00000E+00
   -0.75171E-08        -0.10671E+08         0.00000E+00
    0.00000E+00         0.00000E+00        -0.20834E+07
 
    0.25430E+06         0.11565E-08         0.00000E+00
    0.11565E-08        -0.10671E+08         0.00000E+00
    0.00000E+00         0.00000E+00        -0.20834E+07
 
    0.25430E+06        -0.28912E-08         0.00000E+00
   -0.28912E-08        -0.10671E+08         0.00000E+00
    0.00000E+00         0.00000E+00        -0.20834E+07
 
    0.25430E+06         0.21973E-07         0.00000E+00
    0.21973E-07        -0.10671E+08         0.00000E+00
    0.00000E+00         0.00000E+00        -0.20834E+07
 
    0.25430E+06         0.00000E+00         0.00000E+00
    0.00000E+00        -0.10671E+08         0.00000E+00
    0.00000E+00         0.00000E+00        -0.20834E+07
 
    0.41921E+08        -0.40477E-07         0.00000E+00
   -0.40477E-07         0.15600E+09         0.00000E+00
    0.00000E+00         0.00000E+00         0.39583E+08
 
    0.25427E+06         0.34694E-08         0.00000E+00
    0.34694E-08        -0.10671E+08         0.00000E+00
    0.00000E+00         0.00000E+00        -0.20834E+07
 
    0.25427E+06         0.86736E-08         0.00000E+00
    0.86736E-08        -0.10671E+08         0.00000E+00
    0.00000E+00         0.00000E+00        -0.20834E+07
 
    0.25427E+06        -0.11565E-08         0.00000E+00
   -0.11565E-08        -0.10671E+08         0.00000E+00
    0.00000E+00         0.00000E+00        -0.20834E+07
 
    0.25427E+06        -0.23130E-08         0.00000E+00
   -0.23130E-08        -0.10671E+08         0.00000E+00
    0.00000E+00         0.00000E+00        -0.20834E+07
 
    0.25427E+06         0.11565E-07         0.00000E+00
    0.11565E-07        -0.10671E+08         0.00000E+00
    0.00000E+00         0.00000E+00        -0.20834E+07
 
    0.25427E+06        -0.46259E-08         0.00000E+00
   -0.46259E-08        -0.10671E+08         0.00000E+00
    0.00000E+00         0.00000E+00        -0.20834E+07
 
    0.25427E+06        -0.57824E-08         0.00000E+00
   -0.57824E-08        -0.10671E+08         0.00000E+00
    0.00000E+00         0.00000E+00        -0.20834E+07
 
    0.25427E+06         0.11565E-08         0.00000E+00
    0.11565E-08        -0.10671E+08         0.00000E+00
    0.00000E+00         0.00000E+00        -0.20834E+07
 
    0.25427E+06         0.12143E-07         0.00000E+00
    0.12143E-07        -0.10671E+08         0.00000E+00
    0.00000E+00         0.00000E+00        -0.20834E+07
 
    0.25427E+06        -0.11565E-07         0.00000E+00
   -0.11565E-07        -0.10671E+08         0.00000E+00
    0.00000E+00         0.00000E+00        -0.20834E+07
 
    0.25427E+06         0.00000E+00         0.00000E+00
    0.00000E+00        -0.10671E+08         0.00000E+00
    0.00000E+00         0.00000E+00        -0.20834E+07
 
    0.25427E+06        -0.11565E-08         0.00000E+00
   -0.11565E-08        -0.10671E+08         0.00000E+00
    0.00000E+00         0.00000E+00        -0.20834E+07
 
    0.25427E+06         0.80954E-08         0.00000E+00
    0.80954E-08        -0.10671E+08         0.00000E+00
    0.00000E+00         0.00000E+00        -0.20834E+07
 
    0.25427E+06         0.23130E-08         0.00000E+00
    0.23130E-08        -0.10671E+08         0.00000E+00
    0.00000E+00         0.00000E+00        -0.20834E+07
 
    0.41921E+08         0.57824E-08         0.00000E+00
    0.57824E-08         0.15600E+09         0.00000E+00
    0.00000E+00         0.00000E+00         0.39583E+08
 
    0.25424E+06         0.23130E-08         0.00000E+00
    0.23130E-08        -0.10671E+08         0.00000E+00
    0.00000E+00         0.00000E+00        -0.20834E+07
 
    0.25424E+06         0.12143E-07         0.00000E+00
    0.12143E-07        -0.10671E+08         0.00000E+00
    0.00000E+00         0.00000E+00        -0.20834E+07
 
    0.25424E+06         0.46259E-08         0.00000E+00
    0.46259E-08        -0.10671E+08         0.00000E+00
    0.00000E+00         0.00000E+00        -0.20834E+07
 
    0.25424E+06        -0.57824E-09         0.00000E+00
   -0.57824E-09        -0.10671E+08         0.00000E+00
    0.00000E+00         0.00000E+00        -0.20834E+07
 
    0.25424E+06         0.13300E-07         0.00000E+00
    0.13300E-07        -0.10671E+08         0.00000E+00
    0.00000E+00         0.00000E+00        -0.20834E+07
 
    0.25424E+06        -0.57824E-08         0.00000E+00
   -0.57824E-08        -0.10671E+08         0.00000E+00
    0.00000E+00         0.00000E+00        -0.20834E+07
 
    0.25424E+06        -0.11565E-08         0.00000E+00
   -0.11565E-08        -0.10671E+08         0.00000E+00
    0.00000E+00         0.00000E+00        -0.20834E+07
 
    0.25424E+06        -0.98301E-08         0.00000E+00
   -0.98301E-08        -0.10671E+08         0.00000E+00
    0.00000E+00         0.00000E+00        -0.20834E+07
 
    0.25424E+06         0.15034E-07         0.00000E+00
    0.15034E-07        -0.10671E+08         0.00000E+00
    0.00000E+00         0.00000E+00        -0.20834E+07
 
    0.25424E+06         0.57824E-08         0.00000E+00
    0.57824E-08        -0.10671E+08         0.00000E+00
    0.00000E+00         0.00000E+00        -0.20834E+07
 
    0.25424E+06        -0.23130E-08         0.00000E+00
   -0.23130E-08        -0.10671E+08         0.00000E+00
    0.00000E+00         0.00000E+00        -0.20834E+07
 
    0.25424E+06        -0.57824E-09         0.00000E+00
   -0.57824E-09        -0.10671E+08         0.00000E+00
    0.00000E+00         0.00000E+00        -0.20834E+07
 
    0.25424E+06         0.80954E-08         0.00000E+00
    0.80954E-08        -0.10671E+08         0.00000E+00
    0.00000E+00         0.00000E+00        -0.20834E+07
 
    0.25424E+06        -0.16191E-07         0.00000E+00
   -0.16191E-07        -0.10671E+08         0.00000E+00
    0.00000E+00         0.00000E+00        -0.20834E+07
 
    0.41921E+08         0.55511E-07         0.00000E+00
    0.55511E-07         0.15600E+09         0.00000E+00
    0.00000E+00         0.00000E+00         0.39583E+08
 
    0.25420E+06        -0.14456E-07         0.00000E+00
   -0.14456E-07        -0.10671E+08         0.00000E+00
    0.00000E+00         0.00000E+00        -0.20834E+07
 
    0.25420E+06         0.11565E-07         0.00000E+00
    0.11565E-07        -0.10671E+08         0.00000E+00
    0.00000E+00         0.00000E+00        -0.20834E+07
 
    0.25420E+06        -0.28912E-08         0.00000E+00
   -0.28912E-08        -0.10671E+08         0.00000E+00
    0.00000E+00         0.00000E+00        -0.20834E+07
 
    0.25420E+06         0.13878E-07         0.00000E+00
    0.13878E-07        -0.10671E+08         0.00000E+00
    0.00000E+00         0.00000E+00        -0.20834E+07
 
    0.25420E+06        -0.98301E-08         0.00000E+00
   -0.98301E-08        -0.10671E+08         0.00000E+00
    0.00000E+00         0.00000E+00        -0.20834E+07
 
    0.25420E+06        -0.40477E-08         0.00000E+00
   -0.40477E-08        -0.10671E+08         0.00000E+00
    0.00000E+00         0.00000E+00        -0.20834E+07
 
    0.25420E+06        -0.86736E-08         0.00000E+00
   -0.86736E-08        -0.10671E+08         0.00000E+00
    0.00000E+00         0.00000E+00        -0.20834E+07
 
    0.25420E+06         0.10987E-07         0.00000E+00
    0.10987E-07        -0.10671E+08         0.00000E+00
    0.00000E+00         0.00000E+00        -0.20834E+07
 
    0.25420E+06         0.10408E-07         0.00000E+00
    0.10408E-07        -0.10671E+08         0.00000E+00
    0.00000E+00         0.00000E+00        -0.20834E+07
 
    0.25420E+06        -0.80954E-08         0.00000E+00
   -0.80954E-08        -0.10671E+08         0.00000E+00
    0.00000E+00         0.00000E+00        -0.20834E+07
 
    0.25420E+06         0.13878E-07         0.00000E+00
    0.13878E-07        -0.10671E+08         0.00000E+00
    0.00000E+00         0.00000E+00        -0.20834E+07
 
    0.25420E+06        -0.14456E-07         0.00000E+00
   -0.14456E-07        -0.10671E+08         0.00000E+00
    0.00000E+00         0.00000E+00        -0.20834E+07
 
    0.25420E+06         0.00000E+00         0.00000E+00
    0.00000E+00        -0.10671E+08         0.00000E+00
    0.00000E+00         0.00000E+00        -0.20834E+07
 
    0.25420E+06         0.34694E-08         0.00000E+00
    0.34694E-08        -0.10671E+08         0.00000E+00
    0.00000E+00         0.00000E+00        -0.20834E+07
 
    0.41921E+08        -0.23130E-07         0.00000E+00
   -0.23130E-07         0.15600E+09         0.00000E+00
    0.00000E+00         0.00000E+00         0.39583E+08
 
    0.25414E+06         0.46259E-08         0.00000E+00
    0.46259E-08        -0.10671E+08         0.00000E+00
    0.00000E+00         0.00000E+00        -0.20834E+07
 
    0.25414E+06        -0.46259E-08         0.00000E+00
   -0.46259E-08        -0.10671E+08         0.00000E+00
    0.00000E+00         0.00000E+00        -0.20834E+07
 
    0.25414E+06         0.23130E-08         0.00000E+00
    0.23130E-08        -0.10671E+08         0.00000E+00
    0.00000E+00         0.00000E+00        -0.20834E+07
 
    0.25414E+06        -0.69389E-08         0.00000E+00
   -0.69389E-08        -0.10671E+08         0.00000E+00
    0.00000E+00         0.00000E+00        -0.20834E+07
 
    0.25414E+06         0.00000E+00         0.00000E+00
    0.00000E+00        -0.10671E+08         0.00000E+00
    0.00000E+00         0.00000E+00        -0.20834E+07
 
    0.25414E+06         0.57824E-08         0.00000E+00
    0.57824E-08        -0.10671E+08         0.00000E+00
    0.00000E+00         0.00000E+00        -0.20834E+07
 
    0.25414E+06        -0.11565E-08         0.00000E+00
   -0.11565E-08        -0.10671E+08         0.00000E+00
    0.00000E+00         0.00000E+00        -0.20834E+07
 
    0.25414E+06        -0.17347E-08         0.00000E+00
   -0.17347E-08        -0.10671E+08         0.00000E+00
    0.00000E+00         0.00000E+00        -0.20834E+07
 
    0.25414E+06        -0.17347E-08         0.00000E+00
   -0.17347E-08        -0.10671E+08         0.00000E+00
    0.00000E+00         0.00000E+00        -0.20834E+07
 
    0.25414E+06        -0.23130E-08         0.00000E+00
   -0.23130E-08        -0.10671E+08         0.00000E+00
    0.00000E+00         0.00000E+00        -0.20834E+07
 
    0.25414E+06         0.15613E-07         0.00000E+00
    0.15613E-07        -0.10671E+08         0.00000E+00
    0.00000E+00         0.00000E+00        -0.20834E+07
 
    0.25414E+06        -0.11565E-07         0.00000E+00
   -0.11565E-07        -0.10671E+08         0.00000E+00
    0.00000E+00         0.00000E+00        -0.20834E+07
 
    0.25414E+06        -0.23130E-08         0.00000E+00
   -0.23130E-08        -0.10671E+08         0.00000E+00
    0.00000E+00         0.00000E+00        -0.20834E+07
 
    0.25414E+06         0.17347E-07         0.00000E+00
    0.17347E-07        -0.10671E+08         0.00000E+00
    0.00000E+00         0.00000E+00        -0.20834E+07
 
    0.41921E+08        -0.49729E-07         0.00000E+00
   -0.49729E-07         0.15600E+09         0.00000E+00
    0.00000E+00         0.00000E+00         0.39583E+08
 
    0.25406E+06        -0.46259E-08         0.00000E+00
   -0.46259E-08        -0.10671E+08         0.00000E+00
    0.00000E+00         0.00000E+00        -0.20834E+07
 
    0.25406E+06         0.98301E-08         0.00000E+00
    0.98301E-08        -0.10671E+08         0.00000E+00
    0.00000E+00         0.00000E+00        -0.20834E+07
 
    0.25406E+06        -0.75171E-08         0.00000E+00
   -0.75171E-08        -0.10671E+08         0.00000E+00
    0.00000E+00         0.00000E+00        -0.20834E+07
 
    0.25406E+06         0.10408E-07         0.00000E+00
    0.10408E-07        -0.10671E+08         0.00000E+00
    0.00000E+00         0.00000E+00        -0.20834E+07
 
    0.25406E+06        -0.17347E-07         0.00000E+00
   -0.17347E-07        -0.10671E+08         0.00000E+00
    0.00000E+00         0.00000E+00        -0.20834E+07
 
    0.25406E+06         0.40477E-08         0.00000E+00
    0.40477E-08        -0.10671E+08         0.00000E+00
    0.00000E+00         0.00000E+00        -0.20834E+07
 
    0.25406E+06         0.40477E-08         0.00000E+00
    0.40477E-08        -0.10671E+08         0.00000E+00
    0.00000E+00         0.00000E+00        -0.20834E+07
 
    0.25406E+06        -0.57824E-08         0.00000E+00
   -0.57824E-08        -0.10671E+08         0.00000E+00
    0.00000E+00         0.00000E+00        -0.20834E+07
 
    0.25406E+06        -0.11565E-08         0.00000E+00
   -0.11565E-08        -0.10671E+08         0.00000E+00
    0.00000E+00         0.00000E+00        -0.20834E+07
 
    0.25406E+06        -0.17347E-08         0.00000E+00
   -0.17347E-08        -0.10671E+08         0.00000E+00
    0.00000E+00         0.00000E+00        -0.20834E+07
 
    0.25406E+06         0.15613E-07         0.00000E+00
    0.15613E-07        -0.10671E+08         0.00000E+00
    0.00000E+00         0.00000E+00        -0.20834E+07
 
    0.25406E+06        -0.11565E-07         0.00000E+00
   -0.11565E-07        -0.10671E+08         0.00000E+00
    0.00000E+00         0.00000E+00        -0.20834E+07
 
    0.25406E+06         0.23130E-08         0.00000E+00
    0.23130E-08        -0.10671E+08         0.00000E+00
    0.00000E+00         0.00000E+00        -0.20834E+07
 
    0.25406E+06        -0.92519E-08         0.00000E+00
   -0.92519E-08        -0.10671E+08         0.00000E+00
    0.00000E+00         0.00000E+00        -0.20834E+07
 
    0.41921E+08         0.57824E-08         0.00000E+00
    0.57824E-08         0.15600E+09         0.00000E+00
    0.00000E+00         0.00000E+00         0.39583E+08
 
    0.25397E+06         0.17347E-08         0.00000E+00
    0.17347E-08        -0.10671E+08         0.00000E+00
    0.00000E+00         0.00000E+00        -0.20834E+07
 
    0.25397E+06        -0.69389E-08         0.00000E+00
   -0.69389E-08        -0.10671E+08         0.00000E+00
    0.00000E+00         0.00000E+00        -0.20834E+07
 
    0.25397E+06        -0.12721E-07         0.00000E+00
   -0.12721E-07        -0.10671E+08         0.00000E+00
    0.00000E+00         0.00000E+00        -0.20834E+07
 
    0.25397E+06         0.12721E-07         0.00000E+00
    0.12721E-07        -0.10671E+08         0.00000E+00
    0.00000E+00         0.00000E+00        -0.20834E+07
 
    0.25397E+06        -0.15034E-07         0.00000E+00
   -0.15034E-07        -0.10671E+08         0.00000E+00
    0.00000E+00         0.00000E+00        -0.20834E+07
 
    0.25397E+06         0.11565E-08         0.00000E+00
    0.11565E-08        -0.10671E+08         0.00000E+00
    0.00000E+00         0.00000E+00        -0.20834E+07
 
    0.25397E+06        -0.52042E-08         0.00000E+00
   -0.52042E-08        -0.10671E+08         0.00000E+00
    0.00000E+00         0.00000E+00        -0.20834E+07
 
    0.25397E+06        -0.23130E-08         0.00000E+00
   -0.23130E-08        -0.10671E+08         0.00000E+00
    0.00000E+00         0.00000E+00        -0.20834E+07
 
    0.25397E+06        -0.23130E-08         0.00000E+00
   -0.23130E-08        -0.10671E+08         0.00000E+00
    0.00000E+00         0.00000E+00        -0.20834E+07
 
    0.25397E+06         0.52042E-08         0.00000E+00
    0.52042E-08        -0.10671E+08         0.00000E+00
    0.00000E+00         0.00000E+00        -0.20834E+07
 
    0.25397E+06         0.11565E-07         0.00000E+00
    0.11565E-07        -0.10671E+08         0.00000E+00
    0.00000E+00         0.00000E+00        -0.20834E+07
 
    0.25397E+06        -0.15034E-07         0.00000E+00
   -0.15034E-07        -0.10671E+08         0.00000E+00
    0.00000E+00         0.00000E+00        -0.20834E+07
 
    0.25397E+06         0.23130E-08         0.00000E+00
    0.23130E-08        -0.10671E+08         0.00000E+00
    0.00000E+00         0.00000E+00        -0.20834E+07
 
    0.25397E+06        -0.80954E-08         0.00000E+00
   -0.80954E-08        -0.10671E+08         0.00000E+00
    0.00000E+00         0.00000E+00        -0.20834E+07
 
    0.41921E+08        -0.69389E-08         0.00000E+00
   -0.69389E-08         0.15600E+09         0.00000E+00
    0.00000E+00         0.00000E+00         0.39583E+08
 
    0.25384E+06        -0.57824E-08         0.00000E+00
   -0.57824E-08        -0.10671E+08         0.00000E+00
    0.00000E+00         0.00000E+00        -0.20835E+07
 
    0.25384E+06         0.46259E-08         0.00000E+00
    0.46259E-08        -0.10671E+08         0.00000E+00
    0.00000E+00         0.00000E+00        -0.20835E+07
 
    0.25384E+06         0.11565E-08         0.00000E+00
    0.11565E-08        -0.10671E+08         0.00000E+00
    0.00000E+00         0.00000E+00        -0.20835E+07
 
    0.25384E+06        -0.69389E-08         0.00000E+00
   -0.69389E-08        -0.10671E+08         0.00000E+00
    0.00000E+00         0.00000E+00        -0.20835E+07
 
    0.25384E+06        -0.34694E-08         0.00000E+00
   -0.34694E-08        -0.10671E+08         0.00000E+00
    0.00000E+00         0.00000E+00        -0.20835E+07
 
    0.25384E+06        -0.11565E-08         0.00000E+00
   -0.11565E-08        -0.10671E+08         0.00000E+00
    0.00000E+00         0.00000E+00        -0.20835E+07
 
    0.25384E+06        -0.34694E-08         0.00000E+00
   -0.34694E-08        -0.10671E+08         0.00000E+00
    0.00000E+00         0.00000E+00        -0.20835E+07
 
    0.25384E+06         0.17347E-08         0.00000E+00
    0.17347E-08        -0.10671E+08         0.00000E+00
    0.00000E+00         0.00000E+00        -0.20835E+07
 
    0.25384E+06        -0.23130E-08         0.00000E+00
   -0.23130E-08        -0.10671E+08         0.00000E+00
    0.00000E+00         0.00000E+00        -0.20835E+07
 
    0.25384E+06        -0.75171E-08         0.00000E+00
   -0.75171E-08        -0.10671E+08         0.00000E+00
    0.00000E+00         0.00000E+00        -0.20835E+07
 
    0.25384E+06        -0.57824E-08         0.00000E+00
   -0.57824E-08        -0.10671E+08         0.00000E+00
    0.00000E+00         0.00000E+00        -0.20835E+07
 
    0.25384E+06        -0.34694E-08         0.00000E+00
   -0.34694E-08        -0.10671E+08         0.00000E+00
    0.00000E+00         0.00000E+00        -0.20835E+07
 
    0.25384E+06         0.00000E+00         0.00000E+00
    0.00000E+00        -0.10671E+08         0.00000E+00
    0.00000E+00         0.00000E+00        -0.20835E+07
 
    0.25384E+06        -0.23130E-08         0.00000E+00
   -0.23130E-08        -0.10671E+08         0.00000E+00
    0.00000E+00         0.00000E+00        -0.20835E+07
 
    0.41920E+08         0.56668E-07         0.00000E+00
    0.56668E-07         0.15600E+09         0.00000E+00
    0.00000E+00         0.00000E+00         0.39583E+08
 
    0.25367E+06        -0.34694E-08         0.00000E+00
   -0.34694E-08        -0.10671E+08         0.00000E+00
    0.00000E+00         0.00000E+00        -0.20835E+07
 
    0.25367E+06         0.80954E-08         0.00000E+00
    0.80954E-08        -0.10671E+08         0.00000E+00
    0.00000E+00         0.00000E+00        -0.20835E+07
 
    0.25367E+06         0.12721E-07         0.00000E+00
    0.12721E-07        -0.10671E+08         0.00000E+00
    0.00000E+00         0.00000E+00        -0.20835E+07
 
    0.25367E+06         0.34694E-08         0.00000E+00
    0.34694E-08        -0.10671E+08         0.00000E+00
    0.00000E+00         0.00000E+00        -0.20835E+07
 
    0.25367E+06        -0.57824E-09         0.00000E+00
   -0.57824E-09        -0.10671E+08         0.00000E+00
    0.00000E+00         0.00000E+00        -0.20835E+07
 
    0.25367E+06         0.23130E-08         0.00000E+00
    0.23130E-08        -0.10671E+08         0.00000E+00
    0.00000E+00         0.00000E+00        -0.20835E+07
 
    0.25367E+06         0.11565E-08         0.00000E+00
    0.11565E-08        -0.10671E+08         0.00000E+00
    0.00000E+00         0.00000E+00        -0.20835E+07
 
    0.25367E+06        -0.14456E-07         0.00000E+00
   -0.14456E-07        -0.10671E+08         0.00000E+00
    0.00000E+00         0.00000E+00        -0.20835E+07
 
    0.25367E+06         0.86736E-08         0.00000E+00
    0.86736E-08        -0.10671E+08         0.00000E+00
    0.00000E+00         0.00000E+00        -0.20835E+07
 
    0.25367E+06        -0.34694E-08         0.00000E+00
   -0.34694E-08        -0.10671E+08         0.00000E+00
    0.00000E+00         0.00000E+00        -0.20835E+07
 
    0.25367E+06         0.10408E-07         0.00000E+00
    0.10408E-07        -0.10671E+08         0.00000E+00
    0.00000E+00         0.00000E+00        -0.20835E+07
 
    0.25367E+06        -0.23130E-07         0.00000E+00
   -0.23130E-07        -0.10671E+08         0.00000E+00
    0.00000E+00         0.00000E+00        -0.20835E+07
 
    0.25367E+06         0.20817E-07         0.00000E+00
    0.20817E-07        -0.10671E+08         0.00000E+00
    0.00000E+00         0.00000E+00        -0.20835E+07
 
    0.25367E+06         0.23130E-08         0.00000E+00
    0.23130E-08        -0.10671E+08         0.00000E+00
    0.00000E+00         0.00000E+00        -0.20835E+07
 
    0.41920E+08        -0.60137E-07         0.00000E+00
   -0.60137E-07         0.15600E+09         0.00000E+00
    0.00000E+00         0.00000E+00         0.39583E+08
 
    0.25344E+06         0.46259E-08         0.00000E+00
    0.46259E-08        -0.10671E+08         0.00000E+00
    0.00000E+00         0.00000E+00        -0.20836E+07
 
    0.25344E+06         0.12721E-07         0.00000E+00
    0.12721E-07        -0.10671E+08         0.00000E+00
    0.00000E+00         0.00000E+00        -0.20836E+07
 
    0.25344E+06        -0.46259E-08         0.00000E+00
   -0.46259E-08        -0.10671E+08         0.00000E+00
    0.00000E+00         0.00000E+00        -0.20836E+07
 
    0.25344E+06         0.46259E-08         0.00000E+00
    0.46259E-08        -0.10671E+08         0.00000E+00
    0.00000E+00         0.00000E+00        -0.20836E+07
 
    0.25344E+06        -0.34694E-08         0.00000E+00
   -0.34694E-08        -0.10671E+08         0.00000E+00
    0.00000E+00         0.00000E+00        -0.20836E+07
 
    0.25344E+06        -0.17347E-08         0.00000E+00
   -0.17347E-08        -0.10671E+08         0.00000E+00
    0.00000E+00         0.00000E+00        -0.20836E+07
 
    0.25344E+06        -0.46259E-08         0.00000E+00
   -0.46259E-08        -0.10671E+08         0.00000E+00
    0.00000E+00         0.00000E+00        -0.20836E+07
 
    0.25344E+06         0.57824E-09         0.00000E+00
    0.57824E-09        -0.10671E+08         0.00000E+00
    0.00000E+00         0.00000E+00        -0.20836E+07
 
    0.25344E+06         0.00000E+00         0.00000E+00
    0.00000E+00        -0.10671E+08         0.00000E+00
    0.00000E+00         0.00000E+00        -0.20836E+07
 
    0.25344E+06        -0.19660E-07         0.00000E+00
   -0.19660E-07        -0.10671E+08         0.00000E+00
    0.00000E+00         0.00000E+00        -0.20836E+07
 
    0.25344E+06         0.26599E-07         0.00000E+00
    0.26599E-07        -0.10671E+08         0.00000E+00
    0.00000E+00         0.00000E+00        -0.20836E+07
 
    0.25344E+06         0.57824E-08         0.00000E+00
    0.57824E-08        -0.10671E+08         0.00000E+00
    0.00000E+00         0.00000E+00        -0.20836E+07
 
    0.25344E+06         0.57824E-08         0.00000E+00
    0.57824E-08        -0.10671E+08         0.00000E+00
    0.00000E+00         0.00000E+00        -0.20836E+07
 
    0.25344E+06         0.11565E-08         0.00000E+00
    0.11565E-08        -0.10671E+08         0.00000E+00
    0.00000E+00         0.00000E+00        -0.20836E+07
 
    0.41920E+08         0.45103E-07         0.00000E+00
    0.45103E-07         0.15600E+09         0.00000E+00
    0.00000E+00         0.00000E+00         0.39583E+08
 
    0.25315E+06         0.00000E+00         0.00000E+00
    0.00000E+00        -0.10671E+08         0.00000E+00
    0.00000E+00         0.00000E+00        -0.20836E+07
 
    0.25315E+06         0.11565E-07         0.00000E+00
    0.11565E-07        -0.10671E+08         0.00000E+00
    0.00000E+00         0.00000E+00        -0.20836E+07
 
    0.25315E+06         0.23130E-08         0.00000E+00
    0.23130E-08        -0.10671E+08         0.00000E+00
    0.00000E+00         0.00000E+00        -0.20836E+07
 
    0.25315E+06         0.12721E-07         0.00000E+00
    0.12721E-07        -0.10671E+08         0.00000E+00
    0.00000E+00         0.00000E+00        -0.20836E+07
 
    0.25315E+06         0.10987E-07         0.00000E+00
    0.10987E-07        -0.10671E+08         0.00000E+00
    0.00000E+00         0.00000E+00        -0.20836E+07
 
    0.25315E+06         0.92519E-08         0.00000E+00
    0.92519E-08        -0.10671E+08         0.00000E+00
    0.00000E+00         0.00000E+00        -0.20836E+07
 
    0.25315E+06        -0.40477E-08         0.00000E+00
   -0.40477E-08        -0.10671E+08         0.00000E+00
    0.00000E+00         0.00000E+00        -0.20836E+07
 
    0.25315E+06         0.10408E-07         0.00000E+00
    0.10408E-07        -0.10671E+08         0.00000E+00
    0.00000E+00         0.00000E+00        -0.20836E+07
 
    0.25315E+06        -0.11565E-07         0.00000E+00
   -0.11565E-07        -0.10671E+08         0.00000E+00
    0.00000E+00         0.00000E+00        -0.20836E+07
 
    0.25315E+06        -0.46259E-08         0.00000E+00
   -0.46259E-08        -0.10671E+08         0.00000E+00
    0.00000E+00         0.00000E+00        -0.20836E+07
 
    0.25315E+06         0.80954E-08         0.00000E+00
    0.80954E-08        -0.10671E+08         0.00000E+00
    0.00000E+00         0.00000E+00        -0.20836E+07
 
    0.25315E+06         0.20817E-07         0.00000E+00
    0.20817E-07        -0.10671E+08         0.00000E+00
    0.00000E+00         0.00000E+00        -0.20836E+07
 
    0.25315E+06        -0.18504E-07         0.00000E+00
   -0.18504E-07        -0.10671E+08         0.00000E+00
    0.00000E+00         0.00000E+00        -0.20836E+07
 
    0.25315E+06         0.46259E-08         0.00000E+00
    0.46259E-08        -0.10671E+08         0.00000E+00
    0.00000E+00         0.00000E+00        -0.20836E+07
 
    0.41919E+08        -0.71702E-07         0.00000E+00
   -0.71702E-07         0.15600E+09         0.00000E+00
    0.00000E+00         0.00000E+00         0.39583E+08
 
    0.25276E+06        -0.11565E-08         0.00000E+00
   -0.11565E-08        -0.10671E+08         0.00000E+00
    0.00000E+00         0.00000E+00        -0.20837E+07
 
    0.25276E+06         0.20817E-07         0.00000E+00
    0.20817E-07        -0.10671E+08         0.00000E+00
    0.00000E+00         0.00000E+00        -0.20837E+07
 
    0.25276E+06         0.46259E-08         0.00000E+00
    0.46259E-08        -0.10671E+08         0.00000E+00
    0.00000E+00         0.00000E+00        -0.20837E+07
 
    0.25276E+06        -0.92519E-08         0.00000E+00
   -0.92519E-08        -0.10671E+08         0.00000E+00
    0.00000E+00         0.00000E+00        -0.20837E+07
 
    0.25276E+06         0.57824E-08         0.00000E+00
    0.57824E-08        -0.10671E+08         0.00000E+00
    0.00000E+00         0.00000E+00        -0.20837E+07
 
    0.25276E+06        -0.40477E-08         0.00000E+00
   -0.40477E-08        -0.10671E+08         0.00000E+00
    0.00000E+00         0.00000E+00        -0.20837E+07
 
    0.25276E+06        -0.40477E-08         0.00000E+00
   -0.40477E-08        -0.10671E+08         0.00000E+00
    0.00000E+00         0.00000E+00        -0.20837E+07
 
    0.25276E+06         0.28912E-08         0.00000E+00
    0.28912E-08        -0.10671E+08         0.00000E+00
    0.00000E+00         0.00000E+00        -0.20837E+07
 
    0.25276E+06        -0.46259E-08         0.00000E+00
   -0.46259E-08        -0.10671E+08         0.00000E+00
    0.00000E+00         0.00000E+00        -0.20837E+07
 
    0.25276E+06         0.17347E-07         0.00000E+00
    0.17347E-07        -0.10671E+08         0.00000E+00
    0.00000E+00         0.00000E+00        -0.20837E+07
 
    0.25276E+06        -0.10408E-07         0.00000E+00
   -0.10408E-07        -0.10671E+08         0.00000E+00
    0.00000E+00         0.00000E+00        -0.20837E+07
 
    0.25276E+06         0.15034E-07         0.00000E+00
    0.15034E-07        -0.10671E+08         0.00000E+00
    0.00000E+00         0.00000E+00        -0.20837E+07
 
    0.25276E+06        -0.10408E-07         0.00000E+00
   -0.10408E-07        -0.10671E+08         0.00000E+00
    0.00000E+00         0.00000E+00        -0.20837E+07
 
    0.25276E+06        -0.46259E-08         0.00000E+00
   -0.46259E-08        -0.10671E+08         0.00000E+00
    0.00000E+00         0.00000E+00        -0.20837E+07
 
    0.41919E+08         0.43946E-07         0.00000E+00
    0.43946E-07         0.15600E+09         0.00000E+00
    0.00000E+00         0.00000E+00         0.39583E+08
 
    0.25225E+06        -0.34694E-08         0.00000E+00
   -0.34694E-08        -0.10672E+08         0.00000E+00
    0.00000E+00         0.00000E+00        -0.20839E+07
 
    0.25225E+06         0.46259E-08         0.00000E+00
    0.46259E-08        -0.10672E+08         0.00000E+00
    0.00000E+00         0.00000E+00        -0.20839E+07
 
    0.25225E+06        -0.10408E-07         0.00000E+00
   -0.10408E-07        -0.10672E+08         0.00000E+00
    0.00000E+00         0.00000E+00        -0.20839E+07
 
    0.25225E+06         0.00000E+00         0.00000E+00
    0.00000E+00        -0.10672E+08         0.00000E+00
    0.00000E+00         0.00000E+00        -0.20839E+07
 
    0.25225E+06         0.46259E-08         0.00000E+00
    0.46259E-08        -0.10672E+08         0.00000E+00
    0.00000E+00         0.00000E+00        -0.20839E+07
 
    0.25225E+06         0.00000E+00         0.00000E+00
    0.00000E+00        -0.10672E+08         0.00000E+00
    0.00000E+00         0.00000E+00        -0.20839E+07
 
    0.25225E+06        -0.15613E-07         0.00000E+00
   -0.15613E-07        -0.10672E+08         0.00000E+00
    0.00000E+00         0.00000E+00        -0.20839E+07
 
    0.25225E+06         0.20817E-07         0.00000E+00
    0.20817E-07        -0.10672E+08         0.00000E+00
    0.00000E+00         0.00000E+00        -0.20839E+07
 
    0.25225E+06         0.15613E-07         0.00000E+00
    0.15613E-07        -0.10672E+08         0.00000E+00
    0.00000E+00         0.00000E+00        -0.20839E+07
 
    0.25225E+06        -0.92519E-08         0.00000E+00
   -0.92519E-08        -0.10672E+08         0.00000E+00
    0.00000E+00         0.00000E+00        -0.20839E+07
 
    0.25225E+06         0.11565E-08         0.00000E+00
    0.11565E-08        -0.10672E+08         0.00000E+00
    0.00000E+00         0.00000E+00        -0.20839E+07
 
    0.25225E+06        -0.16191E-07         0.00000E+00
   -0.16191E-07        -0.10672E+08         0.00000E+00
    0.00000E+00         0.00000E+00        -0.20839E+07
 
    0.25225E+06         0.11565E-08         0.00000E+00
    0.11565E-08        -0.10672E+08         0.00000E+00
    0.00000E+00         0.00000E+00        -0.20839E+07
 
    0.25225E+06        -0.16191E-07         0.00000E+00
   -0.16191E-07        -0.10672E+08         0.00000E+00
    0.00000E+00         0.00000E+00        -0.20839E+07
 
    0.41918E+08         0.11565E-07         0.00000E+00
    0.11565E-07         0.15599E+09         0.00000E+00
    0.00000E+00         0.00000E+00         0.39583E+08
 
    0.25158E+06        -0.15034E-07         0.00000E+00
   -0.15034E-07        -0.10672E+08         0.00000E+00
    0.00000E+00         0.00000E+00        -0.20840E+07
 
    0.25158E+06        -0.34694E-08         0.00000E+00
   -0.34694E-08        -0.10672E+08         0.00000E+00
    0.00000E+00         0.00000E+00        -0.20840E+07
 
    0.25158E+06         0.11565E-08         0.00000E+00
    0.11565E-08        -0.10672E+08         0.00000E+00
    0.00000E+00         0.00000E+00        -0.20840E+07
 
    0.25158E+06        -0.11565E-08         0.00000E+00
   -0.11565E-08        -0.10672E+08         0.00000E+00
    0.00000E+00         0.00000E+00        -0.20840E+07
 
    0.25158E+06         0.98301E-08         0.00000E+00
    0.98301E-08        -0.10672E+08         0.00000E+00
    0.00000E+00         0.00000E+00        -0.20840E+07
 
    0.25158E+06         0.75171E-08         0.00000E+00
    0.75171E-08        -0.10672E+08         0.00000E+00
    0.00000E+00         0.00000E+00        -0.20840E+07
 
    0.25158E+06        -0.86736E-08         0.00000E+00
   -0.86736E-08        -0.10672E+08         0.00000E+00
    0.00000E+00         0.00000E+00        -0.20840E+07
 
    0.25158E+06         0.28912E-08         0.00000E+00
    0.28912E-08        -0.10672E+08         0.00000E+00
    0.00000E+00         0.00000E+00        -0.20840E+07
 
    0.25158E+06         0.12143E-07         0.00000E+00
    0.12143E-07        -0.10672E+08         0.00000E+00
    0.00000E+00         0.00000E+00        -0.20840E+07
 
    0.25158E+06        -0.10408E-07         0.00000E+00
   -0.10408E-07        -0.10672E+08         0.00000E+00
    0.00000E+00         0.00000E+00        -0.20840E+07
 
    0.25158E+06         0.20817E-07         0.00000E+00
    0.20817E-07        -0.10672E+08         0.00000E+00
    0.00000E+00         0.00000E+00        -0.20840E+07
 
    0.25158E+06         0.69389E-08         0.00000E+00
    0.69389E-08        -0.10672E+08         0.00000E+00
    0.00000E+00         0.00000E+00        -0.20840E+07
 
    0.25158E+06        -0.80954E-08         0.00000E+00
   -0.80954E-08        -0.10672E+08         0.00000E+00
    0.00000E+00         0.00000E+00        -0.20840E+07
 
    0.25158E+06         0.46259E-08         0.00000E+00
    0.46259E-08        -0.10672E+08         0.00000E+00
    0.00000E+00         0.00000E+00        -0.20840E+07
 
    0.41917E+08         0.92519E-08         0.00000E+00
    0.92519E-08         0.15599E+09         0.00000E+00
    0.00000E+00         0.00000E+00         0.39582E+08
 
    0.25070E+06        -0.34694E-08         0.00000E+00
   -0.34694E-08        -0.10672E+08         0.00000E+00
    0.00000E+00         0.00000E+00        -0.20843E+07
 
    0.25070E+06        -0.57824E-08         0.00000E+00
   -0.57824E-08        -0.10672E+08         0.00000E+00
    0.00000E+00         0.00000E+00        -0.20843E+07
 
    0.25070E+06        -0.23130E-08         0.00000E+00
   -0.23130E-08        -0.10672E+08         0.00000E+00
    0.00000E+00         0.00000E+00        -0.20843E+07
 
    0.25070E+06         0.10408E-07         0.00000E+00
    0.10408E-07        -0.10672E+08         0.00000E+00
    0.00000E+00         0.00000E+00        -0.20843E+07
 
    0.25070E+06         0.69389E-08         0.00000E+00
    0.69389E-08        -0.10672E+08         0.00000E+00
    0.00000E+00         0.00000E+00        -0.20843E+07
 
    0.25070E+06        -0.23130E-08         0.00000E+00
   -0.23130E-08        -0.10672E+08         0.00000E+00
    0.00000E+00         0.00000E+00        -0.20843E+07
 
    0.25070E+06         0.34694E-08         0.00000E+00
    0.34694E-08        -0.10672E+08         0.00000E+00
    0.00000E+00         0.00000E+00        -0.20843E+07
 
    0.25070E+06         0.11565E-07         0.00000E+00
    0.11565E-07        -0.10672E+08         0.00000E+00
    0.00000E+00         0.00000E+00        -0.20843E+07
 
    0.25070E+06        -0.75171E-08         0.00000E+00
   -0.75171E-08        -0.10672E+08         0.00000E+00
    0.00000E+00         0.00000E+00        -0.20843E+07
 
    0.25070E+06        -0.23130E-08         0.00000E+00
   -0.23130E-08        -0.10672E+08         0.00000E+00
    0.00000E+00         0.00000E+00        -0.20843E+07
 
    0.25070E+06         0.17347E-07         0.00000E+00
    0.17347E-07        -0.10672E+08         0.00000E+00
    0.00000E+00         0.00000E+00        -0.20843E+07
 
    0.25070E+06        -0.23130E-07         0.00000E+00
   -0.23130E-07        -0.10672E+08         0.00000E+00
    0.00000E+00         0.00000E+00        -0.20843E+07
 
    0.25070E+06         0.21973E-07         0.00000E+00
    0.21973E-07        -0.10672E+08         0.00000E+00
    0.00000E+00         0.00000E+00        -0.20843E+07
 
    0.25070E+06         0.00000E+00         0.00000E+00
    0.00000E+00        -0.10672E+08         0.00000E+00
    0.00000E+00         0.00000E+00        -0.20843E+07
 
    0.41916E+08        -0.12721E-07         0.00000E+00
   -0.12721E-07         0.15599E+09         0.00000E+00
    0.00000E+00         0.00000E+00         0.39582E+08
 
    0.24954E+06        -0.69389E-08         0.00000E+00
   -0.69389E-08        -0.10672E+08         0.00000E+00
    0.00000E+00         0.00000E+00        -0.20845E+07
 
    0.24954E+06         0.34694E-08         0.00000E+00
    0.34694E-08        -0.10672E+08         0.00000E+00
    0.00000E+00         0.00000E+00        -0.20845E+07
 
    0.24954E+06        -0.11565E-08         0.00000E+00
   -0.11565E-08        -0.10672E+08         0.00000E+00
    0.00000E+00         0.00000E+00        -0.20845E+07
 
    0.24954E+06         0.46259E-08         0.00000E+00
    0.46259E-08        -0.10672E+08         0.00000E+00
    0.00000E+00         0.00000E+00        -0.20845E+07
 
    0.24954E+06         0.17347E-08         0.00000E+00
    0.17347E-08        -0.10672E+08         0.00000E+00
    0.00000E+00         0.00000E+00        -0.20845E+07
 
    0.24954E+06         0.40477E-08         0.00000E+00
    0.40477E-08        -0.10672E+08         0.00000E+00
    0.00000E+00         0.00000E+00        -0.20845E+07
 
    0.24954E+06         0.17347E-07         0.00000E+00
    0.17347E-07        -0.10672E+08         0.00000E+00
    0.00000E+00         0.00000E+00        -0.20845E+07
 
    0.24954E+06         0.20817E-07         0.00000E+00
    0.20817E-07        -0.10672E+08         0.00000E+00
    0.00000E+00         0.00000E+00        -0.20845E+07
 
    0.24954E+06        -0.15613E-07         0.00000E+00
   -0.15613E-07        -0.10672E+08         0.00000E+00
    0.00000E+00         0.00000E+00        -0.20845E+07
 
    0.24954E+06         0.10408E-07         0.00000E+00
    0.10408E-07        -0.10672E+08         0.00000E+00
    0.00000E+00         0.00000E+00        -0.20845E+07
 
    0.24954E+06         0.92519E-08         0.00000E+00
    0.92519E-08        -0.10672E+08         0.00000E+00
    0.00000E+00         0.00000E+00        -0.20845E+07
 
    0.24954E+06        -0.13878E-07         0.00000E+00
   -0.13878E-07        -0.10672E+08         0.00000E+00
    0.00000E+00         0.00000E+00        -0.20845E+07
 
    0.24954E+06         0.57824E-08         0.00000E+00
    0.57824E-08        -0.10672E+08         0.00000E+00
    0.00000E+00         0.00000E+00        -0.20845E+07
 
    0.24954E+06        -0.11565E-07         0.00000E+00
   -0.11565E-07        -0.10672E+08         0.00000E+00
    0.00000E+00         0.00000E+00        -0.20845E+07
 
    0.41915E+08        -0.13878E-07         0.00000E+00
   -0.13878E-07         0.15599E+09         0.00000E+00
    0.00000E+00         0.00000E+00         0.39582E+08
 
    0.24801E+06         0.41633E-07         0.00000E+00
    0.41633E-07        -0.10673E+08         0.00000E+00
    0.00000E+00         0.00000E+00        -0.20849E+07
 
    0.24801E+06         0.11565E-07         0.00000E+00
    0.11565E-07        -0.10673E+08         0.00000E+00
    0.00000E+00         0.00000E+00        -0.20849E+07
 
    0.24801E+06         0.34694E-08         0.00000E+00
    0.34694E-08        -0.10673E+08         0.00000E+00
    0.00000E+00         0.00000E+00        -0.20849E+07
 
    0.24801E+06        -0.46259E-08         0.00000E+00
   -0.46259E-08        -0.10673E+08         0.00000E+00
    0.00000E+00         0.00000E+00        -0.20849E+07
 
    0.24801E+06         0.63607E-08         0.00000E+00
    0.63607E-08        -0.10673E+08         0.00000E+00
    0.00000E+00         0.00000E+00        -0.20849E+07
 
    0.24801E+06        -0.17347E-08         0.00000E+00
   -0.17347E-08        -0.10673E+08         0.00000E+00
    0.00000E+00         0.00000E+00        -0.20849E+07
 
    0.24801E+06         0.69389E-08         0.00000E+00
    0.69389E-08        -0.10673E+08         0.00000E+00
    0.00000E+00         0.00000E+00        -0.20849E+07
 
    0.24801E+06         0.80954E-08         0.00000E+00
    0.80954E-08        -0.10673E+08         0.00000E+00
    0.00000E+00         0.00000E+00        -0.20849E+07
 
    0.24801E+06         0.15034E-07         0.00000E+00
    0.15034E-07        -0.10673E+08         0.00000E+00
    0.00000E+00         0.00000E+00        -0.20849E+07
 
    0.24801E+06         0.10408E-07         0.00000E+00
    0.10408E-07        -0.10673E+08         0.00000E+00
    0.00000E+00         0.00000E+00        -0.20849E+07
 
    0.24801E+06        -0.23130E-08         0.00000E+00
   -0.23130E-08        -0.10673E+08         0.00000E+00
    0.00000E+00         0.00000E+00        -0.20849E+07
 
    0.24801E+06        -0.46259E-08         0.00000E+00
   -0.46259E-08        -0.10673E+08         0.00000E+00
    0.00000E+00         0.00000E+00        -0.20849E+07
 
    0.24801E+06        -0.23130E-08         0.00000E+00
   -0.23130E-08        -0.10673E+08         0.00000E+00
    0.00000E+00         0.00000E+00        -0.20849E+07
 
    0.24801E+06         0.11565E-08         0.00000E+00
    0.11565E-08        -0.10673E+08         0.00000E+00
    0.00000E+00         0.00000E+00        -0.20849E+07
 
    0.41913E+08         0.42790E-07         0.00000E+00
    0.42790E-07         0.15599E+09         0.00000E+00
    0.00000E+00         0.00000E+00         0.39581E+08
 
    0.24601E+06         0.92519E-08         0.00000E+00
    0.92519E-08        -0.10673E+08         0.00000E+00
    0.00000E+00         0.00000E+00        -0.20854E+07
 
    0.24601E+06         0.46259E-08         0.00000E+00
    0.46259E-08        -0.10673E+08         0.00000E+00
    0.00000E+00         0.00000E+00        -0.20854E+07
 
    0.24601E+06         0.92519E-08         0.00000E+00
    0.92519E-08        -0.10673E+08         0.00000E+00
    0.00000E+00         0.00000E+00        -0.20854E+07
 
    0.24601E+06         0.15034E-07         0.00000E+00
    0.15034E-07        -0.10673E+08         0.00000E+00
    0.00000E+00         0.00000E+00        -0.20854E+07
 
    0.24601E+06        -0.12721E-07         0.00000E+00
   -0.12721E-07        -0.10673E+08         0.00000E+00
    0.00000E+00         0.00000E+00        -0.20854E+07
 
    0.24601E+06         0.13878E-07         0.00000E+00
    0.13878E-07        -0.10673E+08         0.00000E+00
    0.00000E+00         0.00000E+00        -0.20854E+07
 
    0.24601E+06         0.00000E+00         0.00000E+00
    0.00000E+00        -0.10673E+08         0.00000E+00
    0.00000E+00         0.00000E+00        -0.20854E+07
 
    0.24601E+06        -0.46259E-08         0.00000E+00
   -0.46259E-08        -0.10673E+08         0.00000E+00
    0.00000E+00         0.00000E+00        -0.20854E+07
 
    0.24601E+06         0.80954E-08         0.00000E+00
    0.80954E-08        -0.10673E+08         0.00000E+00
    0.00000E+00         0.00000E+00        -0.20854E+07
 
    0.24601E+06         0.11565E-07         0.00000E+00
    0.11565E-07        -0.10673E+08         0.00000E+00
    0.00000E+00         0.00000E+00        -0.20854E+07
 
    0.24601E+06         0.69389E-08         0.00000E+00
    0.69389E-08        -0.10673E+08         0.00000E+00
    0.00000E+00         0.00000E+00        -0.20854E+07
 
    0.24601E+06         0.80954E-08         0.00000E+00
    0.80954E-08        -0.10673E+08         0.00000E+00
    0.00000E+00         0.00000E+00        -0.20854E+07
 
    0.24601E+06         0.80954E-08         0.00000E+00
    0.80954E-08        -0.10673E+08         0.00000E+00
    0.00000E+00         0.00000E+00        -0.20854E+07
 
    0.24601E+06         0.11565E-08         0.00000E+00
    0.11565E-08        -0.10673E+08         0.00000E+00
    0.00000E+00         0.00000E+00        -0.20854E+07
 
    0.41910E+08        -0.49729E-07         0.00000E+00
   -0.49729E-07         0.15599E+09         0.00000E+00
    0.00000E+00         0.00000E+00         0.39581E+08
 
    0.24337E+06        -0.19660E-07         0.00000E+00
   -0.19660E-07        -0.10674E+08         0.00000E+00
    0.00000E+00         0.00000E+00        -0.20861E+07
 
    0.24337E+06        -0.26599E-07         0.00000E+00
   -0.26599E-07        -0.10674E+08         0.00000E+00
    0.00000E+00         0.00000E+00        -0.20861E+07
 
    0.24337E+06         0.00000E+00         0.00000E+00
    0.00000E+00        -0.10674E+08         0.00000E+00
    0.00000E+00         0.00000E+00        -0.20861E+07
 
    0.24337E+06         0.69389E-08         0.00000E+00
    0.69389E-08        -0.10674E+08         0.00000E+00
    0.00000E+00         0.00000E+00        -0.20861E+07
 
    0.24337E+06         0.80954E-08         0.00000E+00
    0.80954E-08        -0.10674E+08         0.00000E+00
    0.00000E+00         0.00000E+00        -0.20861E+07
 
    0.24337E+06        -0.57824E-09         0.00000E+00
   -0.57824E-09        -0.10674E+08         0.00000E+00
    0.00000E+00         0.00000E+00        -0.20861E+07
 
    0.24337E+06         0.00000E+00         0.00000E+00
    0.00000E+00        -0.10674E+08         0.00000E+00
    0.00000E+00         0.00000E+00        -0.20861E+07
 
    0.24337E+06        -0.11565E-08         0.00000E+00
   -0.11565E-08        -0.10674E+08         0.00000E+00
    0.00000E+00         0.00000E+00        -0.20861E+07
 
    0.24337E+06        -0.75171E-08         0.00000E+00
   -0.75171E-08        -0.10674E+08         0.00000E+00
    0.00000E+00         0.00000E+00        -0.20861E+07
 
    0.24337E+06        -0.11565E-08         0.00000E+00
   -0.11565E-08        -0.10674E+08         0.00000E+00
    0.00000E+00         0.00000E+00        -0.20861E+07
 
    0.24337E+06        -0.10408E-07         0.00000E+00
   -0.10408E-07        -0.10674E+08         0.00000E+00
    0.00000E+00         0.00000E+00        -0.20861E+07
 
    0.24337E+06        -0.11565E-08         0.00000E+00
   -0.11565E-08        -0.10674E+08         0.00000E+00
    0.00000E+00         0.00000E+00        -0.20861E+07
 
    0.24337E+06         0.00000E+00         0.00000E+00
    0.00000E+00        -0.10674E+08         0.00000E+00
    0.00000E+00         0.00000E+00        -0.20861E+07
 
    0.24337E+06         0.11565E-08         0.00000E+00
    0.11565E-08        -0.10674E+08         0.00000E+00
    0.00000E+00         0.00000E+00        -0.20861E+07
 
    0.41907E+08        -0.57824E-07         0.00000E+00
   -0.57824E-07         0.15599E+09         0.00000E+00
    0.00000E+00         0.00000E+00         0.39580E+08
 
    0.23990E+06         0.15034E-07         0.00000E+00
    0.15034E-07        -0.10675E+08         0.00000E+00
    0.00000E+00         0.00000E+00        -0.20870E+07
 
    0.23990E+06        -0.16191E-07         0.00000E+00
   -0.16191E-07        -0.10675E+08         0.00000E+00
    0.00000E+00         0.00000E+00        -0.20870E+07
 
    0.23990E+06        -0.12721E-07         0.00000E+00
   -0.12721E-07        -0.10675E+08         0.00000E+00
    0.00000E+00         0.00000E+00        -0.20870E+07
 
    0.23990E+06         0.69389E-08         0.00000E+00
    0.69389E-08        -0.10675E+08         0.00000E+00
    0.00000E+00         0.00000E+00        -0.20870E+07
 
    0.23990E+06        -0.52042E-08         0.00000E+00
   -0.52042E-08        -0.10675E+08         0.00000E+00
    0.00000E+00         0.00000E+00        -0.20870E+07
 
    0.23990E+06         0.00000E+00         0.00000E+00
    0.00000E+00        -0.10675E+08         0.00000E+00
    0.00000E+00         0.00000E+00        -0.20870E+07
 
    0.23990E+06        -0.92519E-08         0.00000E+00
   -0.92519E-08        -0.10675E+08         0.00000E+00
    0.00000E+00         0.00000E+00        -0.20870E+07
 
    0.23990E+06         0.40477E-08         0.00000E+00
    0.40477E-08        -0.10675E+08         0.00000E+00
    0.00000E+00         0.00000E+00        -0.20870E+07
 
    0.23990E+06         0.40477E-08         0.00000E+00
    0.40477E-08        -0.10675E+08         0.00000E+00
    0.00000E+00         0.00000E+00        -0.20870E+07
 
    0.23990E+06        -0.23130E-08         0.00000E+00
   -0.23130E-08        -0.10675E+08         0.00000E+00
    0.00000E+00         0.00000E+00        -0.20870E+07
 
    0.23990E+06         0.92519E-08         0.00000E+00
    0.92519E-08        -0.10675E+08         0.00000E+00
    0.00000E+00         0.00000E+00        -0.20870E+07
 
    0.23990E+06        -0.11565E-08         0.00000E+00
   -0.11565E-08        -0.10675E+08         0.00000E+00
    0.00000E+00         0.00000E+00        -0.20870E+07
 
    0.23990E+06        -0.57824E-08         0.00000E+00
   -0.57824E-08        -0.10675E+08         0.00000E+00
    0.00000E+00         0.00000E+00        -0.20870E+07
 
    0.23990E+06        -0.46259E-08         0.00000E+00
   -0.46259E-08        -0.10675E+08         0.00000E+00
    0.00000E+00         0.00000E+00        -0.20870E+07
 
    0.41902E+08         0.10408E-06         0.00000E+00
    0.10408E-06         0.15599E+09         0.00000E+00
    0.00000E+00         0.00000E+00         0.39579E+08
 
    0.23534E+06         0.46259E-08         0.00000E+00
    0.46259E-08        -0.10676E+08         0.00000E+00
    0.00000E+00         0.00000E+00        -0.20881E+07
 
    0.23534E+06         0.18504E-07         0.00000E+00
    0.18504E-07        -0.10676E+08         0.00000E+00
    0.00000E+00         0.00000E+00        -0.20881E+07
 
    0.23534E+06        -0.12721E-07         0.00000E+00
   -0.12721E-07        -0.10676E+08         0.00000E+00
    0.00000E+00         0.00000E+00        -0.20881E+07
 
    0.23534E+06        -0.11565E-08         0.00000E+00
   -0.11565E-08        -0.10676E+08         0.00000E+00
    0.00000E+00         0.00000E+00        -0.20881E+07
 
    0.23534E+06        -0.23130E-08         0.00000E+00
   -0.23130E-08        -0.10676E+08         0.00000E+00
    0.00000E+00         0.00000E+00        -0.20881E+07
 
    0.23534E+06        -0.11565E-08         0.00000E+00
   -0.11565E-08        -0.10676E+08         0.00000E+00
    0.00000E+00         0.00000E+00        -0.20881E+07
 
    0.23534E+06         0.46259E-08         0.00000E+00
    0.46259E-08        -0.10676E+08         0.00000E+00
    0.00000E+00         0.00000E+00        -0.20881E+07
 
    0.23534E+06         0.13878E-07         0.00000E+00
    0.13878E-07        -0.10676E+08         0.00000E+00
    0.00000E+00         0.00000E+00        -0.20881E+07
 
    0.23534E+06         0.23130E-08         0.00000E+00
    0.23130E-08        -0.10676E+08         0.00000E+00
    0.00000E+00         0.00000E+00        -0.20881E+07
 
    0.23534E+06        -0.57824E-08         0.00000E+00
   -0.57824E-08        -0.10676E+08         0.00000E+00
    0.00000E+00         0.00000E+00        -0.20881E+07
 
    0.23534E+06        -0.80954E-08         0.00000E+00
   -0.80954E-08        -0.10676E+08         0.00000E+00
    0.00000E+00         0.00000E+00        -0.20881E+07
 
    0.23534E+06         0.23130E-08         0.00000E+00
    0.23130E-08        -0.10676E+08         0.00000E+00
    0.00000E+00         0.00000E+00        -0.20881E+07
 
    0.23534E+06         0.57824E-08         0.00000E+00
    0.57824E-08        -0.10676E+08         0.00000E+00
    0.00000E+00         0.00000E+00        -0.20881E+07
 
    0.23534E+06         0.69389E-08         0.00000E+00
    0.69389E-08        -0.10676E+08         0.00000E+00
    0.00000E+00         0.00000E+00        -0.20881E+07
 
    0.41896E+08        -0.23130E-08         0.00000E+00
   -0.23130E-08         0.15599E+09         0.00000E+00
    0.00000E+00         0.00000E+00         0.39577E+08
 
    0.22934E+06         0.25443E-07         0.00000E+00
    0.25443E-07        -0.10677E+08         0.00000E+00
    0.00000E+00         0.00000E+00        -0.20896E+07
 
    0.22934E+06        -0.32382E-07         0.00000E+00
   -0.32382E-07        -0.10677E+08         0.00000E+00
    0.00000E+00         0.00000E+00        -0.20896E+07
 
    0.22934E+06         0.17347E-07         0.00000E+00
    0.17347E-07        -0.10677E+08         0.00000E+00
    0.00000E+00         0.00000E+00        -0.20896E+07
 
    0.22934E+06        -0.10408E-07         0.00000E+00
   -0.10408E-07        -0.10677E+08         0.00000E+00
    0.00000E+00         0.00000E+00        -0.20896E+07
 
    0.22934E+06         0.12143E-07         0.00000E+00
    0.12143E-07        -0.10677E+08         0.00000E+00
    0.00000E+00         0.00000E+00        -0.20896E+07
 
    0.22934E+06         0.63607E-08         0.00000E+00
    0.63607E-08        -0.10677E+08         0.00000E+00
    0.00000E+00         0.00000E+00        -0.20896E+07
 
    0.22934E+06         0.63607E-08         0.00000E+00
    0.63607E-08        -0.10677E+08         0.00000E+00
    0.00000E+00         0.00000E+00        -0.20896E+07
 
    0.22934E+06        -0.46259E-08         0.00000E+00
   -0.46259E-08        -0.10677E+08         0.00000E+00
    0.00000E+00         0.00000E+00        -0.20896E+07
 
    0.22934E+06        -0.16191E-07         0.00000E+00
   -0.16191E-07        -0.10677E+08         0.00000E+00
    0.00000E+00         0.00000E+00        -0.20896E+07
 
    0.22934E+06        -0.11565E-08         0.00000E+00
   -0.11565E-08        -0.10677E+08         0.00000E+00
    0.00000E+00         0.00000E+00        -0.20896E+07
 
    0.22934E+06        -0.69389E-08         0.00000E+00
   -0.69389E-08        -0.10677E+08         0.00000E+00
    0.00000E+00         0.00000E+00        -0.20896E+07
 
    0.22934E+06         0.23130E-08         0.00000E+00
    0.23130E-08        -0.10677E+08         0.00000E+00
    0.00000E+00         0.00000E+00        -0.20896E+07
 
    0.22934E+06         0.11565E-08         0.00000E+00
    0.11565E-08        -0.10677E+08         0.00000E+00
    0.00000E+00         0.00000E+00        -0.20896E+07
 
    0.22934E+06        -0.69389E-08         0.00000E+00
   -0.69389E-08        -0.10677E+08         0.00000E+00
    0.00000E+00         0.00000E+00        -0.20896E+07
 
    0.41888E+08        -0.47416E-07         0.00000E+00
   -0.47416E-07         0.15599E+09         0.00000E+00
    0.00000E+00         0.00000E+00         0.39575E+08
 
    0.22145E+06         0.23130E-07         0.00000E+00
    0.23130E-07        -0.10679E+08         0.00000E+00
    0.00000E+00         0.00000E+00        -0.20916E+07
 
    0.22145E+06        -0.19660E-07         0.00000E+00
   -0.19660E-07        -0.10679E+08         0.00000E+00
    0.00000E+00         0.00000E+00        -0.20916E+07
 
    0.22145E+06         0.15034E-07         0.00000E+00
    0.15034E-07        -0.10679E+08         0.00000E+00
    0.00000E+00         0.00000E+00        -0.20916E+07
 
    0.22145E+06        -0.80954E-08         0.00000E+00
   -0.80954E-08        -0.10679E+08         0.00000E+00
    0.00000E+00         0.00000E+00        -0.20916E+07
 
    0.22145E+06         0.15613E-07         0.00000E+00
    0.15613E-07        -0.10679E+08         0.00000E+00
    0.00000E+00         0.00000E+00        -0.20916E+07
 
    0.22145E+06         0.80954E-08         0.00000E+00
    0.80954E-08        -0.10679E+08         0.00000E+00
    0.00000E+00         0.00000E+00        -0.20916E+07
 
    0.22145E+06        -0.24864E-07         0.00000E+00
   -0.24864E-07        -0.10679E+08         0.00000E+00
    0.00000E+00         0.00000E+00        -0.20916E+07
 
    0.22145E+06        -0.17347E-08         0.00000E+00
   -0.17347E-08        -0.10679E+08         0.00000E+00
    0.00000E+00         0.00000E+00        -0.20916E+07
 
    0.22145E+06        -0.21973E-07         0.00000E+00
   -0.21973E-07        -0.10679E+08         0.00000E+00
    0.00000E+00         0.00000E+00        -0.20916E+07
 
    0.22145E+06         0.10408E-07         0.00000E+00
    0.10408E-07        -0.10679E+08         0.00000E+00
    0.00000E+00         0.00000E+00        -0.20916E+07
 
    0.22145E+06        -0.69389E-08         0.00000E+00
   -0.69389E-08        -0.10679E+08         0.00000E+00
    0.00000E+00         0.00000E+00        -0.20916E+07
 
    0.22145E+06         0.57824E-08         0.00000E+00
    0.57824E-08        -0.10679E+08         0.00000E+00
    0.00000E+00         0.00000E+00        -0.20916E+07
 
    0.22145E+06         0.46259E-08         0.00000E+00
    0.46259E-08        -0.10679E+08         0.00000E+00
    0.00000E+00         0.00000E+00        -0.20916E+07
 
    0.22145E+06         0.69389E-08         0.00000E+00
    0.69389E-08        -0.10679E+08         0.00000E+00
    0.00000E+00         0.00000E+00        -0.20916E+07
 
    0.41878E+08        -0.46259E-08         0.00000E+00
   -0.46259E-08         0.15598E+09         0.00000E+00
    0.00000E+00         0.00000E+00         0.39573E+08
 
    0.21108E+06        -0.19660E-07         0.00000E+00
   -0.19660E-07        -0.10682E+08         0.00000E+00
    0.00000E+00         0.00000E+00        -0.20942E+07
 
    0.21108E+06        -0.92519E-08         0.00000E+00
   -0.92519E-08        -0.10682E+08         0.00000E+00
    0.00000E+00         0.00000E+00        -0.20942E+07
 
    0.21108E+06         0.23130E-08         0.00000E+00
    0.23130E-08        -0.10682E+08         0.00000E+00
    0.00000E+00         0.00000E+00        -0.20942E+07
 
    0.21108E+06        -0.80954E-08         0.00000E+00
   -0.80954E-08        -0.10682E+08         0.00000E+00
    0.00000E+00         0.00000E+00        -0.20942E+07
 
    0.21108E+06         0.16191E-07         0.00000E+00
    0.16191E-07        -0.10682E+08         0.00000E+00
    0.00000E+00         0.00000E+00        -0.20942E+07
 
    0.21108E+06        -0.40477E-08         0.00000E+00
   -0.40477E-08        -0.10682E+08         0.00000E+00
    0.00000E+00         0.00000E+00        -0.20942E+07
 
    0.21108E+06        -0.19082E-07         0.00000E+00
   -0.19082E-07        -0.10682E+08         0.00000E+00
    0.00000E+00         0.00000E+00        -0.20942E+07
 
    0.21108E+06         0.11565E-08         0.00000E+00
    0.11565E-08        -0.10682E+08         0.00000E+00
    0.00000E+00         0.00000E+00        -0.20942E+07
 
    0.21108E+06        -0.34694E-08         0.00000E+00
   -0.34694E-08        -0.10682E+08         0.00000E+00
    0.00000E+00         0.00000E+00        -0.20942E+07
 
    0.21108E+06        -0.23130E-08         0.00000E+00
   -0.23130E-08        -0.10682E+08         0.00000E+00
    0.00000E+00         0.00000E+00        -0.20942E+07
 
    0.21108E+06         0.10408E-07         0.00000E+00
    0.10408E-07        -0.10682E+08         0.00000E+00
    0.00000E+00         0.00000E+00        -0.20942E+07
 
    0.21108E+06         0.11565E-08         0.00000E+00
    0.11565E-08        -0.10682E+08         0.00000E+00
    0.00000E+00         0.00000E+00        -0.20942E+07
 
    0.21108E+06        -0.46259E-08         0.00000E+00
   -0.46259E-08        -0.10682E+08         0.00000E+00
    0.00000E+00         0.00000E+00        -0.20942E+07
 
    0.21108E+06        -0.92519E-08         0.00000E+00
   -0.92519E-08        -0.10682E+08         0.00000E+00
    0.00000E+00         0.00000E+00        -0.20942E+07
 
    0.41864E+08         0.42790E-07         0.00000E+00
    0.42790E-07         0.15598E+09         0.00000E+00
    0.00000E+00         0.00000E+00         0.39569E+08
 
    0.19744E+06        -0.23130E-08         0.00000E+00
   -0.23130E-08        -0.10685E+08         0.00000E+00
    0.00000E+00         0.00000E+00        -0.20976E+07
 
    0.19744E+06         0.17347E-07         0.00000E+00
    0.17347E-07        -0.10685E+08         0.00000E+00
    0.00000E+00         0.00000E+00        -0.20976E+07
 
    0.19744E+06        -0.34694E-08         0.00000E+00
   -0.34694E-08        -0.10685E+08         0.00000E+00
    0.00000E+00         0.00000E+00        -0.20976E+07
 
    0.19744E+06         0.00000E+00         0.00000E+00
    0.00000E+00        -0.10685E+08         0.00000E+00
    0.00000E+00         0.00000E+00        -0.20976E+07
 
    0.19744E+06         0.13300E-07         0.00000E+00
    0.13300E-07        -0.10685E+08         0.00000E+00
    0.00000E+00         0.00000E+00        -0.20976E+07
 
    0.19744E+06        -0.12143E-07         0.00000E+00
   -0.12143E-07        -0.10685E+08         0.00000E+00
    0.00000E+00         0.00000E+00        -0.20976E+07
 
    0.19744E+06        -0.21973E-07         0.00000E+00
   -0.21973E-07        -0.10685E+08         0.00000E+00
    0.00000E+00         0.00000E+00        -0.20976E+07
 
    0.19744E+06        -0.23130E-08         0.00000E+00
   -0.23130E-08        -0.10685E+08         0.00000E+00
    0.00000E+00         0.00000E+00        -0.20976E+07
 
    0.19744E+06         0.10408E-07         0.00000E+00
    0.10408E-07        -0.10685E+08         0.00000E+00
    0.00000E+00         0.00000E+00        -0.20976E+07
 
    0.19744E+06         0.69389E-08         0.00000E+00
    0.69389E-08        -0.10685E+08         0.00000E+00
    0.00000E+00         0.00000E+00        -0.20976E+07
 
    0.19744E+06        -0.16191E-07         0.00000E+00
   -0.16191E-07        -0.10685E+08         0.00000E+00
    0.00000E+00         0.00000E+00        -0.20976E+07
 
    0.19744E+06         0.16191E-07         0.00000E+00
    0.16191E-07        -0.10685E+08         0.00000E+00
    0.00000E+00         0.00000E+00        -0.20976E+07
 
    0.19744E+06        -0.19660E-07         0.00000E+00
   -0.19660E-07        -0.10685E+08         0.00000E+00
    0.00000E+00         0.00000E+00        -0.20976E+07
 
    0.19744E+06        -0.92519E-08         0.00000E+00
   -0.92519E-08        -0.10685E+08         0.00000E+00
    0.00000E+00         0.00000E+00        -0.20976E+07
 
    0.41846E+08        -0.42790E-07         0.00000E+00
   -0.42790E-07         0.15598E+09         0.00000E+00
    0.00000E+00         0.00000E+00         0.39565E+08
 
    0.17951E+06         0.23130E-08         0.00000E+00
    0.23130E-08        -0.10690E+08         0.00000E+00
    0.00000E+00         0.00000E+00        -0.21021E+07
 
    0.17951E+06         0.11565E-07         0.00000E+00
    0.11565E-07        -0.10690E+08         0.00000E+00
    0.00000E+00         0.00000E+00        -0.21021E+07
 
    0.17951E+06         0.92519E-08         0.00000E+00
    0.92519E-08        -0.10690E+08         0.00000E+00
    0.00000E+00         0.00000E+00        -0.21021E+07
 
    0.17951E+06         0.00000E+00         0.00000E+00
    0.00000E+00        -0.10690E+08         0.00000E+00
    0.00000E+00         0.00000E+00        -0.21021E+07
 
    0.17951E+06        -0.23130E-08         0.00000E+00
   -0.23130E-08        -0.10690E+08         0.00000E+00
    0.00000E+00         0.00000E+00        -0.21021E+07
 
    0.17951E+06         0.69389E-08         0.00000E+00
    0.69389E-08        -0.10690E+08         0.00000E+00
    0.00000E+00         0.00000E+00        -0.21021E+07
 
    0.17951E+06         0.11565E-08         0.00000E+00
    0.11565E-08        -0.10690E+08         0.00000E+00
    0.00000E+00         0.00000E+00        -0.21021E+07
 
    0.17951E+06         0.46259E-08         0.00000E+00
    0.46259E-08        -0.10690E+08         0.00000E+00
    0.00000E+00         0.00000E+00        -0.21021E+07
 
    0.17951E+06         0.12721E-07         0.00000E+00
    0.12721E-07        -0.10690E+08         0.00000E+00
    0.00000E+00         0.00000E+00        -0.21021E+07
 
    0.17951E+06        -0.11565E-08         0.00000E+00
   -0.11565E-08        -0.10690E+08         0.00000E+00
    0.00000E+00         0.00000E+00        -0.21021E+07
 
    0.17951E+06         0.23130E-08         0.00000E+00
    0.23130E-08        -0.10690E+08         0.00000E+00
    0.00000E+00         0.00000E+00        -0.21021E+07
 
    0.17951E+06        -0.15034E-07         0.00000E+00
   -0.15034E-07        -0.10690E+08         0.00000E+00
    0.00000E+00         0.00000E+00        -0.21021E+07
 
    0.17951E+06         0.92519E-08         0.00000E+00
    0.92519E-08        -0.10690E+08         0.00000E+00
    0.00000E+00         0.00000E+00        -0.21021E+07
 
    0.17951E+06        -0.23130E-08         0.00000E+00
   -0.23130E-08        -0.10690E+08         0.00000E+00
    0.00000E+00         0.00000E+00        -0.21021E+07
 
    0.41823E+08        -0.41633E-07         0.00000E+00
   -0.41633E-07         0.15597E+09         0.00000E+00
    0.00000E+00         0.00000E+00         0.39559E+08
 
    0.15592E+06        -0.10408E-07         0.00000E+00
   -0.10408E-07        -0.10696E+08         0.00000E+00
    0.00000E+00         0.00000E+00        -0.21079E+07
 
    0.15592E+06        -0.92519E-08         0.00000E+00
   -0.92519E-08        -0.10696E+08         0.00000E+00
    0.00000E+00         0.00000E+00        -0.21079E+07
 
    0.15592E+06         0.69389E-08         0.00000E+00
    0.69389E-08        -0.10696E+08         0.00000E+00
    0.00000E+00         0.00000E+00        -0.21079E+07
 
    0.15592E+06         0.11565E-08         0.00000E+00
    0.11565E-08        -0.10696E+08         0.00000E+00
    0.00000E+00         0.00000E+00        -0.21079E+07
 
    0.15592E+06        -0.21395E-07         0.00000E+00
   -0.21395E-07        -0.10696E+08         0.00000E+00
    0.00000E+00         0.00000E+00        -0.21079E+07
 
    0.15592E+06         0.00000E+00         0.00000E+00
    0.00000E+00        -0.10696E+08         0.00000E+00
    0.00000E+00         0.00000E+00        -0.21079E+07
 
    0.15592E+06         0.46259E-08         0.00000E+00
    0.46259E-08        -0.10696E+08         0.00000E+00
    0.00000E+00         0.00000E+00        -0.21079E+07
 
    0.15592E+06        -0.11565E-07         0.00000E+00
   -0.11565E-07        -0.10696E+08         0.00000E+00
    0.00000E+00         0.00000E+00        -0.21079E+07
 
    0.15592E+06        -0.34694E-08         0.00000E+00
   -0.34694E-08        -0.10696E+08         0.00000E+00
    0.00000E+00         0.00000E+00        -0.21079E+07
 
    0.15592E+06        -0.57824E-08         0.00000E+00
   -0.57824E-08        -0.10696E+08         0.00000E+00
    0.00000E+00         0.00000E+00        -0.21079E+07
 
    0.15592E+06        -0.10408E-07         0.00000E+00
   -0.10408E-07        -0.10696E+08         0.00000E+00
    0.00000E+00         0.00000E+00        -0.21079E+07
 
    0.15592E+06        -0.46259E-08         0.00000E+00
   -0.46259E-08        -0.10696E+08         0.00000E+00
    0.00000E+00         0.00000E+00        -0.21079E+07
 
    0.15592E+06         0.00000E+00         0.00000E+00
    0.00000E+00        -0.10696E+08         0.00000E+00
    0.00000E+00         0.00000E+00        -0.21079E+07
 
    0.15592E+06        -0.20817E-07         0.00000E+00
   -0.20817E-07        -0.10696E+08         0.00000E+00
    0.00000E+00         0.00000E+00        -0.21079E+07
 
    0.41792E+08         0.18504E-07         0.00000E+00
    0.18504E-07         0.15596E+09         0.00000E+00
    0.00000E+00         0.00000E+00         0.39551E+08
 
    0.12490E+06        -0.57824E-08         0.00000E+00
   -0.57824E-08        -0.10703E+08         0.00000E+00
    0.00000E+00         0.00000E+00        -0.21157E+07
 
    0.12490E+06        -0.23130E-08         0.00000E+00
   -0.23130E-08        -0.10703E+08         0.00000E+00
    0.00000E+00         0.00000E+00        -0.21157E+07
 
    0.12490E+06        -0.17347E-07         0.00000E+00
   -0.17347E-07        -0.10703E+08         0.00000E+00
    0.00000E+00         0.00000E+00        -0.21157E+07
 
    0.12490E+06        -0.23130E-08         0.00000E+00
   -0.23130E-08        -0.10703E+08         0.00000E+00
    0.00000E+00         0.00000E+00        -0.21157E+07
 
    0.12490E+06         0.80954E-08         0.00000E+00
    0.80954E-08        -0.10703E+08         0.00000E+00
    0.00000E+00         0.00000E+00        -0.21157E+07
 
    0.12490E+06        -0.17347E-08         0.00000E+00
   -0.17347E-08        -0.10703E+08         0.00000E+00
    0.00000E+00         0.00000E+00        -0.21157E+07
 
    0.12490E+06        -0.14456E-07         0.00000E+00
   -0.14456E-07        -0.10703E+08         0.00000E+00
    0.00000E+00         0.00000E+00        -0.21157E+07
 
    0.12490E+06        -0.57824E-08         0.00000E+00
   -0.57824E-08        -0.10703E+08         0.00000E+00
    0.00000E+00         0.00000E+00        -0.21157E+07
 
    0.12490E+06        -0.16191E-07         0.00000E+00
   -0.16191E-07        -0.10703E+08         0.00000E+00
    0.00000E+00         0.00000E+00        -0.21157E+07
 
    0.12490E+06        -0.23130E-07         0.00000E+00
   -0.23130E-07        -0.10703E+08         0.00000E+00
    0.00000E+00         0.00000E+00        -0.21157E+07
 
    0.12490E+06        -0.21973E-07         0.00000E+00
   -0.21973E-07        -0.10703E+08         0.00000E+00
    0.00000E+00         0.00000E+00        -0.21157E+07
 
    0.12490E+06        -0.23130E-08         0.00000E+00
   -0.23130E-08        -0.10703E+08         0.00000E+00
    0.00000E+00         0.00000E+00        -0.21157E+07
 
    0.12490E+06         0.10408E-07         0.00000E+00
    0.10408E-07        -0.10703E+08         0.00000E+00
    0.00000E+00         0.00000E+00        -0.21157E+07
 
    0.12490E+06        -0.38164E-07         0.00000E+00
   -0.38164E-07        -0.10703E+08         0.00000E+00
    0.00000E+00         0.00000E+00        -0.21157E+07
 
    0.41751E+08         0.20817E-07         0.00000E+00
    0.20817E-07         0.15595E+09         0.00000E+00
    0.00000E+00         0.00000E+00         0.39541E+08
 
    0.84110E+05         0.57824E-08         0.00000E+00
    0.57824E-08        -0.10714E+08         0.00000E+00
    0.00000E+00         0.00000E+00        -0.21259E+07
 
    0.84110E+05        -0.13878E-07         0.00000E+00
   -0.13878E-07        -0.10714E+08         0.00000E+00
    0.00000E+00         0.00000E+00        -0.21259E+07
 
    0.84110E+05        -0.16191E-07         0.00000E+00
   -0.16191E-07        -0.10714E+08         0.00000E+00
    0.00000E+00         0.00000E+00        -0.21259E+07
 
    0.84110E+05        -0.19660E-07         0.00000E+00
   -0.19660E-07        -0.10714E+08         0.00000E+00
    0.00000E+00         0.00000E+00        -0.21259E+07
 
    0.84110E+05        -0.18504E-07         0.00000E+00
   -0.18504E-07        -0.10714E+08         0.00000E+00
    0.00000E+00         0.00000E+00        -0.21259E+07
 
    0.84110E+05        -0.80954E-08         0.00000E+00
   -0.80954E-08        -0.10714E+08         0.00000E+00
    0.00000E+00         0.00000E+00        -0.21259E+07
 
    0.84110E+05        -0.52042E-08         0.00000E+00
   -0.52042E-08        -0.10714E+08         0.00000E+00
    0.00000E+00         0.00000E+00        -0.21259E+07
 
    0.84110E+05        -0.24286E-07         0.00000E+00
   -0.24286E-07        -0.10714E+08         0.00000E+00
    0.00000E+00         0.00000E+00        -0.21259E+07
 
    0.84110E+05        -0.17347E-07         0.00000E+00
   -0.17347E-07        -0.10714E+08         0.00000E+00
    0.00000E+00         0.00000E+00        -0.21259E+07
 
    0.84110E+05        -0.17347E-07         0.00000E+00
   -0.17347E-07        -0.10714E+08         0.00000E+00
    0.00000E+00         0.00000E+00        -0.21259E+07
 
    0.84110E+05         0.46259E-08         0.00000E+00
    0.46259E-08        -0.10714E+08         0.00000E+00
    0.00000E+00         0.00000E+00        -0.21259E+07
 
    0.84110E+05        -0.23130E-08         0.00000E+00
   -0.23130E-08        -0.10714E+08         0.00000E+00
    0.00000E+00         0.00000E+00        -0.21259E+07
 
    0.84110E+05        -0.15034E-07         0.00000E+00
   -0.15034E-07        -0.10714E+08         0.00000E+00
    0.00000E+00         0.00000E+00        -0.21259E+07
 
    0.84110E+05        -0.11565E-07         0.00000E+00
   -0.11565E-07        -0.10714E+08         0.00000E+00
    0.00000E+00         0.00000E+00        -0.21259E+07
 
    0.41697E+08         0.11565E-08         0.00000E+00
    0.11565E-08         0.15594E+09         0.00000E+00
    0.00000E+00         0.00000E+00         0.39527E+08
 
    0.30470E+05        -0.20817E-07         0.00000E+00
   -0.20817E-07        -0.10727E+08         0.00000E+00
    0.00000E+00         0.00000E+00        -0.21393E+07
 
    0.30470E+05        -0.57824E-08         0.00000E+00
   -0.57824E-08        -0.10727E+08         0.00000E+00
    0.00000E+00         0.00000E+00        -0.21393E+07
 
    0.30470E+05         0.15034E-07         0.00000E+00
    0.15034E-07        -0.10727E+08         0.00000E+00
    0.00000E+00         0.00000E+00        -0.21393E+07
 
    0.30470E+05        -0.16191E-07         0.00000E+00
   -0.16191E-07        -0.10727E+08         0.00000E+00
    0.00000E+00         0.00000E+00        -0.21393E+07
 
    0.30470E+05        -0.31803E-07         0.00000E+00
   -0.31803E-07        -0.10727E+08         0.00000E+00
    0.00000E+00         0.00000E+00        -0.21393E+07
 
    0.30470E+05        -0.35273E-07         0.00000E+00
   -0.35273E-07        -0.10727E+08         0.00000E+00
    0.00000E+00         0.00000E+00        -0.21393E+07
 
    0.30470E+05        -0.26599E-07         0.00000E+00
   -0.26599E-07        -0.10727E+08         0.00000E+00
    0.00000E+00         0.00000E+00        -0.21393E+07
 
    0.30470E+05         0.23130E-07         0.00000E+00
    0.23130E-07        -0.10727E+08         0.00000E+00
    0.00000E+00         0.00000E+00        -0.21393E+07
 
    0.30470E+05         0.11565E-08         0.00000E+00
    0.11565E-08        -0.10727E+08         0.00000E+00
    0.00000E+00         0.00000E+00        -0.21393E+07
 
    0.30470E+05         0.12721E-07         0.00000E+00
    0.12721E-07        -0.10727E+08         0.00000E+00
    0.00000E+00         0.00000E+00        -0.21393E+07
 
    0.30470E+05         0.69389E-08         0.00000E+00
    0.69389E-08        -0.10727E+08         0.00000E+00
    0.00000E+00         0.00000E+00        -0.21393E+07
 
    0.30470E+05         0.18504E-07         0.00000E+00
    0.18504E-07        -0.10727E+08         0.00000E+00
    0.00000E+00         0.00000E+00        -0.21393E+07
 
    0.30470E+05         0.11565E-07         0.00000E+00
    0.11565E-07        -0.10727E+08         0.00000E+00
    0.00000E+00         0.00000E+00        -0.21393E+07
 
    0.30470E+05        -0.23130E-08         0.00000E+00
   -0.23130E-08        -0.10727E+08         0.00000E+00
    0.00000E+00         0.00000E+00        -0.21393E+07
 
TENSORS stresstot double 
    0.41667E+08         0.44994E-08         0.00000E+00
    0.44994E-08         0.15574E+09         0.00000E+00
    0.00000E+00         0.00000E+00         0.39329E+08
 
   -0.10099E-07         0.54933E-08         0.00000E+00
    0.54933E-08        -0.10925E+08         0.00000E+00
    0.00000E+00         0.00000E+00        -0.23377E+07
 
   -0.56025E-08         0.54933E-08         0.00000E+00
    0.54933E-08        -0.10925E+08         0.00000E+00
    0.00000E+00         0.00000E+00        -0.23377E+07
 
   -0.30777E-08        -0.57824E-09         0.00000E+00
   -0.57824E-09        -0.10925E+08         0.00000E+00
    0.00000E+00         0.00000E+00        -0.23377E+07
 
   -0.14479E-08         0.15902E-08         0.00000E+00
    0.15902E-08        -0.10925E+08         0.00000E+00
    0.00000E+00         0.00000E+00        -0.23377E+07
 
   -0.26776E-08        -0.23130E-08         0.00000E+00
   -0.23130E-08        -0.10925E+08         0.00000E+00
    0.00000E+00         0.00000E+00        -0.23377E+07
 
    0.51150E-08        -0.72280E-09         0.00000E+00
   -0.72280E-09        -0.10925E+08         0.00000E+00
    0.00000E+00         0.00000E+00        -0.23377E+07
 
    0.22555E-08         0.28912E-08         0.00000E+00
    0.28912E-08        -0.10925E+08         0.00000E+00
    0.00000E+00         0.00000E+00        -0.23377E+07
 
    0.38053E-08         0.11565E-08         0.00000E+00
    0.11565E-08        -0.10925E+08         0.00000E+00
    0.00000E+00         0.00000E+00        -0.23377E+07
 
    0.59736E-08        -0.17347E-08         0.00000E+00
   -0.17347E-08        -0.10925E+08         0.00000E+00
    0.00000E+00         0.00000E+00        -0.23377E+07
 
    0.52169E-08        -0.28912E-09         0.00000E+00
   -0.28912E-09        -0.10925E+08         0.00000E+00
    0.00000E+00         0.00000E+00        -0.23377E+07
 
    0.65484E-08        -0.72280E-10         0.00000E+00
   -0.72280E-10        -0.10925E+08         0.00000E+00
    0.00000E+00         0.00000E+00        -0.23377E+07
 
    0.69049E-08        -0.36140E-09         0.00000E+00
   -0.36140E-09        -0.10925E+08         0.00000E+00
    0.00000E+00         0.00000E+00        -0.23377E+07
 
    0.71304E-08         0.10481E-08         0.00000E+00
    0.10481E-08        -0.10925E+08         0.00000E+00
    0.00000E+00         0.00000E+00        -0.23377E+07
 
    0.66357E-08         0.39754E-09         0.00000E+00
    0.39754E-09        -0.10925E+08         0.00000E+00
    0.00000E+00         0.00000E+00        -0.23377E+07
 
    0.41667E+08        -0.77701E-09         0.00000E+00
   -0.77701E-09         0.15574E+09         0.00000E+00
    0.00000E+00         0.00000E+00         0.39329E+08
 
   -0.98007E-08        -0.70835E-08         0.00000E+00
   -0.70835E-08        -0.10925E+08         0.00000E+00
    0.00000E+00         0.00000E+00        -0.23377E+07
 
   -0.53624E-08         0.24575E-08         0.00000E+00
    0.24575E-08        -0.10925E+08         0.00000E+00
    0.00000E+00         0.00000E+00        -0.23377E+07
 
   -0.51514E-08         0.36140E-08         0.00000E+00
    0.36140E-08        -0.10925E+08         0.00000E+00
    0.00000E+00         0.00000E+00        -0.23377E+07
 
   -0.37544E-08         0.36140E-08         0.00000E+00
    0.36140E-08        -0.10925E+08         0.00000E+00
    0.00000E+00         0.00000E+00        -0.23377E+07
 
   -0.21755E-08        -0.23130E-08         0.00000E+00
   -0.23130E-08        -0.10925E+08         0.00000E+00
    0.00000E+00         0.00000E+00        -0.23377E+07
 
    0.19645E-08         0.28912E-08         0.00000E+00
    0.28912E-08        -0.10925E+08         0.00000E+00
    0.00000E+00         0.00000E+00        -0.23377E+07
 
    0.20445E-08         0.34694E-08         0.00000E+00
    0.34694E-08        -0.10925E+08         0.00000E+00
    0.00000E+00         0.00000E+00        -0.23377E+07
 
    0.27721E-08         0.33249E-08         0.00000E+00
    0.33249E-08        -0.10925E+08         0.00000E+00
    0.00000E+00         0.00000E+00        -0.23377E+07
 
    0.48094E-08         0.11565E-08         0.00000E+00
    0.11565E-08        -0.10925E+08         0.00000E+00
    0.00000E+00         0.00000E+00        -0.23377E+07
 
    0.44965E-08         0.10842E-08         0.00000E+00
    0.10842E-08        -0.10925E+08         0.00000E+00
    0.00000E+00         0.00000E+00        -0.23377E+07
 
    0.64465E-08        -0.25849E-25         0.00000E+00
   -0.25849E-25        -0.10925E+08         0.00000E+00
    0.00000E+00         0.00000E+00        -0.23377E+07
 
    0.52678E-08         0.46982E-09         0.00000E+00
    0.46982E-09        -0.10925E+08         0.00000E+00
    0.00000E+00         0.00000E+00        -0.23377E+07
 
    0.53842E-08        -0.18070E-09         0.00000E+00
   -0.18070E-09        -0.10925E+08         0.00000E+00
    0.00000E+00         0.00000E+00        -0.23377E+07
 
    0.58135E-08         0.41561E-09         0.00000E+00
    0.41561E-09        -0.10925E+08         0.00000E+00
    0.00000E+00         0.00000E+00        -0.23377E+07
 
    0.41667E+08        -0.72280E-09         0.00000E+00
   -0.72280E-09         0.15574E+09         0.00000E+00
    0.00000E+00         0.00000E+00         0.39329E+08
 
   -0.66939E-08         0.10119E-08         0.00000E+00
    0.10119E-08        -0.10925E+08         0.00000E+00
    0.00000E+00         0.00000E+00        -0.23377E+07
 
   -0.53478E-08        -0.86736E-09         0.00000E+00
   -0.86736E-09        -0.10925E+08         0.00000E+00
    0.00000E+00         0.00000E+00        -0.23377E+07
 
   -0.26994E-08         0.13010E-08         0.00000E+00
    0.13010E-08        -0.10925E+08         0.00000E+00
    0.00000E+00         0.00000E+00        -0.23377E+07
 
   -0.11933E-08         0.27466E-08         0.00000E+00
    0.27466E-08        -0.10925E+08         0.00000E+00
    0.00000E+00         0.00000E+00        -0.23377E+07
 
   -0.70577E-09        -0.43368E-09         0.00000E+00
   -0.43368E-09        -0.10925E+08         0.00000E+00
    0.00000E+00         0.00000E+00        -0.23377E+07
 
    0.33469E-08        -0.18793E-08         0.00000E+00
   -0.18793E-08        -0.10925E+08         0.00000E+00
    0.00000E+00         0.00000E+00        -0.23377E+07
 
    0.26994E-08        -0.20238E-08         0.00000E+00
   -0.20238E-08        -0.10925E+08         0.00000E+00
    0.00000E+00         0.00000E+00        -0.23377E+07
 
    0.35143E-08         0.11565E-08         0.00000E+00
    0.11565E-08        -0.10925E+08         0.00000E+00
    0.00000E+00         0.00000E+00        -0.23377E+07
 
    0.62064E-08         0.28912E-08         0.00000E+00
    0.28912E-08        -0.10925E+08         0.00000E+00
    0.00000E+00         0.00000E+00        -0.23377E+07
 
    0.54788E-08         0.34694E-08         0.00000E+00
    0.34694E-08        -0.10925E+08         0.00000E+00
    0.00000E+00         0.00000E+00        -0.23377E+07
 
    0.67012E-08         0.23852E-08         0.00000E+00
    0.23852E-08        -0.10925E+08         0.00000E+00
    0.00000E+00         0.00000E+00        -0.23377E+07
 
    0.59736E-08         0.19516E-08         0.00000E+00
    0.19516E-08        -0.10925E+08         0.00000E+00
    0.00000E+00         0.00000E+00        -0.23377E+07
 
    0.68103E-08         0.79508E-09         0.00000E+00
    0.79508E-09        -0.10925E+08         0.00000E+00
    0.00000E+00         0.00000E+00        -0.23377E+07
 
    0.59008E-08         0.61438E-09         0.00000E+00
    0.61438E-09        -0.10925E+08         0.00000E+00
    0.00000E+00         0.00000E+00        -0.23377E+07
 
    0.41667E+08         0.49946E-07         0.00000E+00
    0.49946E-07         0.15574E+09         0.00000E+00
    0.00000E+00         0.00000E+00         0.39329E+08
 
   -0.40236E-08        -0.49150E-08         0.00000E+00
   -0.49150E-08        -0.10925E+08         0.00000E+00
    0.00000E+00         0.00000E+00        -0.23377E+07
 
   -0.49331E-08        -0.28912E-09         0.00000E+00
   -0.28912E-09        -0.10925E+08         0.00000E+00
    0.00000E+00         0.00000E+00        -0.23377E+07
 
   -0.50350E-08        -0.28912E-09         0.00000E+00
   -0.28912E-09        -0.10925E+08         0.00000E+00
    0.00000E+00         0.00000E+00        -0.23377E+07
 
    0.21828E-09        -0.28912E-08         0.00000E+00
   -0.28912E-08        -0.10925E+08         0.00000E+00
    0.00000E+00         0.00000E+00        -0.23377E+07
 
    0.14625E-08         0.57824E-09         0.00000E+00
    0.57824E-09        -0.10925E+08         0.00000E+00
    0.00000E+00         0.00000E+00        -0.23377E+07
 
    0.17462E-08         0.28912E-08         0.00000E+00
    0.28912E-08        -0.10925E+08         0.00000E+00
    0.00000E+00         0.00000E+00        -0.23377E+07
 
    0.17535E-08         0.33249E-08         0.00000E+00
    0.33249E-08        -0.10925E+08         0.00000E+00
    0.00000E+00         0.00000E+00        -0.23377E+07
 
    0.40891E-08         0.22407E-08         0.00000E+00
    0.22407E-08        -0.10925E+08         0.00000E+00
    0.00000E+00         0.00000E+00        -0.23377E+07
 
    0.24738E-08         0.11565E-08         0.00000E+00
    0.11565E-08        -0.10925E+08         0.00000E+00
    0.00000E+00         0.00000E+00        -0.23377E+07
 
    0.51732E-08         0.15902E-08         0.00000E+00
    0.15902E-08        -0.10925E+08         0.00000E+00
    0.00000E+00         0.00000E+00        -0.23377E+07
 
    0.56461E-08        -0.65052E-09         0.00000E+00
   -0.65052E-09        -0.10925E+08         0.00000E+00
    0.00000E+00         0.00000E+00        -0.23377E+07
 
    0.47949E-08         0.12288E-08         0.00000E+00
    0.12288E-08        -0.10925E+08         0.00000E+00
    0.00000E+00         0.00000E+00        -0.23377E+07
 
    0.61846E-08        -0.72280E-09         0.00000E+00
   -0.72280E-09        -0.10925E+08         0.00000E+00
    0.00000E+00         0.00000E+00        -0.23377E+07
 
    0.55879E-08         0.10842E-08         0.00000E+00
    0.10842E-08        -0.10925E+08         0.00000E+00
    0.00000E+00         0.00000E+00        -0.23377E+07
 
    0.41667E+08        -0.86808E-07         0.00000E+00
   -0.86808E-07         0.15574E+09         0.00000E+00
    0.00000E+00         0.00000E+00         0.39329E+08
 
   -0.52678E-08         0.78063E-08         0.00000E+00
    0.78063E-08        -0.10925E+08         0.00000E+00
    0.00000E+00         0.00000E+00        -0.23377E+07
 
   -0.74651E-08         0.14456E-08         0.00000E+00
    0.14456E-08        -0.10925E+08         0.00000E+00
    0.00000E+00         0.00000E+00        -0.23377E+07
 
   -0.27285E-08         0.21684E-08         0.00000E+00
    0.21684E-08        -0.10925E+08         0.00000E+00
    0.00000E+00         0.00000E+00        -0.23377E+07
 
   -0.88039E-09         0.37586E-08         0.00000E+00
    0.37586E-08        -0.10925E+08         0.00000E+00
    0.00000E+00         0.00000E+00        -0.23377E+07
 
    0.75670E-09        -0.72280E-09         0.00000E+00
   -0.72280E-09        -0.10925E+08         0.00000E+00
    0.00000E+00         0.00000E+00        -0.23377E+07
 
    0.72760E-10         0.14456E-09         0.00000E+00
    0.14456E-09        -0.10925E+08         0.00000E+00
    0.00000E+00         0.00000E+00        -0.23377E+07
 
    0.31869E-08        -0.72280E-09         0.00000E+00
   -0.72280E-09        -0.10925E+08         0.00000E+00
    0.00000E+00         0.00000E+00        -0.23377E+07
 
    0.34925E-08        -0.86736E-09         0.00000E+00
   -0.86736E-09        -0.10925E+08         0.00000E+00
    0.00000E+00         0.00000E+00        -0.23377E+07
 
    0.56461E-08         0.15179E-08         0.00000E+00
    0.15179E-08        -0.10925E+08         0.00000E+00
    0.00000E+00         0.00000E+00        -0.23377E+07
 
    0.29759E-08         0.28912E-09         0.00000E+00
    0.28912E-09        -0.10925E+08         0.00000E+00
    0.00000E+00         0.00000E+00        -0.23377E+07
 
    0.34488E-08         0.36140E-09         0.00000E+00
    0.36140E-09        -0.10925E+08         0.00000E+00
    0.00000E+00         0.00000E+00        -0.23377E+07
 
    0.44893E-08         0.10119E-08         0.00000E+00
    0.10119E-08        -0.10925E+08         0.00000E+00
    0.00000E+00         0.00000E+00        -0.23377E+07
 
    0.37398E-08         0.43368E-09         0.00000E+00
    0.43368E-09        -0.10925E+08         0.00000E+00
    0.00000E+00         0.00000E+00        -0.23377E+07
 
    0.48240E-08         0.13010E-08         0.00000E+00
    0.13010E-08        -0.10925E+08         0.00000E+00
    0.00000E+00         0.00000E+00        -0.23377E+07
 
    0.41667E+08         0.37658E-07         0.00000E+00
    0.37658E-07         0.15574E+09         0.00000E+00
    0.00000E+00         0.00000E+00         0.39329E+08
 
   -0.84328E-08        -0.10553E-07         0.00000E+00
   -0.10553E-07        -0.10925E+08         0.00000E+00
    0.00000E+00         0.00000E+00        -0.23377E+07
 
    0.12442E-08        -0.67943E-08         0.00000E+00
   -0.67943E-08        -0.10925E+08         0.00000E+00
    0.00000E+00         0.00000E+00        -0.23377E+07
 
   -0.19209E-08        -0.28912E-08         0.00000E+00
   -0.28912E-08        -0.10925E+08         0.00000E+00
    0.00000E+00         0.00000E+00        -0.23377E+07
 
   -0.22119E-08         0.28912E-08         0.00000E+00
    0.28912E-08        -0.10925E+08         0.00000E+00
    0.00000E+00         0.00000E+00        -0.23377E+07
 
    0.10987E-08         0.34694E-08         0.00000E+00
    0.34694E-08        -0.10925E+08         0.00000E+00
    0.00000E+00         0.00000E+00        -0.23377E+07
 
    0.29395E-08         0.18793E-08         0.00000E+00
    0.18793E-08        -0.10925E+08         0.00000E+00
    0.00000E+00         0.00000E+00        -0.23377E+07
 
    0.33542E-08        -0.12288E-08         0.00000E+00
   -0.12288E-08        -0.10925E+08         0.00000E+00
    0.00000E+00         0.00000E+00        -0.23377E+07
 
    0.71086E-08         0.10119E-08         0.00000E+00
    0.10119E-08        -0.10925E+08         0.00000E+00
    0.00000E+00         0.00000E+00        -0.23377E+07
 
    0.32524E-08         0.20238E-08         0.00000E+00
    0.20238E-08        -0.10925E+08         0.00000E+00
    0.00000E+00         0.00000E+00        -0.23377E+07
 
    0.79308E-08         0.28912E-08         0.00000E+00
    0.28912E-08        -0.10925E+08         0.00000E+00
    0.00000E+00         0.00000E+00        -0.23377E+07
 
    0.34270E-08         0.43368E-08         0.00000E+00
    0.43368E-08        -0.10925E+08         0.00000E+00
    0.00000E+00         0.00000E+00        -0.23377E+07
 
    0.46202E-08        -0.79508E-09         0.00000E+00
   -0.79508E-09        -0.10925E+08         0.00000E+00
    0.00000E+00         0.00000E+00        -0.23377E+07
 
    0.49549E-08         0.72280E-09         0.00000E+00
    0.72280E-09        -0.10925E+08         0.00000E+00
    0.00000E+00         0.00000E+00        -0.23377E+07
 
    0.60973E-08         0.21684E-09         0.00000E+00
    0.21684E-09        -0.10925E+08         0.00000E+00
    0.00000E+00         0.00000E+00        -0.23377E+07
 
    0.41667E+08         0.58981E-07         0.00000E+00
    0.58981E-07         0.15574E+09         0.00000E+00
    0.00000E+00         0.00000E+00         0.39329E+08
 
   -0.79308E-08         0.11276E-07         0.00000E+00
    0.11276E-07        -0.10925E+08         0.00000E+00
    0.00000E+00         0.00000E+00        -0.23377E+07
 
    0.31359E-08         0.37586E-08         0.00000E+00
    0.37586E-08        -0.10925E+08         0.00000E+00
    0.00000E+00         0.00000E+00        -0.23377E+07
 
    0.64756E-09         0.46259E-08         0.00000E+00
    0.46259E-08        -0.10925E+08         0.00000E+00
    0.00000E+00         0.00000E+00        -0.23377E+07
 
    0.18408E-08        -0.10119E-08         0.00000E+00
   -0.10119E-08        -0.10925E+08         0.00000E+00
    0.00000E+00         0.00000E+00        -0.23377E+07
 
   -0.18190E-09        -0.39031E-08         0.00000E+00
   -0.39031E-08        -0.10925E+08         0.00000E+00
    0.00000E+00         0.00000E+00        -0.23377E+07
 
    0.41327E-08         0.86736E-09         0.00000E+00
    0.86736E-09        -0.10925E+08         0.00000E+00
    0.00000E+00         0.00000E+00        -0.23377E+07
 
    0.58062E-08         0.57824E-09         0.00000E+00
    0.57824E-09        -0.10925E+08         0.00000E+00
    0.00000E+00         0.00000E+00        -0.23377E+07
 
    0.36525E-08         0.86736E-09         0.00000E+00
    0.86736E-09        -0.10925E+08         0.00000E+00
    0.00000E+00         0.00000E+00        -0.23377E+07
 
    0.20736E-08         0.21684E-08         0.00000E+00
    0.21684E-08        -0.10925E+08         0.00000E+00
    0.00000E+00         0.00000E+00        -0.23377E+07
 
    0.42128E-08        -0.14456E-09         0.00000E+00
   -0.14456E-09        -0.10925E+08         0.00000E+00
    0.00000E+00         0.00000E+00        -0.23377E+07
 
    0.34997E-08         0.00000E+00         0.00000E+00
    0.00000E+00        -0.10925E+08         0.00000E+00
    0.00000E+00         0.00000E+00        -0.23377E+07
 
    0.48094E-08        -0.18070E-08         0.00000E+00
   -0.18070E-08        -0.10925E+08         0.00000E+00
    0.00000E+00         0.00000E+00        -0.23377E+07
 
    0.21028E-08        -0.28912E-09         0.00000E+00
   -0.28912E-09        -0.10925E+08         0.00000E+00
    0.00000E+00         0.00000E+00        -0.23377E+07
 
    0.41109E-08         0.11565E-08         0.00000E+00
    0.11565E-08        -0.10925E+08         0.00000E+00
    0.00000E+00         0.00000E+00        -0.23377E+07
 
    0.41667E+08        -0.59414E-07         0.00000E+00
   -0.59414E-07         0.15574E+09         0.00000E+00
    0.00000E+00         0.00000E+00         0.39329E+08
 
    0.46566E-09        -0.10842E-07         0.00000E+00
   -0.10842E-07        -0.10925E+08         0.00000E+00
    0.00000E+00         0.00000E+00        -0.23377E+07
 
   -0.31723E-08        -0.54933E-08         0.00000E+00
   -0.54933E-08        -0.10925E+08         0.00000E+00
    0.00000E+00         0.00000E+00        -0.23377E+07
 
    0.62573E-09         0.53487E-08         0.00000E+00
    0.53487E-08        -0.10925E+08         0.00000E+00
    0.00000E+00         0.00000E+00        -0.23377E+07
 
   -0.50932E-10         0.53487E-08         0.00000E+00
    0.53487E-08        -0.10925E+08         0.00000E+00
    0.00000E+00         0.00000E+00        -0.23377E+07
 
    0.19427E-08         0.43368E-08         0.00000E+00
    0.43368E-08        -0.10925E+08         0.00000E+00
    0.00000E+00         0.00000E+00        -0.23377E+07
 
    0.29977E-08         0.31803E-08         0.00000E+00
    0.31803E-08        -0.10925E+08         0.00000E+00
    0.00000E+00         0.00000E+00        -0.23377E+07
 
    0.11350E-08         0.57824E-09         0.00000E+00
    0.57824E-09        -0.10925E+08         0.00000E+00
    0.00000E+00         0.00000E+00        -0.23377E+07
 
    0.36453E-08         0.15902E-08         0.00000E+00
    0.15902E-08        -0.10925E+08         0.00000E+00
    0.00000E+00         0.00000E+00        -0.23377E+07
 
   -0.15280E-09         0.23130E-08         0.00000E+00
    0.23130E-08        -0.10925E+08         0.00000E+00
    0.00000E+00         0.00000E+00        -0.23377E+07
 
    0.33397E-08         0.34694E-08         0.00000E+00
    0.34694E-08        -0.10925E+08         0.00000E+00
    0.00000E+00         0.00000E+00        -0.23377E+07
 
    0.33542E-08        -0.10119E-08         0.00000E+00
   -0.10119E-08        -0.10925E+08         0.00000E+00
    0.00000E+00         0.00000E+00        -0.23377E+07
 
    0.64247E-08        -0.21684E-09         0.00000E+00
   -0.21684E-09        -0.10925E+08         0.00000E+00
    0.00000E+00         0.00000E+00        -0.23377E+07
 
    0.51878E-08         0.65052E-09         0.00000E+00
    0.65052E-09        -0.10925E+08         0.00000E+00
    0.00000E+00         0.00000E+00        -0.23377E+07
 
    0.28522E-08         0.28912E-09         0.00000E+00
    0.28912E-09        -0.10925E+08         0.00000E+00
    0.00000E+00         0.00000E+00        -0.23377E+07
 
    0.41667E+08        -0.82110E-07         0.00000E+00
   -0.82110E-07         0.15574E+09         0.00000E+00
    0.00000E+00         0.00000E+00         0.39329E+08
 
   -0.18626E-08         0.79508E-08         0.00000E+00
    0.79508E-08        -0.10925E+08         0.00000E+00
    0.00000E+00         0.00000E+00        -0.23377E+07
 
   -0.21828E-09        -0.14456E-08         0.00000E+00
   -0.14456E-08        -0.10925E+08         0.00000E+00
    0.00000E+00         0.00000E+00        -0.23377E+07
 
    0.20445E-08         0.31803E-08         0.00000E+00
    0.31803E-08        -0.10925E+08         0.00000E+00
    0.00000E+00         0.00000E+00        -0.23377E+07
 
    0.29104E-10         0.72280E-09         0.00000E+00
    0.72280E-09        -0.10925E+08         0.00000E+00
    0.00000E+00         0.00000E+00        -0.23377E+07
 
   -0.59663E-09        -0.43368E-09         0.00000E+00
   -0.43368E-09        -0.10925E+08         0.00000E+00
    0.00000E+00         0.00000E+00        -0.23377E+07
 
    0.22264E-08         0.54933E-08         0.00000E+00
    0.54933E-08        -0.10925E+08         0.00000E+00
    0.00000E+00         0.00000E+00        -0.23377E+07
 
    0.52169E-08         0.86736E-09         0.00000E+00
    0.86736E-09        -0.10925E+08         0.00000E+00
    0.00000E+00         0.00000E+00        -0.23377E+07
 
    0.63519E-08         0.49150E-08         0.00000E+00
    0.49150E-08        -0.10925E+08         0.00000E+00
    0.00000E+00         0.00000E+00        -0.23377E+07
 
    0.22628E-08        -0.28912E-09         0.00000E+00
   -0.28912E-09        -0.10925E+08         0.00000E+00
    0.00000E+00         0.00000E+00        -0.23377E+07
 
    0.50713E-08         0.72280E-09         0.00000E+00
    0.72280E-09        -0.10925E+08         0.00000E+00
    0.00000E+00         0.00000E+00        -0.23377E+07
 
    0.39145E-08        -0.28912E-09         0.00000E+00
   -0.28912E-09        -0.10925E+08         0.00000E+00
    0.00000E+00         0.00000E+00        -0.23377E+07
 
    0.56316E-08         0.50596E-09         0.00000E+00
    0.50596E-09        -0.10925E+08         0.00000E+00
    0.00000E+00         0.00000E+00        -0.23377E+07
 
    0.60827E-08        -0.43368E-09         0.00000E+00
   -0.43368E-09        -0.10925E+08         0.00000E+00
    0.00000E+00         0.00000E+00        -0.23377E+07
 
    0.56170E-08         0.14456E-09         0.00000E+00
    0.14456E-09        -0.10925E+08         0.00000E+00
    0.00000E+00         0.00000E+00        -0.23377E+07
 
    0.41667E+08         0.14789E-06         0.00000E+00
    0.14789E-06         0.15574E+09         0.00000E+00
    0.00000E+00         0.00000E+00         0.39329E+08
 
    0.69922E-08        -0.36140E-08         0.00000E+00
   -0.36140E-08        -0.10925E+08         0.00000E+00
    0.00000E+00         0.00000E+00        -0.23377E+07
 
    0.78580E-09         0.23130E-08         0.00000E+00
    0.23130E-08        -0.10925E+08         0.00000E+00
    0.00000E+00         0.00000E+00        -0.23377E+07
 
    0.36162E-08         0.72280E-09         0.00000E+00
    0.72280E-09        -0.10925E+08         0.00000E+00
    0.00000E+00         0.00000E+00        -0.23377E+07
 
   -0.11350E-08         0.14456E-08         0.00000E+00
    0.14456E-08        -0.10925E+08         0.00000E+00
    0.00000E+00         0.00000E+00        -0.23377E+07
 
    0.31869E-08         0.20238E-08         0.00000E+00
    0.20238E-08        -0.10925E+08         0.00000E+00
    0.00000E+00         0.00000E+00        -0.23377E+07
 
    0.49040E-08         0.13010E-08         0.00000E+00
    0.13010E-08        -0.10925E+08         0.00000E+00
    0.00000E+00         0.00000E+00        -0.23377E+07
 
    0.53406E-08         0.28912E-09         0.00000E+00
    0.28912E-09        -0.10925E+08         0.00000E+00
    0.00000E+00         0.00000E+00        -0.23377E+07
 
    0.27358E-08         0.17347E-08         0.00000E+00
    0.17347E-08        -0.10925E+08         0.00000E+00
    0.00000E+00         0.00000E+00        -0.23377E+07
 
    0.29395E-08        -0.57824E-09         0.00000E+00
   -0.57824E-09        -0.10925E+08         0.00000E+00
    0.00000E+00         0.00000E+00        -0.23377E+07
 
    0.10768E-08         0.20238E-08         0.00000E+00
    0.20238E-08        -0.10925E+08         0.00000E+00
    0.00000E+00         0.00000E+00        -0.23377E+07
 
    0.13752E-08        -0.14456E-08         0.00000E+00
   -0.14456E-08        -0.10925E+08         0.00000E+00
    0.00000E+00         0.00000E+00        -0.23377E+07
 
    0.42637E-08        -0.14456E-09         0.00000E+00
   -0.14456E-09        -0.10925E+08         0.00000E+00
    0.00000E+00         0.00000E+00        -0.23377E+07
 
    0.42346E-08         0.21684E-08         0.00000E+00
    0.21684E-08        -0.10925E+08         0.00000E+00
    0.00000E+00         0.00000E+00        -0.23377E+07
 
    0.36525E-08         0.14456E-09         0.00000E+00
    0.14456E-09        -0.10925E+08         0.00000E+00
    0.00000E+00         0.00000E+00        -0.23377E+07
 
    0.41667E+08        -0.11565E-08         0.00000E+00
   -0.11565E-08         0.15574E+09         0.00000E+00
    0.00000E+00         0.00000E+00         0.39329E+08
 
    0.46566E-09        -0.24575E-08         0.00000E+00
   -0.24575E-08        -0.10925E+08         0.00000E+00
    0.00000E+00         0.00000E+00        -0.23377E+07
 
   -0.27430E-08        -0.56379E-08         0.00000E+00
   -0.56379E-08        -0.10925E+08         0.00000E+00
    0.00000E+00         0.00000E+00        -0.23377E+07
 
    0.39436E-08        -0.43368E-08         0.00000E+00
   -0.43368E-08        -0.10925E+08         0.00000E+00
    0.00000E+00         0.00000E+00        -0.23377E+07
 
    0.11569E-08        -0.24575E-08         0.00000E+00
   -0.24575E-08        -0.10925E+08         0.00000E+00
    0.00000E+00         0.00000E+00        -0.23377E+07
 
    0.10259E-08         0.00000E+00         0.00000E+00
    0.00000E+00        -0.10925E+08         0.00000E+00
    0.00000E+00         0.00000E+00        -0.23377E+07
 
    0.16080E-08        -0.72280E-09         0.00000E+00
   -0.72280E-09        -0.10925E+08         0.00000E+00
    0.00000E+00         0.00000E+00        -0.23377E+07
 
    0.29031E-08         0.24575E-08         0.00000E+00
    0.24575E-08        -0.10925E+08         0.00000E+00
    0.00000E+00         0.00000E+00        -0.23377E+07
 
    0.66211E-08         0.24575E-08         0.00000E+00
    0.24575E-08        -0.10925E+08         0.00000E+00
    0.00000E+00         0.00000E+00        -0.23377E+07
 
    0.72760E-09        -0.57824E-09         0.00000E+00
   -0.57824E-09        -0.10925E+08         0.00000E+00
    0.00000E+00         0.00000E+00        -0.23377E+07
 
    0.52896E-08         0.31803E-08         0.00000E+00
    0.31803E-08        -0.10925E+08         0.00000E+00
    0.00000E+00         0.00000E+00        -0.23377E+07
 
    0.23501E-08        -0.65052E-09         0.00000E+00
   -0.65052E-09        -0.10925E+08         0.00000E+00
    0.00000E+00         0.00000E+00        -0.23377E+07
 
   -0.32014E-09         0.14456E-08         0.00000E+00
    0.14456E-08        -0.10925E+08         0.00000E+00
    0.00000E+00         0.00000E+00        -0.23377E+07
 
    0.49113E-08        -0.28912E-09         0.00000E+00
   -0.28912E-09        -0.10925E+08         0.00000E+00
    0.00000E+00         0.00000E+00        -0.23377E+07
 
    0.10114E-08         0.00000E+00         0.00000E+00
    0.00000E+00        -0.10925E+08         0.00000E+00
    0.00000E+00         0.00000E+00        -0.23377E+07
 
    0.41667E+08        -0.10611E-06         0.00000E+00
   -0.10611E-06         0.15574E+09         0.00000E+00
    0.00000E+00         0.00000E+00         0.39329E+08
 
   -0.20227E-08        -0.23130E-08         0.00000E+00
   -0.23130E-08        -0.10925E+08         0.00000E+00
    0.00000E+00         0.00000E+00        -0.23377E+07
 
    0.10645E-07        -0.63607E-08         0.00000E+00
   -0.63607E-08        -0.10925E+08         0.00000E+00
    0.00000E+00         0.00000E+00        -0.23377E+07
 
    0.10739E-07        -0.36140E-08         0.00000E+00
   -0.36140E-08        -0.10925E+08         0.00000E+00
    0.00000E+00         0.00000E+00        -0.23377E+07
 
    0.60245E-08        -0.72280E-09         0.00000E+00
   -0.72280E-09        -0.10925E+08         0.00000E+00
    0.00000E+00         0.00000E+00        -0.23377E+07
 
    0.49331E-08         0.14456E-09         0.00000E+00
    0.14456E-09        -0.10925E+08         0.00000E+00
    0.00000E+00         0.00000E+00        -0.23377E+07
 
    0.65484E-10        -0.20238E-08         0.00000E+00
   -0.20238E-08        -0.10925E+08         0.00000E+00
    0.00000E+00         0.00000E+00        -0.23377E+07
 
   -0.48603E-08         0.28912E-09         0.00000E+00
    0.28912E-09        -0.10925E+08         0.00000E+00
    0.00000E+00         0.00000E+00        -0.23377E+07
 
   -0.54570E-09         0.47705E-08         0.00000E+00
    0.47705E-08        -0.10925E+08         0.00000E+00
    0.00000E+00         0.00000E+00        -0.23377E+07
 
    0.24593E-08         0.33249E-08         0.00000E+00
    0.33249E-08        -0.10925E+08         0.00000E+00
    0.00000E+00         0.00000E+00        -0.23377E+07
 
    0.39290E-08        -0.13010E-08         0.00000E+00
   -0.13010E-08        -0.10925E+08         0.00000E+00
    0.00000E+00         0.00000E+00        -0.23377E+07
 
    0.59299E-08         0.28912E-09         0.00000E+00
    0.28912E-09        -0.10925E+08         0.00000E+00
    0.00000E+00         0.00000E+00        -0.23377E+07
 
    0.66793E-08         0.28912E-09         0.00000E+00
    0.28912E-09        -0.10925E+08         0.00000E+00
    0.00000E+00         0.00000E+00        -0.23377E+07
 
    0.20227E-08         0.21684E-08         0.00000E+00
    0.21684E-08        -0.10925E+08         0.00000E+00
    0.00000E+00         0.00000E+00        -0.23377E+07
 
    0.54788E-08        -0.14456E-08         0.00000E+00
   -0.14456E-08        -0.10925E+08         0.00000E+00
    0.00000E+00         0.00000E+00        -0.23377E+07
 
    0.41667E+08         0.55077E-07         0.00000E+00
    0.55077E-07         0.15574E+09         0.00000E+00
    0.00000E+00         0.00000E+00         0.39329E+08
 
    0.47439E-08        -0.23130E-08         0.00000E+00
   -0.23130E-08        -0.10925E+08         0.00000E+00
    0.00000E+00         0.00000E+00        -0.23377E+07
 
    0.25684E-08         0.52042E-08         0.00000E+00
    0.52042E-08        -0.10925E+08         0.00000E+00
    0.00000E+00         0.00000E+00        -0.23377E+07
 
    0.28595E-08         0.52042E-08         0.00000E+00
    0.52042E-08        -0.10925E+08         0.00000E+00
    0.00000E+00         0.00000E+00        -0.23377E+07
 
   -0.65484E-09        -0.34694E-08         0.00000E+00
   -0.34694E-08        -0.10925E+08         0.00000E+00
    0.00000E+00         0.00000E+00        -0.23377E+07
 
    0.41618E-08        -0.11565E-08         0.00000E+00
   -0.11565E-08        -0.10925E+08         0.00000E+00
    0.00000E+00         0.00000E+00        -0.23377E+07
 
    0.82509E-08         0.27466E-08         0.00000E+00
    0.27466E-08        -0.10925E+08         0.00000E+00
    0.00000E+00         0.00000E+00        -0.23377E+07
 
    0.21100E-08         0.10119E-08         0.00000E+00
    0.10119E-08        -0.10925E+08         0.00000E+00
    0.00000E+00         0.00000E+00        -0.23377E+07
 
   -0.13097E-08        -0.17347E-08         0.00000E+00
   -0.17347E-08        -0.10925E+08         0.00000E+00
    0.00000E+00         0.00000E+00        -0.23377E+07
 
    0.28231E-08        -0.15902E-08         0.00000E+00
   -0.15902E-08        -0.10925E+08         0.00000E+00
    0.00000E+00         0.00000E+00        -0.23377E+07
 
   -0.18190E-09         0.14456E-09         0.00000E+00
    0.14456E-09        -0.10925E+08         0.00000E+00
    0.00000E+00         0.00000E+00        -0.23377E+07
 
    0.26048E-08         0.18793E-08         0.00000E+00
    0.18793E-08        -0.10925E+08         0.00000E+00
    0.00000E+00         0.00000E+00        -0.23377E+07
 
    0.13533E-08         0.14456E-08         0.00000E+00
    0.14456E-08        -0.10925E+08         0.00000E+00
    0.00000E+00         0.00000E+00        -0.23377E+07
 
    0.28303E-08         0.13010E-08         0.00000E+00
    0.13010E-08        -0.10925E+08         0.00000E+00
    0.00000E+00         0.00000E+00        -0.23377E+07
 
   -0.40745E-09        -0.86736E-09         0.00000E+00
   -0.86736E-09        -0.10925E+08         0.00000E+00
    0.00000E+00         0.00000E+00        -0.23377E+07
 
    0.41667E+08        -0.73726E-08         0.00000E+00
   -0.73726E-08         0.15574E+09         0.00000E+00
    0.00000E+00         0.00000E+00         0.39329E+08
 
    0.86584E-08        -0.52042E-08         0.00000E+00
   -0.52042E-08        -0.10925E+08         0.00000E+00
    0.00000E+00         0.00000E+00        -0.23377E+07
 
    0.31287E-09        -0.40477E-08         0.00000E+00
   -0.40477E-08        -0.10925E+08         0.00000E+00
    0.00000E+00         0.00000E+00        -0.23377E+07
 
    0.56607E-08         0.23130E-08         0.00000E+00
    0.23130E-08        -0.10925E+08         0.00000E+00
    0.00000E+00         0.00000E+00        -0.23377E+07
 
    0.86147E-08         0.86736E-08         0.00000E+00
    0.86736E-08        -0.10925E+08         0.00000E+00
    0.00000E+00         0.00000E+00        -0.23377E+07
 
    0.21682E-08         0.57824E-09         0.00000E+00
    0.57824E-09        -0.10925E+08         0.00000E+00
    0.00000E+00         0.00000E+00        -0.23377E+07
 
    0.26266E-08         0.28912E-09         0.00000E+00
    0.28912E-09        -0.10925E+08         0.00000E+00
    0.00000E+00         0.00000E+00        -0.23377E+07
 
   -0.30850E-08         0.72280E-09         0.00000E+00
    0.72280E-09        -0.10925E+08         0.00000E+00
    0.00000E+00         0.00000E+00        -0.23377E+07
 
   -0.37835E-09         0.17347E-08         0.00000E+00
    0.17347E-08        -0.10925E+08         0.00000E+00
    0.00000E+00         0.00000E+00        -0.23377E+07
 
    0.21828E-09         0.10119E-08         0.00000E+00
    0.10119E-08        -0.10925E+08         0.00000E+00
    0.00000E+00         0.00000E+00        -0.23377E+07
 
   -0.85129E-09         0.43368E-09         0.00000E+00
    0.43368E-09        -0.10925E+08         0.00000E+00
    0.00000E+00         0.00000E+00        -0.23377E+07
 
   -0.89494E-09         0.86736E-09         0.00000E+00
    0.86736E-09        -0.10925E+08         0.00000E+00
    0.00000E+00         0.00000E+00        -0.23377E+07
 
    0.35579E-08         0.34694E-08         0.00000E+00
    0.34694E-08        -0.10925E+08         0.00000E+00
    0.00000E+00         0.00000E+00        -0.23377E+07
 
    0.19136E-08        -0.15902E-08         0.00000E+00
   -0.15902E-08        -0.10925E+08         0.00000E+00
    0.00000E+00         0.00000E+00        -0.23377E+07
 
    0.31287E-09         0.86736E-09         0.00000E+00
    0.86736E-09        -0.10925E+08         0.00000E+00
    0.00000E+00         0.00000E+00        -0.23377E+07
 
    0.41667E+08         0.31803E-08         0.00000E+00
    0.31803E-08         0.15574E+09         0.00000E+00
    0.00000E+00         0.00000E+00         0.39329E+08
 
    0.92114E-08         0.17347E-08         0.00000E+00
    0.17347E-08        -0.10925E+08         0.00000E+00
    0.00000E+00         0.00000E+00        -0.23377E+07
 
    0.82800E-08         0.20238E-08         0.00000E+00
    0.20238E-08        -0.10925E+08         0.00000E+00
    0.00000E+00         0.00000E+00        -0.23377E+07
 
    0.29977E-08        -0.66498E-08         0.00000E+00
   -0.66498E-08        -0.10925E+08         0.00000E+00
    0.00000E+00         0.00000E+00        -0.23377E+07
 
    0.72396E-08        -0.23130E-08         0.00000E+00
   -0.23130E-08        -0.10925E+08         0.00000E+00
    0.00000E+00         0.00000E+00        -0.23377E+07
 
    0.12660E-08        -0.11565E-08         0.00000E+00
   -0.11565E-08        -0.10925E+08         0.00000E+00
    0.00000E+00         0.00000E+00        -0.23377E+07
 
    0.20154E-08         0.53487E-08         0.00000E+00
    0.53487E-08        -0.10925E+08         0.00000E+00
    0.00000E+00         0.00000E+00        -0.23377E+07
 
    0.40891E-08        -0.86736E-09         0.00000E+00
   -0.86736E-09        -0.10925E+08         0.00000E+00
    0.00000E+00         0.00000E+00        -0.23377E+07
 
    0.42201E-09         0.13010E-08         0.00000E+00
    0.13010E-08        -0.10925E+08         0.00000E+00
    0.00000E+00         0.00000E+00        -0.23377E+07
 
   -0.15643E-08        -0.21684E-08         0.00000E+00
   -0.21684E-08        -0.10925E+08         0.00000E+00
    0.00000E+00         0.00000E+00        -0.23377E+07
 
   -0.17681E-08        -0.14456E-08         0.00000E+00
   -0.14456E-08        -0.10925E+08         0.00000E+00
    0.00000E+00         0.00000E+00        -0.23377E+07
 
    0.10114E-08         0.17347E-08         0.00000E+00
    0.17347E-08        -0.10925E+08         0.00000E+00
    0.00000E+00         0.00000E+00        -0.23377E+07
 
    0.21901E-08         0.17347E-08         0.00000E+00
    0.17347E-08        -0.10925E+08         0.00000E+00
    0.00000E+00         0.00000E+00        -0.23377E+07
 
    0.65411E-08        -0.27466E-08         0.00000E+00
   -0.27466E-08        -0.10925E+08         0.00000E+00
    0.00000E+00         0.00000E+00        -0.23377E+07
 
    0.32596E-08         0.26021E-08         0.00000E+00
    0.26021E-08        -0.10925E+08         0.00000E+00
    0.00000E+00         0.00000E+00        -0.23377E+07
 
    0.41667E+08         0.26021E-08         0.00000E+00
    0.26021E-08         0.15574E+09         0.00000E+00
    0.00000E+00         0.00000E+00         0.39329E+08
 
    0.12275E-07        -0.23130E-08         0.00000E+00
   -0.23130E-08        -0.10925E+08         0.00000E+00
    0.00000E+00         0.00000E+00        -0.23377E+07
 
    0.83164E-08        -0.37586E-08         0.00000E+00
   -0.37586E-08        -0.10925E+08         0.00000E+00
    0.00000E+00         0.00000E+00        -0.23377E+07
 
    0.96115E-08        -0.37586E-08         0.00000E+00
   -0.37586E-08        -0.10925E+08         0.00000E+00
    0.00000E+00         0.00000E+00        -0.23377E+07
 
    0.94587E-08        -0.20238E-08         0.00000E+00
   -0.20238E-08        -0.10925E+08         0.00000E+00
    0.00000E+00         0.00000E+00        -0.23377E+07
 
    0.70067E-08         0.28912E-09         0.00000E+00
    0.28912E-09        -0.10925E+08         0.00000E+00
    0.00000E+00         0.00000E+00        -0.23377E+07
 
    0.57771E-08        -0.18793E-08         0.00000E+00
   -0.18793E-08        -0.10925E+08         0.00000E+00
    0.00000E+00         0.00000E+00        -0.23377E+07
 
    0.44311E-08        -0.24575E-08         0.00000E+00
   -0.24575E-08        -0.10925E+08         0.00000E+00
    0.00000E+00         0.00000E+00        -0.23377E+07
 
    0.10790E-07        -0.17347E-08         0.00000E+00
   -0.17347E-08        -0.10925E+08         0.00000E+00
    0.00000E+00         0.00000E+00        -0.23377E+07
 
    0.71086E-08        -0.47705E-08         0.00000E+00
   -0.47705E-08        -0.10925E+08         0.00000E+00
    0.00000E+00         0.00000E+00        -0.23377E+07
 
    0.47003E-08        -0.57824E-09         0.00000E+00
   -0.57824E-09        -0.10925E+08         0.00000E+00
    0.00000E+00         0.00000E+00        -0.23377E+07
 
    0.26193E-09         0.13010E-08         0.00000E+00
    0.13010E-08        -0.10925E+08         0.00000E+00
    0.00000E+00         0.00000E+00        -0.23377E+07
 
    0.48385E-08        -0.18793E-08         0.00000E+00
   -0.18793E-08        -0.10925E+08         0.00000E+00
    0.00000E+00         0.00000E+00        -0.23377E+07
 
    0.26848E-08         0.11565E-08         0.00000E+00
    0.11565E-08        -0.10925E+08         0.00000E+00
    0.00000E+00         0.00000E+00        -0.23377E+07
 
    0.45547E-08         0.28912E-09         0.00000E+00
    0.28912E-09        -0.10925E+08         0.00000E+00
    0.00000E+00         0.00000E+00        -0.23377E+07
 
    0.41667E+08        -0.57824E-08         0.00000E+00
   -0.57824E-08         0.15574E+09         0.00000E+00
    0.00000E+00         0.00000E+00         0.39329E+08
 
    0.10506E-07         0.00000E+00         0.00000E+00
    0.00000E+00        -0.10925E+08         0.00000E+00
    0.00000E+00         0.00000E+00        -0.23377E+07
 
    0.53478E-08        -0.14456E-08         0.00000E+00
   -0.14456E-08        -0.10925E+08         0.00000E+00
    0.00000E+00         0.00000E+00        -0.23377E+07
 
    0.50059E-08        -0.14456E-08         0.00000E+00
   -0.14456E-08        -0.10925E+08         0.00000E+00
    0.00000E+00         0.00000E+00        -0.23377E+07
 
    0.55588E-08        -0.37586E-08         0.00000E+00
   -0.37586E-08        -0.10925E+08         0.00000E+00
    0.00000E+00         0.00000E+00        -0.23377E+07
 
    0.65775E-08        -0.26021E-08         0.00000E+00
   -0.26021E-08        -0.10925E+08         0.00000E+00
    0.00000E+00         0.00000E+00        -0.23377E+07
 
    0.39363E-08         0.23130E-08         0.00000E+00
    0.23130E-08        -0.10925E+08         0.00000E+00
    0.00000E+00         0.00000E+00        -0.23377E+07
 
    0.39290E-08         0.10119E-08         0.00000E+00
    0.10119E-08        -0.10925E+08         0.00000E+00
    0.00000E+00         0.00000E+00        -0.23377E+07
 
    0.40091E-08         0.44814E-08         0.00000E+00
    0.44814E-08        -0.10925E+08         0.00000E+00
    0.00000E+00         0.00000E+00        -0.23377E+07
 
    0.41618E-08         0.30358E-08         0.00000E+00
    0.30358E-08        -0.10925E+08         0.00000E+00
    0.00000E+00         0.00000E+00        -0.23377E+07
 
   -0.11423E-08         0.00000E+00         0.00000E+00
    0.00000E+00        -0.10925E+08         0.00000E+00
    0.00000E+00         0.00000E+00        -0.23377E+07
 
    0.29249E-08        -0.15902E-08         0.00000E+00
   -0.15902E-08        -0.10925E+08         0.00000E+00
    0.00000E+00         0.00000E+00        -0.23377E+07
 
    0.42419E-08        -0.57824E-09         0.00000E+00
   -0.57824E-09        -0.10925E+08         0.00000E+00
    0.00000E+00         0.00000E+00        -0.23377E+07
 
    0.24665E-08        -0.50596E-08         0.00000E+00
   -0.50596E-08        -0.10925E+08         0.00000E+00
    0.00000E+00         0.00000E+00        -0.23377E+07
 
    0.34852E-08        -0.14456E-08         0.00000E+00
   -0.14456E-08        -0.10925E+08         0.00000E+00
    0.00000E+00         0.00000E+00        -0.23377E+07
 
    0.41667E+08         0.55800E-07         0.00000E+00
    0.55800E-07         0.15574E+09         0.00000E+00
    0.00000E+00         0.00000E+00         0.39329E+08
 
   -0.41400E-08         0.31803E-08         0.00000E+00
    0.31803E-08        -0.10925E+08         0.00000E+00
    0.00000E+00         0.00000E+00        -0.23377E+07
 
    0.14261E-08         0.49150E-08         0.00000E+00
    0.49150E-08        -0.10925E+08         0.00000E+00
    0.00000E+00         0.00000E+00        -0.23377E+07
 
    0.26557E-08        -0.52042E-08         0.00000E+00
   -0.52042E-08        -0.10925E+08         0.00000E+00
    0.00000E+00         0.00000E+00        -0.23377E+07
 
   -0.10696E-08         0.31803E-08         0.00000E+00
    0.31803E-08        -0.10925E+08         0.00000E+00
    0.00000E+00         0.00000E+00        -0.23377E+07
 
   -0.16007E-09        -0.23130E-08         0.00000E+00
   -0.23130E-08        -0.10925E+08         0.00000E+00
    0.00000E+00         0.00000E+00        -0.23377E+07
 
    0.53478E-08         0.14456E-08         0.00000E+00
    0.14456E-08        -0.10925E+08         0.00000E+00
    0.00000E+00         0.00000E+00        -0.23377E+07
 
    0.85856E-08        -0.10119E-08         0.00000E+00
   -0.10119E-08        -0.10925E+08         0.00000E+00
    0.00000E+00         0.00000E+00        -0.23377E+07
 
    0.65484E-08        -0.30358E-08         0.00000E+00
   -0.30358E-08        -0.10925E+08         0.00000E+00
    0.00000E+00         0.00000E+00        -0.23377E+07
 
    0.78217E-08        -0.30358E-08         0.00000E+00
   -0.30358E-08        -0.10925E+08         0.00000E+00
    0.00000E+00         0.00000E+00        -0.23377E+07
 
    0.32742E-08        -0.72280E-09         0.00000E+00
   -0.72280E-09        -0.10925E+08         0.00000E+00
    0.00000E+00         0.00000E+00        -0.23377E+07
 
    0.79308E-09         0.49150E-08         0.00000E+00
    0.49150E-08        -0.10925E+08         0.00000E+00
    0.00000E+00         0.00000E+00        -0.23377E+07
 
   -0.27867E-08         0.00000E+00         0.00000E+00
    0.00000E+00        -0.10925E+08         0.00000E+00
    0.00000E+00         0.00000E+00        -0.23377E+07
 
    0.49986E-08        -0.17347E-08         0.00000E+00
   -0.17347E-08        -0.10925E+08         0.00000E+00
    0.00000E+00         0.00000E+00        -0.23377E+07
 
    0.17244E-08         0.23130E-08         0.00000E+00
    0.23130E-08        -0.10925E+08         0.00000E+00
    0.00000E+00         0.00000E+00        -0.23377E+07
 
    0.41667E+08        -0.44525E-07         0.00000E+00
   -0.44525E-07         0.15574E+09         0.00000E+00
    0.00000E+00         0.00000E+00         0.39329E+08
 
   -0.43292E-08        -0.37586E-08         0.00000E+00
   -0.37586E-08        -0.10925E+08         0.00000E+00
    0.00000E+00         0.00000E+00        -0.23377E+07
 
    0.42637E-08         0.10408E-07         0.00000E+00
    0.10408E-07        -0.10925E+08         0.00000E+00
    0.00000E+00         0.00000E+00        -0.23377E+07
 
    0.85201E-08        -0.17347E-08         0.00000E+00
   -0.17347E-08        -0.10925E+08         0.00000E+00
    0.00000E+00         0.00000E+00        -0.23377E+07
 
    0.13606E-08         0.43368E-08         0.00000E+00
    0.43368E-08        -0.10925E+08         0.00000E+00
    0.00000E+00         0.00000E+00        -0.23377E+07
 
    0.12631E-07        -0.20238E-08         0.00000E+00
   -0.20238E-08        -0.10925E+08         0.00000E+00
    0.00000E+00         0.00000E+00        -0.23377E+07
 
    0.58935E-08        -0.36140E-08         0.00000E+00
   -0.36140E-08        -0.10925E+08         0.00000E+00
    0.00000E+00         0.00000E+00        -0.23377E+07
 
    0.16953E-08        -0.26021E-08         0.00000E+00
   -0.26021E-08        -0.10925E+08         0.00000E+00
    0.00000E+00         0.00000E+00        -0.23377E+07
 
    0.23065E-08        -0.18793E-08         0.00000E+00
   -0.18793E-08        -0.10925E+08         0.00000E+00
    0.00000E+00         0.00000E+00        -0.23377E+07
 
    0.36889E-08        -0.10119E-08         0.00000E+00
   -0.10119E-08        -0.10925E+08         0.00000E+00
    0.00000E+00         0.00000E+00        -0.23377E+07
 
   -0.77125E-09        -0.13010E-08         0.00000E+00
   -0.13010E-08        -0.10925E+08         0.00000E+00
    0.00000E+00         0.00000E+00        -0.23377E+07
 
    0.69340E-08        -0.20238E-08         0.00000E+00
   -0.20238E-08        -0.10925E+08         0.00000E+00
    0.00000E+00         0.00000E+00        -0.23377E+07
 
   -0.18845E-08        -0.34694E-08         0.00000E+00
   -0.34694E-08        -0.10925E+08         0.00000E+00
    0.00000E+00         0.00000E+00        -0.23377E+07
 
   -0.16735E-08        -0.14456E-09         0.00000E+00
   -0.14456E-09        -0.10925E+08         0.00000E+00
    0.00000E+00         0.00000E+00        -0.23377E+07
 
    0.87311E-10         0.31803E-08         0.00000E+00
    0.31803E-08        -0.10925E+08         0.00000E+00
    0.00000E+00         0.00000E+00        -0.23377E+07
 
    0.41667E+08         0.58691E-07         0.00000E+00
    0.58691E-07         0.15574E+09         0.00000E+00
    0.00000E+00         0.00000E+00         0.39329E+08
 
    0.78071E-08         0.28912E-09         0.00000E+00
    0.28912E-09        -0.10925E+08         0.00000E+00
    0.00000E+00         0.00000E+00        -0.23377E+07
 
    0.13606E-08        -0.17347E-08         0.00000E+00
   -0.17347E-08        -0.10925E+08         0.00000E+00
    0.00000E+00         0.00000E+00        -0.23377E+07
 
    0.11278E-08        -0.14456E-08         0.00000E+00
   -0.14456E-08        -0.10925E+08         0.00000E+00
    0.00000E+00         0.00000E+00        -0.23377E+07
 
   -0.30705E-08        -0.11565E-08         0.00000E+00
   -0.11565E-08        -0.10925E+08         0.00000E+00
    0.00000E+00         0.00000E+00        -0.23377E+07
 
   -0.98953E-09         0.17347E-08         0.00000E+00
    0.17347E-08        -0.10925E+08         0.00000E+00
    0.00000E+00         0.00000E+00        -0.23377E+07
 
   -0.21828E-09         0.11565E-08         0.00000E+00
    0.11565E-08        -0.10925E+08         0.00000E+00
    0.00000E+00         0.00000E+00        -0.23377E+07
 
   -0.29831E-09         0.37586E-08         0.00000E+00
    0.37586E-08        -0.10925E+08         0.00000E+00
    0.00000E+00         0.00000E+00        -0.23377E+07
 
   -0.20664E-08         0.30358E-08         0.00000E+00
    0.30358E-08        -0.10925E+08         0.00000E+00
    0.00000E+00         0.00000E+00        -0.23377E+07
 
   -0.32087E-08        -0.37586E-08         0.00000E+00
   -0.37586E-08        -0.10925E+08         0.00000E+00
    0.00000E+00         0.00000E+00        -0.23377E+07
 
    0.31359E-08        -0.28912E-08         0.00000E+00
   -0.28912E-08        -0.10925E+08         0.00000E+00
    0.00000E+00         0.00000E+00        -0.23377E+07
 
   -0.20227E-08         0.31803E-08         0.00000E+00
    0.31803E-08        -0.10925E+08         0.00000E+00
    0.00000E+00         0.00000E+00        -0.23377E+07
 
    0.12369E-08        -0.34694E-08         0.00000E+00
   -0.34694E-08        -0.10925E+08         0.00000E+00
    0.00000E+00         0.00000E+00        -0.23377E+07
 
   -0.10696E-08         0.13010E-08         0.00000E+00
    0.13010E-08        -0.10925E+08         0.00000E+00
    0.00000E+00         0.00000E+00        -0.23377E+07
 
   -0.45256E-08         0.57824E-09         0.00000E+00
    0.57824E-09        -0.10925E+08         0.00000E+00
    0.00000E+00         0.00000E+00        -0.23377E+07
 
    0.41667E+08        -0.50307E-07         0.00000E+00
   -0.50307E-07         0.15574E+09         0.00000E+00
    0.00000E+00         0.00000E+00         0.39329E+08
 
   -0.44456E-08         0.11565E-07         0.00000E+00
    0.11565E-07        -0.10925E+08         0.00000E+00
    0.00000E+00         0.00000E+00        -0.23377E+07
 
   -0.59590E-08         0.49150E-08         0.00000E+00
    0.49150E-08        -0.10925E+08         0.00000E+00
    0.00000E+00         0.00000E+00        -0.23377E+07
 
   -0.92987E-08         0.31803E-08         0.00000E+00
    0.31803E-08        -0.10925E+08         0.00000E+00
    0.00000E+00         0.00000E+00        -0.23377E+07
 
   -0.20955E-08         0.31803E-08         0.00000E+00
    0.31803E-08        -0.10925E+08         0.00000E+00
    0.00000E+00         0.00000E+00        -0.23377E+07
 
   -0.53114E-09         0.14456E-08         0.00000E+00
    0.14456E-08        -0.10925E+08         0.00000E+00
    0.00000E+00         0.00000E+00        -0.23377E+07
 
    0.43074E-08        -0.59270E-08         0.00000E+00
   -0.59270E-08        -0.10925E+08         0.00000E+00
    0.00000E+00         0.00000E+00        -0.23377E+07
 
   -0.46421E-08         0.86736E-09         0.00000E+00
    0.86736E-09        -0.10925E+08         0.00000E+00
    0.00000E+00         0.00000E+00        -0.23377E+07
 
    0.13097E-09         0.33249E-08         0.00000E+00
    0.33249E-08        -0.10925E+08         0.00000E+00
    0.00000E+00         0.00000E+00        -0.23377E+07
 
    0.37835E-09         0.23130E-08         0.00000E+00
    0.23130E-08        -0.10925E+08         0.00000E+00
    0.00000E+00         0.00000E+00        -0.23377E+07
 
    0.87894E-08         0.28912E-09         0.00000E+00
    0.28912E-09        -0.10925E+08         0.00000E+00
    0.00000E+00         0.00000E+00        -0.23377E+07
 
    0.17681E-08         0.00000E+00         0.00000E+00
    0.00000E+00        -0.10925E+08         0.00000E+00
    0.00000E+00         0.00000E+00        -0.23377E+07
 
    0.55807E-08        -0.57824E-09         0.00000E+00
   -0.57824E-09        -0.10925E+08         0.00000E+00
    0.00000E+00         0.00000E+00        -0.23377E+07
 
    0.45329E-08        -0.23130E-08         0.00000E+00
   -0.23130E-08        -0.10925E+08         0.00000E+00
    0.00000E+00         0.00000E+00        -0.23377E+07
 
    0.20664E-08        -0.28912E-09         0.00000E+00
   -0.28912E-09        -0.10925E+08         0.00000E+00
    0.00000E+00         0.00000E+00        -0.23377E+07
 
    0.41667E+08        -0.46259E-08         0.00000E+00
   -0.46259E-08         0.15574E+09         0.00000E+00
    0.00000E+00         0.00000E+00         0.39329E+08
 
    0.22919E-08        -0.40477E-08         0.00000E+00
   -0.40477E-08        -0.10925E+08         0.00000E+00
    0.00000E+00         0.00000E+00        -0.23377E+07
 
    0.85784E-08        -0.49150E-08         0.00000E+00
   -0.49150E-08        -0.10925E+08         0.00000E+00
    0.00000E+00         0.00000E+00        -0.23377E+07
 
    0.34270E-08        -0.14456E-08         0.00000E+00
   -0.14456E-08        -0.10925E+08         0.00000E+00
    0.00000E+00         0.00000E+00        -0.23377E+07
 
   -0.41473E-09        -0.17347E-08         0.00000E+00
   -0.17347E-08        -0.10925E+08         0.00000E+00
    0.00000E+00         0.00000E+00        -0.23377E+07
 
    0.51732E-08        -0.17347E-08         0.00000E+00
   -0.17347E-08        -0.10925E+08         0.00000E+00
    0.00000E+00         0.00000E+00        -0.23377E+07
 
   -0.39799E-08         0.24575E-08         0.00000E+00
    0.24575E-08        -0.10925E+08         0.00000E+00
    0.00000E+00         0.00000E+00        -0.23377E+07
 
   -0.18554E-08        -0.36140E-08         0.00000E+00
   -0.36140E-08        -0.10925E+08         0.00000E+00
    0.00000E+00         0.00000E+00        -0.23377E+07
 
   -0.50568E-08        -0.40477E-08         0.00000E+00
   -0.40477E-08        -0.10925E+08         0.00000E+00
    0.00000E+00         0.00000E+00        -0.23377E+07
 
    0.23283E-08        -0.43368E-08         0.00000E+00
   -0.43368E-08        -0.10925E+08         0.00000E+00
    0.00000E+00         0.00000E+00        -0.23377E+07
 
    0.32960E-08        -0.23130E-08         0.00000E+00
   -0.23130E-08        -0.10925E+08         0.00000E+00
    0.00000E+00         0.00000E+00        -0.23377E+07
 
    0.45839E-08         0.86736E-09         0.00000E+00
    0.86736E-09        -0.10925E+08         0.00000E+00
    0.00000E+00         0.00000E+00        -0.23377E+07
 
    0.27430E-08         0.00000E+00         0.00000E+00
    0.00000E+00        -0.10925E+08         0.00000E+00
    0.00000E+00         0.00000E+00        -0.23377E+07
 
    0.10812E-07        -0.57824E-09         0.00000E+00
   -0.57824E-09        -0.10925E+08         0.00000E+00
    0.00000E+00         0.00000E+00        -0.23377E+07
 
    0.13039E-07        -0.49150E-08         0.00000E+00
   -0.49150E-08        -0.10925E+08         0.00000E+00
    0.00000E+00         0.00000E+00        -0.23377E+07
 
    0.41667E+08         0.80954E-08         0.00000E+00
    0.80954E-08         0.15574E+09         0.00000E+00
    0.00000E+00         0.00000E+00         0.39329E+08
 
    0.85129E-09         0.40477E-08         0.00000E+00
    0.40477E-08        -0.10925E+08         0.00000E+00
    0.00000E+00         0.00000E+00        -0.23377E+07
 
   -0.73196E-08         0.66498E-08         0.00000E+00
    0.66498E-08        -0.10925E+08         0.00000E+00
    0.00000E+00         0.00000E+00        -0.23377E+07
 
    0.54788E-08        -0.17347E-08         0.00000E+00
   -0.17347E-08        -0.10925E+08         0.00000E+00
    0.00000E+00         0.00000E+00        -0.23377E+07
 
    0.24593E-08        -0.46259E-08         0.00000E+00
   -0.46259E-08        -0.10925E+08         0.00000E+00
    0.00000E+00         0.00000E+00        -0.23377E+07
 
   -0.26121E-08        -0.14456E-08         0.00000E+00
   -0.14456E-08        -0.10925E+08         0.00000E+00
    0.00000E+00         0.00000E+00        -0.23377E+07
 
   -0.28303E-08        -0.37586E-08         0.00000E+00
   -0.37586E-08        -0.10925E+08         0.00000E+00
    0.00000E+00         0.00000E+00        -0.23377E+07
 
   -0.26193E-08        -0.20238E-08         0.00000E+00
   -0.20238E-08        -0.10925E+08         0.00000E+00
    0.00000E+00         0.00000E+00        -0.23377E+07
 
    0.13897E-08         0.00000E+00         0.00000E+00
    0.00000E+00        -0.10925E+08         0.00000E+00
    0.00000E+00         0.00000E+00        -0.23377E+07
 
    0.60754E-08        -0.31803E-08         0.00000E+00
   -0.31803E-08        -0.10925E+08         0.00000E+00
    0.00000E+00         0.00000E+00        -0.23377E+07
 
   -0.20373E-08        -0.57824E-09         0.00000E+00
   -0.57824E-09        -0.10925E+08         0.00000E+00
    0.00000E+00         0.00000E+00        -0.23377E+07
 
    0.10092E-07        -0.86736E-09         0.00000E+00
   -0.86736E-09        -0.10925E+08         0.00000E+00
    0.00000E+00         0.00000E+00        -0.23377E+07
 
    0.93205E-08        -0.86736E-09         0.00000E+00
   -0.86736E-09        -0.10925E+08         0.00000E+00
    0.00000E+00         0.00000E+00        -0.23377E+07
 
    0.11118E-07        -0.86736E-08         0.00000E+00
   -0.86736E-08        -0.10925E+08         0.00000E+00
    0.00000E+00         0.00000E+00        -0.23377E+07
 
    0.60681E-08         0.86736E-09         0.00000E+00
    0.86736E-09        -0.10925E+08         0.00000E+00
    0.00000E+00         0.00000E+00        -0.23377E+07
 
    0.41667E+08         0.52620E-07         0.00000E+00
    0.52620E-07         0.15574E+09         0.00000E+00
    0.00000E+00         0.00000E+00         0.39329E+08
 
   -0.80618E-08         0.17347E-08         0.00000E+00
    0.17347E-08        -0.10925E+08         0.00000E+00
    0.00000E+00         0.00000E+00        -0.23377E+07
 
   -0.16953E-08        -0.20238E-08         0.00000E+00
   -0.20238E-08        -0.10925E+08         0.00000E+00
    0.00000E+00         0.00000E+00        -0.23377E+07
 
    0.49986E-08        -0.28912E-08         0.00000E+00
   -0.28912E-08        -0.10925E+08         0.00000E+00
    0.00000E+00         0.00000E+00        -0.23377E+07
 
   -0.94005E-08         0.14456E-08         0.00000E+00
    0.14456E-08        -0.10925E+08         0.00000E+00
    0.00000E+00         0.00000E+00        -0.23377E+07
 
   -0.25611E-08        -0.57824E-09         0.00000E+00
   -0.57824E-09        -0.10925E+08         0.00000E+00
    0.00000E+00         0.00000E+00        -0.23377E+07
 
    0.12515E-08         0.49150E-08         0.00000E+00
    0.49150E-08        -0.10925E+08         0.00000E+00
    0.00000E+00         0.00000E+00        -0.23377E+07
 
    0.68030E-08        -0.57824E-09         0.00000E+00
   -0.57824E-09        -0.10925E+08         0.00000E+00
    0.00000E+00         0.00000E+00        -0.23377E+07
 
    0.31505E-08         0.31803E-08         0.00000E+00
    0.31803E-08        -0.10925E+08         0.00000E+00
    0.00000E+00         0.00000E+00        -0.23377E+07
 
    0.50059E-08        -0.23130E-08         0.00000E+00
   -0.23130E-08        -0.10925E+08         0.00000E+00
    0.00000E+00         0.00000E+00        -0.23377E+07
 
    0.93933E-08        -0.46259E-08         0.00000E+00
   -0.46259E-08        -0.10925E+08         0.00000E+00
    0.00000E+00         0.00000E+00        -0.23377E+07
 
   -0.33324E-08         0.28912E-08         0.00000E+00
    0.28912E-08        -0.10925E+08         0.00000E+00
    0.00000E+00         0.00000E+00        -0.23377E+07
 
   -0.36162E-08         0.00000E+00         0.00000E+00
    0.00000E+00        -0.10925E+08         0.00000E+00
    0.00000E+00         0.00000E+00        -0.23377E+07
 
    0.38126E-08        -0.86736E-09         0.00000E+00
   -0.86736E-09        -0.10925E+08         0.00000E+00
    0.00000E+00         0.00000E+00        -0.23377E+07
 
    0.11423E-08         0.00000E+00         0.00000E+00
    0.00000E+00        -0.10925E+08         0.00000E+00
    0.00000E+00         0.00000E+00        -0.23377E+07
 
    0.41667E+08         0.26021E-08         0.00000E+00
    0.26021E-08         0.15574E+09         0.00000E+00
    0.00000E+00         0.00000E+00         0.39329E+08
 
    0.30050E-08        -0.86736E-09         0.00000E+00
   -0.86736E-09        -0.10925E+08         0.00000E+00
    0.00000E+00         0.00000E+00        -0.23377E+07
 
   -0.34852E-08         0.57824E-09         0.00000E+00
    0.57824E-09        -0.10925E+08         0.00000E+00
    0.00000E+00         0.00000E+00        -0.23377E+07
 
   -0.61482E-08         0.26021E-08         0.00000E+00
    0.26021E-08        -0.10925E+08         0.00000E+00
    0.00000E+00         0.00000E+00        -0.23377E+07
 
    0.45402E-08         0.54933E-08         0.00000E+00
    0.54933E-08        -0.10925E+08         0.00000E+00
    0.00000E+00         0.00000E+00        -0.23377E+07
 
    0.23792E-08         0.11565E-08         0.00000E+00
    0.11565E-08        -0.10925E+08         0.00000E+00
    0.00000E+00         0.00000E+00        -0.23377E+07
 
    0.90222E-09        -0.26021E-08         0.00000E+00
   -0.26021E-08        -0.10925E+08         0.00000E+00
    0.00000E+00         0.00000E+00        -0.23377E+07
 
    0.21828E-08         0.28912E-09         0.00000E+00
    0.28912E-09        -0.10925E+08         0.00000E+00
    0.00000E+00         0.00000E+00        -0.23377E+07
 
    0.48603E-08         0.83845E-08         0.00000E+00
    0.83845E-08        -0.10925E+08         0.00000E+00
    0.00000E+00         0.00000E+00        -0.23377E+07
 
   -0.19500E-08        -0.17347E-08         0.00000E+00
   -0.17347E-08        -0.10925E+08         0.00000E+00
    0.00000E+00         0.00000E+00        -0.23377E+07
 
    0.14916E-08         0.57824E-09         0.00000E+00
    0.57824E-09        -0.10925E+08         0.00000E+00
    0.00000E+00         0.00000E+00        -0.23377E+07
 
   -0.18263E-08         0.28912E-09         0.00000E+00
    0.28912E-09        -0.10925E+08         0.00000E+00
    0.00000E+00         0.00000E+00        -0.23377E+07
 
    0.13548E-07        -0.17347E-08         0.00000E+00
   -0.17347E-08        -0.10925E+08         0.00000E+00
    0.00000E+00         0.00000E+00        -0.23377E+07
 
   -0.46057E-08         0.26021E-08         0.00000E+00
    0.26021E-08        -0.10925E+08         0.00000E+00
    0.00000E+00         0.00000E+00        -0.23377E+07
 
    0.68976E-08         0.17347E-08         0.00000E+00
    0.17347E-08        -0.10925E+08         0.00000E+00
    0.00000E+00         0.00000E+00        -0.23377E+07
 
    0.41667E+08        -0.51463E-07         0.00000E+00
   -0.51463E-07         0.15574E+09         0.00000E+00
    0.00000E+00         0.00000E+00         0.39329E+08
 
   -0.40382E-08        -0.92519E-08         0.00000E+00
   -0.92519E-08        -0.10925E+08         0.00000E+00
    0.00000E+00         0.00000E+00        -0.23377E+07
 
    0.77416E-08         0.14456E-08         0.00000E+00
    0.14456E-08        -0.10925E+08         0.00000E+00
    0.00000E+00         0.00000E+00        -0.23377E+07
 
   -0.60681E-08         0.40477E-08         0.00000E+00
    0.40477E-08        -0.10925E+08         0.00000E+00
    0.00000E+00         0.00000E+00        -0.23377E+07
 
   -0.79890E-08        -0.28912E-09         0.00000E+00
   -0.28912E-09        -0.10925E+08         0.00000E+00
    0.00000E+00         0.00000E+00        -0.23377E+07
 
   -0.30996E-08         0.37586E-08         0.00000E+00
    0.37586E-08        -0.10925E+08         0.00000E+00
    0.00000E+00         0.00000E+00        -0.23377E+07
 
   -0.40309E-08         0.00000E+00         0.00000E+00
    0.00000E+00        -0.10925E+08         0.00000E+00
    0.00000E+00         0.00000E+00        -0.23377E+07
 
   -0.37326E-08         0.28912E-08         0.00000E+00
    0.28912E-08        -0.10925E+08         0.00000E+00
    0.00000E+00         0.00000E+00        -0.23377E+07
 
   -0.41036E-08         0.57824E-09         0.00000E+00
    0.57824E-09        -0.10925E+08         0.00000E+00
    0.00000E+00         0.00000E+00        -0.23377E+07
 
    0.11511E-07        -0.34694E-08         0.00000E+00
   -0.34694E-08        -0.10925E+08         0.00000E+00
    0.00000E+00         0.00000E+00        -0.23377E+07
 
    0.11278E-08         0.31803E-08         0.00000E+00
    0.31803E-08        -0.10925E+08         0.00000E+00
    0.00000E+00         0.00000E+00        -0.23377E+07
 
    0.25684E-08         0.17347E-08         0.00000E+00
    0.17347E-08        -0.10925E+08         0.00000E+00
    0.00000E+00         0.00000E+00        -0.23377E+07
 
   -0.14261E-08         0.46259E-08         0.00000E+00
    0.46259E-08        -0.10925E+08         0.00000E+00
    0.00000E+00         0.00000E+00        -0.23377E+07
 
    0.95388E-08        -0.75171E-08         0.00000E+00
   -0.75171E-08        -0.10925E+08         0.00000E+00
    0.00000E+00         0.00000E+00        -0.23377E+07
 
    0.17622E-07         0.20238E-08         0.00000E+00
    0.20238E-08        -0.10925E+08         0.00000E+00
    0.00000E+00         0.00000E+00        -0.23377E+07
 
    0.41667E+08         0.23130E-08         0.00000E+00
    0.23130E-08         0.15574E+09         0.00000E+00
    0.00000E+00         0.00000E+00         0.39329E+08
 
   -0.83019E-08         0.66498E-08         0.00000E+00
    0.66498E-08        -0.10925E+08         0.00000E+00
    0.00000E+00         0.00000E+00        -0.23377E+07
 
   -0.24884E-08         0.49150E-08         0.00000E+00
    0.49150E-08        -0.10925E+08         0.00000E+00
    0.00000E+00         0.00000E+00        -0.23377E+07
 
    0.77125E-09         0.54933E-08         0.00000E+00
    0.54933E-08        -0.10925E+08         0.00000E+00
    0.00000E+00         0.00000E+00        -0.23377E+07
 
    0.20227E-08        -0.17347E-08         0.00000E+00
   -0.17347E-08        -0.10925E+08         0.00000E+00
    0.00000E+00         0.00000E+00        -0.23377E+07
 
   -0.58935E-09         0.92519E-08         0.00000E+00
    0.92519E-08        -0.10925E+08         0.00000E+00
    0.00000E+00         0.00000E+00        -0.23377E+07
 
    0.12369E-08         0.46259E-08         0.00000E+00
    0.46259E-08        -0.10925E+08         0.00000E+00
    0.00000E+00         0.00000E+00        -0.23377E+07
 
    0.56025E-08         0.92519E-08         0.00000E+00
    0.92519E-08        -0.10925E+08         0.00000E+00
    0.00000E+00         0.00000E+00        -0.23377E+07
 
    0.19500E-08         0.11565E-08         0.00000E+00
    0.11565E-08        -0.10925E+08         0.00000E+00
    0.00000E+00         0.00000E+00        -0.23377E+07
 
    0.63519E-08         0.26021E-08         0.00000E+00
    0.26021E-08        -0.10925E+08         0.00000E+00
    0.00000E+00         0.00000E+00        -0.23377E+07
 
   -0.80472E-08         0.66498E-08         0.00000E+00
    0.66498E-08        -0.10925E+08         0.00000E+00
    0.00000E+00         0.00000E+00        -0.23377E+07
 
    0.87311E-09        -0.23130E-08         0.00000E+00
   -0.23130E-08        -0.10925E+08         0.00000E+00
    0.00000E+00         0.00000E+00        -0.23377E+07
 
    0.72905E-08        -0.57824E-08         0.00000E+00
   -0.57824E-08        -0.10925E+08         0.00000E+00
    0.00000E+00         0.00000E+00        -0.23377E+07
 
    0.23356E-08        -0.20238E-08         0.00000E+00
   -0.20238E-08        -0.10925E+08         0.00000E+00
    0.00000E+00         0.00000E+00        -0.23377E+07
 
    0.40891E-08        -0.11565E-08         0.00000E+00
   -0.11565E-08        -0.10925E+08         0.00000E+00
    0.00000E+00         0.00000E+00        -0.23377E+07
 
    0.41667E+08         0.51463E-07         0.00000E+00
    0.51463E-07         0.15574E+09         0.00000E+00
    0.00000E+00         0.00000E+00         0.39329E+08
 
    0.11998E-07         0.23130E-08         0.00000E+00
    0.23130E-08        -0.10925E+08         0.00000E+00
    0.00000E+00         0.00000E+00        -0.23377E+07
 
    0.51659E-09         0.78063E-08         0.00000E+00
    0.78063E-08        -0.10925E+08         0.00000E+00
    0.00000E+00         0.00000E+00        -0.23377E+07
 
   -0.29177E-08         0.37586E-08         0.00000E+00
    0.37586E-08        -0.10925E+08         0.00000E+00
    0.00000E+00         0.00000E+00        -0.23377E+07
 
   -0.88039E-09        -0.31803E-08         0.00000E+00
   -0.31803E-08        -0.10925E+08         0.00000E+00
    0.00000E+00         0.00000E+00        -0.23377E+07
 
   -0.24738E-09        -0.72280E-08         0.00000E+00
   -0.72280E-08        -0.10925E+08         0.00000E+00
    0.00000E+00         0.00000E+00        -0.23377E+07
 
   -0.14043E-08        -0.10987E-07         0.00000E+00
   -0.10987E-07        -0.10925E+08         0.00000E+00
    0.00000E+00         0.00000E+00        -0.23377E+07
 
    0.23938E-08        -0.43368E-08         0.00000E+00
   -0.43368E-08        -0.10925E+08         0.00000E+00
    0.00000E+00         0.00000E+00        -0.23377E+07
 
   -0.44238E-08        -0.28912E-08         0.00000E+00
   -0.28912E-08        -0.10925E+08         0.00000E+00
    0.00000E+00         0.00000E+00        -0.23377E+07
 
   -0.56752E-09        -0.52042E-08         0.00000E+00
   -0.52042E-08        -0.10925E+08         0.00000E+00
    0.00000E+00         0.00000E+00        -0.23377E+07
 
    0.37908E-08         0.63607E-08         0.00000E+00
    0.63607E-08        -0.10925E+08         0.00000E+00
    0.00000E+00         0.00000E+00        -0.23377E+07
 
    0.24957E-08         0.83845E-08         0.00000E+00
    0.83845E-08        -0.10925E+08         0.00000E+00
    0.00000E+00         0.00000E+00        -0.23377E+07
 
   -0.58208E-10         0.23130E-08         0.00000E+00
    0.23130E-08        -0.10925E+08         0.00000E+00
    0.00000E+00         0.00000E+00        -0.23377E+07
 
    0.48385E-08        -0.28912E-08         0.00000E+00
   -0.28912E-08        -0.10925E+08         0.00000E+00
    0.00000E+00         0.00000E+00        -0.23377E+07
 
    0.10965E-07         0.34694E-08         0.00000E+00
    0.34694E-08        -0.10925E+08         0.00000E+00
    0.00000E+00         0.00000E+00        -0.23377E+07
 
    0.41667E+08        -0.50885E-07         0.00000E+00
   -0.50885E-07         0.15574E+09         0.00000E+00
    0.00000E+00         0.00000E+00         0.39329E+08
 
   -0.12682E-07        -0.83845E-08         0.00000E+00
   -0.83845E-08        -0.10925E+08         0.00000E+00
    0.00000E+00         0.00000E+00        -0.23377E+07
 
   -0.73196E-08        -0.57824E-09         0.00000E+00
   -0.57824E-09        -0.10925E+08         0.00000E+00
    0.00000E+00         0.00000E+00        -0.23377E+07
 
   -0.10681E-07         0.95410E-08         0.00000E+00
    0.95410E-08        -0.10925E+08         0.00000E+00
    0.00000E+00         0.00000E+00        -0.23377E+07
 
    0.93569E-08         0.57824E-09         0.00000E+00
    0.57824E-09        -0.10925E+08         0.00000E+00
    0.00000E+00         0.00000E+00        -0.23377E+07
 
    0.40964E-08         0.17347E-08         0.00000E+00
    0.17347E-08        -0.10925E+08         0.00000E+00
    0.00000E+00         0.00000E+00        -0.23377E+07
 
    0.18917E-09         0.60715E-08         0.00000E+00
    0.60715E-08        -0.10925E+08         0.00000E+00
    0.00000E+00         0.00000E+00        -0.23377E+07
 
    0.52023E-08         0.83845E-08         0.00000E+00
    0.83845E-08        -0.10925E+08         0.00000E+00
    0.00000E+00         0.00000E+00        -0.23377E+07
 
    0.88185E-08         0.20238E-08         0.00000E+00
    0.20238E-08        -0.10925E+08         0.00000E+00
    0.00000E+00         0.00000E+00        -0.23377E+07
 
   -0.41255E-08        -0.75171E-08         0.00000E+00
   -0.75171E-08        -0.10925E+08         0.00000E+00
    0.00000E+00         0.00000E+00        -0.23377E+07
 
   -0.36453E-08        -0.23130E-08         0.00000E+00
   -0.23130E-08        -0.10925E+08         0.00000E+00
    0.00000E+00         0.00000E+00        -0.23377E+07
 
    0.13737E-07         0.28912E-09         0.00000E+00
    0.28912E-09        -0.10925E+08         0.00000E+00
    0.00000E+00         0.00000E+00        -0.23377E+07
 
    0.27649E-08         0.57824E-08         0.00000E+00
    0.57824E-08        -0.10925E+08         0.00000E+00
    0.00000E+00         0.00000E+00        -0.23377E+07
 
   -0.82073E-08         0.34694E-08         0.00000E+00
    0.34694E-08        -0.10925E+08         0.00000E+00
    0.00000E+00         0.00000E+00        -0.23377E+07
 
   -0.38490E-08        -0.31803E-08         0.00000E+00
   -0.31803E-08        -0.10925E+08         0.00000E+00
    0.00000E+00         0.00000E+00        -0.23377E+07
 
    0.41667E+08         0.51463E-07         0.00000E+00
    0.51463E-07         0.15574E+09         0.00000E+00
    0.00000E+00         0.00000E+00         0.39329E+08
 
    0.72760E-10         0.12721E-07         0.00000E+00
    0.12721E-07        -0.10925E+08         0.00000E+00
    0.00000E+00         0.00000E+00        -0.23377E+07
 
    0.30122E-08         0.00000E+00         0.00000E+00
    0.00000E+00        -0.10925E+08         0.00000E+00
    0.00000E+00         0.00000E+00        -0.23377E+07
 
    0.85056E-08        -0.80954E-08         0.00000E+00
   -0.80954E-08        -0.10925E+08         0.00000E+00
    0.00000E+00         0.00000E+00        -0.23377E+07
 
   -0.70067E-08         0.28912E-09         0.00000E+00
    0.28912E-09        -0.10925E+08         0.00000E+00
    0.00000E+00         0.00000E+00        -0.23377E+07
 
   -0.33178E-08         0.46259E-08         0.00000E+00
    0.46259E-08        -0.10925E+08         0.00000E+00
    0.00000E+00         0.00000E+00        -0.23377E+07
 
    0.14843E-08         0.28912E-09         0.00000E+00
    0.28912E-09        -0.10925E+08         0.00000E+00
    0.00000E+00         0.00000E+00        -0.23377E+07
 
   -0.34706E-08         0.17347E-08         0.00000E+00
    0.17347E-08        -0.10925E+08         0.00000E+00
    0.00000E+00         0.00000E+00        -0.23377E+07
 
    0.17244E-08        -0.57824E-09         0.00000E+00
   -0.57824E-09        -0.10925E+08         0.00000E+00
    0.00000E+00         0.00000E+00        -0.23377E+07
 
    0.74506E-08         0.17347E-08         0.00000E+00
    0.17347E-08        -0.10925E+08         0.00000E+00
    0.00000E+00         0.00000E+00        -0.23377E+07
 
    0.13177E-07         0.20238E-08         0.00000E+00
    0.20238E-08        -0.10925E+08         0.00000E+00
    0.00000E+00         0.00000E+00        -0.23377E+07
 
    0.12566E-07         0.66498E-08         0.00000E+00
    0.66498E-08        -0.10925E+08         0.00000E+00
    0.00000E+00         0.00000E+00        -0.23377E+07
 
    0.17877E-07        -0.26021E-08         0.00000E+00
   -0.26021E-08        -0.10925E+08         0.00000E+00
    0.00000E+00         0.00000E+00        -0.23377E+07
 
    0.19369E-07        -0.34694E-08         0.00000E+00
   -0.34694E-08        -0.10925E+08         0.00000E+00
    0.00000E+00         0.00000E+00        -0.23377E+07
 
    0.16633E-07         0.52042E-08         0.00000E+00
    0.52042E-08        -0.10925E+08         0.00000E+00
    0.00000E+00         0.00000E+00        -0.23377E+07
 
    0.41667E+08        -0.53198E-07         0.00000E+00
   -0.53198E-07         0.15574E+09         0.00000E+00
    0.00000E+00         0.00000E+00         0.39329E+08
 
   -0.14283E-07         0.46259E-08         0.00000E+00
    0.46259E-08        -0.10925E+08         0.00000E+00
    0.00000E+00         0.00000E+00        -0.23377E+07
 
    0.10405E-08         0.46259E-08         0.00000E+00
    0.46259E-08        -0.10925E+08         0.00000E+00
    0.00000E+00         0.00000E+00        -0.23377E+07
 
   -0.17899E-08         0.49150E-08         0.00000E+00
    0.49150E-08        -0.10925E+08         0.00000E+00
    0.00000E+00         0.00000E+00        -0.23377E+07
 
    0.72760E-09        -0.28912E-08         0.00000E+00
   -0.28912E-08        -0.10925E+08         0.00000E+00
    0.00000E+00         0.00000E+00        -0.23377E+07
 
   -0.87020E-08         0.86736E-09         0.00000E+00
    0.86736E-09        -0.10925E+08         0.00000E+00
    0.00000E+00         0.00000E+00        -0.23377E+07
 
   -0.28012E-08         0.34694E-08         0.00000E+00
    0.34694E-08        -0.10925E+08         0.00000E+00
    0.00000E+00         0.00000E+00        -0.23377E+07
 
    0.50932E-08        -0.80954E-08         0.00000E+00
   -0.80954E-08        -0.10925E+08         0.00000E+00
    0.00000E+00         0.00000E+00        -0.23377E+07
 
    0.10485E-07        -0.54933E-08         0.00000E+00
   -0.54933E-08        -0.10925E+08         0.00000E+00
    0.00000E+00         0.00000E+00        -0.23377E+07
 
    0.47803E-08         0.46259E-08         0.00000E+00
    0.46259E-08        -0.10925E+08         0.00000E+00
    0.00000E+00         0.00000E+00        -0.23377E+07
 
   -0.66066E-08        -0.23130E-08         0.00000E+00
   -0.23130E-08        -0.10925E+08         0.00000E+00
    0.00000E+00         0.00000E+00        -0.23377E+07
 
   -0.11984E-07         0.20238E-08         0.00000E+00
    0.20238E-08        -0.10925E+08         0.00000E+00
    0.00000E+00         0.00000E+00        -0.23377E+07
 
    0.24374E-08        -0.52042E-08         0.00000E+00
   -0.52042E-08        -0.10925E+08         0.00000E+00
    0.00000E+00         0.00000E+00        -0.23377E+07
 
   -0.53478E-08        -0.86736E-09         0.00000E+00
   -0.86736E-09        -0.10925E+08         0.00000E+00
    0.00000E+00         0.00000E+00        -0.23377E+07
 
   -0.37398E-08        -0.86736E-08         0.00000E+00
   -0.86736E-08        -0.10925E+08         0.00000E+00
    0.00000E+00         0.00000E+00        -0.23377E+07
 
    0.41667E+08         0.50885E-07         0.00000E+00
    0.50885E-07         0.15574E+09         0.00000E+00
    0.00000E+00         0.00000E+00         0.39329E+08
 
    0.19645E-08         0.20238E-08         0.00000E+00
    0.20238E-08        -0.10925E+08         0.00000E+00
    0.00000E+00         0.00000E+00        -0.23377E+07
 
   -0.40163E-08         0.72280E-08         0.00000E+00
    0.72280E-08        -0.10925E+08         0.00000E+00
    0.00000E+00         0.00000E+00        -0.23377E+07
 
    0.73051E-08         0.23130E-08         0.00000E+00
    0.23130E-08        -0.10925E+08         0.00000E+00
    0.00000E+00         0.00000E+00        -0.23377E+07
 
    0.34124E-08         0.83845E-08         0.00000E+00
    0.83845E-08        -0.10925E+08         0.00000E+00
    0.00000E+00         0.00000E+00        -0.23377E+07
 
    0.43074E-08         0.37586E-08         0.00000E+00
    0.37586E-08        -0.10925E+08         0.00000E+00
    0.00000E+00         0.00000E+00        -0.23377E+07
 
    0.41036E-08         0.80954E-08         0.00000E+00
    0.80954E-08        -0.10925E+08         0.00000E+00
    0.00000E+00         0.00000E+00        -0.23377E+07
 
   -0.42855E-08         0.23130E-08         0.00000E+00
    0.23130E-08        -0.10925E+08         0.00000E+00
    0.00000E+00         0.00000E+00        -0.23377E+07
 
    0.16880E-08        -0.86736E-09         0.00000E+00
   -0.86736E-09        -0.10925E+08         0.00000E+00
    0.00000E+00         0.00000E+00        -0.23377E+07
 
    0.91241E-08         0.52042E-08         0.00000E+00
    0.52042E-08        -0.10925E+08         0.00000E+00
    0.00000E+00         0.00000E+00        -0.23377E+07
 
    0.95097E-08        -0.28912E-08         0.00000E+00
   -0.28912E-08        -0.10925E+08         0.00000E+00
    0.00000E+00         0.00000E+00        -0.23377E+07
 
    0.10114E-07         0.14456E-08         0.00000E+00
    0.14456E-08        -0.10925E+08         0.00000E+00
    0.00000E+00         0.00000E+00        -0.23377E+07
 
    0.16611E-07         0.57824E-09         0.00000E+00
    0.57824E-09        -0.10925E+08         0.00000E+00
    0.00000E+00         0.00000E+00        -0.23377E+07
 
    0.99899E-08         0.52042E-08         0.00000E+00
    0.52042E-08        -0.10925E+08         0.00000E+00
    0.00000E+00         0.00000E+00        -0.23377E+07
 
    0.81782E-08         0.69389E-08         0.00000E+00
    0.69389E-08        -0.10925E+08         0.00000E+00
    0.00000E+00         0.00000E+00        -0.23377E+07
 
    0.41667E+08        -0.54933E-07         0.00000E+00
   -0.54933E-07         0.15574E+09         0.00000E+00
    0.00000E+00         0.00000E+00         0.39329E+08
 
   -0.72614E-08        -0.10697E-07         0.00000E+00
   -0.10697E-07        -0.10925E+08         0.00000E+00
    0.00000E+00         0.00000E+00        -0.23377E+07
 
   -0.26921E-08         0.52042E-08         0.00000E+00
    0.52042E-08        -0.10925E+08         0.00000E+00
    0.00000E+00         0.00000E+00        -0.23377E+07
 
   -0.22548E-07        -0.26021E-08         0.00000E+00
   -0.26021E-08        -0.10925E+08         0.00000E+00
    0.00000E+00         0.00000E+00        -0.23377E+07
 
   -0.17099E-07        -0.20238E-08         0.00000E+00
   -0.20238E-08        -0.10925E+08         0.00000E+00
    0.00000E+00         0.00000E+00        -0.23377E+07
 
   -0.99244E-08         0.20238E-08         0.00000E+00
    0.20238E-08        -0.10925E+08         0.00000E+00
    0.00000E+00         0.00000E+00        -0.23377E+07
 
    0.37471E-08        -0.11565E-08         0.00000E+00
   -0.11565E-08        -0.10925E+08         0.00000E+00
    0.00000E+00         0.00000E+00        -0.23377E+07
 
   -0.42201E-09         0.80954E-08         0.00000E+00
    0.80954E-08        -0.10925E+08         0.00000E+00
    0.00000E+00         0.00000E+00        -0.23377E+07
 
    0.49404E-08         0.57824E-09         0.00000E+00
    0.57824E-09        -0.10925E+08         0.00000E+00
    0.00000E+00         0.00000E+00        -0.23377E+07
 
   -0.53333E-08        -0.98301E-08         0.00000E+00
   -0.98301E-08        -0.10925E+08         0.00000E+00
    0.00000E+00         0.00000E+00        -0.23377E+07
 
   -0.57189E-08        -0.23130E-08         0.00000E+00
   -0.23130E-08        -0.10925E+08         0.00000E+00
    0.00000E+00         0.00000E+00        -0.23377E+07
 
   -0.93860E-08        -0.37586E-08         0.00000E+00
   -0.37586E-08        -0.10925E+08         0.00000E+00
    0.00000E+00         0.00000E+00        -0.23377E+07
 
   -0.61336E-08         0.54933E-08         0.00000E+00
    0.54933E-08        -0.10925E+08         0.00000E+00
    0.00000E+00         0.00000E+00        -0.23377E+07
 
   -0.71741E-08        -0.13010E-07         0.00000E+00
   -0.13010E-07        -0.10925E+08         0.00000E+00
    0.00000E+00         0.00000E+00        -0.23377E+07
 
   -0.28231E-08        -0.17347E-08         0.00000E+00
   -0.17347E-08        -0.10925E+08         0.00000E+00
    0.00000E+00         0.00000E+00        -0.23377E+07
 
    0.41667E+08         0.56089E-07         0.00000E+00
    0.56089E-07         0.15574E+09         0.00000E+00
    0.00000E+00         0.00000E+00         0.39329E+08
 
    0.24957E-08        -0.10119E-07         0.00000E+00
   -0.10119E-07        -0.10925E+08         0.00000E+00
    0.00000E+00         0.00000E+00        -0.23377E+07
 
    0.12369E-09         0.43368E-08         0.00000E+00
    0.43368E-08        -0.10925E+08         0.00000E+00
    0.00000E+00         0.00000E+00        -0.23377E+07
 
    0.14712E-07        -0.26021E-08         0.00000E+00
   -0.26021E-08        -0.10925E+08         0.00000E+00
    0.00000E+00         0.00000E+00        -0.23377E+07
 
    0.15665E-07        -0.46259E-08         0.00000E+00
   -0.46259E-08        -0.10925E+08         0.00000E+00
    0.00000E+00         0.00000E+00        -0.23377E+07
 
    0.10652E-07        -0.20238E-08         0.00000E+00
   -0.20238E-08        -0.10925E+08         0.00000E+00
    0.00000E+00         0.00000E+00        -0.23377E+07
 
    0.98953E-09         0.12721E-07         0.00000E+00
    0.12721E-07        -0.10925E+08         0.00000E+00
    0.00000E+00         0.00000E+00        -0.23377E+07
 
    0.15280E-09         0.11276E-07         0.00000E+00
    0.11276E-07        -0.10925E+08         0.00000E+00
    0.00000E+00         0.00000E+00        -0.23377E+07
 
    0.37980E-08         0.46259E-08         0.00000E+00
    0.46259E-08        -0.10925E+08         0.00000E+00
    0.00000E+00         0.00000E+00        -0.23377E+07
 
   -0.76034E-08         0.86736E-08         0.00000E+00
    0.86736E-08        -0.10925E+08         0.00000E+00
    0.00000E+00         0.00000E+00        -0.23377E+07
 
   -0.57989E-08         0.13878E-07         0.00000E+00
    0.13878E-07        -0.10925E+08         0.00000E+00
    0.00000E+00         0.00000E+00        -0.23377E+07
 
   -0.78580E-09        -0.46259E-08         0.00000E+00
   -0.46259E-08        -0.10925E+08         0.00000E+00
    0.00000E+00         0.00000E+00        -0.23377E+07
 
   -0.39145E-08         0.26021E-08         0.00000E+00
    0.26021E-08        -0.10925E+08         0.00000E+00
    0.00000E+00         0.00000E+00        -0.23377E+07
 
    0.29831E-09         0.80954E-08         0.00000E+00
    0.80954E-08        -0.10925E+08         0.00000E+00
    0.00000E+00         0.00000E+00        -0.23377E+07
 
   -0.57989E-08         0.40477E-08         0.00000E+00
    0.40477E-08        -0.10925E+08         0.00000E+00
    0.00000E+00         0.00000E+00        -0.23377E+07
 
    0.41667E+08        -0.50307E-07         0.00000E+00
   -0.50307E-07         0.15574E+09         0.00000E+00
    0.00000E+00         0.00000E+00         0.39329E+08
 
   -0.13621E-07        -0.17347E-08         0.00000E+00
   -0.17347E-08        -0.10925E+08         0.00000E+00
    0.00000E+00         0.00000E+00        -0.23377E+07
 
   -0.21064E-07        -0.89627E-08         0.00000E+00
   -0.89627E-08        -0.10925E+08         0.00000E+00
    0.00000E+00         0.00000E+00        -0.23377E+07
 
   -0.13642E-07        -0.23130E-08         0.00000E+00
   -0.23130E-08        -0.10925E+08         0.00000E+00
    0.00000E+00         0.00000E+00        -0.23377E+07
 
   -0.93787E-08         0.14456E-08         0.00000E+00
    0.14456E-08        -0.10925E+08         0.00000E+00
    0.00000E+00         0.00000E+00        -0.23377E+07
 
   -0.16960E-07         0.57824E-09         0.00000E+00
    0.57824E-09        -0.10925E+08         0.00000E+00
    0.00000E+00         0.00000E+00        -0.23377E+07
 
   -0.18917E-09         0.72280E-08         0.00000E+00
    0.72280E-08        -0.10925E+08         0.00000E+00
    0.00000E+00         0.00000E+00        -0.23377E+07
 
    0.12333E-07         0.28912E-08         0.00000E+00
    0.28912E-08        -0.10925E+08         0.00000E+00
    0.00000E+00         0.00000E+00        -0.23377E+07
 
    0.12202E-07        -0.75171E-08         0.00000E+00
   -0.75171E-08        -0.10925E+08         0.00000E+00
    0.00000E+00         0.00000E+00        -0.23377E+07
 
    0.11823E-07        -0.46259E-08         0.00000E+00
   -0.46259E-08        -0.10925E+08         0.00000E+00
    0.00000E+00         0.00000E+00        -0.23377E+07
 
   -0.82000E-08         0.46259E-08         0.00000E+00
    0.46259E-08        -0.10925E+08         0.00000E+00
    0.00000E+00         0.00000E+00        -0.23377E+07
 
   -0.19769E-07         0.43368E-08         0.00000E+00
    0.43368E-08        -0.10925E+08         0.00000E+00
    0.00000E+00         0.00000E+00        -0.23377E+07
 
    0.41473E-09        -0.28912E-09         0.00000E+00
   -0.28912E-09        -0.10925E+08         0.00000E+00
    0.00000E+00         0.00000E+00        -0.23377E+07
 
   -0.21682E-08         0.52042E-08         0.00000E+00
    0.52042E-08        -0.10925E+08         0.00000E+00
    0.00000E+00         0.00000E+00        -0.23377E+07
 
   -0.10041E-08        -0.28912E-08         0.00000E+00
   -0.28912E-08        -0.10925E+08         0.00000E+00
    0.00000E+00         0.00000E+00        -0.23377E+07
 
    0.41667E+08         0.28912E-08         0.00000E+00
    0.28912E-08         0.15574E+09         0.00000E+00
    0.00000E+00         0.00000E+00         0.39329E+08
 
    0.92186E-08         0.17347E-08         0.00000E+00
    0.17347E-08        -0.10925E+08         0.00000E+00
    0.00000E+00         0.00000E+00        -0.23377E+07
 
    0.76034E-08         0.34694E-08         0.00000E+00
    0.34694E-08        -0.10925E+08         0.00000E+00
    0.00000E+00         0.00000E+00        -0.23377E+07
 
    0.90367E-08        -0.20238E-08         0.00000E+00
   -0.20238E-08        -0.10925E+08         0.00000E+00
    0.00000E+00         0.00000E+00        -0.23377E+07
 
    0.21886E-07        -0.49150E-08         0.00000E+00
   -0.49150E-08        -0.10925E+08         0.00000E+00
    0.00000E+00         0.00000E+00        -0.23377E+07
 
    0.57553E-08        -0.52042E-08         0.00000E+00
   -0.52042E-08        -0.10925E+08         0.00000E+00
    0.00000E+00         0.00000E+00        -0.23377E+07
 
    0.64028E-08        -0.17347E-08         0.00000E+00
   -0.17347E-08        -0.10925E+08         0.00000E+00
    0.00000E+00         0.00000E+00        -0.23377E+07
 
   -0.62792E-08        -0.92519E-08         0.00000E+00
   -0.92519E-08        -0.10925E+08         0.00000E+00
    0.00000E+00         0.00000E+00        -0.23377E+07
 
   -0.11380E-07         0.57824E-09         0.00000E+00
    0.57824E-09        -0.10925E+08         0.00000E+00
    0.00000E+00         0.00000E+00        -0.23377E+07
 
    0.55079E-08        -0.80954E-08         0.00000E+00
   -0.80954E-08        -0.10925E+08         0.00000E+00
    0.00000E+00         0.00000E+00        -0.23377E+07
 
    0.76179E-08         0.52042E-08         0.00000E+00
    0.52042E-08        -0.10925E+08         0.00000E+00
    0.00000E+00         0.00000E+00        -0.23377E+07
 
    0.17273E-07         0.10408E-07         0.00000E+00
    0.10408E-07        -0.10925E+08         0.00000E+00
    0.00000E+00         0.00000E+00        -0.23377E+07
 
   -0.10608E-07        -0.11276E-07         0.00000E+00
   -0.11276E-07        -0.10925E+08         0.00000E+00
    0.00000E+00         0.00000E+00        -0.23377E+07
 
    0.48531E-08        -0.17347E-08         0.00000E+00
   -0.17347E-08        -0.10925E+08         0.00000E+00
    0.00000E+00         0.00000E+00        -0.23377E+07
 
   -0.25175E-08        -0.17347E-08         0.00000E+00
   -0.17347E-08        -0.10925E+08         0.00000E+00
    0.00000E+00         0.00000E+00        -0.23377E+07
 
    0.41667E+08         0.00000E+00         0.00000E+00
    0.00000E+00         0.15574E+09         0.00000E+00
    0.00000E+00         0.00000E+00         0.39329E+08
 
   -0.87821E-08         0.72280E-08         0.00000E+00
    0.72280E-08        -0.10925E+08         0.00000E+00
    0.00000E+00         0.00000E+00        -0.23377E+07
 
   -0.17913E-07        -0.37586E-08         0.00000E+00
   -0.37586E-08        -0.10925E+08         0.00000E+00
    0.00000E+00         0.00000E+00        -0.23377E+07
 
   -0.19747E-07        -0.34694E-08         0.00000E+00
   -0.34694E-08        -0.10925E+08         0.00000E+00
    0.00000E+00         0.00000E+00        -0.23377E+07
 
   -0.14879E-07         0.20238E-08         0.00000E+00
    0.20238E-08        -0.10925E+08         0.00000E+00
    0.00000E+00         0.00000E+00        -0.23377E+07
 
   -0.10950E-07        -0.17347E-08         0.00000E+00
   -0.17347E-08        -0.10925E+08         0.00000E+00
    0.00000E+00         0.00000E+00        -0.23377E+07
 
   -0.12493E-07         0.13878E-07         0.00000E+00
    0.13878E-07        -0.10925E+08         0.00000E+00
    0.00000E+00         0.00000E+00        -0.23377E+07
 
    0.23647E-08         0.11565E-08         0.00000E+00
    0.11565E-08        -0.10925E+08         0.00000E+00
    0.00000E+00         0.00000E+00        -0.23377E+07
 
    0.97716E-08         0.11565E-08         0.00000E+00
    0.11565E-08        -0.10925E+08         0.00000E+00
    0.00000E+00         0.00000E+00        -0.23377E+07
 
   -0.74942E-09        -0.28912E-08         0.00000E+00
   -0.28912E-08        -0.10925E+08         0.00000E+00
    0.00000E+00         0.00000E+00        -0.23377E+07
 
    0.21755E-08        -0.28912E-09         0.00000E+00
   -0.28912E-09        -0.10925E+08         0.00000E+00
    0.00000E+00         0.00000E+00        -0.23377E+07
 
    0.12180E-07        -0.28912E-08         0.00000E+00
   -0.28912E-08        -0.10925E+08         0.00000E+00
    0.00000E+00         0.00000E+00        -0.23377E+07
 
    0.15716E-08         0.40477E-08         0.00000E+00
    0.40477E-08        -0.10925E+08         0.00000E+00
    0.00000E+00         0.00000E+00        -0.23377E+07
 
    0.14283E-07         0.10987E-07         0.00000E+00
    0.10987E-07        -0.10925E+08         0.00000E+00
    0.00000E+00         0.00000E+00        -0.23377E+07
 
    0.48021E-09         0.00000E+00         0.00000E+00
    0.00000E+00        -0.10925E+08         0.00000E+00
    0.00000E+00         0.00000E+00        -0.23377E+07
 
    0.41667E+08         0.52620E-07         0.00000E+00
    0.52620E-07         0.15574E+09         0.00000E+00
    0.00000E+00         0.00000E+00         0.39329E+08
 
   -0.46566E-08         0.14456E-08         0.00000E+00
    0.14456E-08        -0.10925E+08         0.00000E+00
    0.00000E+00         0.00000E+00        -0.23377E+07
 
    0.18401E-07         0.75171E-08         0.00000E+00
    0.75171E-08        -0.10925E+08         0.00000E+00
    0.00000E+00         0.00000E+00        -0.23377E+07
 
   -0.79744E-08         0.00000E+00         0.00000E+00
    0.00000E+00        -0.10925E+08         0.00000E+00
    0.00000E+00         0.00000E+00        -0.23377E+07
 
   -0.47730E-08         0.40477E-08         0.00000E+00
    0.40477E-08        -0.10925E+08         0.00000E+00
    0.00000E+00         0.00000E+00        -0.23377E+07
 
   -0.28449E-08         0.43368E-08         0.00000E+00
    0.43368E-08        -0.10925E+08         0.00000E+00
    0.00000E+00         0.00000E+00        -0.23377E+07
 
    0.18917E-08         0.46259E-08         0.00000E+00
    0.46259E-08        -0.10925E+08         0.00000E+00
    0.00000E+00         0.00000E+00        -0.23377E+07
 
   -0.58135E-08        -0.57824E-09         0.00000E+00
   -0.57824E-09        -0.10925E+08         0.00000E+00
    0.00000E+00         0.00000E+00        -0.23377E+07
 
    0.28667E-08        -0.46259E-08         0.00000E+00
   -0.46259E-08        -0.10925E+08         0.00000E+00
    0.00000E+00         0.00000E+00        -0.23377E+07
 
    0.22847E-08         0.17347E-08         0.00000E+00
    0.17347E-08        -0.10925E+08         0.00000E+00
    0.00000E+00         0.00000E+00        -0.23377E+07
 
    0.80036E-10        -0.23130E-08         0.00000E+00
   -0.23130E-08        -0.10925E+08         0.00000E+00
    0.00000E+00         0.00000E+00        -0.23377E+07
 
   -0.75088E-08         0.14456E-08         0.00000E+00
    0.14456E-08        -0.10925E+08         0.00000E+00
    0.00000E+00         0.00000E+00        -0.23377E+07
 
   -0.34925E-08        -0.72280E-08         0.00000E+00
   -0.72280E-08        -0.10925E+08         0.00000E+00
    0.00000E+00         0.00000E+00        -0.23377E+07
 
   -0.24884E-08        -0.52042E-08         0.00000E+00
   -0.52042E-08        -0.10925E+08         0.00000E+00
    0.00000E+00         0.00000E+00        -0.23377E+07
 
   -0.70941E-08        -0.57824E-09         0.00000E+00
   -0.57824E-09        -0.10925E+08         0.00000E+00
    0.00000E+00         0.00000E+00        -0.23377E+07
 
    0.41667E+08         0.14456E-07         0.00000E+00
    0.14456E-07         0.15574E+09         0.00000E+00
    0.00000E+00         0.00000E+00         0.39329E+08
 
    0.12464E-07        -0.46259E-08         0.00000E+00
   -0.46259E-08        -0.10925E+08         0.00000E+00
    0.00000E+00         0.00000E+00        -0.23377E+07
 
    0.22992E-08         0.10119E-07         0.00000E+00
    0.10119E-07        -0.10925E+08         0.00000E+00
    0.00000E+00         0.00000E+00        -0.23377E+07
 
    0.21129E-07         0.89627E-08         0.00000E+00
    0.89627E-08        -0.10925E+08         0.00000E+00
    0.00000E+00         0.00000E+00        -0.23377E+07
 
    0.19158E-07         0.28912E-08         0.00000E+00
    0.28912E-08        -0.10925E+08         0.00000E+00
    0.00000E+00         0.00000E+00        -0.23377E+07
 
   -0.84037E-08         0.11565E-07         0.00000E+00
    0.11565E-07        -0.10925E+08         0.00000E+00
    0.00000E+00         0.00000E+00        -0.23377E+07
 
   -0.17630E-07        -0.28912E-08         0.00000E+00
   -0.28912E-08        -0.10925E+08         0.00000E+00
    0.00000E+00         0.00000E+00        -0.23377E+07
 
   -0.52096E-08         0.17347E-08         0.00000E+00
    0.17347E-08        -0.10925E+08         0.00000E+00
    0.00000E+00         0.00000E+00        -0.23377E+07
 
   -0.12042E-07         0.57824E-09         0.00000E+00
    0.57824E-09        -0.10925E+08         0.00000E+00
    0.00000E+00         0.00000E+00        -0.23377E+07
 
   -0.80181E-08        -0.57824E-08         0.00000E+00
   -0.57824E-08        -0.10925E+08         0.00000E+00
    0.00000E+00         0.00000E+00        -0.23377E+07
 
    0.73633E-08         0.63607E-08         0.00000E+00
    0.63607E-08        -0.10925E+08         0.00000E+00
    0.00000E+00         0.00000E+00        -0.23377E+07
 
   -0.14043E-08        -0.54933E-08         0.00000E+00
   -0.54933E-08        -0.10925E+08         0.00000E+00
    0.00000E+00         0.00000E+00        -0.23377E+07
 
    0.59954E-08         0.75171E-08         0.00000E+00
    0.75171E-08        -0.10925E+08         0.00000E+00
    0.00000E+00         0.00000E+00        -0.23377E+07
 
   -0.63228E-08        -0.11565E-08         0.00000E+00
   -0.11565E-08        -0.10925E+08         0.00000E+00
    0.00000E+00         0.00000E+00        -0.23377E+07
 
   -0.14654E-07         0.17347E-08         0.00000E+00
    0.17347E-08        -0.10925E+08         0.00000E+00
    0.00000E+00         0.00000E+00        -0.23377E+07
 
    0.41667E+08        -0.49150E-07         0.00000E+00
   -0.49150E-07         0.15574E+09         0.00000E+00
    0.00000E+00         0.00000E+00         0.39329E+08
 
   -0.35288E-08         0.43368E-08         0.00000E+00
    0.43368E-08        -0.10925E+08         0.00000E+00
    0.00000E+00         0.00000E+00        -0.23377E+07
 
   -0.28180E-07         0.11565E-08         0.00000E+00
    0.11565E-08        -0.10925E+08         0.00000E+00
    0.00000E+00         0.00000E+00        -0.23377E+07
 
   -0.33571E-07         0.31803E-08         0.00000E+00
    0.31803E-08        -0.10925E+08         0.00000E+00
    0.00000E+00         0.00000E+00        -0.23377E+07
 
   -0.59517E-08         0.17347E-08         0.00000E+00
    0.17347E-08        -0.10925E+08         0.00000E+00
    0.00000E+00         0.00000E+00        -0.23377E+07
 
   -0.33469E-08         0.98301E-08         0.00000E+00
    0.98301E-08        -0.10925E+08         0.00000E+00
    0.00000E+00         0.00000E+00        -0.23377E+07
 
    0.10259E-07         0.75171E-08         0.00000E+00
    0.75171E-08        -0.10925E+08         0.00000E+00
    0.00000E+00         0.00000E+00        -0.23377E+07
 
    0.73705E-08         0.57824E-08         0.00000E+00
    0.57824E-08        -0.10925E+08         0.00000E+00
    0.00000E+00         0.00000E+00        -0.23377E+07
 
   -0.11205E-07         0.69389E-08         0.00000E+00
    0.69389E-08        -0.10925E+08         0.00000E+00
    0.00000E+00         0.00000E+00        -0.23377E+07
 
   -0.10201E-07        -0.57824E-08         0.00000E+00
   -0.57824E-08        -0.10925E+08         0.00000E+00
    0.00000E+00         0.00000E+00        -0.23377E+07
 
   -0.12587E-07         0.92519E-08         0.00000E+00
    0.92519E-08        -0.10925E+08         0.00000E+00
    0.00000E+00         0.00000E+00        -0.23377E+07
 
   -0.10456E-07        -0.75171E-08         0.00000E+00
   -0.75171E-08        -0.10925E+08         0.00000E+00
    0.00000E+00         0.00000E+00        -0.23377E+07
 
   -0.64974E-08         0.43368E-08         0.00000E+00
    0.43368E-08        -0.10925E+08         0.00000E+00
    0.00000E+00         0.00000E+00        -0.23377E+07
 
    0.43874E-08         0.34694E-08         0.00000E+00
    0.34694E-08        -0.10925E+08         0.00000E+00
    0.00000E+00         0.00000E+00        -0.23377E+07
 
    0.32014E-08        -0.52042E-08         0.00000E+00
   -0.52042E-08        -0.10925E+08         0.00000E+00
    0.00000E+00         0.00000E+00        -0.23377E+07
 
    0.41667E+08         0.54355E-07         0.00000E+00
    0.54355E-07         0.15574E+09         0.00000E+00
    0.00000E+00         0.00000E+00         0.39329E+08
 
    0.30850E-08         0.14456E-08         0.00000E+00
    0.14456E-08        -0.10925E+08         0.00000E+00
    0.00000E+00         0.00000E+00        -0.23377E+07
 
   -0.75670E-09         0.52042E-08         0.00000E+00
    0.52042E-08        -0.10925E+08         0.00000E+00
    0.00000E+00         0.00000E+00        -0.23377E+07
 
   -0.56461E-08         0.17347E-08         0.00000E+00
    0.17347E-08        -0.10925E+08         0.00000E+00
    0.00000E+00         0.00000E+00        -0.23377E+07
 
   -0.47658E-08        -0.17347E-08         0.00000E+00
   -0.17347E-08        -0.10925E+08         0.00000E+00
    0.00000E+00         0.00000E+00        -0.23377E+07
 
   -0.56680E-08        -0.46259E-08         0.00000E+00
   -0.46259E-08        -0.10925E+08         0.00000E+00
    0.00000E+00         0.00000E+00        -0.23377E+07
 
   -0.77343E-08        -0.86736E-08         0.00000E+00
   -0.86736E-08        -0.10925E+08         0.00000E+00
    0.00000E+00         0.00000E+00        -0.23377E+07
 
   -0.11620E-07         0.23130E-08         0.00000E+00
    0.23130E-08        -0.10925E+08         0.00000E+00
    0.00000E+00         0.00000E+00        -0.23377E+07
 
   -0.16924E-07         0.28912E-08         0.00000E+00
    0.28912E-08        -0.10925E+08         0.00000E+00
    0.00000E+00         0.00000E+00        -0.23377E+07
 
   -0.14414E-07         0.52042E-08         0.00000E+00
    0.52042E-08        -0.10925E+08         0.00000E+00
    0.00000E+00         0.00000E+00        -0.23377E+07
 
    0.99317E-08        -0.66498E-08         0.00000E+00
   -0.66498E-08        -0.10925E+08         0.00000E+00
    0.00000E+00         0.00000E+00        -0.23377E+07
 
    0.24920E-07        -0.86736E-09         0.00000E+00
   -0.86736E-09        -0.10925E+08         0.00000E+00
    0.00000E+00         0.00000E+00        -0.23377E+07
 
    0.27758E-07         0.00000E+00         0.00000E+00
    0.00000E+00        -0.10925E+08         0.00000E+00
    0.00000E+00         0.00000E+00        -0.23377E+07
 
    0.24338E-07        -0.17347E-08         0.00000E+00
   -0.17347E-08        -0.10925E+08         0.00000E+00
    0.00000E+00         0.00000E+00        -0.23377E+07
 
    0.44383E-09         0.17347E-08         0.00000E+00
    0.17347E-08        -0.10925E+08         0.00000E+00
    0.00000E+00         0.00000E+00        -0.23377E+07
 
    0.41667E+08        -0.51463E-07         0.00000E+00
   -0.51463E-07         0.15574E+09         0.00000E+00
    0.00000E+00         0.00000E+00         0.39329E+08
 
   -0.11933E-07        -0.95410E-08         0.00000E+00
   -0.95410E-08        -0.10925E+08         0.00000E+00
    0.00000E+00         0.00000E+00        -0.23377E+07
 
   -0.30414E-08        -0.89627E-08         0.00000E+00
   -0.89627E-08        -0.10925E+08         0.00000E+00
    0.00000E+00         0.00000E+00        -0.23377E+07
 
   -0.13097E-08        -0.12721E-07         0.00000E+00
   -0.12721E-07        -0.10925E+08         0.00000E+00
    0.00000E+00         0.00000E+00        -0.23377E+07
 
    0.91677E-09        -0.11565E-08         0.00000E+00
   -0.11565E-08        -0.10925E+08         0.00000E+00
    0.00000E+00         0.00000E+00        -0.23377E+07
 
   -0.96479E-08        -0.17347E-08         0.00000E+00
   -0.17347E-08        -0.10925E+08         0.00000E+00
    0.00000E+00         0.00000E+00        -0.23377E+07
 
    0.51587E-08        -0.75171E-08         0.00000E+00
   -0.75171E-08        -0.10925E+08         0.00000E+00
    0.00000E+00         0.00000E+00        -0.23377E+07
 
    0.17993E-07         0.63607E-08         0.00000E+00
    0.63607E-08        -0.10925E+08         0.00000E+00
    0.00000E+00         0.00000E+00        -0.23377E+07
 
    0.68685E-08         0.52042E-08         0.00000E+00
    0.52042E-08        -0.10925E+08         0.00000E+00
    0.00000E+00         0.00000E+00        -0.23377E+07
 
    0.11416E-07         0.63607E-08         0.00000E+00
    0.63607E-08        -0.10925E+08         0.00000E+00
    0.00000E+00         0.00000E+00        -0.23377E+07
 
    0.17026E-08        -0.40477E-08         0.00000E+00
   -0.40477E-08        -0.10925E+08         0.00000E+00
    0.00000E+00         0.00000E+00        -0.23377E+07
 
   -0.10383E-07         0.26021E-08         0.00000E+00
    0.26021E-08        -0.10925E+08         0.00000E+00
    0.00000E+00         0.00000E+00        -0.23377E+07
 
   -0.10499E-07         0.46259E-08         0.00000E+00
    0.46259E-08        -0.10925E+08         0.00000E+00
    0.00000E+00         0.00000E+00        -0.23377E+07
 
   -0.13388E-07         0.17347E-08         0.00000E+00
    0.17347E-08        -0.10925E+08         0.00000E+00
    0.00000E+00         0.00000E+00        -0.23377E+07
 
   -0.41982E-08         0.92519E-08         0.00000E+00
    0.92519E-08        -0.10925E+08         0.00000E+00
    0.00000E+00         0.00000E+00        -0.23377E+07
 
    0.41667E+08         0.49729E-07         0.00000E+00
    0.49729E-07         0.15574E+09         0.00000E+00
    0.00000E+00         0.00000E+00         0.39329E+08
 
    0.96625E-08        -0.75171E-08         0.00000E+00
   -0.75171E-08        -0.10925E+08         0.00000E+00
    0.00000E+00         0.00000E+00        -0.23377E+07
 
    0.16982E-07         0.34694E-08         0.00000E+00
    0.34694E-08        -0.10925E+08         0.00000E+00
    0.00000E+00         0.00000E+00        -0.23377E+07
 
    0.25000E-07        -0.11565E-07         0.00000E+00
   -0.11565E-07        -0.10925E+08         0.00000E+00
    0.00000E+00         0.00000E+00        -0.23377E+07
 
    0.67739E-08         0.11565E-07         0.00000E+00
    0.11565E-07        -0.10925E+08         0.00000E+00
    0.00000E+00         0.00000E+00        -0.23377E+07
 
    0.20780E-07         0.28912E-08         0.00000E+00
    0.28912E-08        -0.10925E+08         0.00000E+00
    0.00000E+00         0.00000E+00        -0.23377E+07
 
    0.13359E-07         0.00000E+00         0.00000E+00
    0.00000E+00        -0.10925E+08         0.00000E+00
    0.00000E+00         0.00000E+00        -0.23377E+07
 
   -0.36089E-08        -0.17347E-08         0.00000E+00
   -0.17347E-08        -0.10925E+08         0.00000E+00
    0.00000E+00         0.00000E+00        -0.23377E+07
 
   -0.13759E-07         0.40477E-08         0.00000E+00
    0.40477E-08        -0.10925E+08         0.00000E+00
    0.00000E+00         0.00000E+00        -0.23377E+07
 
   -0.80036E-08         0.28912E-08         0.00000E+00
    0.28912E-08        -0.10925E+08         0.00000E+00
    0.00000E+00         0.00000E+00        -0.23377E+07
 
    0.29031E-08         0.40477E-08         0.00000E+00
    0.40477E-08        -0.10925E+08         0.00000E+00
    0.00000E+00         0.00000E+00        -0.23377E+07
 
    0.21246E-08         0.28912E-08         0.00000E+00
    0.28912E-08        -0.10925E+08         0.00000E+00
    0.00000E+00         0.00000E+00        -0.23377E+07
 
   -0.68394E-09         0.34694E-08         0.00000E+00
    0.34694E-08        -0.10925E+08         0.00000E+00
    0.00000E+00         0.00000E+00        -0.23377E+07
 
   -0.17535E-08         0.46259E-08         0.00000E+00
    0.46259E-08        -0.10925E+08         0.00000E+00
    0.00000E+00         0.00000E+00        -0.23377E+07
 
   -0.50131E-08         0.69389E-08         0.00000E+00
    0.69389E-08        -0.10925E+08         0.00000E+00
    0.00000E+00         0.00000E+00        -0.23377E+07
 
    0.41667E+08         0.92519E-08         0.00000E+00
    0.92519E-08         0.15574E+09         0.00000E+00
    0.00000E+00         0.00000E+00         0.39329E+08
 
   -0.46639E-08        -0.57824E-09         0.00000E+00
   -0.57824E-09        -0.10925E+08         0.00000E+00
    0.00000E+00         0.00000E+00        -0.23377E+07
 
   -0.88621E-08         0.75171E-08         0.00000E+00
    0.75171E-08        -0.10925E+08         0.00000E+00
    0.00000E+00         0.00000E+00        -0.23377E+07
 
   -0.91823E-08         0.34694E-08         0.00000E+00
    0.34694E-08        -0.10925E+08         0.00000E+00
    0.00000E+00         0.00000E+00        -0.23377E+07
 
   -0.13235E-07         0.80954E-08         0.00000E+00
    0.80954E-08        -0.10925E+08         0.00000E+00
    0.00000E+00         0.00000E+00        -0.23377E+07
 
   -0.68321E-08         0.34694E-08         0.00000E+00
    0.34694E-08        -0.10925E+08         0.00000E+00
    0.00000E+00         0.00000E+00        -0.23377E+07
 
   -0.84619E-08         0.11565E-08         0.00000E+00
    0.11565E-08        -0.10925E+08         0.00000E+00
    0.00000E+00         0.00000E+00        -0.23377E+07
 
   -0.45984E-08        -0.69389E-08         0.00000E+00
   -0.69389E-08        -0.10925E+08         0.00000E+00
    0.00000E+00         0.00000E+00        -0.23377E+07
 
    0.12056E-07         0.17347E-08         0.00000E+00
    0.17347E-08        -0.10925E+08         0.00000E+00
    0.00000E+00         0.00000E+00        -0.23377E+07
 
    0.67448E-08        -0.40477E-08         0.00000E+00
   -0.40477E-08        -0.10925E+08         0.00000E+00
    0.00000E+00         0.00000E+00        -0.23377E+07
 
    0.30341E-08        -0.26021E-08         0.00000E+00
   -0.26021E-08        -0.10925E+08         0.00000E+00
    0.00000E+00         0.00000E+00        -0.23377E+07
 
   -0.21348E-07         0.86736E-08         0.00000E+00
    0.86736E-08        -0.10925E+08         0.00000E+00
    0.00000E+00         0.00000E+00        -0.23377E+07
 
    0.20984E-07        -0.80954E-08         0.00000E+00
   -0.80954E-08        -0.10925E+08         0.00000E+00
    0.00000E+00         0.00000E+00        -0.23377E+07
 
   -0.13584E-07         0.75171E-08         0.00000E+00
    0.75171E-08        -0.10925E+08         0.00000E+00
    0.00000E+00         0.00000E+00        -0.23377E+07
 
    0.86584E-09        -0.75171E-08         0.00000E+00
   -0.75171E-08        -0.10925E+08         0.00000E+00
    0.00000E+00         0.00000E+00        -0.23377E+07
 
    0.41667E+08        -0.75171E-08         0.00000E+00
   -0.75171E-08         0.15574E+09         0.00000E+00
    0.00000E+00         0.00000E+00         0.39329E+08
 
    0.43059E-07        -0.11565E-08         0.00000E+00
   -0.11565E-08        -0.10925E+08         0.00000E+00
    0.00000E+00         0.00000E+00        -0.23377E+07
 
    0.21610E-07        -0.63607E-08         0.00000E+00
   -0.63607E-08        -0.10925E+08         0.00000E+00
    0.00000E+00         0.00000E+00        -0.23377E+07
 
    0.86220E-08         0.52042E-08         0.00000E+00
    0.52042E-08        -0.10925E+08         0.00000E+00
    0.00000E+00         0.00000E+00        -0.23377E+07
 
    0.25539E-08         0.23130E-08         0.00000E+00
    0.23130E-08        -0.10925E+08         0.00000E+00
    0.00000E+00         0.00000E+00        -0.23377E+07
 
    0.13970E-07         0.75171E-08         0.00000E+00
    0.75171E-08        -0.10925E+08         0.00000E+00
    0.00000E+00         0.00000E+00        -0.23377E+07
 
    0.17608E-07         0.28912E-08         0.00000E+00
    0.28912E-08        -0.10925E+08         0.00000E+00
    0.00000E+00         0.00000E+00        -0.23377E+07
 
   -0.12107E-07        -0.23130E-08         0.00000E+00
   -0.23130E-08        -0.10925E+08         0.00000E+00
    0.00000E+00         0.00000E+00        -0.23377E+07
 
   -0.17724E-07         0.11565E-08         0.00000E+00
    0.11565E-08        -0.10925E+08         0.00000E+00
    0.00000E+00         0.00000E+00        -0.23377E+07
 
   -0.14472E-07        -0.80954E-08         0.00000E+00
   -0.80954E-08        -0.10925E+08         0.00000E+00
    0.00000E+00         0.00000E+00        -0.23377E+07
 
   -0.70577E-09        -0.57824E-08         0.00000E+00
   -0.57824E-08        -0.10925E+08         0.00000E+00
    0.00000E+00         0.00000E+00        -0.23377E+07
 
   -0.16946E-07         0.10119E-07         0.00000E+00
    0.10119E-07        -0.10925E+08         0.00000E+00
    0.00000E+00         0.00000E+00        -0.23377E+07
 
   -0.12136E-07        -0.13878E-07         0.00000E+00
   -0.13878E-07        -0.10925E+08         0.00000E+00
    0.00000E+00         0.00000E+00        -0.23377E+07
 
    0.46275E-08         0.63607E-08         0.00000E+00
    0.63607E-08        -0.10925E+08         0.00000E+00
    0.00000E+00         0.00000E+00        -0.23377E+07
 
    0.61482E-08        -0.69389E-08         0.00000E+00
   -0.69389E-08        -0.10925E+08         0.00000E+00
    0.00000E+00         0.00000E+00        -0.23377E+07
 
    0.41667E+08        -0.52042E-07         0.00000E+00
   -0.52042E-07         0.15574E+09         0.00000E+00
    0.00000E+00         0.00000E+00         0.39329E+08
 
    0.28158E-08        -0.63607E-08         0.00000E+00
   -0.63607E-08        -0.10925E+08         0.00000E+00
    0.00000E+00         0.00000E+00        -0.23377E+07
 
    0.50350E-08         0.75171E-08         0.00000E+00
    0.75171E-08        -0.10925E+08         0.00000E+00
    0.00000E+00         0.00000E+00        -0.23377E+07
 
   -0.69413E-08         0.11565E-08         0.00000E+00
    0.11565E-08        -0.10925E+08         0.00000E+00
    0.00000E+00         0.00000E+00        -0.23377E+07
 
    0.14115E-08         0.57824E-08         0.00000E+00
    0.57824E-08        -0.10925E+08         0.00000E+00
    0.00000E+00         0.00000E+00        -0.23377E+07
 
   -0.15796E-07         0.63607E-08         0.00000E+00
    0.63607E-08        -0.10925E+08         0.00000E+00
    0.00000E+00         0.00000E+00        -0.23377E+07
 
   -0.49549E-08        -0.28912E-08         0.00000E+00
   -0.28912E-08        -0.10925E+08         0.00000E+00
    0.00000E+00         0.00000E+00        -0.23377E+07
 
    0.93496E-08         0.40477E-08         0.00000E+00
    0.40477E-08        -0.10925E+08         0.00000E+00
    0.00000E+00         0.00000E+00        -0.23377E+07
 
    0.11933E-07         0.46259E-08         0.00000E+00
    0.46259E-08        -0.10925E+08         0.00000E+00
    0.00000E+00         0.00000E+00        -0.23377E+07
 
    0.41618E-08         0.17347E-08         0.00000E+00
    0.17347E-08        -0.10925E+08         0.00000E+00
    0.00000E+00         0.00000E+00        -0.23377E+07
 
    0.64392E-08         0.17347E-08         0.00000E+00
    0.17347E-08        -0.10925E+08         0.00000E+00
    0.00000E+00         0.00000E+00        -0.23377E+07
 
   -0.77634E-08        -0.52042E-08         0.00000E+00
   -0.52042E-08        -0.10925E+08         0.00000E+00
    0.00000E+00         0.00000E+00        -0.23377E+07
 
   -0.38199E-08        -0.34694E-08         0.00000E+00
   -0.34694E-08        -0.10925E+08         0.00000E+00
    0.00000E+00         0.00000E+00        -0.23377E+07
 
   -0.38854E-08        -0.92519E-08         0.00000E+00
   -0.92519E-08        -0.10925E+08         0.00000E+00
    0.00000E+00         0.00000E+00        -0.23377E+07
 
   -0.10928E-07         0.34694E-08         0.00000E+00
    0.34694E-08        -0.10925E+08         0.00000E+00
    0.00000E+00         0.00000E+00        -0.23377E+07
 
    0.41667E+08         0.46259E-08         0.00000E+00
    0.46259E-08         0.15574E+09         0.00000E+00
    0.00000E+00         0.00000E+00         0.39329E+08
 
    0.26332E-07         0.46259E-08         0.00000E+00
    0.46259E-08        -0.10925E+08         0.00000E+00
    0.00000E+00         0.00000E+00        -0.23377E+07
 
    0.21151E-07         0.40477E-08         0.00000E+00
    0.40477E-08        -0.10925E+08         0.00000E+00
    0.00000E+00         0.00000E+00        -0.23377E+07
 
    0.21202E-07         0.40477E-08         0.00000E+00
    0.40477E-08        -0.10925E+08         0.00000E+00
    0.00000E+00         0.00000E+00        -0.23377E+07
 
   -0.80327E-08        -0.34694E-08         0.00000E+00
   -0.34694E-08        -0.10925E+08         0.00000E+00
    0.00000E+00         0.00000E+00        -0.23377E+07
 
    0.21078E-07         0.86736E-08         0.00000E+00
    0.86736E-08        -0.10925E+08         0.00000E+00
    0.00000E+00         0.00000E+00        -0.23377E+07
 
    0.24214E-07        -0.11565E-08         0.00000E+00
   -0.11565E-08        -0.10925E+08         0.00000E+00
    0.00000E+00         0.00000E+00        -0.23377E+07
 
    0.37471E-08         0.13300E-07         0.00000E+00
    0.13300E-07        -0.10925E+08         0.00000E+00
    0.00000E+00         0.00000E+00        -0.23377E+07
 
   -0.12842E-07         0.10408E-07         0.00000E+00
    0.10408E-07        -0.10925E+08         0.00000E+00
    0.00000E+00         0.00000E+00        -0.23377E+07
 
   -0.49258E-08        -0.57824E-09         0.00000E+00
   -0.57824E-09        -0.10925E+08         0.00000E+00
    0.00000E+00         0.00000E+00        -0.23377E+07
 
    0.11722E-07         0.78063E-08         0.00000E+00
    0.78063E-08        -0.10925E+08         0.00000E+00
    0.00000E+00         0.00000E+00        -0.23377E+07
 
   -0.24738E-08        -0.80954E-08         0.00000E+00
   -0.80954E-08        -0.10925E+08         0.00000E+00
    0.00000E+00         0.00000E+00        -0.23377E+07
 
   -0.77052E-08        -0.34694E-08         0.00000E+00
   -0.34694E-08        -0.10925E+08         0.00000E+00
    0.00000E+00         0.00000E+00        -0.23377E+07
 
   -0.97934E-08        -0.57824E-09         0.00000E+00
   -0.57824E-09        -0.10925E+08         0.00000E+00
    0.00000E+00         0.00000E+00        -0.23377E+07
 
   -0.16582E-07         0.17347E-08         0.00000E+00
    0.17347E-08        -0.10925E+08         0.00000E+00
    0.00000E+00         0.00000E+00        -0.23377E+07
 
    0.41667E+08         0.56089E-07         0.00000E+00
    0.56089E-07         0.15574E+09         0.00000E+00
    0.00000E+00         0.00000E+00         0.39329E+08
 
    0.29395E-08         0.11565E-08         0.00000E+00
    0.11565E-08        -0.10925E+08         0.00000E+00
    0.00000E+00         0.00000E+00        -0.23377E+07
 
   -0.13948E-07         0.57824E-09         0.00000E+00
    0.57824E-09        -0.10925E+08         0.00000E+00
    0.00000E+00         0.00000E+00        -0.23377E+07
 
   -0.20809E-08         0.63607E-08         0.00000E+00
    0.63607E-08        -0.10925E+08         0.00000E+00
    0.00000E+00         0.00000E+00        -0.23377E+07
 
    0.13039E-07        -0.52042E-08         0.00000E+00
   -0.52042E-08        -0.10925E+08         0.00000E+00
    0.00000E+00         0.00000E+00        -0.23377E+07
 
    0.17004E-07         0.75171E-08         0.00000E+00
    0.75171E-08        -0.10925E+08         0.00000E+00
    0.00000E+00         0.00000E+00        -0.23377E+07
 
    0.53187E-08         0.69389E-08         0.00000E+00
    0.69389E-08        -0.10925E+08         0.00000E+00
    0.00000E+00         0.00000E+00        -0.23377E+07
 
   -0.16073E-07        -0.34694E-08         0.00000E+00
   -0.34694E-08        -0.10925E+08         0.00000E+00
    0.00000E+00         0.00000E+00        -0.23377E+07
 
    0.99681E-08         0.17347E-08         0.00000E+00
    0.17347E-08        -0.10925E+08         0.00000E+00
    0.00000E+00         0.00000E+00        -0.23377E+07
 
    0.56680E-08         0.46259E-08         0.00000E+00
    0.46259E-08        -0.10925E+08         0.00000E+00
    0.00000E+00         0.00000E+00        -0.23377E+07
 
   -0.13759E-07         0.15613E-07         0.00000E+00
    0.15613E-07        -0.10925E+08         0.00000E+00
    0.00000E+00         0.00000E+00        -0.23377E+07
 
   -0.10667E-07        -0.57824E-08         0.00000E+00
   -0.57824E-08        -0.10925E+08         0.00000E+00
    0.00000E+00         0.00000E+00        -0.23377E+07
 
   -0.85784E-08         0.98301E-08         0.00000E+00
    0.98301E-08        -0.10925E+08         0.00000E+00
    0.00000E+00         0.00000E+00        -0.23377E+07
 
   -0.64392E-08         0.98301E-08         0.00000E+00
    0.98301E-08        -0.10925E+08         0.00000E+00
    0.00000E+00         0.00000E+00        -0.23377E+07
 
   -0.17266E-07         0.63607E-08         0.00000E+00
    0.63607E-08        -0.10925E+08         0.00000E+00
    0.00000E+00         0.00000E+00        -0.23377E+07
 
    0.41667E+08        -0.49729E-07         0.00000E+00
   -0.49729E-07         0.15574E+09         0.00000E+00
    0.00000E+00         0.00000E+00         0.39329E+08
 
    0.25691E-07        -0.34694E-08         0.00000E+00
   -0.34694E-08        -0.10925E+08         0.00000E+00
    0.00000E+00         0.00000E+00        -0.23377E+07
 
    0.27685E-07         0.57824E-09         0.00000E+00
    0.57824E-09        -0.10925E+08         0.00000E+00
    0.00000E+00         0.00000E+00        -0.23377E+07
 
    0.94515E-08         0.46259E-08         0.00000E+00
    0.46259E-08        -0.10925E+08         0.00000E+00
    0.00000E+00         0.00000E+00        -0.23377E+07
 
    0.11627E-07        -0.46259E-08         0.00000E+00
   -0.46259E-08        -0.10925E+08         0.00000E+00
    0.00000E+00         0.00000E+00        -0.23377E+07
 
   -0.15563E-07         0.57824E-09         0.00000E+00
    0.57824E-09        -0.10925E+08         0.00000E+00
    0.00000E+00         0.00000E+00        -0.23377E+07
 
   -0.16204E-07        -0.75171E-08         0.00000E+00
   -0.75171E-08        -0.10925E+08         0.00000E+00
    0.00000E+00         0.00000E+00        -0.23377E+07
 
    0.11620E-07        -0.11565E-07         0.00000E+00
   -0.11565E-07        -0.10925E+08         0.00000E+00
    0.00000E+00         0.00000E+00        -0.23377E+07
 
    0.87748E-08        -0.23130E-08         0.00000E+00
   -0.23130E-08        -0.10925E+08         0.00000E+00
    0.00000E+00         0.00000E+00        -0.23377E+07
 
   -0.26528E-07        -0.17347E-08         0.00000E+00
   -0.17347E-08        -0.10925E+08         0.00000E+00
    0.00000E+00         0.00000E+00        -0.23377E+07
 
    0.52969E-08         0.15323E-07         0.00000E+00
    0.15323E-07        -0.10925E+08         0.00000E+00
    0.00000E+00         0.00000E+00        -0.23377E+07
 
    0.27503E-08         0.14456E-07         0.00000E+00
    0.14456E-07        -0.10925E+08         0.00000E+00
    0.00000E+00         0.00000E+00        -0.23377E+07
 
    0.44383E-08         0.63607E-08         0.00000E+00
    0.63607E-08        -0.10925E+08         0.00000E+00
    0.00000E+00         0.00000E+00        -0.23377E+07
 
   -0.17251E-07        -0.57824E-09         0.00000E+00
   -0.57824E-09        -0.10925E+08         0.00000E+00
    0.00000E+00         0.00000E+00        -0.23377E+07
 
   -0.22847E-07         0.11565E-08         0.00000E+00
    0.11565E-08        -0.10925E+08         0.00000E+00
    0.00000E+00         0.00000E+00        -0.23377E+07
 
    0.41667E+08         0.52620E-07         0.00000E+00
    0.52620E-07         0.15574E+09         0.00000E+00
    0.00000E+00         0.00000E+00         0.39329E+08
 
    0.68321E-08        -0.23130E-08         0.00000E+00
   -0.23130E-08        -0.10925E+08         0.00000E+00
    0.00000E+00         0.00000E+00        -0.23377E+07
 
    0.76107E-08         0.23130E-08         0.00000E+00
    0.23130E-08        -0.10925E+08         0.00000E+00
    0.00000E+00         0.00000E+00        -0.23377E+07
 
    0.47439E-08         0.28912E-08         0.00000E+00
    0.28912E-08        -0.10925E+08         0.00000E+00
    0.00000E+00         0.00000E+00        -0.23377E+07
 
   -0.79308E-09        -0.63607E-08         0.00000E+00
   -0.63607E-08        -0.10925E+08         0.00000E+00
    0.00000E+00         0.00000E+00        -0.23377E+07
 
    0.23792E-08         0.11565E-08         0.00000E+00
    0.11565E-08        -0.10925E+08         0.00000E+00
    0.00000E+00         0.00000E+00        -0.23377E+07
 
    0.60536E-08        -0.52042E-08         0.00000E+00
   -0.52042E-08        -0.10925E+08         0.00000E+00
    0.00000E+00         0.00000E+00        -0.23377E+07
 
    0.26776E-08        -0.11565E-08         0.00000E+00
   -0.11565E-08        -0.10925E+08         0.00000E+00
    0.00000E+00         0.00000E+00        -0.23377E+07
 
   -0.11103E-07        -0.57824E-09         0.00000E+00
   -0.57824E-09        -0.10925E+08         0.00000E+00
    0.00000E+00         0.00000E+00        -0.23377E+07
 
   -0.20838E-07        -0.17347E-08         0.00000E+00
   -0.17347E-08        -0.10925E+08         0.00000E+00
    0.00000E+00         0.00000E+00        -0.23377E+07
 
   -0.91968E-08        -0.86736E-08         0.00000E+00
   -0.86736E-08        -0.10925E+08         0.00000E+00
    0.00000E+00         0.00000E+00        -0.23377E+07
 
    0.74942E-08        -0.17347E-08         0.00000E+00
   -0.17347E-08        -0.10925E+08         0.00000E+00
    0.00000E+00         0.00000E+00        -0.23377E+07
 
    0.23363E-07        -0.98301E-08         0.00000E+00
   -0.98301E-08        -0.10925E+08         0.00000E+00
    0.00000E+00         0.00000E+00        -0.23377E+07
 
   -0.14275E-07         0.57824E-09         0.00000E+00
    0.57824E-09        -0.10925E+08         0.00000E+00
    0.00000E+00         0.00000E+00        -0.23377E+07
 
   -0.18641E-07         0.57824E-09         0.00000E+00
    0.57824E-09        -0.10925E+08         0.00000E+00
    0.00000E+00         0.00000E+00        -0.23377E+07
 
    0.41667E+08         0.13878E-07         0.00000E+00
    0.13878E-07         0.15574E+09         0.00000E+00
    0.00000E+00         0.00000E+00         0.39329E+08
 
    0.12660E-08        -0.57824E-08         0.00000E+00
   -0.57824E-08        -0.10925E+08         0.00000E+00
    0.00000E+00         0.00000E+00        -0.23377E+07
 
   -0.66284E-08         0.12721E-07         0.00000E+00
    0.12721E-07        -0.10925E+08         0.00000E+00
    0.00000E+00         0.00000E+00        -0.23377E+07
 
   -0.11059E-07        -0.11565E-07         0.00000E+00
   -0.11565E-07        -0.10925E+08         0.00000E+00
    0.00000E+00         0.00000E+00        -0.23377E+07
 
   -0.11023E-07         0.57824E-08         0.00000E+00
    0.57824E-08        -0.10925E+08         0.00000E+00
    0.00000E+00         0.00000E+00        -0.23377E+07
 
   -0.89494E-08         0.28912E-08         0.00000E+00
    0.28912E-08        -0.10925E+08         0.00000E+00
    0.00000E+00         0.00000E+00        -0.23377E+07
 
   -0.14523E-07         0.40477E-08         0.00000E+00
    0.40477E-08        -0.10925E+08         0.00000E+00
    0.00000E+00         0.00000E+00        -0.23377E+07
 
    0.26586E-07         0.57824E-09         0.00000E+00
    0.57824E-09        -0.10925E+08         0.00000E+00
    0.00000E+00         0.00000E+00        -0.23377E+07
 
    0.12216E-07         0.75171E-08         0.00000E+00
    0.75171E-08        -0.10925E+08         0.00000E+00
    0.00000E+00         0.00000E+00        -0.23377E+07
 
   -0.32087E-08         0.63607E-08         0.00000E+00
    0.63607E-08        -0.10925E+08         0.00000E+00
    0.00000E+00         0.00000E+00        -0.23377E+07
 
   -0.28202E-07        -0.17347E-08         0.00000E+00
   -0.17347E-08        -0.10925E+08         0.00000E+00
    0.00000E+00         0.00000E+00        -0.23377E+07
 
   -0.20758E-07        -0.86736E-08         0.00000E+00
   -0.86736E-08        -0.10925E+08         0.00000E+00
    0.00000E+00         0.00000E+00        -0.23377E+07
 
   -0.21595E-07        -0.52042E-08         0.00000E+00
   -0.52042E-08        -0.10925E+08         0.00000E+00
    0.00000E+00         0.00000E+00        -0.23377E+07
 
   -0.11445E-07        -0.46259E-08         0.00000E+00
   -0.46259E-08        -0.10925E+08         0.00000E+00
    0.00000E+00         0.00000E+00        -0.23377E+07
 
   -0.65484E-08        -0.11565E-08         0.00000E+00
   -0.11565E-08        -0.10925E+08         0.00000E+00
    0.00000E+00         0.00000E+00        -0.23377E+07
 
    0.41667E+08        -0.52042E-07         0.00000E+00
   -0.52042E-07         0.15574E+09         0.00000E+00
    0.00000E+00         0.00000E+00         0.39329E+08
 
    0.20955E-08        -0.40477E-08         0.00000E+00
   -0.40477E-08        -0.10925E+08         0.00000E+00
    0.00000E+00         0.00000E+00        -0.23377E+07
 
   -0.11198E-07         0.40477E-08         0.00000E+00
    0.40477E-08        -0.10925E+08         0.00000E+00
    0.00000E+00         0.00000E+00        -0.23377E+07
 
    0.17462E-09        -0.28912E-08         0.00000E+00
   -0.28912E-08        -0.10925E+08         0.00000E+00
    0.00000E+00         0.00000E+00        -0.23377E+07
 
   -0.11205E-08         0.57824E-08         0.00000E+00
    0.57824E-08        -0.10925E+08         0.00000E+00
    0.00000E+00         0.00000E+00        -0.23377E+07
 
   -0.32014E-08         0.28912E-08         0.00000E+00
    0.28912E-08        -0.10925E+08         0.00000E+00
    0.00000E+00         0.00000E+00        -0.23377E+07
 
    0.48021E-08         0.57824E-09         0.00000E+00
    0.57824E-09        -0.10925E+08         0.00000E+00
    0.00000E+00         0.00000E+00        -0.23377E+07
 
   -0.96989E-08         0.57824E-09         0.00000E+00
    0.57824E-09        -0.10925E+08         0.00000E+00
    0.00000E+00         0.00000E+00        -0.23377E+07
 
    0.16167E-07         0.10408E-07         0.00000E+00
    0.10408E-07        -0.10925E+08         0.00000E+00
    0.00000E+00         0.00000E+00        -0.23377E+07
 
   -0.12049E-07         0.23130E-08         0.00000E+00
    0.23130E-08        -0.10925E+08         0.00000E+00
    0.00000E+00         0.00000E+00        -0.23377E+07
 
   -0.96697E-08        -0.13878E-07         0.00000E+00
   -0.13878E-07        -0.10925E+08         0.00000E+00
    0.00000E+00         0.00000E+00        -0.23377E+07
 
   -0.13242E-07        -0.92519E-08         0.00000E+00
   -0.92519E-08        -0.10925E+08         0.00000E+00
    0.00000E+00         0.00000E+00        -0.23377E+07
 
   -0.13009E-07         0.63607E-08         0.00000E+00
    0.63607E-08        -0.10925E+08         0.00000E+00
    0.00000E+00         0.00000E+00        -0.23377E+07
 
   -0.20118E-07        -0.23130E-08         0.00000E+00
   -0.23130E-08        -0.10925E+08         0.00000E+00
    0.00000E+00         0.00000E+00        -0.23377E+07
 
   -0.11867E-07         0.11565E-08         0.00000E+00
    0.11565E-08        -0.10925E+08         0.00000E+00
    0.00000E+00         0.00000E+00        -0.23377E+07
 
    0.41667E+08         0.00000E+00         0.00000E+00
    0.00000E+00         0.15574E+09         0.00000E+00
    0.00000E+00         0.00000E+00         0.39329E+08
 
    0.22628E-08        -0.46259E-08         0.00000E+00
   -0.46259E-08        -0.10925E+08         0.00000E+00
    0.00000E+00         0.00000E+00        -0.23377E+07
 
    0.20329E-07         0.57824E-08         0.00000E+00
    0.57824E-08        -0.10925E+08         0.00000E+00
    0.00000E+00         0.00000E+00        -0.23377E+07
 
   -0.10696E-08         0.92519E-08         0.00000E+00
    0.92519E-08        -0.10925E+08         0.00000E+00
    0.00000E+00         0.00000E+00        -0.23377E+07
 
    0.67157E-08        -0.10987E-07         0.00000E+00
   -0.10987E-07        -0.10925E+08         0.00000E+00
    0.00000E+00         0.00000E+00        -0.23377E+07
 
   -0.13970E-08         0.69389E-08         0.00000E+00
    0.69389E-08        -0.10925E+08         0.00000E+00
    0.00000E+00         0.00000E+00        -0.23377E+07
 
   -0.40527E-08        -0.40477E-08         0.00000E+00
   -0.40477E-08        -0.10925E+08         0.00000E+00
    0.00000E+00         0.00000E+00        -0.23377E+07
 
   -0.12500E-07         0.17347E-07         0.00000E+00
    0.17347E-07        -0.10925E+08         0.00000E+00
    0.00000E+00         0.00000E+00        -0.23377E+07
 
   -0.32975E-07         0.23130E-08         0.00000E+00
    0.23130E-08        -0.10925E+08         0.00000E+00
    0.00000E+00         0.00000E+00        -0.23377E+07
 
   -0.59008E-08        -0.12143E-07         0.00000E+00
   -0.12143E-07        -0.10925E+08         0.00000E+00
    0.00000E+00         0.00000E+00        -0.23377E+07
 
   -0.25539E-08        -0.11565E-07         0.00000E+00
   -0.11565E-07        -0.10925E+08         0.00000E+00
    0.00000E+00         0.00000E+00        -0.23377E+07
 
   -0.76325E-08        -0.11565E-08         0.00000E+00
   -0.11565E-08        -0.10925E+08         0.00000E+00
    0.00000E+00         0.00000E+00        -0.23377E+07
 
   -0.22432E-07        -0.23130E-08         0.00000E+00
   -0.23130E-08        -0.10925E+08         0.00000E+00
    0.00000E+00         0.00000E+00        -0.23377E+07
 
   -0.21544E-07        -0.28912E-08         0.00000E+00
   -0.28912E-08        -0.10925E+08         0.00000E+00
    0.00000E+00         0.00000E+00        -0.23377E+07
 
   -0.59226E-08         0.34694E-08         0.00000E+00
    0.34694E-08        -0.10925E+08         0.00000E+00
    0.00000E+00         0.00000E+00        -0.23377E+07
 
    0.41667E+08         0.12721E-07         0.00000E+00
    0.12721E-07         0.15574E+09         0.00000E+00
    0.00000E+00         0.00000E+00         0.39329E+08
 
   -0.10550E-07         0.69389E-08         0.00000E+00
    0.69389E-08        -0.10925E+08         0.00000E+00
    0.00000E+00         0.00000E+00        -0.23377E+07
 
   -0.71304E-08         0.13878E-07         0.00000E+00
    0.13878E-07        -0.10925E+08         0.00000E+00
    0.00000E+00         0.00000E+00        -0.23377E+07
 
    0.18190E-08         0.92519E-08         0.00000E+00
    0.92519E-08        -0.10925E+08         0.00000E+00
    0.00000E+00         0.00000E+00        -0.23377E+07
 
    0.27649E-09         0.34694E-08         0.00000E+00
    0.34694E-08        -0.10925E+08         0.00000E+00
    0.00000E+00         0.00000E+00        -0.23377E+07
 
   -0.57262E-08         0.00000E+00         0.00000E+00
    0.00000E+00        -0.10925E+08         0.00000E+00
    0.00000E+00         0.00000E+00        -0.23377E+07
 
    0.61118E-09        -0.17347E-07         0.00000E+00
   -0.17347E-07        -0.10925E+08         0.00000E+00
    0.00000E+00         0.00000E+00        -0.23377E+07
 
    0.22555E-09         0.57824E-09         0.00000E+00
    0.57824E-09        -0.10925E+08         0.00000E+00
    0.00000E+00         0.00000E+00        -0.23377E+07
 
   -0.14166E-07         0.17347E-08         0.00000E+00
    0.17347E-08        -0.10925E+08         0.00000E+00
    0.00000E+00         0.00000E+00        -0.23377E+07
 
   -0.19390E-07         0.75171E-08         0.00000E+00
    0.75171E-08        -0.10925E+08         0.00000E+00
    0.00000E+00         0.00000E+00        -0.23377E+07
 
    0.13250E-07        -0.57824E-09         0.00000E+00
   -0.57824E-09        -0.10925E+08         0.00000E+00
    0.00000E+00         0.00000E+00        -0.23377E+07
 
   -0.60390E-08         0.34694E-08         0.00000E+00
    0.34694E-08        -0.10925E+08         0.00000E+00
    0.00000E+00         0.00000E+00        -0.23377E+07
 
    0.78435E-08        -0.40477E-08         0.00000E+00
   -0.40477E-08        -0.10925E+08         0.00000E+00
    0.00000E+00         0.00000E+00        -0.23377E+07
 
    0.71450E-08         0.63607E-08         0.00000E+00
    0.63607E-08        -0.10925E+08         0.00000E+00
    0.00000E+00         0.00000E+00        -0.23377E+07
 
    0.98880E-08         0.46259E-08         0.00000E+00
    0.46259E-08        -0.10925E+08         0.00000E+00
    0.00000E+00         0.00000E+00        -0.23377E+07
 
    0.41667E+08         0.57824E-07         0.00000E+00
    0.57824E-07         0.15574E+09         0.00000E+00
    0.00000E+00         0.00000E+00         0.39329E+08
 
    0.29366E-07        -0.57824E-08         0.00000E+00
   -0.57824E-08        -0.10925E+08         0.00000E+00
    0.00000E+00         0.00000E+00        -0.23377E+07
 
    0.10150E-07        -0.46259E-08         0.00000E+00
   -0.46259E-08        -0.10925E+08         0.00000E+00
    0.00000E+00         0.00000E+00        -0.23377E+07
 
    0.15149E-07        -0.11565E-07         0.00000E+00
   -0.11565E-07        -0.10925E+08         0.00000E+00
    0.00000E+00         0.00000E+00        -0.23377E+07
 
    0.17331E-07        -0.92519E-08         0.00000E+00
   -0.92519E-08        -0.10925E+08         0.00000E+00
    0.00000E+00         0.00000E+00        -0.23377E+07
 
   -0.84474E-08         0.13300E-07         0.00000E+00
    0.13300E-07        -0.10925E+08         0.00000E+00
    0.00000E+00         0.00000E+00        -0.23377E+07
 
   -0.15803E-07        -0.17347E-08         0.00000E+00
   -0.17347E-08        -0.10925E+08         0.00000E+00
    0.00000E+00         0.00000E+00        -0.23377E+07
 
    0.39290E-08        -0.11565E-08         0.00000E+00
   -0.11565E-08        -0.10925E+08         0.00000E+00
    0.00000E+00         0.00000E+00        -0.23377E+07
 
   -0.94806E-08        -0.40477E-08         0.00000E+00
   -0.40477E-08        -0.10925E+08         0.00000E+00
    0.00000E+00         0.00000E+00        -0.23377E+07
 
   -0.65629E-08        -0.10408E-07         0.00000E+00
   -0.10408E-07        -0.10925E+08         0.00000E+00
    0.00000E+00         0.00000E+00        -0.23377E+07
 
   -0.10979E-07        -0.11565E-07         0.00000E+00
   -0.11565E-07        -0.10925E+08         0.00000E+00
    0.00000E+00         0.00000E+00        -0.23377E+07
 
   -0.20227E-08        -0.69389E-08         0.00000E+00
   -0.69389E-08        -0.10925E+08         0.00000E+00
    0.00000E+00         0.00000E+00        -0.23377E+07
 
   -0.16444E-08         0.80954E-08         0.00000E+00
    0.80954E-08        -0.10925E+08         0.00000E+00
    0.00000E+00         0.00000E+00        -0.23377E+07
 
   -0.40818E-08        -0.10987E-07         0.00000E+00
   -0.10987E-07        -0.10925E+08         0.00000E+00
    0.00000E+00         0.00000E+00        -0.23377E+07
 
   -0.15345E-07         0.23130E-08         0.00000E+00
    0.23130E-08        -0.10925E+08         0.00000E+00
    0.00000E+00         0.00000E+00        -0.23377E+07
 
    0.41667E+08        -0.55511E-07         0.00000E+00
   -0.55511E-07         0.15574E+09         0.00000E+00
    0.00000E+00         0.00000E+00         0.39329E+08
 
   -0.13977E-07         0.46259E-08         0.00000E+00
    0.46259E-08        -0.10925E+08         0.00000E+00
    0.00000E+00         0.00000E+00        -0.23377E+07
 
    0.10041E-08         0.57824E-08         0.00000E+00
    0.57824E-08        -0.10925E+08         0.00000E+00
    0.00000E+00         0.00000E+00        -0.23377E+07
 
    0.29846E-07         0.34694E-08         0.00000E+00
    0.34694E-08        -0.10925E+08         0.00000E+00
    0.00000E+00         0.00000E+00        -0.23377E+07
 
    0.13388E-07        -0.11565E-08         0.00000E+00
   -0.11565E-08        -0.10925E+08         0.00000E+00
    0.00000E+00         0.00000E+00        -0.23377E+07
 
    0.79308E-08         0.14456E-07         0.00000E+00
    0.14456E-07        -0.10925E+08         0.00000E+00
    0.00000E+00         0.00000E+00        -0.23377E+07
 
    0.25153E-07         0.12721E-07         0.00000E+00
    0.12721E-07        -0.10925E+08         0.00000E+00
    0.00000E+00         0.00000E+00        -0.23377E+07
 
    0.11445E-07        -0.57824E-09         0.00000E+00
   -0.57824E-09        -0.10925E+08         0.00000E+00
    0.00000E+00         0.00000E+00        -0.23377E+07
 
    0.58062E-08         0.12721E-07         0.00000E+00
    0.12721E-07        -0.10925E+08         0.00000E+00
    0.00000E+00         0.00000E+00        -0.23377E+07
 
   -0.64829E-08        -0.11565E-08         0.00000E+00
   -0.11565E-08        -0.10925E+08         0.00000E+00
    0.00000E+00         0.00000E+00        -0.23377E+07
 
   -0.92332E-08        -0.11565E-08         0.00000E+00
   -0.11565E-08        -0.10925E+08         0.00000E+00
    0.00000E+00         0.00000E+00        -0.23377E+07
 
   -0.29897E-07        -0.12721E-07         0.00000E+00
   -0.12721E-07        -0.10925E+08         0.00000E+00
    0.00000E+00         0.00000E+00        -0.23377E+07
 
   -0.12034E-07         0.11565E-08         0.00000E+00
    0.11565E-08        -0.10925E+08         0.00000E+00
    0.00000E+00         0.00000E+00        -0.23377E+07
 
   -0.96188E-08        -0.52042E-08         0.00000E+00
   -0.52042E-08        -0.10925E+08         0.00000E+00
    0.00000E+00         0.00000E+00        -0.23377E+07
 
   -0.16655E-07         0.57824E-08         0.00000E+00
    0.57824E-08        -0.10925E+08         0.00000E+00
    0.00000E+00         0.00000E+00        -0.23377E+07
 
    0.41667E+08         0.55511E-07         0.00000E+00
    0.55511E-07         0.15574E+09         0.00000E+00
    0.00000E+00         0.00000E+00         0.39329E+08
 
   -0.23298E-07         0.46259E-08         0.00000E+00
    0.46259E-08        -0.10925E+08         0.00000E+00
    0.00000E+00         0.00000E+00        -0.23377E+07
 
    0.17244E-08        -0.23130E-08         0.00000E+00
   -0.23130E-08        -0.10925E+08         0.00000E+00
    0.00000E+00         0.00000E+00        -0.23377E+07
 
   -0.58353E-08         0.17347E-07         0.00000E+00
    0.17347E-07        -0.10925E+08         0.00000E+00
    0.00000E+00         0.00000E+00        -0.23377E+07
 
    0.12958E-07        -0.18504E-07         0.00000E+00
   -0.18504E-07        -0.10925E+08         0.00000E+00
    0.00000E+00         0.00000E+00        -0.23377E+07
 
    0.75670E-08        -0.23130E-08         0.00000E+00
   -0.23130E-08        -0.10925E+08         0.00000E+00
    0.00000E+00         0.00000E+00        -0.23377E+07
 
    0.19194E-07         0.75171E-08         0.00000E+00
    0.75171E-08        -0.10925E+08         0.00000E+00
    0.00000E+00         0.00000E+00        -0.23377E+07
 
   -0.10106E-07        -0.10408E-07         0.00000E+00
   -0.10408E-07        -0.10925E+08         0.00000E+00
    0.00000E+00         0.00000E+00        -0.23377E+07
 
    0.41982E-08         0.80954E-08         0.00000E+00
    0.80954E-08        -0.10925E+08         0.00000E+00
    0.00000E+00         0.00000E+00        -0.23377E+07
 
    0.73924E-08         0.23130E-08         0.00000E+00
    0.23130E-08        -0.10925E+08         0.00000E+00
    0.00000E+00         0.00000E+00        -0.23377E+07
 
   -0.13824E-09        -0.40477E-08         0.00000E+00
   -0.40477E-08        -0.10925E+08         0.00000E+00
    0.00000E+00         0.00000E+00        -0.23377E+07
 
    0.91677E-09         0.00000E+00         0.00000E+00
    0.00000E+00        -0.10925E+08         0.00000E+00
    0.00000E+00         0.00000E+00        -0.23377E+07
 
    0.10004E-07        -0.10987E-07         0.00000E+00
   -0.10987E-07        -0.10925E+08         0.00000E+00
    0.00000E+00         0.00000E+00        -0.23377E+07
 
    0.16960E-07         0.15034E-07         0.00000E+00
    0.15034E-07        -0.10925E+08         0.00000E+00
    0.00000E+00         0.00000E+00        -0.23377E+07
 
    0.16880E-08         0.00000E+00         0.00000E+00
    0.00000E+00        -0.10925E+08         0.00000E+00
    0.00000E+00         0.00000E+00        -0.23377E+07
 
    0.41667E+08        -0.62450E-07         0.00000E+00
   -0.62450E-07         0.15574E+09         0.00000E+00
    0.00000E+00         0.00000E+00         0.39329E+08
 
   -0.75379E-08        -0.13878E-07         0.00000E+00
   -0.13878E-07        -0.10925E+08         0.00000E+00
    0.00000E+00         0.00000E+00        -0.23377E+07
 
   -0.10798E-07        -0.19660E-07         0.00000E+00
   -0.19660E-07        -0.10925E+08         0.00000E+00
    0.00000E+00         0.00000E+00        -0.23377E+07
 
   -0.68976E-08        -0.17347E-07         0.00000E+00
   -0.17347E-07        -0.10925E+08         0.00000E+00
    0.00000E+00         0.00000E+00        -0.23377E+07
 
   -0.25029E-08        -0.18504E-07         0.00000E+00
   -0.18504E-07        -0.10925E+08         0.00000E+00
    0.00000E+00         0.00000E+00        -0.23377E+07
 
   -0.17018E-07        -0.86736E-08         0.00000E+00
   -0.86736E-08        -0.10925E+08         0.00000E+00
    0.00000E+00         0.00000E+00        -0.23377E+07
 
   -0.20911E-07        -0.57824E-09         0.00000E+00
   -0.57824E-09        -0.10925E+08         0.00000E+00
    0.00000E+00         0.00000E+00        -0.23377E+07
 
   -0.22112E-07         0.57824E-09         0.00000E+00
    0.57824E-09        -0.10925E+08         0.00000E+00
    0.00000E+00         0.00000E+00        -0.23377E+07
 
   -0.56898E-08         0.75171E-08         0.00000E+00
    0.75171E-08        -0.10925E+08         0.00000E+00
    0.00000E+00         0.00000E+00        -0.23377E+07
 
   -0.11809E-07         0.11565E-07         0.00000E+00
    0.11565E-07        -0.10925E+08         0.00000E+00
    0.00000E+00         0.00000E+00        -0.23377E+07
 
    0.38854E-08         0.46259E-08         0.00000E+00
    0.46259E-08        -0.10925E+08         0.00000E+00
    0.00000E+00         0.00000E+00        -0.23377E+07
 
    0.53842E-08        -0.10408E-07         0.00000E+00
   -0.10408E-07        -0.10925E+08         0.00000E+00
    0.00000E+00         0.00000E+00        -0.23377E+07
 
   -0.52751E-08        -0.34694E-08         0.00000E+00
   -0.34694E-08        -0.10925E+08         0.00000E+00
    0.00000E+00         0.00000E+00        -0.23377E+07
 
   -0.25815E-07         0.12721E-07         0.00000E+00
    0.12721E-07        -0.10925E+08         0.00000E+00
    0.00000E+00         0.00000E+00        -0.23377E+07
 
   -0.63810E-08         0.11565E-08         0.00000E+00
    0.11565E-08        -0.10925E+08         0.00000E+00
    0.00000E+00         0.00000E+00        -0.23377E+07
 
    0.41667E+08         0.38164E-07         0.00000E+00
    0.38164E-07         0.15574E+09         0.00000E+00
    0.00000E+00         0.00000E+00         0.39329E+08
 
    0.31650E-08         0.57824E-09         0.00000E+00
    0.57824E-09        -0.10925E+08         0.00000E+00
    0.00000E+00         0.00000E+00        -0.23377E+07
 
   -0.65702E-08         0.57824E-08         0.00000E+00
    0.57824E-08        -0.10925E+08         0.00000E+00
    0.00000E+00         0.00000E+00        -0.23377E+07
 
   -0.16596E-07        -0.11565E-08         0.00000E+00
   -0.11565E-08        -0.10925E+08         0.00000E+00
    0.00000E+00         0.00000E+00        -0.23377E+07
 
    0.48676E-08         0.69389E-08         0.00000E+00
    0.69389E-08        -0.10925E+08         0.00000E+00
    0.00000E+00         0.00000E+00        -0.23377E+07
 
   -0.18408E-08        -0.34694E-08         0.00000E+00
   -0.34694E-08        -0.10925E+08         0.00000E+00
    0.00000E+00         0.00000E+00        -0.23377E+07
 
    0.30268E-08         0.16191E-07         0.00000E+00
    0.16191E-07        -0.10925E+08         0.00000E+00
    0.00000E+00         0.00000E+00        -0.23377E+07
 
   -0.53114E-08        -0.63607E-08         0.00000E+00
   -0.63607E-08        -0.10925E+08         0.00000E+00
    0.00000E+00         0.00000E+00        -0.23377E+07
 
   -0.18867E-07        -0.19082E-07         0.00000E+00
   -0.19082E-07        -0.10925E+08         0.00000E+00
    0.00000E+00         0.00000E+00        -0.23377E+07
 
    0.41109E-08        -0.46259E-08         0.00000E+00
   -0.46259E-08        -0.10925E+08         0.00000E+00
    0.00000E+00         0.00000E+00        -0.23377E+07
 
   -0.79235E-08        -0.34694E-08         0.00000E+00
   -0.34694E-08        -0.10925E+08         0.00000E+00
    0.00000E+00         0.00000E+00        -0.23377E+07
 
   -0.49695E-08        -0.46259E-08         0.00000E+00
   -0.46259E-08        -0.10925E+08         0.00000E+00
    0.00000E+00         0.00000E+00        -0.23377E+07
 
   -0.25124E-07        -0.57824E-08         0.00000E+00
   -0.57824E-08        -0.10925E+08         0.00000E+00
    0.00000E+00         0.00000E+00        -0.23377E+07
 
   -0.12747E-07        -0.20238E-07         0.00000E+00
   -0.20238E-07        -0.10925E+08         0.00000E+00
    0.00000E+00         0.00000E+00        -0.23377E+07
 
   -0.58208E-10        -0.23130E-08         0.00000E+00
   -0.23130E-08        -0.10925E+08         0.00000E+00
    0.00000E+00         0.00000E+00        -0.23377E+07
 
    0.41667E+08        -0.53198E-07         0.00000E+00
   -0.53198E-07         0.15574E+09         0.00000E+00
    0.00000E+00         0.00000E+00         0.39329E+08
 
    0.66429E-08         0.10408E-07         0.00000E+00
    0.10408E-07        -0.10925E+08         0.00000E+00
    0.00000E+00         0.00000E+00        -0.23377E+07
 
    0.11285E-07         0.18504E-07         0.00000E+00
    0.18504E-07        -0.10925E+08         0.00000E+00
    0.00000E+00         0.00000E+00        -0.23377E+07
 
    0.13162E-07         0.69389E-08         0.00000E+00
    0.69389E-08        -0.10925E+08         0.00000E+00
    0.00000E+00         0.00000E+00        -0.23377E+07
 
    0.27358E-08        -0.57824E-09         0.00000E+00
   -0.57824E-09        -0.10925E+08         0.00000E+00
    0.00000E+00         0.00000E+00        -0.23377E+07
 
   -0.13737E-07         0.92519E-08         0.00000E+00
    0.92519E-08        -0.10925E+08         0.00000E+00
    0.00000E+00         0.00000E+00        -0.23377E+07
 
    0.16080E-08         0.34694E-08         0.00000E+00
    0.34694E-08        -0.10925E+08         0.00000E+00
    0.00000E+00         0.00000E+00        -0.23377E+07
 
    0.22119E-07         0.92519E-08         0.00000E+00
    0.92519E-08        -0.10925E+08         0.00000E+00
    0.00000E+00         0.00000E+00        -0.23377E+07
 
   -0.49840E-08         0.86736E-08         0.00000E+00
    0.86736E-08        -0.10925E+08         0.00000E+00
    0.00000E+00         0.00000E+00        -0.23377E+07
 
   -0.96989E-08         0.63607E-08         0.00000E+00
    0.63607E-08        -0.10925E+08         0.00000E+00
    0.00000E+00         0.00000E+00        -0.23377E+07
 
   -0.98735E-08         0.57824E-09         0.00000E+00
    0.57824E-09        -0.10925E+08         0.00000E+00
    0.00000E+00         0.00000E+00        -0.23377E+07
 
    0.22301E-07        -0.69389E-08         0.00000E+00
   -0.69389E-08        -0.10925E+08         0.00000E+00
    0.00000E+00         0.00000E+00        -0.23377E+07
 
    0.12449E-07         0.17347E-08         0.00000E+00
    0.17347E-08        -0.10925E+08         0.00000E+00
    0.00000E+00         0.00000E+00        -0.23377E+07
 
    0.17011E-07        -0.57824E-09         0.00000E+00
   -0.57824E-09        -0.10925E+08         0.00000E+00
    0.00000E+00         0.00000E+00        -0.23377E+07
 
   -0.11889E-07        -0.69389E-08         0.00000E+00
   -0.69389E-08        -0.10925E+08         0.00000E+00
    0.00000E+00         0.00000E+00        -0.23377E+07
 
    0.41667E+08         0.60137E-07         0.00000E+00
    0.60137E-07         0.15574E+09         0.00000E+00
    0.00000E+00         0.00000E+00         0.39329E+08
 
   -0.43729E-08        -0.80954E-08         0.00000E+00
   -0.80954E-08        -0.10925E+08         0.00000E+00
    0.00000E+00         0.00000E+00        -0.23377E+07
 
    0.13089E-07        -0.34694E-08         0.00000E+00
   -0.34694E-08        -0.10925E+08         0.00000E+00
    0.00000E+00         0.00000E+00        -0.23377E+07
 
    0.28303E-08        -0.46259E-08         0.00000E+00
   -0.46259E-08        -0.10925E+08         0.00000E+00
    0.00000E+00         0.00000E+00        -0.23377E+07
 
   -0.37035E-08         0.00000E+00         0.00000E+00
    0.00000E+00        -0.10925E+08         0.00000E+00
    0.00000E+00         0.00000E+00        -0.23377E+07
 
   -0.11278E-08         0.12143E-07         0.00000E+00
    0.12143E-07        -0.10925E+08         0.00000E+00
    0.00000E+00         0.00000E+00        -0.23377E+07
 
   -0.11336E-07         0.00000E+00         0.00000E+00
    0.00000E+00        -0.10925E+08         0.00000E+00
    0.00000E+00         0.00000E+00        -0.23377E+07
 
   -0.83019E-08        -0.13878E-07         0.00000E+00
   -0.13878E-07        -0.10925E+08         0.00000E+00
    0.00000E+00         0.00000E+00        -0.23377E+07
 
    0.23865E-08        -0.52042E-08         0.00000E+00
   -0.52042E-08        -0.10925E+08         0.00000E+00
    0.00000E+00         0.00000E+00        -0.23377E+07
 
    0.83310E-08         0.86736E-08         0.00000E+00
    0.86736E-08        -0.10925E+08         0.00000E+00
    0.00000E+00         0.00000E+00        -0.23377E+07
 
   -0.90731E-08        -0.75171E-08         0.00000E+00
   -0.75171E-08        -0.10925E+08         0.00000E+00
    0.00000E+00         0.00000E+00        -0.23377E+07
 
    0.22774E-08         0.11565E-08         0.00000E+00
    0.11565E-08        -0.10925E+08         0.00000E+00
    0.00000E+00         0.00000E+00        -0.23377E+07
 
    0.28886E-08        -0.28912E-08         0.00000E+00
   -0.28912E-08        -0.10925E+08         0.00000E+00
    0.00000E+00         0.00000E+00        -0.23377E+07
 
   -0.14079E-07         0.21973E-07         0.00000E+00
    0.21973E-07        -0.10925E+08         0.00000E+00
    0.00000E+00         0.00000E+00        -0.23377E+07
 
    0.28303E-08         0.00000E+00         0.00000E+00
    0.00000E+00        -0.10925E+08         0.00000E+00
    0.00000E+00         0.00000E+00        -0.23377E+07
 
    0.41667E+08        -0.40477E-07         0.00000E+00
   -0.40477E-07         0.15574E+09         0.00000E+00
    0.00000E+00         0.00000E+00         0.39329E+08
 
   -0.65556E-08         0.34694E-08         0.00000E+00
    0.34694E-08        -0.10925E+08         0.00000E+00
    0.00000E+00         0.00000E+00        -0.23376E+07
 
    0.16735E-08         0.86736E-08         0.00000E+00
    0.86736E-08        -0.10925E+08         0.00000E+00
    0.00000E+00         0.00000E+00        -0.23376E+07
 
   -0.56680E-08        -0.11565E-08         0.00000E+00
   -0.11565E-08        -0.10925E+08         0.00000E+00
    0.00000E+00         0.00000E+00        -0.23376E+07
 
    0.57116E-08        -0.23130E-08         0.00000E+00
   -0.23130E-08        -0.10925E+08         0.00000E+00
    0.00000E+00         0.00000E+00        -0.23376E+07
 
    0.22184E-07         0.11565E-07         0.00000E+00
    0.11565E-07        -0.10925E+08         0.00000E+00
    0.00000E+00         0.00000E+00        -0.23376E+07
 
    0.11307E-07        -0.46259E-08         0.00000E+00
   -0.46259E-08        -0.10925E+08         0.00000E+00
    0.00000E+00         0.00000E+00        -0.23376E+07
 
    0.19900E-07        -0.57824E-08         0.00000E+00
   -0.57824E-08        -0.10925E+08         0.00000E+00
    0.00000E+00         0.00000E+00        -0.23376E+07
 
    0.66575E-08         0.11565E-08         0.00000E+00
    0.11565E-08        -0.10925E+08         0.00000E+00
    0.00000E+00         0.00000E+00        -0.23376E+07
 
    0.87530E-08         0.12143E-07         0.00000E+00
    0.12143E-07        -0.10925E+08         0.00000E+00
    0.00000E+00         0.00000E+00        -0.23376E+07
 
   -0.15345E-07        -0.11565E-07         0.00000E+00
   -0.11565E-07        -0.10925E+08         0.00000E+00
    0.00000E+00         0.00000E+00        -0.23376E+07
 
   -0.28820E-07         0.00000E+00         0.00000E+00
    0.00000E+00        -0.10925E+08         0.00000E+00
    0.00000E+00         0.00000E+00        -0.23376E+07
 
   -0.18335E-08        -0.11565E-08         0.00000E+00
   -0.11565E-08        -0.10925E+08         0.00000E+00
    0.00000E+00         0.00000E+00        -0.23376E+07
 
   -0.34634E-08         0.80954E-08         0.00000E+00
    0.80954E-08        -0.10925E+08         0.00000E+00
    0.00000E+00         0.00000E+00        -0.23376E+07
 
    0.89130E-08         0.23130E-08         0.00000E+00
    0.23130E-08        -0.10925E+08         0.00000E+00
    0.00000E+00         0.00000E+00        -0.23376E+07
 
    0.41667E+08         0.57824E-08         0.00000E+00
    0.57824E-08         0.15574E+09         0.00000E+00
    0.00000E+00         0.00000E+00         0.39329E+08
 
   -0.12544E-07         0.23130E-08         0.00000E+00
    0.23130E-08        -0.10925E+08         0.00000E+00
    0.00000E+00         0.00000E+00        -0.23376E+07
 
    0.89567E-08         0.12143E-07         0.00000E+00
    0.12143E-07        -0.10925E+08         0.00000E+00
    0.00000E+00         0.00000E+00        -0.23376E+07
 
   -0.47294E-08         0.46259E-08         0.00000E+00
    0.46259E-08        -0.10925E+08         0.00000E+00
    0.00000E+00         0.00000E+00        -0.23376E+07
 
   -0.18088E-07        -0.57824E-09         0.00000E+00
   -0.57824E-09        -0.10925E+08         0.00000E+00
    0.00000E+00         0.00000E+00        -0.23376E+07
 
   -0.15229E-07         0.13300E-07         0.00000E+00
    0.13300E-07        -0.10925E+08         0.00000E+00
    0.00000E+00         0.00000E+00        -0.23376E+07
 
   -0.25466E-09        -0.57824E-08         0.00000E+00
   -0.57824E-08        -0.10925E+08         0.00000E+00
    0.00000E+00         0.00000E+00        -0.23376E+07
 
    0.16327E-07        -0.11565E-08         0.00000E+00
   -0.11565E-08        -0.10925E+08         0.00000E+00
    0.00000E+00         0.00000E+00        -0.23376E+07
 
   -0.25764E-07        -0.98301E-08         0.00000E+00
   -0.98301E-08        -0.10925E+08         0.00000E+00
    0.00000E+00         0.00000E+00        -0.23376E+07
 
   -0.16655E-07         0.15034E-07         0.00000E+00
    0.15034E-07        -0.10925E+08         0.00000E+00
    0.00000E+00         0.00000E+00        -0.23376E+07
 
   -0.11169E-07         0.57824E-08         0.00000E+00
    0.57824E-08        -0.10925E+08         0.00000E+00
    0.00000E+00         0.00000E+00        -0.23376E+07
 
   -0.24869E-07        -0.23130E-08         0.00000E+00
   -0.23130E-08        -0.10925E+08         0.00000E+00
    0.00000E+00         0.00000E+00        -0.23376E+07
 
   -0.11918E-07        -0.57824E-09         0.00000E+00
   -0.57824E-09        -0.10925E+08         0.00000E+00
    0.00000E+00         0.00000E+00        -0.23376E+07
 
   -0.41255E-08         0.80954E-08         0.00000E+00
    0.80954E-08        -0.10925E+08         0.00000E+00
    0.00000E+00         0.00000E+00        -0.23376E+07
 
   -0.16043E-07        -0.16191E-07         0.00000E+00
   -0.16191E-07        -0.10925E+08         0.00000E+00
    0.00000E+00         0.00000E+00        -0.23376E+07
 
    0.41667E+08         0.55511E-07         0.00000E+00
    0.55511E-07         0.15574E+09         0.00000E+00
    0.00000E+00         0.00000E+00         0.39329E+08
 
    0.75597E-08        -0.14456E-07         0.00000E+00
   -0.14456E-07        -0.10925E+08         0.00000E+00
    0.00000E+00         0.00000E+00        -0.23376E+07
 
   -0.21304E-07         0.11565E-07         0.00000E+00
    0.11565E-07        -0.10925E+08         0.00000E+00
    0.00000E+00         0.00000E+00        -0.23376E+07
 
    0.18845E-08        -0.28912E-08         0.00000E+00
   -0.28912E-08        -0.10925E+08         0.00000E+00
    0.00000E+00         0.00000E+00        -0.23376E+07
 
    0.18699E-08         0.13878E-07         0.00000E+00
    0.13878E-07        -0.10925E+08         0.00000E+00
    0.00000E+00         0.00000E+00        -0.23376E+07
 
    0.13752E-07        -0.98301E-08         0.00000E+00
   -0.98301E-08        -0.10925E+08         0.00000E+00
    0.00000E+00         0.00000E+00        -0.23376E+07
 
    0.13461E-08        -0.40477E-08         0.00000E+00
   -0.40477E-08        -0.10925E+08         0.00000E+00
    0.00000E+00         0.00000E+00        -0.23376E+07
 
   -0.33404E-07        -0.86736E-08         0.00000E+00
   -0.86736E-08        -0.10925E+08         0.00000E+00
    0.00000E+00         0.00000E+00        -0.23376E+07
 
   -0.23523E-07         0.10987E-07         0.00000E+00
    0.10987E-07        -0.10925E+08         0.00000E+00
    0.00000E+00         0.00000E+00        -0.23376E+07
 
   -0.83528E-08         0.10408E-07         0.00000E+00
    0.10408E-07        -0.10925E+08         0.00000E+00
    0.00000E+00         0.00000E+00        -0.23376E+07
 
    0.17753E-08        -0.80954E-08         0.00000E+00
   -0.80954E-08        -0.10925E+08         0.00000E+00
    0.00000E+00         0.00000E+00        -0.23376E+07
 
   -0.48240E-08         0.13878E-07         0.00000E+00
    0.13878E-07        -0.10925E+08         0.00000E+00
    0.00000E+00         0.00000E+00        -0.23376E+07
 
   -0.13388E-08        -0.14456E-07         0.00000E+00
   -0.14456E-07        -0.10925E+08         0.00000E+00
    0.00000E+00         0.00000E+00        -0.23376E+07
 
   -0.61846E-08         0.00000E+00         0.00000E+00
    0.00000E+00        -0.10925E+08         0.00000E+00
    0.00000E+00         0.00000E+00        -0.23376E+07
 
    0.90222E-09         0.34694E-08         0.00000E+00
    0.34694E-08        -0.10925E+08         0.00000E+00
    0.00000E+00         0.00000E+00        -0.23376E+07
 
    0.41667E+08        -0.23130E-07         0.00000E+00
   -0.23130E-07         0.15574E+09         0.00000E+00
    0.00000E+00         0.00000E+00         0.39329E+08
 
   -0.26885E-07         0.46259E-08         0.00000E+00
    0.46259E-08        -0.10925E+08         0.00000E+00
    0.00000E+00         0.00000E+00        -0.23375E+07
 
   -0.16335E-07        -0.46259E-08         0.00000E+00
   -0.46259E-08        -0.10925E+08         0.00000E+00
    0.00000E+00         0.00000E+00        -0.23375E+07
 
   -0.11663E-07         0.23130E-08         0.00000E+00
    0.23130E-08        -0.10925E+08         0.00000E+00
    0.00000E+00         0.00000E+00        -0.23375E+07
 
   -0.80036E-09        -0.69389E-08         0.00000E+00
   -0.69389E-08        -0.10925E+08         0.00000E+00
    0.00000E+00         0.00000E+00        -0.23375E+07
 
   -0.11780E-07         0.00000E+00         0.00000E+00
    0.00000E+00        -0.10925E+08         0.00000E+00
    0.00000E+00         0.00000E+00        -0.23375E+07
 
   -0.12391E-07         0.57824E-08         0.00000E+00
    0.57824E-08        -0.10925E+08         0.00000E+00
    0.00000E+00         0.00000E+00        -0.23375E+07
 
   -0.91168E-08        -0.11565E-08         0.00000E+00
   -0.11565E-08        -0.10925E+08         0.00000E+00
    0.00000E+00         0.00000E+00        -0.23375E+07
 
   -0.62646E-08        -0.17347E-08         0.00000E+00
   -0.17347E-08        -0.10925E+08         0.00000E+00
    0.00000E+00         0.00000E+00        -0.23375E+07
 
   -0.10623E-07        -0.17347E-08         0.00000E+00
   -0.17347E-08        -0.10925E+08         0.00000E+00
    0.00000E+00         0.00000E+00        -0.23375E+07
 
   -0.29628E-07        -0.23130E-08         0.00000E+00
   -0.23130E-08        -0.10925E+08         0.00000E+00
    0.00000E+00         0.00000E+00        -0.23375E+07
 
    0.34561E-08         0.15613E-07         0.00000E+00
    0.15613E-07        -0.10925E+08         0.00000E+00
    0.00000E+00         0.00000E+00        -0.23375E+07
 
   -0.17462E-09        -0.11565E-07         0.00000E+00
   -0.11565E-07        -0.10925E+08         0.00000E+00
    0.00000E+00         0.00000E+00        -0.23375E+07
 
   -0.20038E-07        -0.23130E-08         0.00000E+00
   -0.23130E-08        -0.10925E+08         0.00000E+00
    0.00000E+00         0.00000E+00        -0.23375E+07
 
    0.15760E-07         0.17347E-07         0.00000E+00
    0.17347E-07        -0.10925E+08         0.00000E+00
    0.00000E+00         0.00000E+00        -0.23375E+07
 
    0.41667E+08        -0.49729E-07         0.00000E+00
   -0.49729E-07         0.15574E+09         0.00000E+00
    0.00000E+00         0.00000E+00         0.39329E+08
 
   -0.24957E-07        -0.46259E-08         0.00000E+00
   -0.46259E-08        -0.10925E+08         0.00000E+00
    0.00000E+00         0.00000E+00        -0.23375E+07
 
   -0.84401E-09         0.98301E-08         0.00000E+00
    0.98301E-08        -0.10925E+08         0.00000E+00
    0.00000E+00         0.00000E+00        -0.23375E+07
 
   -0.30414E-08        -0.75171E-08         0.00000E+00
   -0.75171E-08        -0.10925E+08         0.00000E+00
    0.00000E+00         0.00000E+00        -0.23375E+07
 
   -0.46202E-08         0.10408E-07         0.00000E+00
    0.10408E-07        -0.10925E+08         0.00000E+00
    0.00000E+00         0.00000E+00        -0.23375E+07
 
    0.82000E-08        -0.17347E-07         0.00000E+00
   -0.17347E-07        -0.10925E+08         0.00000E+00
    0.00000E+00         0.00000E+00        -0.23375E+07
 
    0.29730E-07         0.40477E-08         0.00000E+00
    0.40477E-08        -0.10925E+08         0.00000E+00
    0.00000E+00         0.00000E+00        -0.23375E+07
 
    0.27081E-07         0.40477E-08         0.00000E+00
    0.40477E-08        -0.10925E+08         0.00000E+00
    0.00000E+00         0.00000E+00        -0.23375E+07
 
    0.21850E-07        -0.57824E-08         0.00000E+00
   -0.57824E-08        -0.10925E+08         0.00000E+00
    0.00000E+00         0.00000E+00        -0.23375E+07
 
    0.33840E-07        -0.11565E-08         0.00000E+00
   -0.11565E-08        -0.10925E+08         0.00000E+00
    0.00000E+00         0.00000E+00        -0.23375E+07
 
    0.14916E-07        -0.17347E-08         0.00000E+00
   -0.17347E-08        -0.10925E+08         0.00000E+00
    0.00000E+00         0.00000E+00        -0.23375E+07
 
   -0.26994E-08         0.15613E-07         0.00000E+00
    0.15613E-07        -0.10925E+08         0.00000E+00
    0.00000E+00         0.00000E+00        -0.23375E+07
 
   -0.86584E-09        -0.11565E-07         0.00000E+00
   -0.11565E-07        -0.10925E+08         0.00000E+00
    0.00000E+00         0.00000E+00        -0.23375E+07
 
    0.11067E-07         0.23130E-08         0.00000E+00
    0.23130E-08        -0.10925E+08         0.00000E+00
    0.00000E+00         0.00000E+00        -0.23375E+07
 
    0.35812E-07        -0.92519E-08         0.00000E+00
   -0.92519E-08        -0.10925E+08         0.00000E+00
    0.00000E+00         0.00000E+00        -0.23375E+07
 
    0.41667E+08         0.57824E-08         0.00000E+00
    0.57824E-08         0.15574E+09         0.00000E+00
    0.00000E+00         0.00000E+00         0.39329E+08
 
    0.18554E-07         0.17347E-08         0.00000E+00
    0.17347E-08        -0.10925E+08         0.00000E+00
    0.00000E+00         0.00000E+00        -0.23374E+07
 
    0.38970E-07        -0.69389E-08         0.00000E+00
   -0.69389E-08        -0.10925E+08         0.00000E+00
    0.00000E+00         0.00000E+00        -0.23374E+07
 
   -0.77853E-08        -0.12721E-07         0.00000E+00
   -0.12721E-07        -0.10925E+08         0.00000E+00
    0.00000E+00         0.00000E+00        -0.23374E+07
 
   -0.38708E-08         0.12721E-07         0.00000E+00
    0.12721E-07        -0.10925E+08         0.00000E+00
    0.00000E+00         0.00000E+00        -0.23374E+07
 
   -0.44383E-09        -0.15034E-07         0.00000E+00
   -0.15034E-07        -0.10925E+08         0.00000E+00
    0.00000E+00         0.00000E+00        -0.23374E+07
 
   -0.16400E-07         0.11565E-08         0.00000E+00
    0.11565E-08        -0.10925E+08         0.00000E+00
    0.00000E+00         0.00000E+00        -0.23374E+07
 
   -0.21682E-07        -0.52042E-08         0.00000E+00
   -0.52042E-08        -0.10925E+08         0.00000E+00
    0.00000E+00         0.00000E+00        -0.23374E+07
 
   -0.39487E-07        -0.23130E-08         0.00000E+00
   -0.23130E-08        -0.10925E+08         0.00000E+00
    0.00000E+00         0.00000E+00        -0.23374E+07
 
   -0.27292E-07        -0.23130E-08         0.00000E+00
   -0.23130E-08        -0.10925E+08         0.00000E+00
    0.00000E+00         0.00000E+00        -0.23374E+07
 
   -0.28296E-07         0.52042E-08         0.00000E+00
    0.52042E-08        -0.10925E+08         0.00000E+00
    0.00000E+00         0.00000E+00        -0.23374E+07
 
   -0.13883E-07         0.11565E-07         0.00000E+00
    0.11565E-07        -0.10925E+08         0.00000E+00
    0.00000E+00         0.00000E+00        -0.23374E+07
 
   -0.65484E-09        -0.15034E-07         0.00000E+00
   -0.15034E-07        -0.10925E+08         0.00000E+00
    0.00000E+00         0.00000E+00        -0.23374E+07
 
   -0.30588E-07         0.23130E-08         0.00000E+00
    0.23130E-08        -0.10925E+08         0.00000E+00
    0.00000E+00         0.00000E+00        -0.23374E+07
 
   -0.23865E-07        -0.80954E-08         0.00000E+00
   -0.80954E-08        -0.10925E+08         0.00000E+00
    0.00000E+00         0.00000E+00        -0.23374E+07
 
    0.41667E+08        -0.69389E-08         0.00000E+00
   -0.69389E-08         0.15574E+09         0.00000E+00
    0.00000E+00         0.00000E+00         0.39329E+08
 
    0.11431E-07        -0.57824E-08         0.00000E+00
   -0.57824E-08        -0.10925E+08         0.00000E+00
    0.00000E+00         0.00000E+00        -0.23373E+07
 
    0.27241E-07         0.46259E-08         0.00000E+00
    0.46259E-08        -0.10925E+08         0.00000E+00
    0.00000E+00         0.00000E+00        -0.23373E+07
 
    0.99753E-08         0.11565E-08         0.00000E+00
    0.11565E-08        -0.10925E+08         0.00000E+00
    0.00000E+00         0.00000E+00        -0.23373E+07
 
    0.15192E-07        -0.69389E-08         0.00000E+00
   -0.69389E-08        -0.10925E+08         0.00000E+00
    0.00000E+00         0.00000E+00        -0.23373E+07
 
    0.10245E-07        -0.34694E-08         0.00000E+00
   -0.34694E-08        -0.10925E+08         0.00000E+00
    0.00000E+00         0.00000E+00        -0.23373E+07
 
    0.27263E-07        -0.11565E-08         0.00000E+00
   -0.11565E-08        -0.10925E+08         0.00000E+00
    0.00000E+00         0.00000E+00        -0.23373E+07
 
    0.13511E-07        -0.34694E-08         0.00000E+00
   -0.34694E-08        -0.10925E+08         0.00000E+00
    0.00000E+00         0.00000E+00        -0.23373E+07
 
    0.10841E-07         0.17347E-08         0.00000E+00
    0.17347E-08        -0.10925E+08         0.00000E+00
    0.00000E+00         0.00000E+00        -0.23373E+07
 
    0.26688E-07        -0.23130E-08         0.00000E+00
   -0.23130E-08        -0.10925E+08         0.00000E+00
    0.00000E+00         0.00000E+00        -0.23373E+07
 
    0.11452E-07        -0.75171E-08         0.00000E+00
   -0.75171E-08        -0.10925E+08         0.00000E+00
    0.00000E+00         0.00000E+00        -0.23373E+07
 
    0.13228E-07        -0.57824E-08         0.00000E+00
   -0.57824E-08        -0.10925E+08         0.00000E+00
    0.00000E+00         0.00000E+00        -0.23373E+07
 
    0.15061E-07        -0.34694E-08         0.00000E+00
   -0.34694E-08        -0.10925E+08         0.00000E+00
    0.00000E+00         0.00000E+00        -0.23373E+07
 
    0.14028E-07         0.00000E+00         0.00000E+00
    0.00000E+00        -0.10925E+08         0.00000E+00
    0.00000E+00         0.00000E+00        -0.23373E+07
 
    0.11671E-07        -0.23130E-08         0.00000E+00
   -0.23130E-08        -0.10925E+08         0.00000E+00
    0.00000E+00         0.00000E+00        -0.23373E+07
 
    0.41667E+08         0.56668E-07         0.00000E+00
    0.56668E-07         0.15574E+09         0.00000E+00
    0.00000E+00         0.00000E+00         0.39329E+08
 
    0.78653E-08        -0.34694E-08         0.00000E+00
   -0.34694E-08        -0.10925E+08         0.00000E+00
    0.00000E+00         0.00000E+00        -0.23372E+07
 
    0.24447E-08         0.80954E-08         0.00000E+00
    0.80954E-08        -0.10925E+08         0.00000E+00
    0.00000E+00         0.00000E+00        -0.23372E+07
 
   -0.61482E-08         0.12721E-07         0.00000E+00
    0.12721E-07        -0.10925E+08         0.00000E+00
    0.00000E+00         0.00000E+00        -0.23372E+07
 
   -0.22294E-07         0.34694E-08         0.00000E+00
    0.34694E-08        -0.10925E+08         0.00000E+00
    0.00000E+00         0.00000E+00        -0.23372E+07
 
   -0.32393E-07        -0.57824E-09         0.00000E+00
   -0.57824E-09        -0.10925E+08         0.00000E+00
    0.00000E+00         0.00000E+00        -0.23372E+07
 
   -0.50881E-07         0.23130E-08         0.00000E+00
    0.23130E-08        -0.10925E+08         0.00000E+00
    0.00000E+00         0.00000E+00        -0.23372E+07
 
   -0.38075E-07         0.11565E-08         0.00000E+00
    0.11565E-08        -0.10925E+08         0.00000E+00
    0.00000E+00         0.00000E+00        -0.23372E+07
 
   -0.24600E-07        -0.14456E-07         0.00000E+00
   -0.14456E-07        -0.10925E+08         0.00000E+00
    0.00000E+00         0.00000E+00        -0.23372E+07
 
   -0.90949E-08         0.86736E-08         0.00000E+00
    0.86736E-08        -0.10925E+08         0.00000E+00
    0.00000E+00         0.00000E+00        -0.23372E+07
 
    0.73487E-09        -0.34694E-08         0.00000E+00
   -0.34694E-08        -0.10925E+08         0.00000E+00
    0.00000E+00         0.00000E+00        -0.23372E+07
 
    0.12085E-07         0.10408E-07         0.00000E+00
    0.10408E-07        -0.10925E+08         0.00000E+00
    0.00000E+00         0.00000E+00        -0.23372E+07
 
   -0.39363E-08        -0.23130E-07         0.00000E+00
   -0.23130E-07        -0.10925E+08         0.00000E+00
    0.00000E+00         0.00000E+00        -0.23372E+07
 
    0.14559E-07         0.20817E-07         0.00000E+00
    0.20817E-07        -0.10925E+08         0.00000E+00
    0.00000E+00         0.00000E+00        -0.23372E+07
 
    0.32232E-07         0.23130E-08         0.00000E+00
    0.23130E-08        -0.10925E+08         0.00000E+00
    0.00000E+00         0.00000E+00        -0.23372E+07
 
    0.41667E+08        -0.60137E-07         0.00000E+00
   -0.60137E-07         0.15574E+09         0.00000E+00
    0.00000E+00         0.00000E+00         0.39330E+08
 
   -0.92259E-08         0.46259E-08         0.00000E+00
    0.46259E-08        -0.10925E+08         0.00000E+00
    0.00000E+00         0.00000E+00        -0.23370E+07
 
   -0.45984E-07         0.12721E-07         0.00000E+00
    0.12721E-07        -0.10925E+08         0.00000E+00
    0.00000E+00         0.00000E+00        -0.23370E+07
 
   -0.44725E-07        -0.46259E-08         0.00000E+00
   -0.46259E-08        -0.10925E+08         0.00000E+00
    0.00000E+00         0.00000E+00        -0.23370E+07
 
    0.53915E-08         0.46259E-08         0.00000E+00
    0.46259E-08        -0.10925E+08         0.00000E+00
    0.00000E+00         0.00000E+00        -0.23370E+07
 
    0.17659E-07        -0.34694E-08         0.00000E+00
   -0.34694E-08        -0.10925E+08         0.00000E+00
    0.00000E+00         0.00000E+00        -0.23370E+07
 
    0.26281E-07        -0.17347E-08         0.00000E+00
   -0.17347E-08        -0.10925E+08         0.00000E+00
    0.00000E+00         0.00000E+00        -0.23370E+07
 
    0.31730E-07        -0.46259E-08         0.00000E+00
   -0.46259E-08        -0.10925E+08         0.00000E+00
    0.00000E+00         0.00000E+00        -0.23370E+07
 
   -0.24076E-07         0.57824E-09         0.00000E+00
    0.57824E-09        -0.10925E+08         0.00000E+00
    0.00000E+00         0.00000E+00        -0.23370E+07
 
   -0.13781E-07         0.00000E+00         0.00000E+00
    0.00000E+00        -0.10925E+08         0.00000E+00
    0.00000E+00         0.00000E+00        -0.23370E+07
 
    0.13897E-08        -0.19660E-07         0.00000E+00
   -0.19660E-07        -0.10925E+08         0.00000E+00
    0.00000E+00         0.00000E+00        -0.23370E+07
 
    0.15272E-07         0.26599E-07         0.00000E+00
    0.26599E-07        -0.10925E+08         0.00000E+00
    0.00000E+00         0.00000E+00        -0.23370E+07
 
    0.38126E-08         0.57824E-08         0.00000E+00
    0.57824E-08        -0.10925E+08         0.00000E+00
    0.00000E+00         0.00000E+00        -0.23370E+07
 
   -0.68758E-08         0.57824E-08         0.00000E+00
    0.57824E-08        -0.10925E+08         0.00000E+00
    0.00000E+00         0.00000E+00        -0.23370E+07
 
    0.14756E-07         0.11565E-08         0.00000E+00
    0.11565E-08        -0.10925E+08         0.00000E+00
    0.00000E+00         0.00000E+00        -0.23370E+07
 
    0.41667E+08         0.45103E-07         0.00000E+00
    0.45103E-07         0.15574E+09         0.00000E+00
    0.00000E+00         0.00000E+00         0.39330E+08
 
   -0.17470E-07         0.00000E+00         0.00000E+00
    0.00000E+00        -0.10924E+08         0.00000E+00
    0.00000E+00         0.00000E+00        -0.23368E+07
 
    0.18335E-07         0.11565E-07         0.00000E+00
    0.11565E-07        -0.10924E+08         0.00000E+00
    0.00000E+00         0.00000E+00        -0.23368E+07
 
    0.37508E-07         0.23130E-08         0.00000E+00
    0.23130E-08        -0.10924E+08         0.00000E+00
    0.00000E+00         0.00000E+00        -0.23368E+07
 
    0.44689E-07         0.12721E-07         0.00000E+00
    0.12721E-07        -0.10924E+08         0.00000E+00
    0.00000E+00         0.00000E+00        -0.23368E+07
 
    0.14465E-07         0.10987E-07         0.00000E+00
    0.10987E-07        -0.10924E+08         0.00000E+00
    0.00000E+00         0.00000E+00        -0.23368E+07
 
   -0.10870E-07         0.92519E-08         0.00000E+00
    0.92519E-08        -0.10924E+08         0.00000E+00
    0.00000E+00         0.00000E+00        -0.23368E+07
 
   -0.53187E-08        -0.40477E-08         0.00000E+00
   -0.40477E-08        -0.10924E+08         0.00000E+00
    0.00000E+00         0.00000E+00        -0.23368E+07
 
    0.12114E-07         0.10408E-07         0.00000E+00
    0.10408E-07        -0.10924E+08         0.00000E+00
    0.00000E+00         0.00000E+00        -0.23368E+07
 
    0.69995E-08        -0.11565E-07         0.00000E+00
   -0.11565E-07        -0.10924E+08         0.00000E+00
    0.00000E+00         0.00000E+00        -0.23368E+07
 
    0.43437E-08        -0.46259E-08         0.00000E+00
   -0.46259E-08        -0.10924E+08         0.00000E+00
    0.00000E+00         0.00000E+00        -0.23368E+07
 
   -0.19361E-07         0.80954E-08         0.00000E+00
    0.80954E-08        -0.10924E+08         0.00000E+00
    0.00000E+00         0.00000E+00        -0.23368E+07
 
   -0.19500E-08         0.20817E-07         0.00000E+00
    0.20817E-07        -0.10924E+08         0.00000E+00
    0.00000E+00         0.00000E+00        -0.23368E+07
 
   -0.10084E-07        -0.18504E-07         0.00000E+00
   -0.18504E-07        -0.10924E+08         0.00000E+00
    0.00000E+00         0.00000E+00        -0.23368E+07
 
   -0.79599E-08         0.46259E-08         0.00000E+00
    0.46259E-08        -0.10924E+08         0.00000E+00
    0.00000E+00         0.00000E+00        -0.23368E+07
 
    0.41667E+08        -0.71702E-07         0.00000E+00
   -0.71702E-07         0.15574E+09         0.00000E+00
    0.00000E+00         0.00000E+00         0.39330E+08
 
   -0.82291E-08        -0.11565E-08         0.00000E+00
   -0.11565E-08        -0.10924E+08         0.00000E+00
    0.00000E+00         0.00000E+00        -0.23365E+07
 
   -0.10834E-07         0.20817E-07         0.00000E+00
    0.20817E-07        -0.10924E+08         0.00000E+00
    0.00000E+00         0.00000E+00        -0.23365E+07
 
   -0.15694E-07         0.46259E-08         0.00000E+00
    0.46259E-08        -0.10924E+08         0.00000E+00
    0.00000E+00         0.00000E+00        -0.23365E+07
 
   -0.49971E-07        -0.92519E-08         0.00000E+00
   -0.92519E-08        -0.10924E+08         0.00000E+00
    0.00000E+00         0.00000E+00        -0.23365E+07
 
   -0.20074E-07         0.57824E-08         0.00000E+00
    0.57824E-08        -0.10924E+08         0.00000E+00
    0.00000E+00         0.00000E+00        -0.23365E+07
 
   -0.13053E-07        -0.40477E-08         0.00000E+00
   -0.40477E-08        -0.10924E+08         0.00000E+00
    0.00000E+00         0.00000E+00        -0.23365E+07
 
   -0.20729E-07        -0.40477E-08         0.00000E+00
   -0.40477E-08        -0.10924E+08         0.00000E+00
    0.00000E+00         0.00000E+00        -0.23365E+07
 
   -0.33484E-07         0.28912E-08         0.00000E+00
    0.28912E-08        -0.10924E+08         0.00000E+00
    0.00000E+00         0.00000E+00        -0.23365E+07
 
   -0.13322E-07        -0.46259E-08         0.00000E+00
   -0.46259E-08        -0.10924E+08         0.00000E+00
    0.00000E+00         0.00000E+00        -0.23365E+07
 
   -0.30821E-07         0.17347E-07         0.00000E+00
    0.17347E-07        -0.10924E+08         0.00000E+00
    0.00000E+00         0.00000E+00        -0.23365E+07
 
   -0.32778E-07        -0.10408E-07         0.00000E+00
   -0.10408E-07        -0.10924E+08         0.00000E+00
    0.00000E+00         0.00000E+00        -0.23365E+07
 
    0.24520E-08         0.15034E-07         0.00000E+00
    0.15034E-07        -0.10924E+08         0.00000E+00
    0.00000E+00         0.00000E+00        -0.23365E+07
 
    0.13206E-07        -0.10408E-07         0.00000E+00
   -0.10408E-07        -0.10924E+08         0.00000E+00
    0.00000E+00         0.00000E+00        -0.23365E+07
 
   -0.85056E-08        -0.46259E-08         0.00000E+00
   -0.46259E-08        -0.10924E+08         0.00000E+00
    0.00000E+00         0.00000E+00        -0.23365E+07
 
    0.41667E+08         0.43946E-07         0.00000E+00
    0.43946E-07         0.15574E+09         0.00000E+00
    0.00000E+00         0.00000E+00         0.39331E+08
 
   -0.10230E-07        -0.34694E-08         0.00000E+00
   -0.34694E-08        -0.10924E+08         0.00000E+00
    0.00000E+00         0.00000E+00        -0.23361E+07
 
    0.12500E-07         0.46259E-08         0.00000E+00
    0.46259E-08        -0.10924E+08         0.00000E+00
    0.00000E+00         0.00000E+00        -0.23361E+07
 
    0.49331E-08        -0.10408E-07         0.00000E+00
   -0.10408E-07        -0.10924E+08         0.00000E+00
    0.00000E+00         0.00000E+00        -0.23361E+07
 
    0.10186E-07         0.00000E+00         0.00000E+00
    0.00000E+00        -0.10924E+08         0.00000E+00
    0.00000E+00         0.00000E+00        -0.23361E+07
 
   -0.56680E-08         0.46259E-08         0.00000E+00
    0.46259E-08        -0.10924E+08         0.00000E+00
    0.00000E+00         0.00000E+00        -0.23361E+07
 
   -0.30559E-09         0.00000E+00         0.00000E+00
    0.00000E+00        -0.10924E+08         0.00000E+00
    0.00000E+00         0.00000E+00        -0.23361E+07
 
    0.16415E-07        -0.15613E-07         0.00000E+00
   -0.15613E-07        -0.10924E+08         0.00000E+00
    0.00000E+00         0.00000E+00        -0.23361E+07
 
    0.54089E-07         0.20817E-07         0.00000E+00
    0.20817E-07        -0.10924E+08         0.00000E+00
    0.00000E+00         0.00000E+00        -0.23361E+07
 
   -0.12114E-07         0.15613E-07         0.00000E+00
    0.15613E-07        -0.10924E+08         0.00000E+00
    0.00000E+00         0.00000E+00        -0.23361E+07
 
   -0.75524E-08        -0.92519E-08         0.00000E+00
   -0.92519E-08        -0.10924E+08         0.00000E+00
    0.00000E+00         0.00000E+00        -0.23361E+07
 
    0.13701E-07         0.11565E-08         0.00000E+00
    0.11565E-08        -0.10924E+08         0.00000E+00
    0.00000E+00         0.00000E+00        -0.23361E+07
 
   -0.76834E-08        -0.16191E-07         0.00000E+00
   -0.16191E-07        -0.10924E+08         0.00000E+00
    0.00000E+00         0.00000E+00        -0.23361E+07
 
   -0.13148E-07         0.11565E-08         0.00000E+00
    0.11565E-08        -0.10924E+08         0.00000E+00
    0.00000E+00         0.00000E+00        -0.23361E+07
 
   -0.24433E-07        -0.16191E-07         0.00000E+00
   -0.16191E-07        -0.10924E+08         0.00000E+00
    0.00000E+00         0.00000E+00        -0.23361E+07
 
    0.41667E+08         0.11565E-07         0.00000E+00
    0.11565E-07         0.15574E+09         0.00000E+00
    0.00000E+00         0.00000E+00         0.39331E+08
 
    0.15680E-07        -0.15034E-07         0.00000E+00
   -0.15034E-07        -0.10923E+08         0.00000E+00
    0.00000E+00         0.00000E+00        -0.23356E+07
 
    0.32538E-07        -0.34694E-08         0.00000E+00
   -0.34694E-08        -0.10923E+08         0.00000E+00
    0.00000E+00         0.00000E+00        -0.23356E+07
 
    0.60492E-07         0.11565E-08         0.00000E+00
    0.11565E-08        -0.10923E+08         0.00000E+00
    0.00000E+00         0.00000E+00        -0.23356E+07
 
    0.60056E-07        -0.11565E-08         0.00000E+00
   -0.11565E-08        -0.10923E+08         0.00000E+00
    0.00000E+00         0.00000E+00        -0.23356E+07
 
    0.53551E-08         0.98301E-08         0.00000E+00
    0.98301E-08        -0.10923E+08         0.00000E+00
    0.00000E+00         0.00000E+00        -0.23356E+07
 
    0.32589E-07         0.75171E-08         0.00000E+00
    0.75171E-08        -0.10923E+08         0.00000E+00
    0.00000E+00         0.00000E+00        -0.23356E+07
 
    0.68176E-08        -0.86736E-08         0.00000E+00
   -0.86736E-08        -0.10923E+08         0.00000E+00
    0.00000E+00         0.00000E+00        -0.23356E+07
 
   -0.10710E-07         0.28912E-08         0.00000E+00
    0.28912E-08        -0.10923E+08         0.00000E+00
    0.00000E+00         0.00000E+00        -0.23356E+07
 
   -0.19674E-07         0.12143E-07         0.00000E+00
    0.12143E-07        -0.10923E+08         0.00000E+00
    0.00000E+00         0.00000E+00        -0.23356E+07
 
   -0.36307E-08        -0.10408E-07         0.00000E+00
   -0.10408E-07        -0.10923E+08         0.00000E+00
    0.00000E+00         0.00000E+00        -0.23356E+07
 
   -0.52969E-08         0.20817E-07         0.00000E+00
    0.20817E-07        -0.10923E+08         0.00000E+00
    0.00000E+00         0.00000E+00        -0.23356E+07
 
    0.21850E-07         0.69389E-08         0.00000E+00
    0.69389E-08        -0.10923E+08         0.00000E+00
    0.00000E+00         0.00000E+00        -0.23356E+07
 
    0.75452E-08        -0.80954E-08         0.00000E+00
   -0.80954E-08        -0.10923E+08         0.00000E+00
    0.00000E+00         0.00000E+00        -0.23356E+07
 
   -0.46275E-08         0.46259E-08         0.00000E+00
    0.46259E-08        -0.10923E+08         0.00000E+00
    0.00000E+00         0.00000E+00        -0.23356E+07
 
    0.41667E+08         0.92519E-08         0.00000E+00
    0.92519E-08         0.15574E+09         0.00000E+00
    0.00000E+00         0.00000E+00         0.39332E+08
 
    0.12238E-07        -0.34694E-08         0.00000E+00
   -0.34694E-08        -0.10923E+08         0.00000E+00
    0.00000E+00         0.00000E+00        -0.23350E+07
 
    0.16356E-07        -0.57824E-08         0.00000E+00
   -0.57824E-08        -0.10923E+08         0.00000E+00
    0.00000E+00         0.00000E+00        -0.23350E+07
 
    0.20082E-08        -0.23130E-08         0.00000E+00
   -0.23130E-08        -0.10923E+08         0.00000E+00
    0.00000E+00         0.00000E+00        -0.23350E+07
 
   -0.76179E-08         0.10408E-07         0.00000E+00
    0.10408E-07        -0.10923E+08         0.00000E+00
    0.00000E+00         0.00000E+00        -0.23350E+07
 
   -0.68248E-08         0.69389E-08         0.00000E+00
    0.69389E-08        -0.10923E+08         0.00000E+00
    0.00000E+00         0.00000E+00        -0.23350E+07
 
   -0.96625E-08        -0.23130E-08         0.00000E+00
   -0.23130E-08        -0.10923E+08         0.00000E+00
    0.00000E+00         0.00000E+00        -0.23350E+07
 
    0.29104E-10         0.34694E-08         0.00000E+00
    0.34694E-08        -0.10923E+08         0.00000E+00
    0.00000E+00         0.00000E+00        -0.23350E+07
 
    0.20103E-07         0.11565E-07         0.00000E+00
    0.11565E-07        -0.10923E+08         0.00000E+00
    0.00000E+00         0.00000E+00        -0.23350E+07
 
    0.25320E-08        -0.75171E-08         0.00000E+00
   -0.75171E-08        -0.10923E+08         0.00000E+00
    0.00000E+00         0.00000E+00        -0.23350E+07
 
    0.69995E-08        -0.23130E-08         0.00000E+00
   -0.23130E-08        -0.10923E+08         0.00000E+00
    0.00000E+00         0.00000E+00        -0.23350E+07
 
   -0.31578E-07         0.17347E-07         0.00000E+00
    0.17347E-07        -0.10923E+08         0.00000E+00
    0.00000E+00         0.00000E+00        -0.23350E+07
 
   -0.12624E-07        -0.23130E-07         0.00000E+00
   -0.23130E-07        -0.10923E+08         0.00000E+00
    0.00000E+00         0.00000E+00        -0.23350E+07
 
   -0.33870E-07         0.21973E-07         0.00000E+00
    0.21973E-07        -0.10923E+08         0.00000E+00
    0.00000E+00         0.00000E+00        -0.23350E+07
 
    0.31316E-07         0.00000E+00         0.00000E+00
    0.00000E+00        -0.10923E+08         0.00000E+00
    0.00000E+00         0.00000E+00        -0.23350E+07
 
    0.41667E+08        -0.12721E-07         0.00000E+00
   -0.12721E-07         0.15574E+09         0.00000E+00
    0.00000E+00         0.00000E+00         0.39333E+08
 
    0.19209E-08        -0.69389E-08         0.00000E+00
   -0.69389E-08        -0.10922E+08         0.00000E+00
    0.00000E+00         0.00000E+00        -0.23341E+07
 
   -0.25269E-07         0.34694E-08         0.00000E+00
    0.34694E-08        -0.10922E+08         0.00000E+00
    0.00000E+00         0.00000E+00        -0.23341E+07
 
   -0.32742E-09        -0.11565E-08         0.00000E+00
   -0.11565E-08        -0.10922E+08         0.00000E+00
    0.00000E+00         0.00000E+00        -0.23341E+07
 
   -0.13875E-07         0.46259E-08         0.00000E+00
    0.46259E-08        -0.10922E+08         0.00000E+00
    0.00000E+00         0.00000E+00        -0.23341E+07
 
    0.38417E-08         0.17347E-08         0.00000E+00
    0.17347E-08        -0.10922E+08         0.00000E+00
    0.00000E+00         0.00000E+00        -0.23341E+07
 
    0.16225E-08         0.40477E-08         0.00000E+00
    0.40477E-08        -0.10922E+08         0.00000E+00
    0.00000E+00         0.00000E+00        -0.23341E+07
 
    0.86438E-08         0.17347E-07         0.00000E+00
    0.17347E-07        -0.10922E+08         0.00000E+00
    0.00000E+00         0.00000E+00        -0.23341E+07
 
    0.71013E-08         0.20817E-07         0.00000E+00
    0.20817E-07        -0.10922E+08         0.00000E+00
    0.00000E+00         0.00000E+00        -0.23341E+07
 
   -0.26957E-07        -0.15613E-07         0.00000E+00
   -0.15613E-07        -0.10922E+08         0.00000E+00
    0.00000E+00         0.00000E+00        -0.23341E+07
 
   -0.28216E-07         0.10408E-07         0.00000E+00
    0.10408E-07        -0.10922E+08         0.00000E+00
    0.00000E+00         0.00000E+00        -0.23341E+07
 
   -0.21944E-07         0.92519E-08         0.00000E+00
    0.92519E-08        -0.10922E+08         0.00000E+00
    0.00000E+00         0.00000E+00        -0.23341E+07
 
   -0.29315E-07        -0.13878E-07         0.00000E+00
   -0.13878E-07        -0.10922E+08         0.00000E+00
    0.00000E+00         0.00000E+00        -0.23341E+07
 
   -0.39268E-07         0.57824E-08         0.00000E+00
    0.57824E-08        -0.10922E+08         0.00000E+00
    0.00000E+00         0.00000E+00        -0.23341E+07
 
   -0.23319E-07        -0.11565E-07         0.00000E+00
   -0.11565E-07        -0.10922E+08         0.00000E+00
    0.00000E+00         0.00000E+00        -0.23341E+07
 
    0.41667E+08        -0.13878E-07         0.00000E+00
   -0.13878E-07         0.15575E+09         0.00000E+00
    0.00000E+00         0.00000E+00         0.39334E+08
 
   -0.20009E-08         0.41633E-07         0.00000E+00
    0.41633E-07        -0.10921E+08         0.00000E+00
    0.00000E+00         0.00000E+00        -0.23329E+07
 
    0.10798E-07         0.11565E-07         0.00000E+00
    0.11565E-07        -0.10921E+08         0.00000E+00
    0.00000E+00         0.00000E+00        -0.23329E+07
 
    0.10259E-07         0.34694E-08         0.00000E+00
    0.34694E-08        -0.10921E+08         0.00000E+00
    0.00000E+00         0.00000E+00        -0.23329E+07
 
   -0.44456E-08        -0.46259E-08         0.00000E+00
   -0.46259E-08        -0.10921E+08         0.00000E+00
    0.00000E+00         0.00000E+00        -0.23329E+07
 
    0.19143E-07         0.63607E-08         0.00000E+00
    0.63607E-08        -0.10921E+08         0.00000E+00
    0.00000E+00         0.00000E+00        -0.23329E+07
 
   -0.95533E-08        -0.17347E-08         0.00000E+00
   -0.17347E-08        -0.10921E+08         0.00000E+00
    0.00000E+00         0.00000E+00        -0.23329E+07
 
    0.84547E-08         0.69389E-08         0.00000E+00
    0.69389E-08        -0.10921E+08         0.00000E+00
    0.00000E+00         0.00000E+00        -0.23329E+07
 
   -0.22497E-07         0.80954E-08         0.00000E+00
    0.80954E-08        -0.10921E+08         0.00000E+00
    0.00000E+00         0.00000E+00        -0.23329E+07
 
   -0.52234E-07         0.15034E-07         0.00000E+00
    0.15034E-07        -0.10921E+08         0.00000E+00
    0.00000E+00         0.00000E+00        -0.23329E+07
 
   -0.24629E-07         0.10408E-07         0.00000E+00
    0.10408E-07        -0.10921E+08         0.00000E+00
    0.00000E+00         0.00000E+00        -0.23329E+07
 
    0.56825E-08        -0.23130E-08         0.00000E+00
   -0.23130E-08        -0.10921E+08         0.00000E+00
    0.00000E+00         0.00000E+00        -0.23329E+07
 
   -0.53769E-08        -0.46259E-08         0.00000E+00
   -0.46259E-08        -0.10921E+08         0.00000E+00
    0.00000E+00         0.00000E+00        -0.23329E+07
 
   -0.90949E-09        -0.23130E-08         0.00000E+00
   -0.23130E-08        -0.10921E+08         0.00000E+00
    0.00000E+00         0.00000E+00        -0.23329E+07
 
   -0.73196E-08         0.11565E-08         0.00000E+00
    0.11565E-08        -0.10921E+08         0.00000E+00
    0.00000E+00         0.00000E+00        -0.23329E+07
 
    0.41667E+08         0.42790E-07         0.00000E+00
    0.42790E-07         0.15575E+09         0.00000E+00
    0.00000E+00         0.00000E+00         0.39335E+08
 
    0.17200E-07         0.92519E-08         0.00000E+00
    0.92519E-08        -0.10919E+08         0.00000E+00
    0.00000E+00         0.00000E+00        -0.23314E+07
 
   -0.97207E-08         0.46259E-08         0.00000E+00
    0.46259E-08        -0.10919E+08         0.00000E+00
    0.00000E+00         0.00000E+00        -0.23314E+07
 
    0.24360E-07         0.92519E-08         0.00000E+00
    0.92519E-08        -0.10919E+08         0.00000E+00
    0.00000E+00         0.00000E+00        -0.23314E+07
 
   -0.97934E-08         0.15034E-07         0.00000E+00
    0.15034E-07        -0.10919E+08         0.00000E+00
    0.00000E+00         0.00000E+00        -0.23314E+07
 
   -0.22810E-07        -0.12721E-07         0.00000E+00
   -0.12721E-07        -0.10919E+08         0.00000E+00
    0.00000E+00         0.00000E+00        -0.23314E+07
 
   -0.13082E-07         0.13878E-07         0.00000E+00
    0.13878E-07        -0.10919E+08         0.00000E+00
    0.00000E+00         0.00000E+00        -0.23314E+07
 
   -0.33222E-07         0.00000E+00         0.00000E+00
    0.00000E+00        -0.10919E+08         0.00000E+00
    0.00000E+00         0.00000E+00        -0.23314E+07
 
   -0.34212E-07        -0.46259E-08         0.00000E+00
   -0.46259E-08        -0.10919E+08         0.00000E+00
    0.00000E+00         0.00000E+00        -0.23314E+07
 
   -0.17673E-07         0.80954E-08         0.00000E+00
    0.80954E-08        -0.10919E+08         0.00000E+00
    0.00000E+00         0.00000E+00        -0.23314E+07
 
   -0.13490E-07         0.11565E-07         0.00000E+00
    0.11565E-07        -0.10919E+08         0.00000E+00
    0.00000E+00         0.00000E+00        -0.23314E+07
 
   -0.15621E-07         0.69389E-08         0.00000E+00
    0.69389E-08        -0.10919E+08         0.00000E+00
    0.00000E+00         0.00000E+00        -0.23314E+07
 
   -0.11176E-07         0.80954E-08         0.00000E+00
    0.80954E-08        -0.10919E+08         0.00000E+00
    0.00000E+00         0.00000E+00        -0.23314E+07
 
    0.15061E-08         0.80954E-08         0.00000E+00
    0.80954E-08        -0.10919E+08         0.00000E+00
    0.00000E+00         0.00000E+00        -0.23314E+07
 
   -0.80036E-10         0.11565E-08         0.00000E+00
    0.11565E-08        -0.10919E+08         0.00000E+00
    0.00000E+00         0.00000E+00        -0.23314E+07
 
    0.41667E+08        -0.49729E-07         0.00000E+00
   -0.49729E-07         0.15575E+09         0.00000E+00
    0.00000E+00         0.00000E+00         0.39337E+08
 
    0.32960E-07        -0.19660E-07         0.00000E+00
   -0.19660E-07        -0.10917E+08         0.00000E+00
    0.00000E+00         0.00000E+00        -0.23295E+07
 
    0.12937E-07        -0.26599E-07         0.00000E+00
   -0.26599E-07        -0.10917E+08         0.00000E+00
    0.00000E+00         0.00000E+00        -0.23295E+07
 
   -0.12180E-07         0.00000E+00         0.00000E+00
    0.00000E+00        -0.10917E+08         0.00000E+00
    0.00000E+00         0.00000E+00        -0.23295E+07
 
    0.21166E-07         0.69389E-08         0.00000E+00
    0.69389E-08        -0.10917E+08         0.00000E+00
    0.00000E+00         0.00000E+00        -0.23295E+07
 
    0.37726E-07         0.80954E-08         0.00000E+00
    0.80954E-08        -0.10917E+08         0.00000E+00
    0.00000E+00         0.00000E+00        -0.23295E+07
 
   -0.97498E-09        -0.57824E-09         0.00000E+00
   -0.57824E-09        -0.10917E+08         0.00000E+00
    0.00000E+00         0.00000E+00        -0.23295E+07
 
    0.30188E-07         0.00000E+00         0.00000E+00
    0.00000E+00        -0.10917E+08         0.00000E+00
    0.00000E+00         0.00000E+00        -0.23295E+07
 
    0.10019E-07        -0.11565E-08         0.00000E+00
   -0.11565E-08        -0.10917E+08         0.00000E+00
    0.00000E+00         0.00000E+00        -0.23295E+07
 
    0.10506E-07        -0.75171E-08         0.00000E+00
   -0.75171E-08        -0.10917E+08         0.00000E+00
    0.00000E+00         0.00000E+00        -0.23295E+07
 
   -0.63010E-08        -0.11565E-08         0.00000E+00
   -0.11565E-08        -0.10917E+08         0.00000E+00
    0.00000E+00         0.00000E+00        -0.23295E+07
 
    0.10259E-08        -0.10408E-07         0.00000E+00
   -0.10408E-07        -0.10917E+08         0.00000E+00
    0.00000E+00         0.00000E+00        -0.23295E+07
 
   -0.28813E-08        -0.11565E-08         0.00000E+00
   -0.11565E-08        -0.10917E+08         0.00000E+00
    0.00000E+00         0.00000E+00        -0.23295E+07
 
   -0.25568E-07         0.00000E+00         0.00000E+00
    0.00000E+00        -0.10917E+08         0.00000E+00
    0.00000E+00         0.00000E+00        -0.23295E+07
 
    0.37035E-08         0.11565E-08         0.00000E+00
    0.11565E-08        -0.10917E+08         0.00000E+00
    0.00000E+00         0.00000E+00        -0.23295E+07
 
    0.41667E+08        -0.57824E-07         0.00000E+00
   -0.57824E-07         0.15575E+09         0.00000E+00
    0.00000E+00         0.00000E+00         0.39340E+08
 
    0.92041E-08         0.15034E-07         0.00000E+00
    0.15034E-07        -0.10915E+08         0.00000E+00
    0.00000E+00         0.00000E+00        -0.23269E+07
 
    0.23108E-07        -0.16191E-07         0.00000E+00
   -0.16191E-07        -0.10915E+08         0.00000E+00
    0.00000E+00         0.00000E+00        -0.23269E+07
 
    0.13388E-07        -0.12721E-07         0.00000E+00
   -0.12721E-07        -0.10915E+08         0.00000E+00
    0.00000E+00         0.00000E+00        -0.23269E+07
 
   -0.41473E-09         0.69389E-08         0.00000E+00
    0.69389E-08        -0.10915E+08         0.00000E+00
    0.00000E+00         0.00000E+00        -0.23269E+07
 
   -0.51659E-08        -0.52042E-08         0.00000E+00
   -0.52042E-08        -0.10915E+08         0.00000E+00
    0.00000E+00         0.00000E+00        -0.23269E+07
 
    0.48167E-08         0.00000E+00         0.00000E+00
    0.00000E+00        -0.10915E+08         0.00000E+00
    0.00000E+00         0.00000E+00        -0.23269E+07
 
   -0.39290E-08        -0.92519E-08         0.00000E+00
   -0.92519E-08        -0.10915E+08         0.00000E+00
    0.00000E+00         0.00000E+00        -0.23269E+07
 
   -0.66357E-08         0.40477E-08         0.00000E+00
    0.40477E-08        -0.10915E+08         0.00000E+00
    0.00000E+00         0.00000E+00        -0.23269E+07
 
   -0.90367E-08         0.40477E-08         0.00000E+00
    0.40477E-08        -0.10915E+08         0.00000E+00
    0.00000E+00         0.00000E+00        -0.23269E+07
 
   -0.72614E-08        -0.23130E-08         0.00000E+00
   -0.23130E-08        -0.10915E+08         0.00000E+00
    0.00000E+00         0.00000E+00        -0.23269E+07
 
   -0.14756E-07         0.92519E-08         0.00000E+00
    0.92519E-08        -0.10915E+08         0.00000E+00
    0.00000E+00         0.00000E+00        -0.23269E+07
 
   -0.29395E-08        -0.11565E-08         0.00000E+00
   -0.11565E-08        -0.10915E+08         0.00000E+00
    0.00000E+00         0.00000E+00        -0.23269E+07
 
   -0.25342E-07        -0.57824E-08         0.00000E+00
   -0.57824E-08        -0.10915E+08         0.00000E+00
    0.00000E+00         0.00000E+00        -0.23269E+07
 
   -0.21653E-07        -0.46259E-08         0.00000E+00
   -0.46259E-08        -0.10915E+08         0.00000E+00
    0.00000E+00         0.00000E+00        -0.23269E+07
 
    0.41667E+08         0.10408E-06         0.00000E+00
    0.10408E-06         0.15576E+09         0.00000E+00
    0.00000E+00         0.00000E+00         0.39343E+08
 
   -0.59663E-08         0.46259E-08         0.00000E+00
    0.46259E-08        -0.10911E+08         0.00000E+00
    0.00000E+00         0.00000E+00        -0.23234E+07
 
   -0.13315E-07         0.18504E-07         0.00000E+00
    0.18504E-07        -0.10911E+08         0.00000E+00
    0.00000E+00         0.00000E+00        -0.23234E+07
 
    0.16196E-07        -0.12721E-07         0.00000E+00
   -0.12721E-07        -0.10911E+08         0.00000E+00
    0.00000E+00         0.00000E+00        -0.23234E+07
 
    0.20023E-07        -0.11565E-08         0.00000E+00
   -0.11565E-08        -0.10911E+08         0.00000E+00
    0.00000E+00         0.00000E+00        -0.23234E+07
 
    0.14843E-08        -0.23130E-08         0.00000E+00
   -0.23130E-08        -0.10911E+08         0.00000E+00
    0.00000E+00         0.00000E+00        -0.23234E+07
 
   -0.82218E-09        -0.11565E-08         0.00000E+00
   -0.11565E-08        -0.10911E+08         0.00000E+00
    0.00000E+00         0.00000E+00        -0.23234E+07
 
   -0.51150E-08         0.46259E-08         0.00000E+00
    0.46259E-08        -0.10911E+08         0.00000E+00
    0.00000E+00         0.00000E+00        -0.23234E+07
 
   -0.25015E-07         0.13878E-07         0.00000E+00
    0.13878E-07        -0.10911E+08         0.00000E+00
    0.00000E+00         0.00000E+00        -0.23234E+07
 
   -0.80036E-10         0.23130E-08         0.00000E+00
    0.23130E-08        -0.10911E+08         0.00000E+00
    0.00000E+00         0.00000E+00        -0.23234E+07
 
   -0.11270E-07        -0.57824E-08         0.00000E+00
   -0.57824E-08        -0.10911E+08         0.00000E+00
    0.00000E+00         0.00000E+00        -0.23234E+07
 
   -0.13446E-07        -0.80954E-08         0.00000E+00
   -0.80954E-08        -0.10911E+08         0.00000E+00
    0.00000E+00         0.00000E+00        -0.23234E+07
 
   -0.10747E-07         0.23130E-08         0.00000E+00
    0.23130E-08        -0.10911E+08         0.00000E+00
    0.00000E+00         0.00000E+00        -0.23234E+07
 
   -0.27605E-07         0.57824E-08         0.00000E+00
    0.57824E-08        -0.10911E+08         0.00000E+00
    0.00000E+00         0.00000E+00        -0.23234E+07
 
   -0.31891E-07         0.69389E-08         0.00000E+00
    0.69389E-08        -0.10911E+08         0.00000E+00
    0.00000E+00         0.00000E+00        -0.23234E+07
 
    0.41667E+08        -0.23130E-08         0.00000E+00
   -0.23130E-08         0.15576E+09         0.00000E+00
    0.00000E+00         0.00000E+00         0.39348E+08
 
    0.12857E-07         0.25443E-07         0.00000E+00
    0.25443E-07        -0.10907E+08         0.00000E+00
    0.00000E+00         0.00000E+00        -0.23189E+07
 
    0.12122E-07        -0.32382E-07         0.00000E+00
   -0.32382E-07        -0.10907E+08         0.00000E+00
    0.00000E+00         0.00000E+00        -0.23189E+07
 
    0.13475E-07         0.17347E-07         0.00000E+00
    0.17347E-07        -0.10907E+08         0.00000E+00
    0.00000E+00         0.00000E+00        -0.23189E+07
 
    0.40091E-08        -0.10408E-07         0.00000E+00
   -0.10408E-07        -0.10907E+08         0.00000E+00
    0.00000E+00         0.00000E+00        -0.23189E+07
 
    0.19128E-07         0.12143E-07         0.00000E+00
    0.12143E-07        -0.10907E+08         0.00000E+00
    0.00000E+00         0.00000E+00        -0.23189E+07
 
   -0.24374E-07         0.63607E-08         0.00000E+00
    0.63607E-08        -0.10907E+08         0.00000E+00
    0.00000E+00         0.00000E+00        -0.23189E+07
 
   -0.12587E-07         0.63607E-08         0.00000E+00
    0.63607E-08        -0.10907E+08         0.00000E+00
    0.00000E+00         0.00000E+00        -0.23189E+07
 
   -0.16582E-07        -0.46259E-08         0.00000E+00
   -0.46259E-08        -0.10907E+08         0.00000E+00
    0.00000E+00         0.00000E+00        -0.23189E+07
 
   -0.55006E-08        -0.16191E-07         0.00000E+00
   -0.16191E-07        -0.10907E+08         0.00000E+00
    0.00000E+00         0.00000E+00        -0.23189E+07
 
   -0.99972E-08        -0.11565E-08         0.00000E+00
   -0.11565E-08        -0.10907E+08         0.00000E+00
    0.00000E+00         0.00000E+00        -0.23189E+07
 
    0.13606E-08        -0.69389E-08         0.00000E+00
   -0.69389E-08        -0.10907E+08         0.00000E+00
    0.00000E+00         0.00000E+00        -0.23189E+07
 
   -0.10834E-07         0.23130E-08         0.00000E+00
    0.23130E-08        -0.10907E+08         0.00000E+00
    0.00000E+00         0.00000E+00        -0.23189E+07
 
    0.30850E-08         0.11565E-08         0.00000E+00
    0.11565E-08        -0.10907E+08         0.00000E+00
    0.00000E+00         0.00000E+00        -0.23189E+07
 
    0.21944E-07        -0.69389E-08         0.00000E+00
   -0.69389E-08        -0.10907E+08         0.00000E+00
    0.00000E+00         0.00000E+00        -0.23189E+07
 
    0.41667E+08        -0.47416E-07         0.00000E+00
   -0.47416E-07         0.15577E+09         0.00000E+00
    0.00000E+00         0.00000E+00         0.39354E+08
 
    0.33346E-07         0.23130E-07         0.00000E+00
    0.23130E-07        -0.10901E+08         0.00000E+00
    0.00000E+00         0.00000E+00        -0.23130E+07
 
    0.26761E-07        -0.19660E-07         0.00000E+00
   -0.19660E-07        -0.10901E+08         0.00000E+00
    0.00000E+00         0.00000E+00        -0.23130E+07
 
    0.29708E-07         0.15034E-07         0.00000E+00
    0.15034E-07        -0.10901E+08         0.00000E+00
    0.00000E+00         0.00000E+00        -0.23130E+07
 
    0.21864E-07        -0.80954E-08         0.00000E+00
   -0.80954E-08        -0.10901E+08         0.00000E+00
    0.00000E+00         0.00000E+00        -0.23130E+07
 
   -0.18874E-07         0.15613E-07         0.00000E+00
    0.15613E-07        -0.10901E+08         0.00000E+00
    0.00000E+00         0.00000E+00        -0.23130E+07
 
   -0.90804E-08         0.80954E-08         0.00000E+00
    0.80954E-08        -0.10901E+08         0.00000E+00
    0.00000E+00         0.00000E+00        -0.23130E+07
 
    0.19565E-07        -0.24864E-07         0.00000E+00
   -0.24864E-07        -0.10901E+08         0.00000E+00
    0.00000E+00         0.00000E+00        -0.23130E+07
 
    0.32269E-07        -0.17347E-08         0.00000E+00
   -0.17347E-08        -0.10901E+08         0.00000E+00
    0.00000E+00         0.00000E+00        -0.23130E+07
 
   -0.58208E-09        -0.21973E-07         0.00000E+00
   -0.21973E-07        -0.10901E+08         0.00000E+00
    0.00000E+00         0.00000E+00        -0.23130E+07
 
   -0.45940E-07         0.10408E-07         0.00000E+00
    0.10408E-07        -0.10901E+08         0.00000E+00
    0.00000E+00         0.00000E+00        -0.23130E+07
 
   -0.79599E-08        -0.69389E-08         0.00000E+00
   -0.69389E-08        -0.10901E+08         0.00000E+00
    0.00000E+00         0.00000E+00        -0.23130E+07
 
    0.55516E-08         0.57824E-08         0.00000E+00
    0.57824E-08        -0.10901E+08         0.00000E+00
    0.00000E+00         0.00000E+00        -0.23130E+07
 
   -0.17993E-07         0.46259E-08         0.00000E+00
    0.46259E-08        -0.10901E+08         0.00000E+00
    0.00000E+00         0.00000E+00        -0.23130E+07
 
   -0.16043E-07         0.69389E-08         0.00000E+00
    0.69389E-08        -0.10901E+08         0.00000E+00
    0.00000E+00         0.00000E+00        -0.23130E+07
 
    0.41667E+08        -0.46259E-08         0.00000E+00
   -0.46259E-08         0.15577E+09         0.00000E+00
    0.00000E+00         0.00000E+00         0.39361E+08
 
    0.22992E-08        -0.19660E-07         0.00000E+00
   -0.19660E-07        -0.10893E+08         0.00000E+00
    0.00000E+00         0.00000E+00        -0.23052E+07
 
    0.21973E-07        -0.92519E-08         0.00000E+00
   -0.92519E-08        -0.10893E+08         0.00000E+00
    0.00000E+00         0.00000E+00        -0.23052E+07
 
    0.21173E-07         0.23130E-08         0.00000E+00
    0.23130E-08        -0.10893E+08         0.00000E+00
    0.00000E+00         0.00000E+00        -0.23052E+07
 
    0.10419E-07        -0.80954E-08         0.00000E+00
   -0.80954E-08        -0.10893E+08         0.00000E+00
    0.00000E+00         0.00000E+00        -0.23052E+07
 
    0.92405E-09         0.16191E-07         0.00000E+00
    0.16191E-07        -0.10893E+08         0.00000E+00
    0.00000E+00         0.00000E+00        -0.23052E+07
 
    0.64028E-09        -0.40477E-08         0.00000E+00
   -0.40477E-08        -0.10893E+08         0.00000E+00
    0.00000E+00         0.00000E+00        -0.23052E+07
 
   -0.37253E-08        -0.19082E-07         0.00000E+00
   -0.19082E-07        -0.10893E+08         0.00000E+00
    0.00000E+00         0.00000E+00        -0.23052E+07
 
   -0.14930E-07         0.11565E-08         0.00000E+00
    0.11565E-08        -0.10893E+08         0.00000E+00
    0.00000E+00         0.00000E+00        -0.23052E+07
 
    0.18481E-08        -0.34694E-08         0.00000E+00
   -0.34694E-08        -0.10893E+08         0.00000E+00
    0.00000E+00         0.00000E+00        -0.23052E+07
 
   -0.15636E-07        -0.23130E-08         0.00000E+00
   -0.23130E-08        -0.10893E+08         0.00000E+00
    0.00000E+00         0.00000E+00        -0.23052E+07
 
   -0.20562E-07         0.10408E-07         0.00000E+00
    0.10408E-07        -0.10893E+08         0.00000E+00
    0.00000E+00         0.00000E+00        -0.23052E+07
 
   -0.27576E-08         0.11565E-08         0.00000E+00
    0.11565E-08        -0.10893E+08         0.00000E+00
    0.00000E+00         0.00000E+00        -0.23052E+07
 
   -0.42201E-08        -0.46259E-08         0.00000E+00
   -0.46259E-08        -0.10893E+08         0.00000E+00
    0.00000E+00         0.00000E+00        -0.23052E+07
 
   -0.25102E-08        -0.92519E-08         0.00000E+00
   -0.92519E-08        -0.10893E+08         0.00000E+00
    0.00000E+00         0.00000E+00        -0.23052E+07
 
    0.41667E+08         0.42790E-07         0.00000E+00
    0.42790E-07         0.15578E+09         0.00000E+00
    0.00000E+00         0.00000E+00         0.39372E+08
 
    0.41116E-07        -0.23130E-08         0.00000E+00
   -0.23130E-08        -0.10883E+08         0.00000E+00
    0.00000E+00         0.00000E+00        -0.22950E+07
 
    0.35870E-07         0.17347E-07         0.00000E+00
    0.17347E-07        -0.10883E+08         0.00000E+00
    0.00000E+00         0.00000E+00        -0.22950E+07
 
   -0.12245E-07        -0.34694E-08         0.00000E+00
   -0.34694E-08        -0.10883E+08         0.00000E+00
    0.00000E+00         0.00000E+00        -0.22950E+07
 
   -0.41473E-08         0.00000E+00         0.00000E+00
    0.00000E+00        -0.10883E+08         0.00000E+00
    0.00000E+00         0.00000E+00        -0.22950E+07
 
    0.14850E-07         0.13300E-07         0.00000E+00
    0.13300E-07        -0.10883E+08         0.00000E+00
    0.00000E+00         0.00000E+00        -0.22950E+07
 
    0.32785E-07        -0.12143E-07         0.00000E+00
   -0.12143E-07        -0.10883E+08         0.00000E+00
    0.00000E+00         0.00000E+00        -0.22950E+07
 
   -0.13817E-07        -0.21973E-07         0.00000E+00
   -0.21973E-07        -0.10883E+08         0.00000E+00
    0.00000E+00         0.00000E+00        -0.22950E+07
 
   -0.50422E-07        -0.23130E-08         0.00000E+00
   -0.23130E-08        -0.10883E+08         0.00000E+00
    0.00000E+00         0.00000E+00        -0.22950E+07
 
   -0.39981E-07         0.10408E-07         0.00000E+00
    0.10408E-07        -0.10883E+08         0.00000E+00
    0.00000E+00         0.00000E+00        -0.22950E+07
 
   -0.29926E-07         0.69389E-08         0.00000E+00
    0.69389E-08        -0.10883E+08         0.00000E+00
    0.00000E+00         0.00000E+00        -0.22950E+07
 
   -0.35579E-08        -0.16191E-07         0.00000E+00
   -0.16191E-07        -0.10883E+08         0.00000E+00
    0.00000E+00         0.00000E+00        -0.22950E+07
 
    0.12697E-07         0.16191E-07         0.00000E+00
    0.16191E-07        -0.10883E+08         0.00000E+00
    0.00000E+00         0.00000E+00        -0.22950E+07
 
    0.22366E-07        -0.19660E-07         0.00000E+00
   -0.19660E-07        -0.10883E+08         0.00000E+00
    0.00000E+00         0.00000E+00        -0.22950E+07
 
   -0.19878E-07        -0.92519E-08         0.00000E+00
   -0.92519E-08        -0.10883E+08         0.00000E+00
    0.00000E+00         0.00000E+00        -0.22950E+07
 
    0.41667E+08        -0.42790E-07         0.00000E+00
   -0.42790E-07         0.15580E+09         0.00000E+00
    0.00000E+00         0.00000E+00         0.39385E+08
 
    0.69485E-08         0.23130E-08         0.00000E+00
    0.23130E-08        -0.10869E+08         0.00000E+00
    0.00000E+00         0.00000E+00        -0.22816E+07
 
    0.16153E-07         0.11565E-07         0.00000E+00
    0.11565E-07        -0.10869E+08         0.00000E+00
    0.00000E+00         0.00000E+00        -0.22816E+07
 
    0.42201E-08         0.92519E-08         0.00000E+00
    0.92519E-08        -0.10869E+08         0.00000E+00
    0.00000E+00         0.00000E+00        -0.22816E+07
 
   -0.20467E-07         0.00000E+00         0.00000E+00
    0.00000E+00        -0.10869E+08         0.00000E+00
    0.00000E+00         0.00000E+00        -0.22816E+07
 
   -0.19507E-07        -0.23130E-08         0.00000E+00
   -0.23130E-08        -0.10869E+08         0.00000E+00
    0.00000E+00         0.00000E+00        -0.22816E+07
 
    0.66138E-08         0.69389E-08         0.00000E+00
    0.69389E-08        -0.10869E+08         0.00000E+00
    0.00000E+00         0.00000E+00        -0.22816E+07
 
    0.35026E-07         0.11565E-08         0.00000E+00
    0.11565E-08        -0.10869E+08         0.00000E+00
    0.00000E+00         0.00000E+00        -0.22816E+07
 
    0.28253E-07         0.46259E-08         0.00000E+00
    0.46259E-08        -0.10869E+08         0.00000E+00
    0.00000E+00         0.00000E+00        -0.22816E+07
 
   -0.24083E-07         0.12721E-07         0.00000E+00
    0.12721E-07        -0.10869E+08         0.00000E+00
    0.00000E+00         0.00000E+00        -0.22816E+07
 
   -0.27117E-07        -0.11565E-08         0.00000E+00
   -0.11565E-08        -0.10869E+08         0.00000E+00
    0.00000E+00         0.00000E+00        -0.22816E+07
 
   -0.40709E-07         0.23130E-08         0.00000E+00
    0.23130E-08        -0.10869E+08         0.00000E+00
    0.00000E+00         0.00000E+00        -0.22816E+07
 
   -0.49811E-07        -0.15034E-07         0.00000E+00
   -0.15034E-07        -0.10869E+08         0.00000E+00
    0.00000E+00         0.00000E+00        -0.22816E+07
 
   -0.12798E-07         0.92519E-08         0.00000E+00
    0.92519E-08        -0.10869E+08         0.00000E+00
    0.00000E+00         0.00000E+00        -0.22816E+07
 
   -0.31214E-07        -0.23130E-08         0.00000E+00
   -0.23130E-08        -0.10869E+08         0.00000E+00
    0.00000E+00         0.00000E+00        -0.22816E+07
 
    0.41667E+08        -0.41633E-07         0.00000E+00
   -0.41633E-07         0.15582E+09         0.00000E+00
    0.00000E+00         0.00000E+00         0.39403E+08
 
    0.80763E-09        -0.10408E-07         0.00000E+00
   -0.10408E-07        -0.10852E+08         0.00000E+00
    0.00000E+00         0.00000E+00        -0.22639E+07
 
   -0.32378E-07        -0.92519E-08         0.00000E+00
   -0.92519E-08        -0.10852E+08         0.00000E+00
    0.00000E+00         0.00000E+00        -0.22639E+07
 
    0.46566E-09         0.69389E-08         0.00000E+00
    0.69389E-08        -0.10852E+08         0.00000E+00
    0.00000E+00         0.00000E+00        -0.22639E+07
 
    0.37864E-07         0.11565E-08         0.00000E+00
    0.11565E-08        -0.10852E+08         0.00000E+00
    0.00000E+00         0.00000E+00        -0.22639E+07
 
   -0.24811E-08        -0.21395E-07         0.00000E+00
   -0.21395E-07        -0.10852E+08         0.00000E+00
    0.00000E+00         0.00000E+00        -0.22639E+07
 
   -0.23145E-07         0.00000E+00         0.00000E+00
    0.00000E+00        -0.10852E+08         0.00000E+00
    0.00000E+00         0.00000E+00        -0.22639E+07
 
   -0.35317E-07         0.46259E-08         0.00000E+00
    0.46259E-08        -0.10852E+08         0.00000E+00
    0.00000E+00         0.00000E+00        -0.22639E+07
 
   -0.74433E-08        -0.11565E-07         0.00000E+00
   -0.11565E-07        -0.10852E+08         0.00000E+00
    0.00000E+00         0.00000E+00        -0.22639E+07
 
   -0.40513E-07        -0.34694E-08         0.00000E+00
   -0.34694E-08        -0.10852E+08         0.00000E+00
    0.00000E+00         0.00000E+00        -0.22639E+07
 
   -0.42004E-07        -0.57824E-08         0.00000E+00
   -0.57824E-08        -0.10852E+08         0.00000E+00
    0.00000E+00         0.00000E+00        -0.22639E+07
 
   -0.36096E-07        -0.10408E-07         0.00000E+00
   -0.10408E-07        -0.10852E+08         0.00000E+00
    0.00000E+00         0.00000E+00        -0.22639E+07
 
    0.64974E-08        -0.46259E-08         0.00000E+00
   -0.46259E-08        -0.10852E+08         0.00000E+00
    0.00000E+00         0.00000E+00        -0.22639E+07
 
   -0.19136E-07         0.00000E+00         0.00000E+00
    0.00000E+00        -0.10852E+08         0.00000E+00
    0.00000E+00         0.00000E+00        -0.22639E+07
 
   -0.72177E-08        -0.20817E-07         0.00000E+00
   -0.20817E-07        -0.10852E+08         0.00000E+00
    0.00000E+00         0.00000E+00        -0.22639E+07
 
    0.41667E+08         0.18504E-07         0.00000E+00
    0.18504E-07         0.15584E+09         0.00000E+00
    0.00000E+00         0.00000E+00         0.39426E+08
 
    0.21890E-07        -0.57824E-08         0.00000E+00
   -0.57824E-08        -0.10828E+08         0.00000E+00
    0.00000E+00         0.00000E+00        -0.22406E+07
 
   -0.29537E-07        -0.23130E-08         0.00000E+00
   -0.23130E-08        -0.10828E+08         0.00000E+00
    0.00000E+00         0.00000E+00        -0.22406E+07
 
    0.19150E-07        -0.17347E-07         0.00000E+00
   -0.17347E-07        -0.10828E+08         0.00000E+00
    0.00000E+00         0.00000E+00        -0.22406E+07
 
    0.22614E-07        -0.23130E-08         0.00000E+00
   -0.23130E-08        -0.10828E+08         0.00000E+00
    0.00000E+00         0.00000E+00        -0.22406E+07
 
    0.27077E-07         0.80954E-08         0.00000E+00
    0.80954E-08        -0.10828E+08         0.00000E+00
    0.00000E+00         0.00000E+00        -0.22406E+07
 
   -0.47294E-09        -0.17347E-08         0.00000E+00
   -0.17347E-08        -0.10828E+08         0.00000E+00
    0.00000E+00         0.00000E+00        -0.22406E+07
 
   -0.61773E-08        -0.14456E-07         0.00000E+00
   -0.14456E-07        -0.10828E+08         0.00000E+00
    0.00000E+00         0.00000E+00        -0.22406E+07
 
    0.17317E-08        -0.57824E-08         0.00000E+00
   -0.57824E-08        -0.10828E+08         0.00000E+00
    0.00000E+00         0.00000E+00        -0.22406E+07
 
    0.14836E-07        -0.16191E-07         0.00000E+00
   -0.16191E-07        -0.10828E+08         0.00000E+00
    0.00000E+00         0.00000E+00        -0.22406E+07
 
    0.53780E-07        -0.23130E-07         0.00000E+00
   -0.23130E-07        -0.10828E+08         0.00000E+00
    0.00000E+00         0.00000E+00        -0.22406E+07
 
    0.44693E-07        -0.21973E-07         0.00000E+00
   -0.21973E-07        -0.10828E+08         0.00000E+00
    0.00000E+00         0.00000E+00        -0.22406E+07
 
    0.29879E-07        -0.23130E-08         0.00000E+00
   -0.23130E-08        -0.10828E+08         0.00000E+00
    0.00000E+00         0.00000E+00        -0.22406E+07
 
   -0.16771E-08         0.10408E-07         0.00000E+00
    0.10408E-07        -0.10828E+08         0.00000E+00
    0.00000E+00         0.00000E+00        -0.22406E+07
 
    0.80327E-08        -0.38164E-07         0.00000E+00
   -0.38164E-07        -0.10828E+08         0.00000E+00
    0.00000E+00         0.00000E+00        -0.22406E+07
 
    0.41667E+08         0.20817E-07         0.00000E+00
    0.20817E-07         0.15587E+09         0.00000E+00
    0.00000E+00         0.00000E+00         0.39457E+08
 
    0.28860E-07         0.57824E-08         0.00000E+00
    0.57824E-08        -0.10798E+08         0.00000E+00
    0.00000E+00         0.00000E+00        -0.22100E+07
 
    0.38159E-07        -0.13878E-07         0.00000E+00
   -0.13878E-07        -0.10798E+08         0.00000E+00
    0.00000E+00         0.00000E+00        -0.22100E+07
 
    0.37988E-07        -0.16191E-07         0.00000E+00
   -0.16191E-07        -0.10798E+08         0.00000E+00
    0.00000E+00         0.00000E+00        -0.22100E+07
 
    0.87566E-08        -0.19660E-07         0.00000E+00
   -0.19660E-07        -0.10798E+08         0.00000E+00
    0.00000E+00         0.00000E+00        -0.22100E+07
 
    0.17102E-07        -0.18504E-07         0.00000E+00
   -0.18504E-07        -0.10798E+08         0.00000E+00
    0.00000E+00         0.00000E+00        -0.22100E+07
 
   -0.52678E-08        -0.80954E-08         0.00000E+00
   -0.80954E-08        -0.10798E+08         0.00000E+00
    0.00000E+00         0.00000E+00        -0.22100E+07
 
   -0.18768E-07        -0.52042E-08         0.00000E+00
   -0.52042E-08        -0.10798E+08         0.00000E+00
    0.00000E+00         0.00000E+00        -0.22100E+07
 
   -0.60176E-07        -0.24286E-07         0.00000E+00
   -0.24286E-07        -0.10798E+08         0.00000E+00
    0.00000E+00         0.00000E+00        -0.22100E+07
 
   -0.12533E-07        -0.17347E-07         0.00000E+00
   -0.17347E-07        -0.10798E+08         0.00000E+00
    0.00000E+00         0.00000E+00        -0.22100E+07
 
   -0.26368E-07        -0.17347E-07         0.00000E+00
   -0.17347E-07        -0.10798E+08         0.00000E+00
    0.00000E+00         0.00000E+00        -0.22100E+07
 
   -0.25721E-07         0.46259E-08         0.00000E+00
    0.46259E-08        -0.10798E+08         0.00000E+00
    0.00000E+00         0.00000E+00        -0.22100E+07
 
   -0.70395E-08        -0.23130E-08         0.00000E+00
   -0.23130E-08        -0.10798E+08         0.00000E+00
    0.00000E+00         0.00000E+00        -0.22100E+07
 
    0.53187E-08        -0.15034E-07         0.00000E+00
   -0.15034E-07        -0.10798E+08         0.00000E+00
    0.00000E+00         0.00000E+00        -0.22100E+07
 
    0.14181E-07        -0.11565E-07         0.00000E+00
   -0.11565E-07        -0.10798E+08         0.00000E+00
    0.00000E+00         0.00000E+00        -0.22100E+07
 
    0.41667E+08         0.11565E-08         0.00000E+00
    0.11565E-08         0.15591E+09         0.00000E+00
    0.00000E+00         0.00000E+00         0.39497E+08
 
   -0.27582E-07        -0.20817E-07         0.00000E+00
   -0.20817E-07        -0.10757E+08         0.00000E+00
    0.00000E+00         0.00000E+00        -0.21698E+07
 
   -0.95062E-07        -0.57824E-08         0.00000E+00
   -0.57824E-08        -0.10757E+08         0.00000E+00
    0.00000E+00         0.00000E+00        -0.21698E+07
 
    0.41200E-09         0.15034E-07         0.00000E+00
    0.15034E-07        -0.10757E+08         0.00000E+00
    0.00000E+00         0.00000E+00        -0.21698E+07
 
    0.82254E-07        -0.16191E-07         0.00000E+00
   -0.16191E-07        -0.10757E+08         0.00000E+00
    0.00000E+00         0.00000E+00        -0.21698E+07
 
    0.29854E-07        -0.31803E-07         0.00000E+00
   -0.31803E-07        -0.10757E+08         0.00000E+00
    0.00000E+00         0.00000E+00        -0.21698E+07
 
   -0.43317E-07        -0.35273E-07         0.00000E+00
   -0.35273E-07        -0.10757E+08         0.00000E+00
    0.00000E+00         0.00000E+00        -0.21698E+07
 
    0.73487E-09        -0.26599E-07         0.00000E+00
   -0.26599E-07        -0.10757E+08         0.00000E+00
    0.00000E+00         0.00000E+00        -0.21698E+07
 
   -0.19580E-07         0.23130E-07         0.00000E+00
    0.23130E-07        -0.10757E+08         0.00000E+00
    0.00000E+00         0.00000E+00        -0.21698E+07
 
   -0.28049E-07         0.11565E-08         0.00000E+00
    0.11565E-08        -0.10757E+08         0.00000E+00
    0.00000E+00         0.00000E+00        -0.21698E+07
 
   -0.21557E-07         0.12721E-07         0.00000E+00
    0.12721E-07        -0.10757E+08         0.00000E+00
    0.00000E+00         0.00000E+00        -0.21698E+07
 
   -0.44514E-07         0.69389E-08         0.00000E+00
    0.69389E-08        -0.10757E+08         0.00000E+00
    0.00000E+00         0.00000E+00        -0.21698E+07
 
   -0.30406E-07         0.18504E-07         0.00000E+00
    0.18504E-07        -0.10757E+08         0.00000E+00
    0.00000E+00         0.00000E+00        -0.21698E+07
 
    0.24772E-07         0.11565E-07         0.00000E+00
    0.11565E-07        -0.10757E+08         0.00000E+00
    0.00000E+00         0.00000E+00        -0.21698E+07
 
    0.54872E-07        -0.23130E-08         0.00000E+00
   -0.23130E-08        -0.10757E+08         0.00000E+00
    0.00000E+00         0.00000E+00        -0.21698E+07
 
SCALARS stressS double 
LOOKUP_TABLE default
   78912288.7077554     
  -4421044.62557804     
  -4421044.62557804     
  -4421044.62557804     
  -4421044.62557804     
  -4421044.62557804     
  -4421044.62557803     
  -4421044.62557803     
  -4421044.62557803     
  -4421044.62557803     
  -4421044.62557803     
  -4421044.62557803     
  -4421044.62557803     
  -4421044.62557803     
  -4421044.62557803     
   78912288.7077558     
  -4421044.62557766     
  -4421044.62557765     
  -4421044.62557765     
  -4421044.62557765     
  -4421044.62557765     
  -4421044.62557765     
  -4421044.62557765     
  -4421044.62557765     
  -4421044.62557765     
  -4421044.62557765     
  -4421044.62557764     
  -4421044.62557765     
  -4421044.62557765     
  -4421044.62557764     
   78912288.7077566     
  -4421044.62557686     
  -4421044.62557685     
  -4421044.62557685     
  -4421044.62557685     
  -4421044.62557685     
  -4421044.62557684     
  -4421044.62557685     
  -4421044.62557685     
  -4421044.62557684     
  -4421044.62557684     
  -4421044.62557684     
  -4421044.62557684     
  -4421044.62557684     
  -4421044.62557684     
   78912288.7077578     
  -4421044.62557557     
  -4421044.62557557     
  -4421044.62557558     
  -4421044.62557557     
  -4421044.62557557     
  -4421044.62557557     
  -4421044.62557557     
  -4421044.62557557     
  -4421044.62557557     
  -4421044.62557556     
  -4421044.62557556     
  -4421044.62557557     
  -4421044.62557556     
  -4421044.62557557     
   78912288.7077595     
  -4421044.62557372     
  -4421044.62557373     
  -4421044.62557372     
  -4421044.62557372     
  -4421044.62557372     
  -4421044.62557372     
  -4421044.62557372     
  -4421044.62557372     
  -4421044.62557372     
  -4421044.62557372     
  -4421044.62557372     
  -4421044.62557372     
  -4421044.62557372     
  -4421044.62557372     
   78912288.7077622     
  -4421044.62557118     
  -4421044.62557116     
  -4421044.62557116     
  -4421044.62557116     
  -4421044.62557115     
  -4421044.62557115     
  -4421044.62557116     
  -4421044.62557115     
  -4421044.62557115     
  -4421044.62557115     
  -4421044.62557115     
  -4421044.62557115     
  -4421044.62557116     
  -4421044.62557115     
   78912288.7077656     
  -4421044.62556770     
  -4421044.62556768     
  -4421044.62556769     
  -4421044.62556769     
  -4421044.62556769     
  -4421044.62556769     
  -4421044.62556768     
  -4421044.62556769     
  -4421044.62556769     
  -4421044.62556769     
  -4421044.62556769     
  -4421044.62556769     
  -4421044.62556769     
  -4421044.62556769     
   78912288.7077703     
  -4421044.62556306     
  -4421044.62556306     
  -4421044.62556305     
  -4421044.62556306     
  -4421044.62556306     
  -4421044.62556306     
  -4421044.62556306     
  -4421044.62556305     
  -4421044.62556306     
  -4421044.62556305     
  -4421044.62556305     
  -4421044.62556305     
  -4421044.62556305     
  -4421044.62556306     
   78912288.7077765     
  -4421044.62555691     
  -4421044.62555691     
  -4421044.62555690     
  -4421044.62555690     
  -4421044.62555691     
  -4421044.62555690     
  -4421044.62555690     
  -4421044.62555690     
  -4421044.62555690     
  -4421044.62555690     
  -4421044.62555690     
  -4421044.62555690     
  -4421044.62555690     
  -4421044.62555690     
   78912288.7077845     
  -4421044.62554876     
  -4421044.62554877     
  -4421044.62554877     
  -4421044.62554878     
  -4421044.62554877     
  -4421044.62554877     
  -4421044.62554877     
  -4421044.62554877     
  -4421044.62554877     
  -4421044.62554877     
  -4421044.62554877     
  -4421044.62554877     
  -4421044.62554877     
  -4421044.62554877     
   78912288.7077951     
  -4421044.62553805     
  -4421044.62553805     
  -4421044.62553804     
  -4421044.62553805     
  -4421044.62553804     
  -4421044.62553804     
  -4421044.62553805     
  -4421044.62553804     
  -4421044.62553805     
  -4421044.62553804     
  -4421044.62553805     
  -4421044.62553805     
  -4421044.62553804     
  -4421044.62553804     
   78912288.7078095     
  -4421044.62552392     
  -4421044.62552391     
  -4421044.62552391     
  -4421044.62552391     
  -4421044.62552391     
  -4421044.62552391     
  -4421044.62552392     
  -4421044.62552391     
  -4421044.62552391     
  -4421044.62552391     
  -4421044.62552391     
  -4421044.62552391     
  -4421044.62552391     
  -4421044.62552391     
   78912288.7078282     
  -4421044.62550531     
  -4421044.62550531     
  -4421044.62550531     
  -4421044.62550531     
  -4421044.62550531     
  -4421044.62550530     
  -4421044.62550531     
  -4421044.62550531     
  -4421044.62550531     
  -4421044.62550531     
  -4421044.62550531     
  -4421044.62550531     
  -4421044.62550531     
  -4421044.62550531     
   78912288.7078526     
  -4421044.62548082     
  -4421044.62548083     
  -4421044.62548082     
  -4421044.62548082     
  -4421044.62548083     
  -4421044.62548083     
  -4421044.62548084     
  -4421044.62548083     
  -4421044.62548083     
  -4421044.62548083     
  -4421044.62548083     
  -4421044.62548083     
  -4421044.62548083     
  -4421044.62548083     
   78912288.7078848     
  -4421044.62544862     
  -4421044.62544862     
  -4421044.62544862     
  -4421044.62544862     
  -4421044.62544863     
  -4421044.62544863     
  -4421044.62544862     
  -4421044.62544863     
  -4421044.62544863     
  -4421044.62544863     
  -4421044.62544863     
  -4421044.62544863     
  -4421044.62544863     
  -4421044.62544863     
   78912288.7079272     
  -4421044.62540626     
  -4421044.62540626     
  -4421044.62540626     
  -4421044.62540626     
  -4421044.62540627     
  -4421044.62540627     
  -4421044.62540627     
  -4421044.62540627     
  -4421044.62540627     
  -4421044.62540627     
  -4421044.62540627     
  -4421044.62540627     
  -4421044.62540627     
  -4421044.62540627     
   78912288.7079829     
  -4421044.62535056     
  -4421044.62535056     
  -4421044.62535056     
  -4421044.62535056     
  -4421044.62535055     
  -4421044.62535056     
  -4421044.62535056     
  -4421044.62535056     
  -4421044.62535056     
  -4421044.62535056     
  -4421044.62535056     
  -4421044.62535056     
  -4421044.62535056     
  -4421044.62535056     
   78912288.7080560     
  -4421044.62527730     
  -4421044.62527730     
  -4421044.62527729     
  -4421044.62527730     
  -4421044.62527730     
  -4421044.62527730     
  -4421044.62527730     
  -4421044.62527730     
  -4421044.62527729     
  -4421044.62527730     
  -4421044.62527730     
  -4421044.62527730     
  -4421044.62527730     
  -4421044.62527730     
   78912288.7081524     
  -4421044.62518096     
  -4421044.62518095     
  -4421044.62518094     
  -4421044.62518095     
  -4421044.62518094     
  -4421044.62518095     
  -4421044.62518095     
  -4421044.62518095     
  -4421044.62518095     
  -4421044.62518095     
  -4421044.62518095     
  -4421044.62518095     
  -4421044.62518095     
  -4421044.62518095     
   78912288.7082791     
  -4421044.62505424     
  -4421044.62505424     
  -4421044.62505424     
  -4421044.62505424     
  -4421044.62505424     
  -4421044.62505424     
  -4421044.62505425     
  -4421044.62505425     
  -4421044.62505425     
  -4421044.62505424     
  -4421044.62505425     
  -4421044.62505424     
  -4421044.62505425     
  -4421044.62505425     
   78912288.7084457     
  -4421044.62488762     
  -4421044.62488762     
  -4421044.62488763     
  -4421044.62488762     
  -4421044.62488761     
  -4421044.62488761     
  -4421044.62488762     
  -4421044.62488762     
  -4421044.62488762     
  -4421044.62488762     
  -4421044.62488762     
  -4421044.62488762     
  -4421044.62488762     
  -4421044.62488762     
   78912288.7086649     
  -4421044.62466850     
  -4421044.62466849     
  -4421044.62466849     
  -4421044.62466850     
  -4421044.62466849     
  -4421044.62466850     
  -4421044.62466850     
  -4421044.62466849     
  -4421044.62466850     
  -4421044.62466849     
  -4421044.62466850     
  -4421044.62466850     
  -4421044.62466849     
  -4421044.62466849     
   78912288.7089531     
  -4421044.62438034     
  -4421044.62438035     
  -4421044.62438033     
  -4421044.62438035     
  -4421044.62438034     
  -4421044.62438034     
  -4421044.62438035     
  -4421044.62438034     
  -4421044.62438034     
  -4421044.62438034     
  -4421044.62438034     
  -4421044.62438034     
  -4421044.62438034     
  -4421044.62438034     
   78912288.7093319     
  -4421044.62400142     
  -4421044.62400141     
  -4421044.62400140     
  -4421044.62400142     
  -4421044.62400141     
  -4421044.62400141     
  -4421044.62400140     
  -4421044.62400141     
  -4421044.62400140     
  -4421044.62400141     
  -4421044.62400141     
  -4421044.62400141     
  -4421044.62400140     
  -4421044.62400141     
   78912288.7098301     
  -4421044.62350309     
  -4421044.62350309     
  -4421044.62350310     
  -4421044.62350309     
  -4421044.62350310     
  -4421044.62350309     
  -4421044.62350309     
  -4421044.62350309     
  -4421044.62350310     
  -4421044.62350310     
  -4421044.62350309     
  -4421044.62350309     
  -4421044.62350310     
  -4421044.62350309     
   78912288.7104855     
  -4421044.62284780     
  -4421044.62284779     
  -4421044.62284780     
  -4421044.62284780     
  -4421044.62284780     
  -4421044.62284780     
  -4421044.62284779     
  -4421044.62284780     
  -4421044.62284779     
  -4421044.62284780     
  -4421044.62284779     
  -4421044.62284779     
  -4421044.62284779     
  -4421044.62284779     
   78912288.7113474     
  -4421044.62198606     
  -4421044.62198605     
  -4421044.62198605     
  -4421044.62198605     
  -4421044.62198605     
  -4421044.62198605     
  -4421044.62198604     
  -4421044.62198605     
  -4421044.62198604     
  -4421044.62198605     
  -4421044.62198605     
  -4421044.62198604     
  -4421044.62198605     
  -4421044.62198605     
   78912288.7124805     
  -4421044.62085281     
  -4421044.62085282     
  -4421044.62085282     
  -4421044.62085282     
  -4421044.62085282     
  -4421044.62085283     
  -4421044.62085282     
  -4421044.62085283     
  -4421044.62085282     
  -4421044.62085281     
  -4421044.62085281     
  -4421044.62085282     
  -4421044.62085282     
  -4421044.62085282     
   78912288.7139707     
  -4421044.61936259     
  -4421044.61936259     
  -4421044.61936259     
  -4421044.61936258     
  -4421044.61936259     
  -4421044.61936259     
  -4421044.61936258     
  -4421044.61936258     
  -4421044.61936259     
  -4421044.61936258     
  -4421044.61936257     
  -4421044.61936258     
  -4421044.61936259     
  -4421044.61936259     
   78912288.7159304     
  -4421044.61740288     
  -4421044.61740286     
  -4421044.61740287     
  -4421044.61740288     
  -4421044.61740288     
  -4421044.61740287     
  -4421044.61740287     
  -4421044.61740287     
  -4421044.61740286     
  -4421044.61740286     
  -4421044.61740286     
  -4421044.61740286     
  -4421044.61740286     
  -4421044.61740286     
   78912288.7185075     
  -4421044.61482579     
  -4421044.61482577     
  -4421044.61482578     
  -4421044.61482578     
  -4421044.61482578     
  -4421044.61482577     
  -4421044.61482577     
  -4421044.61482577     
  -4421044.61482577     
  -4421044.61482578     
  -4421044.61482578     
  -4421044.61482577     
  -4421044.61482578     
  -4421044.61482577     
   78912288.7218965     
  -4421044.61143680     
  -4421044.61143680     
  -4421044.61143680     
  -4421044.61143680     
  -4421044.61143680     
  -4421044.61143680     
  -4421044.61143680     
  -4421044.61143680     
  -4421044.61143680     
  -4421044.61143679     
  -4421044.61143680     
  -4421044.61143679     
  -4421044.61143679     
  -4421044.61143679     
   78912288.7263531     
  -4421044.60698018     
  -4421044.60698017     
  -4421044.60698020     
  -4421044.60698019     
  -4421044.60698018     
  -4421044.60698017     
  -4421044.60698018     
  -4421044.60698018     
  -4421044.60698018     
  -4421044.60698018     
  -4421044.60698018     
  -4421044.60698018     
  -4421044.60698018     
  -4421044.60698018     
   78912288.7322138     
  -4421044.60111955     
  -4421044.60111955     
  -4421044.60111954     
  -4421044.60111954     
  -4421044.60111955     
  -4421044.60111955     
  -4421044.60111955     
  -4421044.60111955     
  -4421044.60111956     
  -4421044.60111955     
  -4421044.60111955     
  -4421044.60111955     
  -4421044.60111955     
  -4421044.60111956     
   78912288.7399207     
  -4421044.59341263     
  -4421044.59341263     
  -4421044.59341262     
  -4421044.59341262     
  -4421044.59341263     
  -4421044.59341262     
  -4421044.59341261     
  -4421044.59341261     
  -4421044.59341261     
  -4421044.59341262     
  -4421044.59341263     
  -4421044.59341262     
  -4421044.59341262     
  -4421044.59341261     
   78912288.7500557     
  -4421044.58327771     
  -4421044.58327771     
  -4421044.58327771     
  -4421044.58327770     
  -4421044.58327771     
  -4421044.58327771     
  -4421044.58327772     
  -4421044.58327772     
  -4421044.58327771     
  -4421044.58327772     
  -4421044.58327770     
  -4421044.58327772     
  -4421044.58327771     
  -4421044.58327771     
   78912288.7633835     
  -4421044.56994994     
  -4421044.56994994     
  -4421044.56994995     
  -4421044.56994994     
  -4421044.56994994     
  -4421044.56994995     
  -4421044.56994994     
  -4421044.56994994     
  -4421044.56994994     
  -4421044.56994995     
  -4421044.56994994     
  -4421044.56994995     
  -4421044.56994993     
  -4421044.56994994     
   78912288.7809099     
  -4421044.55242344     
  -4421044.55242342     
  -4421044.55242345     
  -4421044.55242344     
  -4421044.55242343     
  -4421044.55242343     
  -4421044.55242344     
  -4421044.55242344     
  -4421044.55242344     
  -4421044.55242344     
  -4421044.55242344     
  -4421044.55242345     
  -4421044.55242343     
  -4421044.55242344     
   78912288.8039578     
  -4421044.52937543     
  -4421044.52937543     
  -4421044.52937543     
  -4421044.52937543     
  -4421044.52937544     
  -4421044.52937544     
  -4421044.52937544     
  -4421044.52937545     
  -4421044.52937544     
  -4421044.52937544     
  -4421044.52937544     
  -4421044.52937544     
  -4421044.52937544     
  -4421044.52937545     
   78912288.8342668     
  -4421044.49906647     
  -4421044.49906650     
  -4421044.49906650     
  -4421044.49906647     
  -4421044.49906648     
  -4421044.49906647     
  -4421044.49906647     
  -4421044.49906649     
  -4421044.49906649     
  -4421044.49906649     
  -4421044.49906648     
  -4421044.49906648     
  -4421044.49906648     
  -4421044.49906648     
   78912288.8741242     
  -4421044.45920908     
  -4421044.45920909     
  -4421044.45920909     
  -4421044.45920908     
  -4421044.45920908     
  -4421044.45920909     
  -4421044.45920909     
  -4421044.45920910     
  -4421044.45920910     
  -4421044.45920908     
  -4421044.45920907     
  -4421044.45920907     
  -4421044.45920907     
  -4421044.45920909     
   78912288.9265382     
  -4421044.40679516     
  -4421044.40679515     
  -4421044.40679516     
  -4421044.40679515     
  -4421044.40679516     
  -4421044.40679516     
  -4421044.40679516     
  -4421044.40679516     
  -4421044.40679515     
  -4421044.40679516     
  -4421044.40679516     
  -4421044.40679517     
  -4421044.40679515     
  -4421044.40679516     
   78912288.9954644     
  -4421044.33786891     
  -4421044.33786891     
  -4421044.33786891     
  -4421044.33786893     
  -4421044.33786891     
  -4421044.33786892     
  -4421044.33786893     
  -4421044.33786893     
  -4421044.33786893     
  -4421044.33786891     
  -4421044.33786892     
  -4421044.33786893     
  -4421044.33786891     
  -4421044.33786892     
   78912289.0861048     
  -4421044.24722839     
  -4421044.24722840     
  -4421044.24722841     
  -4421044.24722842     
  -4421044.24722841     
  -4421044.24722841     
  -4421044.24722841     
  -4421044.24722840     
  -4421044.24722841     
  -4421044.24722840     
  -4421044.24722841     
  -4421044.24722840     
  -4421044.24722841     
  -4421044.24722840     
   78912289.2053004     
  -4421044.12803277     
  -4421044.12803279     
  -4421044.12803279     
  -4421044.12803280     
  -4421044.12803280     
  -4421044.12803279     
  -4421044.12803281     
  -4421044.12803282     
  -4421044.12803281     
  -4421044.12803280     
  -4421044.12803281     
  -4421044.12803281     
  -4421044.12803280     
  -4421044.12803280     
   78912289.3620471     
  -4421043.97128623     
  -4421043.97128622     
  -4421043.97128623     
  -4421043.97128623     
  -4421043.97128623     
  -4421043.97128623     
  -4421043.97128623     
  -4421043.97128623     
  -4421043.97128623     
  -4421043.97128623     
  -4421043.97128624     
  -4421043.97128624     
  -4421043.97128624     
  -4421043.97128624     
   78912289.5681747     
  -4421043.76515875     
  -4421043.76515874     
  -4421043.76515875     
  -4421043.76515876     
  -4421043.76515874     
  -4421043.76515875     
  -4421043.76515875     
  -4421043.76515876     
  -4421043.76515876     
  -4421043.76515875     
  -4421043.76515876     
  -4421043.76515876     
  -4421043.76515877     
  -4421043.76515877     
   78912289.8392397     
  -4421043.49409358     
  -4421043.49409358     
  -4421043.49409360     
  -4421043.49409358     
  -4421043.49409358     
  -4421043.49409358     
  -4421043.49409359     
  -4421043.49409358     
  -4421043.49409358     
  -4421043.49409359     
  -4421043.49409359     
  -4421043.49409360     
  -4421043.49409360     
  -4421043.49409360     
   78912290.1957003     
  -4421043.13763295     
  -4421043.13763295     
  -4421043.13763298     
  -4421043.13763298     
  -4421043.13763299     
  -4421043.13763297     
  -4421043.13763297     
  -4421043.13763297     
  -4421043.13763299     
  -4421043.13763297     
  -4421043.13763297     
  -4421043.13763298     
  -4421043.13763298     
  -4421043.13763298     
   78912290.6644591     
  -4421042.66887424     
  -4421042.66887422     
  -4421042.66887423     
  -4421042.66887423     
  -4421042.66887423     
  -4421042.66887423     
  -4421042.66887423     
  -4421042.66887424     
  -4421042.66887424     
  -4421042.66887424     
  -4421042.66887423     
  -4421042.66887422     
  -4421042.66887423     
  -4421042.66887424     
   78912291.2808939     
  -4421042.05243934     
  -4421042.05243933     
  -4421042.05243934     
  -4421042.05243934     
  -4421042.05243934     
  -4421042.05243934     
  -4421042.05243932     
  -4421042.05243933     
  -4421042.05243934     
  -4421042.05243935     
  -4421042.05243934     
  -4421042.05243935     
  -4421042.05243934     
  -4421042.05243934     
   78912292.0915284     
  -4421041.24180490     
  -4421041.24180490     
  -4421041.24180491     
  -4421041.24180492     
  -4421041.24180490     
  -4421041.24180490     
  -4421041.24180490     
  -4421041.24180490     
  -4421041.24180490     
  -4421041.24180491     
  -4421041.24180491     
  -4421041.24180491     
  -4421041.24180491     
  -4421041.24180491     
   78912293.1575424     
  -4421040.17579099     
  -4421040.17579097     
  -4421040.17579099     
  -4421040.17579098     
  -4421040.17579098     
  -4421040.17579099     
  -4421040.17579097     
  -4421040.17579098     
  -4421040.17579097     
  -4421040.17579098     
  -4421040.17579098     
  -4421040.17579099     
  -4421040.17579098     
  -4421040.17579098     
   78912294.5593898     
  -4421038.77394369     
  -4421038.77394369     
  -4421038.77394368     
  -4421038.77394367     
  -4421038.77394368     
  -4421038.77394369     
  -4421038.77394367     
  -4421038.77394368     
  -4421038.77394368     
  -4421038.77394367     
  -4421038.77394368     
  -4421038.77394367     
  -4421038.77394367     
  -4421038.77394367     
   78912296.4028701     
  -4421036.93046319     
  -4421036.93046321     
  -4421036.93046320     
  -4421036.93046319     
  -4421036.93046321     
  -4421036.93046322     
  -4421036.93046320     
  -4421036.93046321     
  -4421036.93046321     
  -4421036.93046321     
  -4421036.93046321     
  -4421036.93046321     
  -4421036.93046320     
  -4421036.93046321     
   78912298.8271143     
  -4421034.50621897     
  -4421034.50621897     
  -4421034.50621894     
  -4421034.50621895     
  -4421034.50621896     
  -4421034.50621895     
  -4421034.50621896     
  -4421034.50621895     
  -4421034.50621896     
  -4421034.50621897     
  -4421034.50621898     
  -4421034.50621897     
  -4421034.50621897     
  -4421034.50621897     
   78912302.0150842     
  -4421031.31824913     
  -4421031.31824912     
  -4421031.31824911     
  -4421031.31824911     
  -4421031.31824911     
  -4421031.31824910     
  -4421031.31824913     
  -4421031.31824911     
  -4421031.31824911     
  -4421031.31824911     
  -4421031.31824911     
  -4421031.31824911     
  -4421031.31824911     
  -4421031.31824912     
   78912306.2073812     
  -4421027.12595218     
  -4421027.12595218     
  -4421027.12595216     
  -4421027.12595217     
  -4421027.12595218     
  -4421027.12595218     
  -4421027.12595219     
  -4421027.12595218     
  -4421027.12595218     
  -4421027.12595217     
  -4421027.12595217     
  -4421027.12595218     
  -4421027.12595218     
  -4421027.12595218     
   78912311.7204050     
  -4421021.61292836     
  -4421021.61292835     
  -4421021.61292836     
  -4421021.61292836     
  -4421021.61292835     
  -4421021.61292836     
  -4421021.61292836     
  -4421021.61292836     
  -4421021.61292836     
  -4421021.61292837     
  -4421021.61292836     
  -4421021.61292837     
  -4421021.61292836     
  -4421021.61292836     
   78912318.9702329     
  -4421014.36310040     
  -4421014.36310039     
  -4421014.36310038     
  -4421014.36310040     
  -4421014.36310040     
  -4421014.36310040     
  -4421014.36310039     
  -4421014.36310040     
  -4421014.36310041     
  -4421014.36310041     
  -4421014.36310039     
  -4421014.36310039     
  -4421014.36310039     
  -4421014.36310040     
   78912328.5040218     
  -4421004.82931148     
  -4421004.82931146     
  -4421004.82931147     
  -4421004.82931148     
  -4421004.82931148     
  -4421004.82931148     
  -4421004.82931148     
  -4421004.82931147     
  -4421004.82931147     
  -4421004.82931148     
  -4421004.82931147     
  -4421004.82931148     
  -4421004.82931148     
  -4421004.82931147     
   78912341.0413030     
  -4420992.29203035     
  -4420992.29203034     
  -4420992.29203035     
  -4420992.29203035     
  -4420992.29203033     
  -4420992.29203034     
  -4420992.29203034     
  -4420992.29203035     
  -4420992.29203034     
  -4420992.29203035     
  -4420992.29203037     
  -4420992.29203035     
  -4420992.29203035     
  -4420992.29203034     
   78912357.5282863     
  -4420975.80504713     
  -4420975.80504712     
  -4420975.80504713     
  -4420975.80504713     
  -4420975.80504712     
  -4420975.80504712     
  -4420975.80504711     
  -4420975.80504713     
  -4420975.80504712     
  -4420975.80504713     
  -4420975.80504714     
  -4420975.80504713     
  -4420975.80504712     
  -4420975.80504713     
   78912379.2092721     
  -4420954.12406116     
  -4420954.12406118     
  -4420954.12406118     
  -4420954.12406117     
  -4420954.12406116     
  -4420954.12406117     
  -4420954.12406119     
  -4420954.12406118     
  -4420954.12406117     
  -4420954.12406117     
  -4420954.12406118     
  -4420954.12406117     
  -4420954.12406118     
  -4420954.12406117     
   78912407.7205615     
  -4420925.61277168     
  -4420925.61277168     
  -4420925.61277168     
  -4420925.61277167     
  -4420925.61277168     
  -4420925.61277168     
  -4420925.61277168     
  -4420925.61277168     
  -4420925.61277168     
  -4420925.61277169     
  -4420925.61277168     
  -4420925.61277168     
  -4420925.61277169     
  -4420925.61277166     
   78912445.2139501     
  -4420888.11938320     
  -4420888.11938320     
  -4420888.11938319     
  -4420888.11938320     
  -4420888.11938319     
  -4420888.11938319     
  -4420888.11938318     
  -4420888.11938318     
  -4420888.11938318     
  -4420888.11938319     
  -4420888.11938320     
  -4420888.11938320     
  -4420888.11938319     
  -4420888.11938318     
   78912494.5191274     
  -4420838.81420603     
  -4420838.81420602     
  -4420838.81420604     
  -4420838.81420604     
  -4420838.81420604     
  -4420838.81420605     
  -4420838.81420605     
  -4420838.81420606     
  -4420838.81420605     
  -4420838.81420605     
  -4420838.81420605     
  -4420838.81420604     
  -4420838.81420605     
  -4420838.81420606     
   78912559.3572387     
  -4420773.97609475     
  -4420773.97609475     
  -4420773.97609475     
  -4420773.97609475     
  -4420773.97609475     
  -4420773.97609474     
  -4420773.97609475     
  -4420773.97609475     
  -4420773.97609474     
  -4420773.97609476     
  -4420773.97609475     
  -4420773.97609475     
  -4420773.97609475     
  -4420773.97609476     
   78912644.6217263     
  -4420688.71160700     
  -4420688.71160699     
  -4420688.71160699     
  -4420688.71160700     
  -4420688.71160701     
  -4420688.71160703     
  -4420688.71160701     
  -4420688.71160701     
  -4420688.71160700     
  -4420688.71160700     
  -4420688.71160699     
  -4420688.71160699     
  -4420688.71160699     
  -4420688.71160698     
   78912756.7476463     
  -4420576.58568707     
  -4420576.58568708     
  -4420576.58568708     
  -4420576.58568706     
  -4420576.58568706     
  -4420576.58568706     
  -4420576.58568705     
  -4420576.58568708     
  -4420576.58568707     
  -4420576.58568706     
  -4420576.58568706     
  -4420576.58568706     
  -4420576.58568707     
  -4420576.58568706     
   78912904.1973319     
  -4420429.13600140     
  -4420429.13600137     
  -4420429.13600137     
  -4420429.13600137     
  -4420429.13600139     
  -4420429.13600139     
  -4420429.13600139     
  -4420429.13600138     
  -4420429.13600138     
  -4420429.13600139     
  -4420429.13600141     
  -4420429.13600139     
  -4420429.13600139     
  -4420429.13600139     
   78913098.0990614     
  -4420235.23427180     
  -4420235.23427180     
  -4420235.23427181     
  -4420235.23427181     
  -4420235.23427182     
  -4420235.23427180     
  -4420235.23427180     
  -4420235.23427181     
  -4420235.23427181     
  -4420235.23427183     
  -4420235.23427183     
  -4420235.23427179     
  -4420235.23427179     
  -4420235.23427180     
   78913353.0869279     
  -4419980.24640551     
  -4419980.24640549     
  -4419980.24640550     
  -4419980.24640549     
  -4419980.24640550     
  -4419980.24640550     
  -4419980.24640549     
  -4419980.24640547     
  -4419980.24640551     
  -4419980.24640551     
  -4419980.24640550     
  -4419980.24640550     
  -4419980.24640550     
  -4419980.24640551     
   78913688.4052982     
  -4419644.92803521     
  -4419644.92803521     
  -4419644.92803519     
  -4419644.92803519     
  -4419644.92803522     
  -4419644.92803520     
  -4419644.92803521     
  -4419644.92803522     
  -4419644.92803523     
  -4419644.92803522     
  -4419644.92803522     
  -4419644.92803521     
  -4419644.92803522     
  -4419644.92803522     
   78914129.3612193     
  -4419203.97211414     
  -4419203.97211414     
  -4419203.97211415     
  -4419203.97211416     
  -4419203.97211415     
  -4419203.97211415     
  -4419203.97211414     
  -4419203.97211414     
  -4419203.97211414     
  -4419203.97211414     
  -4419203.97211416     
  -4419203.97211415     
  -4419203.97211416     
  -4419203.97211413     
   78914709.2343833     
  -4418624.09895013     
  -4418624.09895013     
  -4418624.09895012     
  -4418624.09895013     
  -4418624.09895012     
  -4418624.09895013     
  -4418624.09895012     
  -4418624.09895011     
  -4418624.09895012     
  -4418624.09895014     
  -4418624.09895013     
  -4418624.09895014     
  -4418624.09895014     
  -4418624.09895014     
   78915471.7888027     
  -4417861.54453078     
  -4417861.54453074     
  -4417861.54453077     
  -4417861.54453077     
  -4417861.54453077     
  -4417861.54453077     
  -4417861.54453078     
  -4417861.54453077     
  -4417861.54453077     
  -4417861.54453078     
  -4417861.54453076     
  -4417861.54453078     
  -4417861.54453077     
  -4417861.54453078     
   78916474.5757541     
  -4416858.75757917     
  -4416858.75757915     
  -4416858.75757913     
  -4416858.75757916     
  -4416858.75757916     
  -4416858.75757916     
  -4416858.75757917     
  -4416858.75757916     
  -4416858.75757916     
  -4416858.75757916     
  -4416858.75757916     
  -4416858.75757917     
  -4416858.75757916     
  -4416858.75757916     
   78917793.2772721     
  -4415540.05606119     
  -4415540.05606119     
  -4415540.05606118     
  -4415540.05606118     
  -4415540.05606117     
  -4415540.05606118     
  -4415540.05606117     
  -4415540.05606119     
  -4415540.05606119     
  -4415540.05606120     
  -4415540.05606120     
  -4415540.05606120     
  -4415540.05606121     
  -4415540.05606120     
   78919527.4179995     
  -4413805.91533402     
  -4413805.91533402     
  -4413805.91533400     
  -4413805.91533402     
  -4413805.91533402     
  -4413805.91533401     
  -4413805.91533401     
  -4413805.91533403     
  -4413805.91533403     
  -4413805.91533403     
  -4413805.91533403     
  -4413805.91533403     
  -4413805.91533403     
  -4413805.91533404     
   78921807.8764812     
  -4411525.45685219     
  -4411525.45685220     
  -4411525.45685217     
  -4411525.45685217     
  -4411525.45685218     
  -4411525.45685218     
  -4411525.45685219     
  -4411525.45685220     
  -4411525.45685220     
  -4411525.45685220     
  -4411525.45685220     
  -4411525.45685219     
  -4411525.45685220     
  -4411525.45685221     
   78924806.7627916     
  -4408526.57054159     
  -4408526.57054158     
  -4408526.57054158     
  -4408526.57054159     
  -4408526.57054158     
  -4408526.57054160     
  -4408526.57054160     
  -4408526.57054160     
  -4408526.57054159     
  -4408526.57054159     
  -4408526.57054159     
  -4408526.57054160     
  -4408526.57054160     
  -4408526.57054159     
   78928750.4079734     
  -4404582.92535990     
  -4404582.92535990     
  -4404582.92535990     
  -4404582.92535991     
  -4404582.92535993     
  -4404582.92535993     
  -4404582.92535991     
  -4404582.92535991     
  -4404582.92535992     
  -4404582.92535994     
  -4404582.92535993     
  -4404582.92535992     
  -4404582.92535994     
  -4404582.92535993     
   78933936.4456249     
  -4399396.88770855     
  -4399396.88770855     
  -4399396.88770854     
  -4399396.88770854     
  -4399396.88770856     
  -4399396.88770855     
  -4399396.88770856     
  -4399396.88770856     
  -4399396.88770856     
  -4399396.88770857     
  -4399396.88770858     
  -4399396.88770856     
  -4399396.88770856     
  -4399396.88770856     
   78940756.2748138     
  -4392577.05851946     
  -4392577.05851946     
  -4392577.05851948     
  -4392577.05851947     
  -4392577.05851947     
  -4392577.05851946     
  -4392577.05851949     
  -4392577.05851951     
  -4392577.05851950     
  -4392577.05851949     
  -4392577.05851948     
  -4392577.05851948     
  -4392577.05851947     
  -4392577.05851949     
   78949724.5996305     
  -4383608.73370294     
  -4383608.73370292     
  -4383608.73370293     
  -4383608.73370294     
  -4383608.73370295     
  -4383608.73370293     
  -4383608.73370294     
  -4383608.73370294     
  -4383608.73370295     
  -4383608.73370294     
  -4383608.73370295     
  -4383608.73370297     
  -4383608.73370295     
  -4383608.73370295     
   78961518.2747777     
  -4371815.05855581     
  -4371815.05855582     
  -4371815.05855580     
  -4371815.05855578     
  -4371815.05855581     
  -4371815.05855582     
  -4371815.05855584     
  -4371815.05855582     
  -4371815.05855583     
  -4371815.05855582     
  -4371815.05855582     
  -4371815.05855580     
  -4371815.05855581     
  -4371815.05855581     
   78977027.3889457     
  -4356305.94438772     
  -4356305.94438775     
  -4356305.94438772     
  -4356305.94438772     
  -4356305.94438772     
  -4356305.94438774     
  -4356305.94438774     
  -4356305.94438774     
  -4356305.94438773     
  -4356305.94438771     
  -4356305.94438771     
  -4356305.94438771     
  -4356305.94438773     
  -4356305.94438773     
   78997422.4413172     
  -4335910.89201620     
  -4335910.89201619     
  -4335910.89201620     
  -4335910.89201623     
  -4335910.89201621     
  -4335910.89201623     
  -4335910.89201624     
  -4335910.89201625     
  -4335910.89201623     
  -4335910.89201625     
  -4335910.89201623     
  -4335910.89201622     
  -4335910.89201622     
  -4335910.89201621     
   79024242.6811278     
  -4309090.65220568     
  -4309090.65220577     
  -4309090.65220567     
  -4309090.65220560     
  -4309090.65220565     
  -4309090.65220573     
  -4309090.65220569     
  -4309090.65220574     
  -4309090.65220571     
  -4309090.65220567     
  -4309090.65220572     
  -4309090.65220572     
  -4309090.65220565     
  -4309090.65220564     
SCALARS 2waySource double 
LOOKUP_TABLE default
  2.119816324259430E-004
  2.119816324259476E-004
  2.119816324259468E-004
  2.119816324259408E-004
  2.119816324259383E-004
  2.119816324259353E-004
  2.119816324259450E-004
  2.119816324259311E-004
  2.119816324259353E-004
  2.119816324259166E-004
  2.119816324259172E-004
  2.119816324259272E-004
  2.119816324259254E-004
  2.119816324259248E-004
  2.119816324259251E-004
  2.119816324255053E-004
  2.119816324255364E-004
  2.119816324255215E-004
  2.119816324255309E-004
  2.119816324254949E-004
  2.119816324254900E-004
  2.119816324254947E-004
  2.119816324255005E-004
  2.119816324254962E-004
  2.119816324254913E-004
  2.119816324254881E-004
  2.119816324254933E-004
  2.119816324254970E-004
  2.119816324254972E-004
  2.119816324254937E-004
  2.119816324247383E-004
  2.119816324247134E-004
  2.119816324247454E-004
  2.119816324247354E-004
  2.119816324247150E-004
  2.119816324246989E-004
  2.119816324246970E-004
  2.119816324247185E-004
  2.119816324246967E-004
  2.119816324247099E-004
  2.119816324247089E-004
  2.119816324246985E-004
  2.119816324247051E-004
  2.119816324246968E-004
  2.119816324247016E-004
  2.119816324234935E-004
  2.119816324235098E-004
  2.119816324235450E-004
  2.119816324235270E-004
  2.119816324234908E-004
  2.119816324235109E-004
  2.119816324235090E-004
  2.119816324234859E-004
  2.119816324234939E-004
  2.119816324234946E-004
  2.119816324235062E-004
  2.119816324234973E-004
  2.119816324234961E-004
  2.119816324234916E-004
  2.119816324234956E-004
  2.119816324217999E-004
  2.119816324217963E-004
  2.119816324217902E-004
  2.119816324217955E-004
  2.119816324218082E-004
  2.119816324217737E-004
  2.119816324217765E-004
  2.119816324217643E-004
  2.119816324217820E-004
  2.119816324217886E-004
  2.119816324217856E-004
  2.119816324217891E-004
  2.119816324217821E-004
  2.119816324217766E-004
  2.119816324217786E-004
  2.119816324194485E-004
  2.119816324194592E-004
  2.119816324194456E-004
  2.119816324194394E-004
  2.119816324194429E-004
  2.119816324194197E-004
  2.119816324194310E-004
  2.119816324194100E-004
  2.119816324194170E-004
  2.119816324194244E-004
  2.119816324194307E-004
  2.119816324194273E-004
  2.119816324194296E-004
  2.119816324194287E-004
  2.119816324194253E-004
  2.119816324162917E-004
  2.119816324162582E-004
  2.119816324162757E-004
  2.119816324162737E-004
  2.119816324162756E-004
  2.119816324162616E-004
  2.119816324162530E-004
  2.119816324162342E-004
  2.119816324162454E-004
  2.119816324162577E-004
  2.119816324162622E-004
  2.119816324162590E-004
  2.119816324162629E-004
  2.119816324162607E-004
  2.119816324162568E-004
  2.119816324120056E-004
  2.119816324120468E-004
  2.119816324120892E-004
  2.119816324120539E-004
  2.119816324120547E-004
  2.119816324120216E-004
  2.119816324120106E-004
  2.119816324120201E-004
  2.119816324120211E-004
  2.119816324120371E-004
  2.119816324120428E-004
  2.119816324120334E-004
  2.119816324120238E-004
  2.119816324120351E-004
  2.119816324120319E-004
  2.119816324063971E-004
  2.119816324064429E-004
  2.119816324064697E-004
  2.119816324064530E-004
  2.119816324064345E-004
  2.119816324064360E-004
  2.119816324064294E-004
  2.119816324064351E-004
  2.119816324064423E-004
  2.119816324064316E-004
  2.119816324064266E-004
  2.119816324064291E-004
  2.119816324064398E-004
  2.119816324064378E-004
  2.119816324064320E-004
  2.119816323990366E-004
  2.119816323990328E-004
  2.119816323990577E-004
  2.119816323990410E-004
  2.119816323990472E-004
  2.119816323990352E-004
  2.119816323990671E-004
  2.119816323990468E-004
  2.119816323990394E-004
  2.119816323990398E-004
  2.119816323990386E-004
  2.119816323990445E-004
  2.119816323990362E-004
  2.119816323990355E-004
  2.119816323990446E-004
  2.119816323892545E-004
  2.119816323892779E-004
  2.119816323892994E-004
  2.119816323892606E-004
  2.119816323892885E-004
  2.119816323892965E-004
  2.119816323892885E-004
  2.119816323892935E-004
  2.119816323892757E-004
  2.119816323892847E-004
  2.119816323892804E-004
  2.119816323892740E-004
  2.119816323892709E-004
  2.119816323892806E-004
  2.119816323892849E-004
  2.119816323764102E-004
  2.119816323764002E-004
  2.119816323764237E-004
  2.119816323764026E-004
  2.119816323764478E-004
  2.119816323764434E-004
  2.119816323764272E-004
  2.119816323764473E-004
  2.119816323764361E-004
  2.119816323764407E-004
  2.119816323764252E-004
  2.119816323764298E-004
  2.119816323764314E-004
  2.119816323764295E-004
  2.119816323764238E-004
  2.119816323595102E-004
  2.119816323595302E-004
  2.119816323595128E-004
  2.119816323595005E-004
  2.119816323595086E-004
  2.119816323595106E-004
  2.119816323595475E-004
  2.119816323595254E-004
  2.119816323595344E-004
  2.119816323595257E-004
  2.119816323595263E-004
  2.119816323595186E-004
  2.119816323595206E-004
  2.119816323595202E-004
  2.119816323595194E-004
  2.119816323372452E-004
  2.119816323372732E-004
  2.119816323372758E-004
  2.119816323372514E-004
  2.119816323372453E-004
  2.119816323372627E-004
  2.119816323372621E-004
  2.119816323372624E-004
  2.119816323372851E-004
  2.119816323372693E-004
  2.119816323372600E-004
  2.119816323372659E-004
  2.119816323372700E-004
  2.119816323372710E-004
  2.119816323372627E-004
  2.119816323079729E-004
  2.119816323080240E-004
  2.119816323079800E-004
  2.119816323079898E-004
  2.119816323079826E-004
  2.119816323080075E-004
  2.119816323080165E-004
  2.119816323079959E-004
  2.119816323079909E-004
  2.119816323080144E-004
  2.119816323080112E-004
  2.119816323080286E-004
  2.119816323080192E-004
  2.119816323080043E-004
  2.119816323080065E-004
  2.119816322694837E-004
  2.119816322695012E-004
  2.119816322694908E-004
  2.119816322695095E-004
  2.119816322694873E-004
  2.119816322694799E-004
  2.119816322695059E-004
  2.119816322694924E-004
  2.119816322695049E-004
  2.119816322695237E-004
  2.119816322695031E-004
  2.119816322695038E-004
  2.119816322695120E-004
  2.119816322695202E-004
  2.119816322695172E-004
  2.119816322188646E-004
  2.119816322188646E-004
  2.119816322188646E-004
  2.119816322188896E-004
  2.119816322188811E-004
  2.119816322188700E-004
  2.119816322188547E-004
  2.119816322188651E-004
  2.119816322188711E-004
  2.119816322188688E-004
  2.119816322188705E-004
  2.119816322188652E-004
  2.119816322188624E-004
  2.119816322188676E-004
  2.119816322188643E-004
  2.119816321522876E-004
  2.119816321522662E-004
  2.119816321522711E-004
  2.119816321522879E-004
  2.119816321522651E-004
  2.119816321522627E-004
  2.119816321522660E-004
  2.119816321522645E-004
  2.119816321522795E-004
  2.119816321522662E-004
  2.119816321522833E-004
  2.119816321522801E-004
  2.119816321522783E-004
  2.119816321522730E-004
  2.119816321522773E-004
  2.119816320646990E-004
  2.119816320647069E-004
  2.119816320647262E-004
  2.119816320647007E-004
  2.119816320646821E-004
  2.119816320646851E-004
  2.119816320646609E-004
  2.119816320646633E-004
  2.119816320646847E-004
  2.119816320646992E-004
  2.119816320647044E-004
  2.119816320646876E-004
  2.119816320646973E-004
  2.119816320646976E-004
  2.119816320646862E-004
  2.119816319495591E-004
  2.119816319495189E-004
  2.119816319495588E-004
  2.119816319495404E-004
  2.119816319495637E-004
  2.119816319495219E-004
  2.119816319495092E-004
  2.119816319495044E-004
  2.119816319495279E-004
  2.119816319495205E-004
  2.119816319495435E-004
  2.119816319495554E-004
  2.119816319495358E-004
  2.119816319495419E-004
  2.119816319495556E-004
  2.119816317981130E-004
  2.119816317980749E-004
  2.119816317981008E-004
  2.119816317981090E-004
  2.119816317980718E-004
  2.119816317980897E-004
  2.119816317980907E-004
  2.119816317980659E-004
  2.119816317980882E-004
  2.119816317980823E-004
  2.119816317980881E-004
  2.119816317980902E-004
  2.119816317980820E-004
  2.119816317980800E-004
  2.119816317980936E-004
  2.119816315989582E-004
  2.119816315989298E-004
  2.119816315989220E-004
  2.119816315989019E-004
  2.119816315988882E-004
  2.119816315989072E-004
  2.119816315989211E-004
  2.119816315989408E-004
  2.119816315989282E-004
  2.119816315989142E-004
  2.119816315989162E-004
  2.119816315989171E-004
  2.119816315989110E-004
  2.119816315989255E-004
  2.119816315989062E-004
  2.119816313369820E-004
  2.119816313369675E-004
  2.119816313369981E-004
  2.119816313370127E-004
  2.119816313370061E-004
  2.119816313370236E-004
  2.119816313369940E-004
  2.119816313369944E-004
  2.119816313369746E-004
  2.119816313370087E-004
  2.119816313370115E-004
  2.119816313370117E-004
  2.119816313370032E-004
  2.119816313369912E-004
  2.119816313369986E-004
  2.119816309925639E-004
  2.119816309925840E-004
  2.119816309925648E-004
  2.119816309925695E-004
  2.119816309925969E-004
  2.119816309925703E-004
  2.119816309925740E-004
  2.119816309925649E-004
  2.119816309925670E-004
  2.119816309925510E-004
  2.119816309925635E-004
  2.119816309925434E-004
  2.119816309925412E-004
  2.119816309925571E-004
  2.119816309925494E-004
  2.119816305396471E-004
  2.119816305396522E-004
  2.119816305396412E-004
  2.119816305396420E-004
  2.119816305396663E-004
  2.119816305396598E-004
  2.119816305396618E-004
  2.119816305396667E-004
  2.119816305396459E-004
  2.119816305396581E-004
  2.119816305396323E-004
  2.119816305396305E-004
  2.119816305396409E-004
  2.119816305396312E-004
  2.119816305396355E-004
  2.119816299439973E-004
  2.119816299440299E-004
  2.119816299440035E-004
  2.119816299440235E-004
  2.119816299440233E-004
  2.119816299440236E-004
  2.119816299440163E-004
  2.119816299440232E-004
  2.119816299440137E-004
  2.119816299440062E-004
  2.119816299440039E-004
  2.119816299440070E-004
  2.119816299439957E-004
  2.119816299439917E-004
  2.119816299439809E-004
  2.119816291607657E-004
  2.119816291607459E-004
  2.119816291607473E-004
  2.119816291607487E-004
  2.119816291607180E-004
  2.119816291607411E-004
  2.119816291607641E-004
  2.119816291607440E-004
  2.119816291607362E-004
  2.119816291607459E-004
  2.119816291607453E-004
  2.119816291607338E-004
  2.119816291607475E-004
  2.119816291607318E-004
  2.119816291607431E-004
  2.119816281307478E-004
  2.119816281307002E-004
  2.119816281307199E-004
  2.119816281307347E-004
  2.119816281307423E-004
  2.119816281307374E-004
  2.119816281307183E-004
  2.119816281307136E-004
  2.119816281306987E-004
  2.119816281307063E-004
  2.119816281307101E-004
  2.119816281307227E-004
  2.119816281306941E-004
  2.119816281307051E-004
  2.119816281306854E-004
  2.119816267762258E-004
  2.119816267761853E-004
  2.119816267761953E-004
  2.119816267762082E-004
  2.119816267761754E-004
  2.119816267761744E-004
  2.119816267762000E-004
  2.119816267761870E-004
  2.119816267761610E-004
  2.119816267761767E-004
  2.119816267761770E-004
  2.119816267761672E-004
  2.119816267761750E-004
  2.119816267761967E-004
  2.119816267761921E-004
  2.119816249949440E-004
  2.119816249949349E-004
  2.119816249949469E-004
  2.119816249949372E-004
  2.119816249949216E-004
  2.119816249949100E-004
  2.119816249949128E-004
  2.119816249949170E-004
  2.119816249949089E-004
  2.119816249948925E-004
  2.119816249949208E-004
  2.119816249948935E-004
  2.119816249949146E-004
  2.119816249948897E-004
  2.119816249949023E-004
  2.119816226525465E-004
  2.119816226525165E-004
  2.119816226524913E-004
  2.119816226524905E-004
  2.119816226524971E-004
  2.119816226524942E-004
  2.119816226525050E-004
  2.119816226525069E-004
  2.119816226524756E-004
  2.119816226524838E-004
  2.119816226524818E-004
  2.119816226525131E-004
  2.119816226525202E-004
  2.119816226525071E-004
  2.119816226524823E-004
  2.119816195721833E-004
  2.119816195721540E-004
  2.119816195721397E-004
  2.119816195721563E-004
  2.119816195721680E-004
  2.119816195721684E-004
  2.119816195721517E-004
  2.119816195721323E-004
  2.119816195721457E-004
  2.119816195721379E-004
  2.119816195721154E-004
  2.119816195721339E-004
  2.119816195721354E-004
  2.119816195721432E-004
  2.119816195721559E-004
  2.119816155214120E-004
  2.119816155214080E-004
  2.119816155214076E-004
  2.119816155214003E-004
  2.119816155213871E-004
  2.119816155213857E-004
  2.119816155213862E-004
  2.119816155213558E-004
  2.119816155213809E-004
  2.119816155213810E-004
  2.119816155213736E-004
  2.119816155213678E-004
  2.119816155213648E-004
  2.119816155213711E-004
  2.119816155213598E-004
  2.119816101944696E-004
  2.119816101944556E-004
  2.119816101944527E-004
  2.119816101944259E-004
  2.119816101944257E-004
  2.119816101944984E-004
  2.119816101944563E-004
  2.119816101944922E-004
  2.119816101944810E-004
  2.119816101944773E-004
  2.119816101944614E-004
  2.119816101944912E-004
  2.119816101944680E-004
  2.119816101944602E-004
  2.119816101944661E-004
  2.119816031892957E-004
  2.119816031893432E-004
  2.119816031893797E-004
  2.119816031893651E-004
  2.119816031893741E-004
  2.119816031893605E-004
  2.119816031893181E-004
  2.119816031893472E-004
  2.119816031893639E-004
  2.119816031893490E-004
  2.119816031893623E-004
  2.119816031893297E-004
  2.119816031893420E-004
  2.119816031893550E-004
  2.119816031893411E-004
  2.119815939773900E-004
  2.119815939774083E-004
  2.119815939774251E-004
  2.119815939773968E-004
  2.119815939774011E-004
  2.119815939773926E-004
  2.119815939773849E-004
  2.119815939773887E-004
  2.119815939773909E-004
  2.119815939773908E-004
  2.119815939774216E-004
  2.119815939774131E-004
  2.119815939774028E-004
  2.119815939774027E-004
  2.119815939774189E-004
  2.119815818632611E-004
  2.119815818633488E-004
  2.119815818633168E-004
  2.119815818633039E-004
  2.119815818632927E-004
  2.119815818633171E-004
  2.119815818632939E-004
  2.119815818632910E-004
  2.119815818632959E-004
  2.119815818633094E-004
  2.119815818632995E-004
  2.119815818633018E-004
  2.119815818633248E-004
  2.119815818633239E-004
  2.119815818633345E-004
  2.119815659328432E-004
  2.119815659328438E-004
  2.119815659328683E-004
  2.119815659328594E-004
  2.119815659329079E-004
  2.119815659328899E-004
  2.119815659328772E-004
  2.119815659328777E-004
  2.119815659328530E-004
  2.119815659328485E-004
  2.119815659328521E-004
  2.119815659328783E-004
  2.119815659328820E-004
  2.119815659328950E-004
  2.119815659328667E-004
  2.119815449837033E-004
  2.119815449837477E-004
  2.119815449837366E-004
  2.119815449837424E-004
  2.119815449837437E-004
  2.119815449837439E-004
  2.119815449837316E-004
  2.119815449837372E-004
  2.119815449837332E-004
  2.119815449837416E-004
  2.119815449837489E-004
  2.119815449837297E-004
  2.119815449837486E-004
  2.119815449837427E-004
  2.119815449837795E-004
  2.119815174348582E-004
  2.119815174348794E-004
  2.119815174348487E-004
  2.119815174348584E-004
  2.119815174348515E-004
  2.119815174348166E-004
  2.119815174348573E-004
  2.119815174348889E-004
  2.119815174348631E-004
  2.119815174348950E-004
  2.119815174348607E-004
  2.119815174348754E-004
  2.119815174348697E-004
  2.119815174348871E-004
  2.119815174348793E-004
  2.119814812070730E-004
  2.119814812070780E-004
  2.119814812070825E-004
  2.119814812070813E-004
  2.119814812070716E-004
  2.119814812071136E-004
  2.119814812070914E-004
  2.119814812071040E-004
  2.119814812071331E-004
  2.119814812071150E-004
  2.119814812071119E-004
  2.119814812071069E-004
  2.119814812071187E-004
  2.119814812070940E-004
  2.119814812070912E-004
  2.119814335662492E-004
  2.119814335662739E-004
  2.119814335662861E-004
  2.119814335662676E-004
  2.119814335662312E-004
  2.119814335662380E-004
  2.119814335662762E-004
  2.119814335662875E-004
  2.119814335662701E-004
  2.119814335662571E-004
  2.119814335662582E-004
  2.119814335662586E-004
  2.119814335662174E-004
  2.119814335662223E-004
  2.119814335662195E-004
  2.119813709167533E-004
  2.119813709168127E-004
  2.119813709168296E-004
  2.119813709168096E-004
  2.119813709168311E-004
  2.119813709168095E-004
  2.119813709167805E-004
  2.119813709167916E-004
  2.119813709167881E-004
  2.119813709167961E-004
  2.119813709167858E-004
  2.119813709167806E-004
  2.119813709168040E-004
  2.119813709167777E-004
  2.119813709167789E-004
  2.119812885304326E-004
  2.119812885304487E-004
  2.119812885304556E-004
  2.119812885304344E-004
  2.119812885304723E-004
  2.119812885304785E-004
  2.119812885304933E-004
  2.119812885304749E-004
  2.119812885304813E-004
  2.119812885304908E-004
  2.119812885304769E-004
  2.119812885304598E-004
  2.119812885304357E-004
  2.119812885304593E-004
  2.119812885304684E-004
  2.119811801893634E-004
  2.119811801893972E-004
  2.119811801894329E-004
  2.119811801894296E-004
  2.119811801894334E-004
  2.119811801894529E-004
  2.119811801894003E-004
  2.119811801894072E-004
  2.119811801894295E-004
  2.119811801894309E-004
  2.119811801894727E-004
  2.119811801894436E-004
  2.119811801894587E-004
  2.119811801894473E-004
  2.119811801894118E-004
  2.119810377169308E-004
  2.119810377169928E-004
  2.119810377170134E-004
  2.119810377170646E-004
  2.119810377170272E-004
  2.119810377169691E-004
  2.119810377169889E-004
  2.119810377170016E-004
  2.119810377170110E-004
  2.119810377170267E-004
  2.119810377169975E-004
  2.119810377170038E-004
  2.119810377170065E-004
  2.119810377170018E-004
  2.119810377170066E-004
  2.119808503604929E-004
  2.119808503605114E-004
  2.119808503604959E-004
  2.119808503605592E-004
  2.119808503605290E-004
  2.119808503605786E-004
  2.119808503605483E-004
  2.119808503605468E-004
  2.119808503605533E-004
  2.119808503605695E-004
  2.119808503605624E-004
  2.119808503605774E-004
  2.119808503605592E-004
  2.119808503605998E-004
  2.119808503606051E-004
  2.119806039799239E-004
  2.119806039799754E-004
  2.119806039799650E-004
  2.119806039799642E-004
  2.119806039799662E-004
  2.119806039799717E-004
  2.119806039799546E-004
  2.119806039799547E-004
  2.119806039799551E-004
  2.119806039799660E-004
  2.119806039799750E-004
  2.119806039800190E-004
  2.119806039800245E-004
  2.119806039800029E-004
  2.119806039799866E-004
  2.119802799804791E-004
  2.119802799804868E-004
  2.119802799805178E-004
  2.119802799805237E-004
  2.119802799805668E-004
  2.119802799805086E-004
  2.119802799804756E-004
  2.119802799804965E-004
  2.119802799805192E-004
  2.119802799805092E-004
  2.119802799805162E-004
  2.119802799805257E-004
  2.119802799804825E-004
  2.119802799805057E-004
  2.119802799805250E-004
  2.119798539093165E-004
  2.119798539093053E-004
  2.119798539093613E-004
  2.119798539093746E-004
  2.119798539093377E-004
  2.119798539093128E-004
  2.119798539093423E-004
  2.119798539093606E-004
  2.119798539093177E-004
  2.119798539093370E-004
  2.119798539093124E-004
  2.119798539093214E-004
  2.119798539093416E-004
  2.119798539093590E-004
  2.119798539093626E-004
  2.119792936101222E-004
  2.119792936101531E-004
  2.119792936101593E-004
  2.119792936101343E-004
  2.119792936101429E-004
  2.119792936101655E-004
  2.119792936101909E-004
  2.119792936101476E-004
  2.119792936101509E-004
  2.119792936101618E-004
  2.119792936101766E-004
  2.119792936101834E-004
  2.119792936101945E-004
  2.119792936101654E-004
  2.119792936101781E-004
  2.119785567962341E-004
  2.119785567962846E-004
  2.119785567962918E-004
  2.119785567962535E-004
  2.119785567962704E-004
  2.119785567962418E-004
  2.119785567962363E-004
  2.119785567962375E-004
  2.119785567961959E-004
  2.119785567961974E-004
  2.119785567962240E-004
  2.119785567962509E-004
  2.119785567962602E-004
  2.119785567962890E-004
  2.119785567962858E-004
  2.119775878589787E-004
  2.119775878590265E-004
  2.119775878590087E-004
  2.119775878590226E-004
  2.119775878589935E-004
  2.119775878590001E-004
  2.119775878590099E-004
  2.119775878589938E-004
  2.119775878589863E-004
  2.119775878589991E-004
  2.119775878590267E-004
  2.119775878590100E-004
  2.119775878590399E-004
  2.119775878590205E-004
  2.119775878589722E-004
  2.119763136711690E-004
  2.119763136711010E-004
  2.119763136710926E-004
  2.119763136710879E-004
  2.119763136710745E-004
  2.119763136711038E-004
  2.119763136711252E-004
  2.119763136711539E-004
  2.119763136711087E-004
  2.119763136711249E-004
  2.119763136710838E-004
  2.119763136710895E-004
  2.119763136710717E-004
  2.119763136710699E-004
  2.119763136711112E-004
  2.119746380674035E-004
  2.119746380674922E-004
  2.119746380674656E-004
  2.119746380674525E-004
  2.119746380674170E-004
  2.119746380673993E-004
  2.119746380674270E-004
  2.119746380674497E-004
  2.119746380674468E-004
  2.119746380674480E-004
  2.119746380674380E-004
  2.119746380674240E-004
  2.119746380674504E-004
  2.119746380674158E-004
  2.119746380674431E-004
  2.119724345873101E-004
  2.119724345873217E-004
  2.119724345872867E-004
  2.119724345873330E-004
  2.119724345873624E-004
  2.119724345873263E-004
  2.119724345873346E-004
  2.119724345873040E-004
  2.119724345873558E-004
  2.119724345873211E-004
  2.119724345873296E-004
  2.119724345873191E-004
  2.119724345873289E-004
  2.119724345873636E-004
  2.119724345873140E-004
  2.119695369303205E-004
  2.119695369303835E-004
  2.119695369303416E-004
  2.119695369303097E-004
  2.119695369303894E-004
  2.119695369303912E-004
  2.119695369303903E-004
  2.119695369303572E-004
  2.119695369303839E-004
  2.119695369303771E-004
  2.119695369303925E-004
  2.119695369303973E-004
  2.119695369303632E-004
  2.119695369303666E-004
  2.119695369304155E-004
  2.119657264055384E-004
  2.119657264054931E-004
  2.119657264054637E-004
  2.119657264055063E-004
  2.119657264054884E-004
  2.119657264055318E-004
  2.119657264055386E-004
  2.119657264055523E-004
  2.119657264055393E-004
  2.119657264055134E-004
  2.119657264055415E-004
  2.119657264055352E-004
  2.119657264055133E-004
  2.119657264055237E-004
  2.119657264055423E-004
  2.119607154259472E-004
  2.119607154259286E-004
  2.119607154259475E-004
  2.119607154258857E-004
  2.119607154258884E-004
  2.119607154259150E-004
  2.119607154259377E-004
  2.119607154259061E-004
  2.119607154259468E-004
  2.119607154259678E-004
  2.119607154259023E-004
  2.119607154259296E-004
  2.119607154259514E-004
  2.119607154259579E-004
  2.119607154259348E-004
  2.119541258044773E-004
  2.119541258044666E-004
  2.119541258044641E-004
  2.119541258044826E-004
  2.119541258044879E-004
  2.119541258044738E-004
  2.119541258044874E-004
  2.119541258045244E-004
  2.119541258044922E-004
  2.119541258044905E-004
  2.119541258045447E-004
  2.119541258044944E-004
  2.119541258045430E-004
  2.119541258045341E-004
  2.119541258045006E-004
  2.119454602113701E-004
  2.119454602113365E-004
  2.119454602113032E-004
  2.119454602113037E-004
  2.119454602112616E-004
  2.119454602112376E-004
  2.119454602112271E-004
  2.119454602112860E-004
  2.119454602112702E-004
  2.119454602113148E-004
  2.119454602112781E-004
  2.119454602113184E-004
  2.119454602113095E-004
  2.119454602112788E-004
  2.119454602112794E-004
  2.119340646393205E-004
  2.119340646393336E-004
  2.119340646393724E-004
  2.119340646393266E-004
  2.119340646392962E-004
  2.119340646393074E-004
  2.119340646392990E-004
  2.119340646393564E-004
  2.119340646393472E-004
  2.119340646393040E-004
  2.119340646393524E-004
  2.119340646393168E-004
  2.119340646393065E-004
  2.119340646392923E-004
  2.119340646393637E-004
  2.119190790454088E-004
  2.119190790454578E-004
  2.119190790453931E-004
  2.119190790454130E-004
  2.119190790453990E-004
  2.119190790454186E-004
  2.119190790453955E-004
  2.119190790453714E-004
  2.119190790453833E-004
  2.119190790454198E-004
  2.119190790453784E-004
  2.119190790454014E-004
  2.119190790453835E-004
  2.119190790453876E-004
  2.119190790453482E-004
  2.118993724412859E-004
  2.118993724412842E-004
  2.118993724412841E-004
  2.118993724413116E-004
  2.118993724413639E-004
  2.118993724412910E-004
  2.118993724413030E-004
  2.118993724413017E-004
  2.118993724413320E-004
  2.118993724413201E-004
  2.118993724412899E-004
  2.118993724412908E-004
  2.118993724412900E-004
  2.118993724412735E-004
  2.118993724412731E-004
  2.118734575360905E-004
  2.118734575361103E-004
  2.118734575361157E-004
  2.118734575361200E-004
  2.118734575360653E-004
  2.118734575360894E-004
  2.118734575361250E-004
  2.118734575361092E-004
  2.118734575360894E-004
  2.118734575360708E-004
  2.118734575360912E-004
  2.118734575361317E-004
  2.118734575361141E-004
  2.118734575361218E-004
  2.118734575361063E-004
  2.118393784879674E-004
  2.118393784879622E-004
  2.118393784879840E-004
  2.118393784879604E-004
  2.118393784879553E-004
  2.118393784879819E-004
  2.118393784879652E-004
  2.118393784879997E-004
  2.118393784879782E-004
  2.118393784879775E-004
  2.118393784880388E-004
  2.118393784880002E-004
  2.118393784879857E-004
  2.118393784879896E-004
  2.118393784880177E-004
  2.117945632932793E-004
  2.117945632933079E-004
  2.117945632933013E-004
  2.117945632932457E-004
  2.117945632932278E-004
  2.117945632932373E-004
  2.117945632932735E-004
  2.117945632932091E-004
  2.117945632932340E-004
  2.117945632932180E-004
  2.117945632932270E-004
  2.117945632932662E-004
  2.117945632932902E-004
  2.117945632932664E-004
  2.117945632932142E-004
  2.117356296731136E-004
  2.117356296731088E-004
  2.117356296731150E-004
  2.117356296731032E-004
  2.117356296730866E-004
  2.117356296730949E-004
  2.117356296730853E-004
  2.117356296731054E-004
  2.117356296731006E-004
  2.117356296731028E-004
  2.117356296730660E-004
  2.117356296731242E-004
  2.117356296731111E-004
  2.117356296731011E-004
  2.117356296731136E-004
  2.116581298071421E-004
  2.116581298071249E-004
  2.116581298071338E-004
  2.116581298071192E-004
  2.116581298071197E-004
  2.116581298071299E-004
  2.116581298071605E-004
  2.116581298071719E-004
  2.116581298071269E-004
  2.116581298071602E-004
  2.116581298071393E-004
  2.116581298070968E-004
  2.116581298070384E-004
  2.116581298070921E-004
  2.116581298070878E-004
  2.115562146487945E-004
  2.115562146488388E-004
  2.115562146488624E-004
  2.115562146488294E-004
  2.115562146488208E-004
  2.115562146488894E-004
  2.115562146488520E-004
  2.115562146488731E-004
  2.115562146488125E-004
  2.115562146488195E-004
  2.115562146488325E-004
  2.115562146488494E-004
  2.115562146488507E-004
  2.115562146488000E-004
  2.115562146488109E-004
  2.114221924881481E-004
  2.114221924880848E-004
  2.114221924881224E-004
  2.114221924881828E-004
  2.114221924882121E-004
  2.114221924881876E-004
  2.114221924882340E-004
  2.114221924881474E-004
  2.114221924881358E-004
  2.114221924881944E-004
  2.114221924881398E-004
  2.114221924881385E-004
  2.114221924881976E-004
  2.114221924882151E-004
  2.114221924882584E-004
  2.112459484451188E-004
  2.112459484451033E-004
  2.112459484450859E-004
  2.112459484450572E-004
  2.112459484451131E-004
  2.112459484450726E-004
  2.112459484450449E-004
  2.112459484450324E-004
  2.112459484450831E-004
  2.112459484450931E-004
  2.112459484451313E-004
  2.112459484450994E-004
  2.112459484451094E-004
  2.112459484451184E-004
  2.112459484450881E-004
  2.110141810823316E-004
  2.110141810822830E-004
  2.110141810823595E-004
  2.110141810823827E-004
  2.110141810823037E-004
  2.110141810822999E-004
  2.110141810823510E-004
  2.110141810823746E-004
  2.110141810823491E-004
  2.110141810823170E-004
  2.110141810823085E-004
  2.110141810823697E-004
  2.110141810823319E-004
  2.110141810823310E-004
  2.110141810823009E-004
  2.107093985234919E-004
  2.107093985235630E-004
  2.107093985235418E-004
  2.107093985234758E-004
  2.107093985235110E-004
  2.107093985235430E-004
  2.107093985235723E-004
  2.107093985235289E-004
  2.107093985234971E-004
  2.107093985234962E-004
  2.107093985234814E-004
  2.107093985234370E-004
  2.107093985234907E-004
  2.107093985235026E-004
  2.107093985235389E-004
  2.103085983112972E-004
  2.103085983112867E-004
  2.103085983113158E-004
  2.103085983113428E-004
  2.103085983113248E-004
  2.103085983113296E-004
  2.103085983113204E-004
  2.103085983113326E-004
  2.103085983113540E-004
  2.103085983113370E-004
  2.103085983113135E-004
  2.103085983113177E-004
  2.103085983113298E-004
  2.103085983112602E-004
  2.103085983112256E-004
  2.097815313731372E-004
  2.097815313731122E-004
  2.097815313731214E-004
  2.097815313731508E-004
  2.097815313731862E-004
  2.097815313732384E-004
  2.097815313731915E-004
  2.097815313731815E-004
  2.097815313731859E-004
  2.097815313731734E-004
  2.097815313731583E-004
  2.097815313731469E-004
  2.097815313730937E-004
  2.097815313731759E-004
  2.097815313731782E-004
  2.090884190721485E-004
  2.090884190721528E-004
  2.090884190721924E-004
  2.090884190721364E-004
  2.090884190721450E-004
  2.090884190721963E-004
  2.090884190721975E-004
  2.090884190722352E-004
  2.090884190721620E-004
  2.090884190721939E-004
  2.090884190722496E-004
  2.090884190722394E-004
  2.090884190722334E-004
  2.090884190721874E-004
  2.090884190722127E-004
  2.081769510460938E-004
  2.081769510461361E-004
  2.081769510460743E-004
  2.081769510461129E-004
  2.081769510461076E-004
  2.081769510460387E-004
  2.081769510460653E-004
  2.081769510460653E-004
  2.081769510461192E-004
  2.081769510461514E-004
  2.081769510461355E-004
  2.081769510461272E-004
  2.081769510461374E-004
  2.081769510461576E-004
  2.081769510461269E-004
  2.069783372551500E-004
  2.069783372551137E-004
  2.069783372551413E-004
  2.069783372551506E-004
  2.069783372551080E-004
  2.069783372551536E-004
  2.069783372551648E-004
  2.069783372551893E-004
  2.069783372552329E-004
  2.069783372552043E-004
  2.069783372551941E-004
  2.069783372552052E-004
  2.069783372552304E-004
  2.069783372552370E-004
  2.069783372552250E-004
  2.054021162811418E-004
  2.054021162811656E-004
  2.054021162811656E-004
  2.054021162811408E-004
  2.054021162811879E-004
  2.054021162811026E-004
  2.054021162811273E-004
  2.054021162811567E-004
  2.054021162811754E-004
  2.054021162812124E-004
  2.054021162812342E-004
  2.054021162812472E-004
  2.054021162812425E-004
  2.054021162812789E-004
  2.054021162812362E-004
  2.033293280506468E-004
  2.033293280506548E-004
  2.033293280506199E-004
  2.033293280506427E-004
  2.033293280505927E-004
  2.033293280506831E-004
  2.033293280506999E-004
  2.033293280506799E-004
  2.033293280507081E-004
  2.033293280507030E-004
  2.033293280507035E-004
  2.033293280506999E-004
  2.033293280507197E-004
  2.033293280506328E-004
  2.033293280506765E-004
  2.006035357158881E-004
  2.006035357159017E-004
  2.006035357159436E-004
  2.006035357159801E-004
  2.006035357160107E-004
  2.006035357160364E-004
  2.006035357160204E-004
  2.006035357160207E-004
  2.006035357160483E-004
  2.006035357160300E-004
  2.006035357160446E-004
  2.006035357160176E-004
  2.006035357159657E-004
  2.006035357160329E-004
  2.006035357159557E-004
  1.970190191010321E-004
  1.970190191009377E-004
  1.970190191009680E-004
  1.970190191010055E-004
  1.970190191010860E-004
  1.970190191010776E-004
  1.970190191009925E-004
  1.970190191009736E-004
  1.970190191009305E-004
  1.970190191009790E-004
  1.970190191009950E-004
  1.970190191009814E-004
  1.970190191010264E-004
  1.970190191009840E-004
  1.970190191010303E-004
  1.923052486496679E-004
  1.923052486497042E-004
  1.923052486497289E-004
  1.923052486497195E-004
  1.923052486497065E-004
  1.923052486497065E-004
  1.923052486497271E-004
  1.923052486497667E-004
  1.923052486497636E-004
  1.923052486498042E-004
  1.923052486497896E-004
  1.923052486498038E-004
  1.923052486497842E-004
  1.923052486497551E-004
  1.923052486497978E-004
  1.861064681018550E-004
  1.861064681018808E-004
  1.861064681018145E-004
  1.861064681018428E-004
  1.861064681018281E-004
  1.861064681018497E-004
  1.861064681018202E-004
  1.861064681018497E-004
  1.861064681018708E-004
  1.861064681018532E-004
  1.861064681018525E-004
  1.861064681018665E-004
  1.861064681019002E-004
  1.861064681019208E-004
  1.861064681018659E-004
  1.779548449629694E-004
  1.779548449630402E-004
  1.779548449630804E-004
  1.779548449631002E-004
  1.779548449631487E-004
  1.779548449631099E-004
  1.779548449631413E-004
  1.779548449631386E-004
  1.779548449630615E-004
  1.779548449631652E-004
  1.779548449631720E-004
  1.779548449631648E-004
  1.779548449631652E-004
  1.779548449631349E-004
  1.779548449631763E-004
  1.672351623929385E-004
  1.672351623929492E-004
  1.672351623928192E-004
  1.672351623928226E-004
  1.672351623928256E-004
  1.672351623928598E-004
  1.672351623928659E-004
  1.672351623929088E-004
  1.672351623929513E-004
  1.672351623929616E-004
  1.672351623928951E-004
  1.672351623928743E-004
  1.672351623929158E-004
  1.672351623929490E-004
  1.672351623929547E-004
  1.531383877443648E-004
  1.531383877443176E-004
  1.531383877443276E-004
  1.531383877443384E-004
  1.531383877442812E-004
  1.531383877443551E-004
  1.531383877444066E-004
  1.531383877444198E-004
  1.531383877444092E-004
  1.531383877443688E-004
  1.531383877444249E-004
  1.531383877444145E-004
  1.531383877443670E-004
  1.531383877443039E-004
  1.531383877443179E-004
  1.346006134968609E-004
  1.346006134969357E-004
  1.346006134968728E-004
  1.346006134968369E-004
  1.346006134968855E-004
  1.346006134969017E-004
  1.346006134969474E-004
  1.346006134969490E-004
  1.346006134968928E-004
  1.346006134969794E-004
  1.346006134968779E-004
  1.346006134969001E-004
  1.346006134968534E-004
  1.346006134968587E-004
  1.346006134968590E-004
  1.102227623487057E-004
  1.102227623487270E-004
  1.102227623487450E-004
  1.102227623487279E-004
  1.102227623487580E-004
  1.102227623488667E-004
  1.102227623488540E-004
  1.102227623488499E-004
  1.102227623489069E-004
  1.102227623488694E-004
  1.102227623488653E-004
  1.102227623487907E-004
  1.102227623487424E-004
  1.102227623487709E-004
  1.102227623487963E-004
SCALARS poroP double 
LOOKUP_TABLE default
  0.000000000000000E+000
  0.000000000000000E+000
  0.000000000000000E+000
  0.000000000000000E+000
  0.000000000000000E+000
  0.000000000000000E+000
  0.000000000000000E+000
  0.000000000000000E+000
  0.000000000000000E+000
  0.000000000000000E+000
  0.000000000000000E+000
  0.000000000000000E+000
  0.000000000000000E+000
  0.000000000000000E+000
  0.000000000000000E+000
  0.000000000000000E+000
  0.000000000000000E+000
  0.000000000000000E+000
  0.000000000000000E+000
  0.000000000000000E+000
  0.000000000000000E+000
  0.000000000000000E+000
  0.000000000000000E+000
  0.000000000000000E+000
  0.000000000000000E+000
  0.000000000000000E+000
  0.000000000000000E+000
  0.000000000000000E+000
  0.000000000000000E+000
  0.000000000000000E+000
  0.000000000000000E+000
  0.000000000000000E+000
  0.000000000000000E+000
  0.000000000000000E+000
  0.000000000000000E+000
  0.000000000000000E+000
  0.000000000000000E+000
  0.000000000000000E+000
  0.000000000000000E+000
  0.000000000000000E+000
  0.000000000000000E+000
  0.000000000000000E+000
  0.000000000000000E+000
  0.000000000000000E+000
  0.000000000000000E+000
  0.000000000000000E+000
  0.000000000000000E+000
  0.000000000000000E+000
  0.000000000000000E+000
  0.000000000000000E+000
  0.000000000000000E+000
  0.000000000000000E+000
  0.000000000000000E+000
  0.000000000000000E+000
  0.000000000000000E+000
  0.000000000000000E+000
  0.000000000000000E+000
  0.000000000000000E+000
  0.000000000000000E+000
  0.000000000000000E+000
  0.000000000000000E+000
  0.000000000000000E+000
  0.000000000000000E+000
  0.000000000000000E+000
  0.000000000000000E+000
  0.000000000000000E+000
  0.000000000000000E+000
  0.000000000000000E+000
  0.000000000000000E+000
  0.000000000000000E+000
  0.000000000000000E+000
  0.000000000000000E+000
  0.000000000000000E+000
  0.000000000000000E+000
  0.000000000000000E+000
  0.000000000000000E+000
  0.000000000000000E+000
  0.000000000000000E+000
  0.000000000000000E+000
  0.000000000000000E+000
  0.000000000000000E+000
  0.000000000000000E+000
  0.000000000000000E+000
  0.000000000000000E+000
  0.000000000000000E+000
  0.000000000000000E+000
  0.000000000000000E+000
  0.000000000000000E+000
  0.000000000000000E+000
  0.000000000000000E+000
  0.000000000000000E+000
  0.000000000000000E+000
  0.000000000000000E+000
  0.000000000000000E+000
  0.000000000000000E+000
  0.000000000000000E+000
  0.000000000000000E+000
  0.000000000000000E+000
  0.000000000000000E+000
  0.000000000000000E+000
  0.000000000000000E+000
  0.000000000000000E+000
  0.000000000000000E+000
  0.000000000000000E+000
  0.000000000000000E+000
  0.000000000000000E+000
  0.000000000000000E+000
  0.000000000000000E+000
  0.000000000000000E+000
  0.000000000000000E+000
  0.000000000000000E+000
  0.000000000000000E+000
  0.000000000000000E+000
  0.000000000000000E+000
  0.000000000000000E+000
  0.000000000000000E+000
  0.000000000000000E+000
  0.000000000000000E+000
  0.000000000000000E+000
  0.000000000000000E+000
  0.000000000000000E+000
  0.000000000000000E+000
  0.000000000000000E+000
  0.000000000000000E+000
  0.000000000000000E+000
  0.000000000000000E+000
  0.000000000000000E+000
  0.000000000000000E+000
  0.000000000000000E+000
  0.000000000000000E+000
  0.000000000000000E+000
  0.000000000000000E+000
  0.000000000000000E+000
  0.000000000000000E+000
  0.000000000000000E+000
  0.000000000000000E+000
  0.000000000000000E+000
  0.000000000000000E+000
  0.000000000000000E+000
  0.000000000000000E+000
  0.000000000000000E+000
  0.000000000000000E+000
  0.000000000000000E+000
  0.000000000000000E+000
  0.000000000000000E+000
  0.000000000000000E+000
  0.000000000000000E+000
  0.000000000000000E+000
  0.000000000000000E+000
  0.000000000000000E+000
  0.000000000000000E+000
  0.000000000000000E+000
  0.000000000000000E+000
  0.000000000000000E+000
  0.000000000000000E+000
  0.000000000000000E+000
  0.000000000000000E+000
  0.000000000000000E+000
  0.000000000000000E+000
  0.000000000000000E+000
  0.000000000000000E+000
  0.000000000000000E+000
  0.000000000000000E+000
  0.000000000000000E+000
  0.000000000000000E+000
  0.000000000000000E+000
  0.000000000000000E+000
  0.000000000000000E+000
  0.000000000000000E+000
  0.000000000000000E+000
  0.000000000000000E+000
  0.000000000000000E+000
  0.000000000000000E+000
  0.000000000000000E+000
  0.000000000000000E+000
  0.000000000000000E+000
  0.000000000000000E+000
  0.000000000000000E+000
  0.000000000000000E+000
  0.000000000000000E+000
  0.000000000000000E+000
  0.000000000000000E+000
  0.000000000000000E+000
  0.000000000000000E+000
  0.000000000000000E+000
  0.000000000000000E+000
  0.000000000000000E+000
  0.000000000000000E+000
  0.000000000000000E+000
  0.000000000000000E+000
  0.000000000000000E+000
  0.000000000000000E+000
  0.000000000000000E+000
  0.000000000000000E+000
  0.000000000000000E+000
  0.000000000000000E+000
  0.000000000000000E+000
  0.000000000000000E+000
  0.000000000000000E+000
  0.000000000000000E+000
  0.000000000000000E+000
  0.000000000000000E+000
  0.000000000000000E+000
  0.000000000000000E+000
  0.000000000000000E+000
  0.000000000000000E+000
  0.000000000000000E+000
  0.000000000000000E+000
  0.000000000000000E+000
  0.000000000000000E+000
  0.000000000000000E+000
  0.000000000000000E+000
  0.000000000000000E+000
  0.000000000000000E+000
  0.000000000000000E+000
  0.000000000000000E+000
  0.000000000000000E+000
  0.000000000000000E+000
  0.000000000000000E+000
  0.000000000000000E+000
  0.000000000000000E+000
  0.000000000000000E+000
  0.000000000000000E+000
  0.000000000000000E+000
  0.000000000000000E+000
  0.000000000000000E+000
  0.000000000000000E+000
  0.000000000000000E+000
  0.000000000000000E+000
  0.000000000000000E+000
  0.000000000000000E+000
  0.000000000000000E+000
  0.000000000000000E+000
  0.000000000000000E+000
  0.000000000000000E+000
  0.000000000000000E+000
  0.000000000000000E+000
  0.000000000000000E+000
  0.000000000000000E+000
  0.000000000000000E+000
  0.000000000000000E+000
  0.000000000000000E+000
  0.000000000000000E+000
  0.000000000000000E+000
  0.000000000000000E+000
  0.000000000000000E+000
  0.000000000000000E+000
  0.000000000000000E+000
  0.000000000000000E+000
  0.000000000000000E+000
  0.000000000000000E+000
  0.000000000000000E+000
  0.000000000000000E+000
  0.000000000000000E+000
  0.000000000000000E+000
  0.000000000000000E+000
  0.000000000000000E+000
  0.000000000000000E+000
  0.000000000000000E+000
  0.000000000000000E+000
  0.000000000000000E+000
  0.000000000000000E+000
  0.000000000000000E+000
  0.000000000000000E+000
  0.000000000000000E+000
  0.000000000000000E+000
  0.000000000000000E+000
  0.000000000000000E+000
  0.000000000000000E+000
  0.000000000000000E+000
  0.000000000000000E+000
  0.000000000000000E+000
  0.000000000000000E+000
  0.000000000000000E+000
  0.000000000000000E+000
  0.000000000000000E+000
  0.000000000000000E+000
  0.000000000000000E+000
  0.000000000000000E+000
  0.000000000000000E+000
  0.000000000000000E+000
  0.000000000000000E+000
  0.000000000000000E+000
  0.000000000000000E+000
  0.000000000000000E+000
  0.000000000000000E+000
  0.000000000000000E+000
  0.000000000000000E+000
  0.000000000000000E+000
  0.000000000000000E+000
  0.000000000000000E+000
  0.000000000000000E+000
  0.000000000000000E+000
  0.000000000000000E+000
  0.000000000000000E+000
  0.000000000000000E+000
  0.000000000000000E+000
  0.000000000000000E+000
  0.000000000000000E+000
  0.000000000000000E+000
  0.000000000000000E+000
  0.000000000000000E+000
  0.000000000000000E+000
  0.000000000000000E+000
  0.000000000000000E+000
  0.000000000000000E+000
  0.000000000000000E+000
  0.000000000000000E+000
  0.000000000000000E+000
  0.000000000000000E+000
  0.000000000000000E+000
  0.000000000000000E+000
  0.000000000000000E+000
  0.000000000000000E+000
  0.000000000000000E+000
  0.000000000000000E+000
  0.000000000000000E+000
  0.000000000000000E+000
  0.000000000000000E+000
  0.000000000000000E+000
  0.000000000000000E+000
  0.000000000000000E+000
  0.000000000000000E+000
  0.000000000000000E+000
  0.000000000000000E+000
  0.000000000000000E+000
  0.000000000000000E+000
  0.000000000000000E+000
  0.000000000000000E+000
  0.000000000000000E+000
  0.000000000000000E+000
  0.000000000000000E+000
  0.000000000000000E+000
  0.000000000000000E+000
  0.000000000000000E+000
  0.000000000000000E+000
  0.000000000000000E+000
  0.000000000000000E+000
  0.000000000000000E+000
  0.000000000000000E+000
  0.000000000000000E+000
  0.000000000000000E+000
  0.000000000000000E+000
  0.000000000000000E+000
  0.000000000000000E+000
  0.000000000000000E+000
  0.000000000000000E+000
  0.000000000000000E+000
  0.000000000000000E+000
  0.000000000000000E+000
  0.000000000000000E+000
  0.000000000000000E+000
  0.000000000000000E+000
  0.000000000000000E+000
  0.000000000000000E+000
  0.000000000000000E+000
  0.000000000000000E+000
  0.000000000000000E+000
  0.000000000000000E+000
  0.000000000000000E+000
  0.000000000000000E+000
  0.000000000000000E+000
  0.000000000000000E+000
  0.000000000000000E+000
  0.000000000000000E+000
  0.000000000000000E+000
  0.000000000000000E+000
  0.000000000000000E+000
  0.000000000000000E+000
  0.000000000000000E+000
  0.000000000000000E+000
  0.000000000000000E+000
  0.000000000000000E+000
  0.000000000000000E+000
  0.000000000000000E+000
  0.000000000000000E+000
  0.000000000000000E+000
  0.000000000000000E+000
  0.000000000000000E+000
  0.000000000000000E+000
  0.000000000000000E+000
  0.000000000000000E+000
  0.000000000000000E+000
  0.000000000000000E+000
  0.000000000000000E+000
  0.000000000000000E+000
  0.000000000000000E+000
  0.000000000000000E+000
  0.000000000000000E+000
  0.000000000000000E+000
  0.000000000000000E+000
  0.000000000000000E+000
  0.000000000000000E+000
  0.000000000000000E+000
  0.000000000000000E+000
  0.000000000000000E+000
  0.000000000000000E+000
  0.000000000000000E+000
  0.000000000000000E+000
  0.000000000000000E+000
  0.000000000000000E+000
  0.000000000000000E+000
  0.000000000000000E+000
  0.000000000000000E+000
  0.000000000000000E+000
  0.000000000000000E+000
  0.000000000000000E+000
  0.000000000000000E+000
  0.000000000000000E+000
  0.000000000000000E+000
  0.000000000000000E+000
  0.000000000000000E+000
  0.000000000000000E+000
  0.000000000000000E+000
  0.000000000000000E+000
  0.000000000000000E+000
  0.000000000000000E+000
  0.000000000000000E+000
  0.000000000000000E+000
  0.000000000000000E+000
  0.000000000000000E+000
  0.000000000000000E+000
  0.000000000000000E+000
  0.000000000000000E+000
  0.000000000000000E+000
  0.000000000000000E+000
  0.000000000000000E+000
  0.000000000000000E+000
  0.000000000000000E+000
  0.000000000000000E+000
  0.000000000000000E+000
  0.000000000000000E+000
  0.000000000000000E+000
  0.000000000000000E+000
  0.000000000000000E+000
  0.000000000000000E+000
  0.000000000000000E+000
  0.000000000000000E+000
  0.000000000000000E+000
  0.000000000000000E+000
  0.000000000000000E+000
  0.000000000000000E+000
  0.000000000000000E+000
  0.000000000000000E+000
  0.000000000000000E+000
  0.000000000000000E+000
  0.000000000000000E+000
  0.000000000000000E+000
  0.000000000000000E+000
  0.000000000000000E+000
  0.000000000000000E+000
  0.000000000000000E+000
  0.000000000000000E+000
  0.000000000000000E+000
  0.000000000000000E+000
  0.000000000000000E+000
  0.000000000000000E+000
  0.000000000000000E+000
  0.000000000000000E+000
  0.000000000000000E+000
  0.000000000000000E+000
  0.000000000000000E+000
  0.000000000000000E+000
  0.000000000000000E+000
  0.000000000000000E+000
  0.000000000000000E+000
  0.000000000000000E+000
  0.000000000000000E+000
  0.000000000000000E+000
  0.000000000000000E+000
  0.000000000000000E+000
  0.000000000000000E+000
  0.000000000000000E+000
  0.000000000000000E+000
  0.000000000000000E+000
  0.000000000000000E+000
  0.000000000000000E+000
  0.000000000000000E+000
  0.000000000000000E+000
  0.000000000000000E+000
  0.000000000000000E+000
  0.000000000000000E+000
  0.000000000000000E+000
  0.000000000000000E+000
  0.000000000000000E+000
  0.000000000000000E+000
  0.000000000000000E+000
  0.000000000000000E+000
  0.000000000000000E+000
  0.000000000000000E+000
  0.000000000000000E+000
  0.000000000000000E+000
  0.000000000000000E+000
  0.000000000000000E+000
  0.000000000000000E+000
  0.000000000000000E+000
  0.000000000000000E+000
  0.000000000000000E+000
  0.000000000000000E+000
  0.000000000000000E+000
  0.000000000000000E+000
  0.000000000000000E+000
  0.000000000000000E+000
  0.000000000000000E+000
  0.000000000000000E+000
  0.000000000000000E+000
  0.000000000000000E+000
  0.000000000000000E+000
  0.000000000000000E+000
  0.000000000000000E+000
  0.000000000000000E+000
  0.000000000000000E+000
  0.000000000000000E+000
  0.000000000000000E+000
  0.000000000000000E+000
  0.000000000000000E+000
  0.000000000000000E+000
  0.000000000000000E+000
  0.000000000000000E+000
  0.000000000000000E+000
  0.000000000000000E+000
  0.000000000000000E+000
  0.000000000000000E+000
  0.000000000000000E+000
  0.000000000000000E+000
  0.000000000000000E+000
  0.000000000000000E+000
  0.000000000000000E+000
  0.000000000000000E+000
  0.000000000000000E+000
  0.000000000000000E+000
  0.000000000000000E+000
  0.000000000000000E+000
  0.000000000000000E+000
  0.000000000000000E+000
  0.000000000000000E+000
  0.000000000000000E+000
  0.000000000000000E+000
  0.000000000000000E+000
  0.000000000000000E+000
  0.000000000000000E+000
  0.000000000000000E+000
  0.000000000000000E+000
  0.000000000000000E+000
  0.000000000000000E+000
  0.000000000000000E+000
  0.000000000000000E+000
  0.000000000000000E+000
  0.000000000000000E+000
  0.000000000000000E+000
  0.000000000000000E+000
  0.000000000000000E+000
  0.000000000000000E+000
  0.000000000000000E+000
  0.000000000000000E+000
  0.000000000000000E+000
  0.000000000000000E+000
  0.000000000000000E+000
  0.000000000000000E+000
  0.000000000000000E+000
  0.000000000000000E+000
  0.000000000000000E+000
  0.000000000000000E+000
  0.000000000000000E+000
  0.000000000000000E+000
  0.000000000000000E+000
  0.000000000000000E+000
  0.000000000000000E+000
  0.000000000000000E+000
  0.000000000000000E+000
  0.000000000000000E+000
  0.000000000000000E+000
  0.000000000000000E+000
  0.000000000000000E+000
  0.000000000000000E+000
  0.000000000000000E+000
  0.000000000000000E+000
  0.000000000000000E+000
  0.000000000000000E+000
  0.000000000000000E+000
  0.000000000000000E+000
  0.000000000000000E+000
  0.000000000000000E+000
  0.000000000000000E+000
  0.000000000000000E+000
  0.000000000000000E+000
  0.000000000000000E+000
  0.000000000000000E+000
  0.000000000000000E+000
  0.000000000000000E+000
  0.000000000000000E+000
  0.000000000000000E+000
  0.000000000000000E+000
  0.000000000000000E+000
  0.000000000000000E+000
  0.000000000000000E+000
  0.000000000000000E+000
  0.000000000000000E+000
  0.000000000000000E+000
  0.000000000000000E+000
  0.000000000000000E+000
  0.000000000000000E+000
  0.000000000000000E+000
  0.000000000000000E+000
  0.000000000000000E+000
  0.000000000000000E+000
  0.000000000000000E+000
  0.000000000000000E+000
  0.000000000000000E+000
  0.000000000000000E+000
  0.000000000000000E+000
  0.000000000000000E+000
  0.000000000000000E+000
  0.000000000000000E+000
  0.000000000000000E+000
  0.000000000000000E+000
  0.000000000000000E+000
  0.000000000000000E+000
  0.000000000000000E+000
  0.000000000000000E+000
  0.000000000000000E+000
  0.000000000000000E+000
  0.000000000000000E+000
  0.000000000000000E+000
  0.000000000000000E+000
  0.000000000000000E+000
  0.000000000000000E+000
  0.000000000000000E+000
  0.000000000000000E+000
  0.000000000000000E+000
  0.000000000000000E+000
  0.000000000000000E+000
  0.000000000000000E+000
  0.000000000000000E+000
  0.000000000000000E+000
  0.000000000000000E+000
  0.000000000000000E+000
  0.000000000000000E+000
  0.000000000000000E+000
  0.000000000000000E+000
  0.000000000000000E+000
  0.000000000000000E+000
  0.000000000000000E+000
  0.000000000000000E+000
  0.000000000000000E+000
  0.000000000000000E+000
  0.000000000000000E+000
  0.000000000000000E+000
  0.000000000000000E+000
  0.000000000000000E+000
  0.000000000000000E+000
  0.000000000000000E+000
  0.000000000000000E+000
  0.000000000000000E+000
  0.000000000000000E+000
  0.000000000000000E+000
  0.000000000000000E+000
  0.000000000000000E+000
  0.000000000000000E+000
  0.000000000000000E+000
  0.000000000000000E+000
  0.000000000000000E+000
  0.000000000000000E+000
  0.000000000000000E+000
  0.000000000000000E+000
  0.000000000000000E+000
  0.000000000000000E+000
  0.000000000000000E+000
  0.000000000000000E+000
  0.000000000000000E+000
  0.000000000000000E+000
  0.000000000000000E+000
  0.000000000000000E+000
  0.000000000000000E+000
  0.000000000000000E+000
  0.000000000000000E+000
  0.000000000000000E+000
  0.000000000000000E+000
  0.000000000000000E+000
  0.000000000000000E+000
  0.000000000000000E+000
  0.000000000000000E+000
  0.000000000000000E+000
  0.000000000000000E+000
  0.000000000000000E+000
  0.000000000000000E+000
  0.000000000000000E+000
  0.000000000000000E+000
  0.000000000000000E+000
  0.000000000000000E+000
  0.000000000000000E+000
  0.000000000000000E+000
  0.000000000000000E+000
  0.000000000000000E+000
  0.000000000000000E+000
  0.000000000000000E+000
  0.000000000000000E+000
  0.000000000000000E+000
  0.000000000000000E+000
  0.000000000000000E+000
  0.000000000000000E+000
  0.000000000000000E+000
  0.000000000000000E+000
  0.000000000000000E+000
  0.000000000000000E+000
  0.000000000000000E+000
  0.000000000000000E+000
  0.000000000000000E+000
  0.000000000000000E+000
  0.000000000000000E+000
  0.000000000000000E+000
  0.000000000000000E+000
  0.000000000000000E+000
  0.000000000000000E+000
  0.000000000000000E+000
  0.000000000000000E+000
  0.000000000000000E+000
  0.000000000000000E+000
  0.000000000000000E+000
  0.000000000000000E+000
  0.000000000000000E+000
  0.000000000000000E+000
  0.000000000000000E+000
  0.000000000000000E+000
  0.000000000000000E+000
  0.000000000000000E+000
  0.000000000000000E+000
  0.000000000000000E+000
  0.000000000000000E+000
  0.000000000000000E+000
  0.000000000000000E+000
  0.000000000000000E+000
  0.000000000000000E+000
  0.000000000000000E+000
  0.000000000000000E+000
  0.000000000000000E+000
  0.000000000000000E+000
  0.000000000000000E+000
  0.000000000000000E+000
  0.000000000000000E+000
  0.000000000000000E+000
  0.000000000000000E+000
  0.000000000000000E+000
  0.000000000000000E+000
  0.000000000000000E+000
  0.000000000000000E+000
  0.000000000000000E+000
  0.000000000000000E+000
  0.000000000000000E+000
  0.000000000000000E+000
  0.000000000000000E+000
  0.000000000000000E+000
  0.000000000000000E+000
  0.000000000000000E+000
  0.000000000000000E+000
  0.000000000000000E+000
  0.000000000000000E+000
  0.000000000000000E+000
  0.000000000000000E+000
  0.000000000000000E+000
  0.000000000000000E+000
  0.000000000000000E+000
  0.000000000000000E+000
  0.000000000000000E+000
  0.000000000000000E+000
  0.000000000000000E+000
  0.000000000000000E+000
  0.000000000000000E+000
  0.000000000000000E+000
  0.000000000000000E+000
  0.000000000000000E+000
  0.000000000000000E+000
  0.000000000000000E+000
  0.000000000000000E+000
  0.000000000000000E+000
  0.000000000000000E+000
  0.000000000000000E+000
  0.000000000000000E+000
  0.000000000000000E+000
  0.000000000000000E+000
  0.000000000000000E+000
  0.000000000000000E+000
  0.000000000000000E+000
  0.000000000000000E+000
  0.000000000000000E+000
  0.000000000000000E+000
  0.000000000000000E+000
  0.000000000000000E+000
  0.000000000000000E+000
  0.000000000000000E+000
  0.000000000000000E+000
  0.000000000000000E+000
  0.000000000000000E+000
  0.000000000000000E+000
  0.000000000000000E+000
  0.000000000000000E+000
  0.000000000000000E+000
  0.000000000000000E+000
  0.000000000000000E+000
  0.000000000000000E+000
  0.000000000000000E+000
  0.000000000000000E+000
  0.000000000000000E+000
  0.000000000000000E+000
  0.000000000000000E+000
  0.000000000000000E+000
  0.000000000000000E+000
  0.000000000000000E+000
  0.000000000000000E+000
  0.000000000000000E+000
  0.000000000000000E+000
  0.000000000000000E+000
  0.000000000000000E+000
  0.000000000000000E+000
  0.000000000000000E+000
  0.000000000000000E+000
  0.000000000000000E+000
  0.000000000000000E+000
  0.000000000000000E+000
  0.000000000000000E+000
  0.000000000000000E+000
  0.000000000000000E+000
  0.000000000000000E+000
  0.000000000000000E+000
  0.000000000000000E+000
  0.000000000000000E+000
  0.000000000000000E+000
  0.000000000000000E+000
  0.000000000000000E+000
  0.000000000000000E+000
  0.000000000000000E+000
  0.000000000000000E+000
  0.000000000000000E+000
  0.000000000000000E+000
  0.000000000000000E+000
  0.000000000000000E+000
  0.000000000000000E+000
  0.000000000000000E+000
  0.000000000000000E+000
  0.000000000000000E+000
  0.000000000000000E+000
  0.000000000000000E+000
  0.000000000000000E+000
  0.000000000000000E+000
  0.000000000000000E+000
  0.000000000000000E+000
  0.000000000000000E+000
  0.000000000000000E+000
  0.000000000000000E+000
  0.000000000000000E+000
  0.000000000000000E+000
  0.000000000000000E+000
  0.000000000000000E+000
  0.000000000000000E+000
  0.000000000000000E+000
  0.000000000000000E+000
  0.000000000000000E+000
  0.000000000000000E+000
  0.000000000000000E+000
  0.000000000000000E+000
  0.000000000000000E+000
  0.000000000000000E+000
  0.000000000000000E+000
  0.000000000000000E+000
  0.000000000000000E+000
  0.000000000000000E+000
  0.000000000000000E+000
  0.000000000000000E+000
  0.000000000000000E+000
  0.000000000000000E+000
  0.000000000000000E+000
  0.000000000000000E+000
  0.000000000000000E+000
  0.000000000000000E+000
  0.000000000000000E+000
  0.000000000000000E+000
  0.000000000000000E+000
  0.000000000000000E+000
  0.000000000000000E+000
  0.000000000000000E+000
  0.000000000000000E+000
  0.000000000000000E+000
  0.000000000000000E+000
  0.000000000000000E+000
  0.000000000000000E+000
  0.000000000000000E+000
  0.000000000000000E+000
  0.000000000000000E+000
  0.000000000000000E+000
  0.000000000000000E+000
  0.000000000000000E+000
  0.000000000000000E+000
  0.000000000000000E+000
  0.000000000000000E+000
  0.000000000000000E+000
  0.000000000000000E+000
  0.000000000000000E+000
  0.000000000000000E+000
  0.000000000000000E+000
  0.000000000000000E+000
  0.000000000000000E+000
  0.000000000000000E+000
  0.000000000000000E+000
  0.000000000000000E+000
  0.000000000000000E+000
  0.000000000000000E+000
  0.000000000000000E+000
  0.000000000000000E+000
  0.000000000000000E+000
  0.000000000000000E+000
  0.000000000000000E+000
  0.000000000000000E+000
  0.000000000000000E+000
  0.000000000000000E+000
  0.000000000000000E+000
  0.000000000000000E+000
  0.000000000000000E+000
  0.000000000000000E+000
  0.000000000000000E+000
  0.000000000000000E+000
  0.000000000000000E+000
  0.000000000000000E+000
  0.000000000000000E+000
  0.000000000000000E+000
  0.000000000000000E+000
  0.000000000000000E+000
  0.000000000000000E+000
  0.000000000000000E+000
  0.000000000000000E+000
  0.000000000000000E+000
  0.000000000000000E+000
  0.000000000000000E+000
  0.000000000000000E+000
  0.000000000000000E+000
  0.000000000000000E+000
  0.000000000000000E+000
  0.000000000000000E+000
  0.000000000000000E+000
  0.000000000000000E+000
  0.000000000000000E+000
  0.000000000000000E+000
  0.000000000000000E+000
  0.000000000000000E+000
  0.000000000000000E+000
  0.000000000000000E+000
  0.000000000000000E+000
  0.000000000000000E+000
  0.000000000000000E+000
  0.000000000000000E+000
  0.000000000000000E+000
  0.000000000000000E+000
  0.000000000000000E+000
  0.000000000000000E+000
  0.000000000000000E+000
  0.000000000000000E+000
  0.000000000000000E+000
  0.000000000000000E+000
  0.000000000000000E+000
  0.000000000000000E+000
  0.000000000000000E+000
  0.000000000000000E+000
  0.000000000000000E+000
  0.000000000000000E+000
  0.000000000000000E+000
  0.000000000000000E+000
  0.000000000000000E+000
  0.000000000000000E+000
  0.000000000000000E+000
  0.000000000000000E+000
  0.000000000000000E+000
  0.000000000000000E+000
  0.000000000000000E+000
  0.000000000000000E+000
  0.000000000000000E+000
  0.000000000000000E+000
  0.000000000000000E+000
  0.000000000000000E+000
  0.000000000000000E+000
  0.000000000000000E+000
  0.000000000000000E+000
  0.000000000000000E+000
  0.000000000000000E+000
  0.000000000000000E+000
  0.000000000000000E+000
  0.000000000000000E+000
  0.000000000000000E+000
  0.000000000000000E+000
  0.000000000000000E+000
  0.000000000000000E+000
  0.000000000000000E+000
  0.000000000000000E+000
  0.000000000000000E+000
  0.000000000000000E+000
  0.000000000000000E+000
  0.000000000000000E+000
  0.000000000000000E+000
  0.000000000000000E+000
  0.000000000000000E+000
  0.000000000000000E+000
  0.000000000000000E+000
  0.000000000000000E+000
  0.000000000000000E+000
  0.000000000000000E+000
  0.000000000000000E+000
  0.000000000000000E+000
  0.000000000000000E+000
  0.000000000000000E+000
  0.000000000000000E+000
  0.000000000000000E+000
  0.000000000000000E+000
  0.000000000000000E+000
  0.000000000000000E+000
  0.000000000000000E+000
  0.000000000000000E+000
  0.000000000000000E+000
  0.000000000000000E+000
  0.000000000000000E+000
  0.000000000000000E+000
  0.000000000000000E+000
  0.000000000000000E+000
  0.000000000000000E+000
  0.000000000000000E+000
  0.000000000000000E+000
  0.000000000000000E+000
  0.000000000000000E+000
  0.000000000000000E+000
  0.000000000000000E+000
  0.000000000000000E+000
  0.000000000000000E+000
  0.000000000000000E+000
  0.000000000000000E+000
  0.000000000000000E+000
  0.000000000000000E+000
  0.000000000000000E+000
  0.000000000000000E+000
  0.000000000000000E+000
  0.000000000000000E+000
  0.000000000000000E+000
  0.000000000000000E+000
  0.000000000000000E+000
  0.000000000000000E+000
  0.000000000000000E+000
  0.000000000000000E+000
  0.000000000000000E+000
  0.000000000000000E+000
  0.000000000000000E+000
  0.000000000000000E+000
  0.000000000000000E+000
  0.000000000000000E+000
  0.000000000000000E+000
  0.000000000000000E+000
  0.000000000000000E+000
  0.000000000000000E+000
  0.000000000000000E+000
  0.000000000000000E+000
  0.000000000000000E+000
  0.000000000000000E+000
  0.000000000000000E+000
  0.000000000000000E+000
  0.000000000000000E+000
  0.000000000000000E+000
  0.000000000000000E+000
  0.000000000000000E+000
  0.000000000000000E+000
  0.000000000000000E+000
  0.000000000000000E+000
  0.000000000000000E+000
  0.000000000000000E+000
  0.000000000000000E+000
  0.000000000000000E+000
  0.000000000000000E+000
  0.000000000000000E+000
  0.000000000000000E+000
  0.000000000000000E+000
  0.000000000000000E+000
  0.000000000000000E+000
  0.000000000000000E+000
  0.000000000000000E+000
  0.000000000000000E+000
  0.000000000000000E+000
  0.000000000000000E+000
  0.000000000000000E+000
  0.000000000000000E+000
  0.000000000000000E+000
  0.000000000000000E+000
  0.000000000000000E+000
  0.000000000000000E+000
  0.000000000000000E+000
  0.000000000000000E+000
  0.000000000000000E+000
  0.000000000000000E+000
  0.000000000000000E+000
  0.000000000000000E+000
  0.000000000000000E+000
  0.000000000000000E+000
  0.000000000000000E+000
  0.000000000000000E+000
  0.000000000000000E+000
  0.000000000000000E+000
  0.000000000000000E+000
  0.000000000000000E+000
  0.000000000000000E+000
  0.000000000000000E+000
  0.000000000000000E+000
  0.000000000000000E+000
  0.000000000000000E+000
  0.000000000000000E+000
  0.000000000000000E+000
  0.000000000000000E+000
  0.000000000000000E+000
  0.000000000000000E+000
  0.000000000000000E+000
  0.000000000000000E+000
  0.000000000000000E+000
  0.000000000000000E+000
  0.000000000000000E+000
  0.000000000000000E+000
  0.000000000000000E+000
  0.000000000000000E+000
  0.000000000000000E+000
  0.000000000000000E+000
  0.000000000000000E+000
  0.000000000000000E+000
  0.000000000000000E+000
  0.000000000000000E+000
  0.000000000000000E+000
  0.000000000000000E+000
  0.000000000000000E+000
  0.000000000000000E+000
  0.000000000000000E+000
  0.000000000000000E+000
  0.000000000000000E+000
  0.000000000000000E+000
  0.000000000000000E+000
  0.000000000000000E+000
  0.000000000000000E+000
  0.000000000000000E+000
  0.000000000000000E+000
  0.000000000000000E+000
  0.000000000000000E+000
  0.000000000000000E+000
  0.000000000000000E+000
  0.000000000000000E+000
  0.000000000000000E+000
  0.000000000000000E+000
  0.000000000000000E+000
  0.000000000000000E+000
  0.000000000000000E+000
  0.000000000000000E+000
  0.000000000000000E+000
  0.000000000000000E+000
  0.000000000000000E+000
  0.000000000000000E+000
  0.000000000000000E+000
  0.000000000000000E+000
  0.000000000000000E+000
  0.000000000000000E+000
  0.000000000000000E+000
  0.000000000000000E+000
  0.000000000000000E+000
  0.000000000000000E+000
  0.000000000000000E+000
  0.000000000000000E+000
  0.000000000000000E+000
  0.000000000000000E+000
  0.000000000000000E+000
  0.000000000000000E+000
  0.000000000000000E+000
  0.000000000000000E+000
  0.000000000000000E+000
  0.000000000000000E+000
  0.000000000000000E+000
  0.000000000000000E+000
  0.000000000000000E+000
  0.000000000000000E+000
  0.000000000000000E+000
  0.000000000000000E+000
  0.000000000000000E+000
  0.000000000000000E+000
  0.000000000000000E+000
  0.000000000000000E+000
  0.000000000000000E+000
  0.000000000000000E+000
  0.000000000000000E+000
  0.000000000000000E+000
  0.000000000000000E+000
  0.000000000000000E+000
  0.000000000000000E+000
  0.000000000000000E+000
  0.000000000000000E+000
  0.000000000000000E+000
  0.000000000000000E+000
  0.000000000000000E+000
  0.000000000000000E+000
  0.000000000000000E+000
  0.000000000000000E+000
  0.000000000000000E+000
  0.000000000000000E+000
  0.000000000000000E+000
  0.000000000000000E+000
  0.000000000000000E+000
  0.000000000000000E+000
  0.000000000000000E+000
  0.000000000000000E+000
  0.000000000000000E+000
  0.000000000000000E+000
  0.000000000000000E+000
  0.000000000000000E+000
  0.000000000000000E+000
  0.000000000000000E+000
  0.000000000000000E+000
  0.000000000000000E+000
  0.000000000000000E+000
  0.000000000000000E+000
  0.000000000000000E+000
  0.000000000000000E+000
  0.000000000000000E+000
  0.000000000000000E+000
  0.000000000000000E+000
  0.000000000000000E+000
  0.000000000000000E+000
  0.000000000000000E+000
  0.000000000000000E+000
  0.000000000000000E+000
  0.000000000000000E+000
  0.000000000000000E+000
  0.000000000000000E+000
  0.000000000000000E+000
  0.000000000000000E+000
  0.000000000000000E+000
  0.000000000000000E+000
  0.000000000000000E+000
  0.000000000000000E+000
  0.000000000000000E+000
  0.000000000000000E+000
  0.000000000000000E+000
  0.000000000000000E+000
  0.000000000000000E+000
  0.000000000000000E+000
  0.000000000000000E+000
  0.000000000000000E+000
  0.000000000000000E+000
  0.000000000000000E+000
  0.000000000000000E+000
  0.000000000000000E+000
  0.000000000000000E+000
  0.000000000000000E+000
  0.000000000000000E+000
  0.000000000000000E+000
  0.000000000000000E+000
  0.000000000000000E+000
  0.000000000000000E+000
  0.000000000000000E+000
  0.000000000000000E+000
  0.000000000000000E+000
  0.000000000000000E+000
  0.000000000000000E+000
  0.000000000000000E+000
  0.000000000000000E+000
  0.000000000000000E+000
  0.000000000000000E+000
  0.000000000000000E+000
  0.000000000000000E+000
  0.000000000000000E+000
  0.000000000000000E+000
  0.000000000000000E+000
  0.000000000000000E+000
  0.000000000000000E+000
  0.000000000000000E+000
  0.000000000000000E+000
  0.000000000000000E+000
  0.000000000000000E+000
  0.000000000000000E+000
  0.000000000000000E+000
  0.000000000000000E+000
  0.000000000000000E+000
  0.000000000000000E+000
  0.000000000000000E+000
  0.000000000000000E+000
  0.000000000000000E+000
  0.000000000000000E+000
  0.000000000000000E+000
  0.000000000000000E+000
  0.000000000000000E+000
  0.000000000000000E+000
  0.000000000000000E+000
  0.000000000000000E+000
  0.000000000000000E+000
  0.000000000000000E+000
  0.000000000000000E+000
  0.000000000000000E+000
  0.000000000000000E+000
  0.000000000000000E+000
  0.000000000000000E+000
  0.000000000000000E+000
  0.000000000000000E+000
  0.000000000000000E+000
  0.000000000000000E+000
  0.000000000000000E+000
  0.000000000000000E+000
  0.000000000000000E+000
  0.000000000000000E+000
  0.000000000000000E+000
  0.000000000000000E+000
  0.000000000000000E+000
  0.000000000000000E+000
  0.000000000000000E+000
  0.000000000000000E+000
  0.000000000000000E+000
  0.000000000000000E+000
  0.000000000000000E+000
  0.000000000000000E+000
  0.000000000000000E+000
  0.000000000000000E+000
  0.000000000000000E+000
  0.000000000000000E+000
  0.000000000000000E+000
  0.000000000000000E+000
  0.000000000000000E+000
  0.000000000000000E+000
  0.000000000000000E+000
  0.000000000000000E+000
  0.000000000000000E+000
  0.000000000000000E+000
  0.000000000000000E+000
  0.000000000000000E+000
  0.000000000000000E+000
  0.000000000000000E+000
  0.000000000000000E+000
  0.000000000000000E+000
  0.000000000000000E+000
  0.000000000000000E+000
  0.000000000000000E+000
  0.000000000000000E+000
  0.000000000000000E+000
  0.000000000000000E+000
  0.000000000000000E+000
  0.000000000000000E+000
  0.000000000000000E+000
  0.000000000000000E+000
  0.000000000000000E+000
  0.000000000000000E+000
  0.000000000000000E+000
  0.000000000000000E+000
  0.000000000000000E+000
  0.000000000000000E+000
  0.000000000000000E+000
  0.000000000000000E+000
  0.000000000000000E+000
  0.000000000000000E+000
SCALARS elementIsPlast double 
LOOKUP_TABLE default
  0.000000000000000E+000
  0.000000000000000E+000
  0.000000000000000E+000
  0.000000000000000E+000
  0.000000000000000E+000
  0.000000000000000E+000
  0.000000000000000E+000
  0.000000000000000E+000
  0.000000000000000E+000
  0.000000000000000E+000
  0.000000000000000E+000
  0.000000000000000E+000
  0.000000000000000E+000
  0.000000000000000E+000
  0.000000000000000E+000
  0.000000000000000E+000
  0.000000000000000E+000
  0.000000000000000E+000
  0.000000000000000E+000
  0.000000000000000E+000
  0.000000000000000E+000
  0.000000000000000E+000
  0.000000000000000E+000
  0.000000000000000E+000
  0.000000000000000E+000
  0.000000000000000E+000
  0.000000000000000E+000
  0.000000000000000E+000
  0.000000000000000E+000
  0.000000000000000E+000
  0.000000000000000E+000
  0.000000000000000E+000
  0.000000000000000E+000
  0.000000000000000E+000
  0.000000000000000E+000
  0.000000000000000E+000
  0.000000000000000E+000
  0.000000000000000E+000
  0.000000000000000E+000
  0.000000000000000E+000
  0.000000000000000E+000
  0.000000000000000E+000
  0.000000000000000E+000
  0.000000000000000E+000
  0.000000000000000E+000
  0.000000000000000E+000
  0.000000000000000E+000
  0.000000000000000E+000
  0.000000000000000E+000
  0.000000000000000E+000
  0.000000000000000E+000
  0.000000000000000E+000
  0.000000000000000E+000
  0.000000000000000E+000
  0.000000000000000E+000
  0.000000000000000E+000
  0.000000000000000E+000
  0.000000000000000E+000
  0.000000000000000E+000
  0.000000000000000E+000
  0.000000000000000E+000
  0.000000000000000E+000
  0.000000000000000E+000
  0.000000000000000E+000
  0.000000000000000E+000
  0.000000000000000E+000
  0.000000000000000E+000
  0.000000000000000E+000
  0.000000000000000E+000
  0.000000000000000E+000
  0.000000000000000E+000
  0.000000000000000E+000
  0.000000000000000E+000
  0.000000000000000E+000
  0.000000000000000E+000
  0.000000000000000E+000
  0.000000000000000E+000
  0.000000000000000E+000
  0.000000000000000E+000
  0.000000000000000E+000
  0.000000000000000E+000
  0.000000000000000E+000
  0.000000000000000E+000
  0.000000000000000E+000
  0.000000000000000E+000
  0.000000000000000E+000
  0.000000000000000E+000
  0.000000000000000E+000
  0.000000000000000E+000
  0.000000000000000E+000
  0.000000000000000E+000
  0.000000000000000E+000
  0.000000000000000E+000
  0.000000000000000E+000
  0.000000000000000E+000
  0.000000000000000E+000
  0.000000000000000E+000
  0.000000000000000E+000
  0.000000000000000E+000
  0.000000000000000E+000
  0.000000000000000E+000
  0.000000000000000E+000
  0.000000000000000E+000
  0.000000000000000E+000
  0.000000000000000E+000
  0.000000000000000E+000
  0.000000000000000E+000
  0.000000000000000E+000
  0.000000000000000E+000
  0.000000000000000E+000
  0.000000000000000E+000
  0.000000000000000E+000
  0.000000000000000E+000
  0.000000000000000E+000
  0.000000000000000E+000
  0.000000000000000E+000
  0.000000000000000E+000
  0.000000000000000E+000
  0.000000000000000E+000
  0.000000000000000E+000
  0.000000000000000E+000
  0.000000000000000E+000
  0.000000000000000E+000
  0.000000000000000E+000
  0.000000000000000E+000
  0.000000000000000E+000
  0.000000000000000E+000
  0.000000000000000E+000
  0.000000000000000E+000
  0.000000000000000E+000
  0.000000000000000E+000
  0.000000000000000E+000
  0.000000000000000E+000
  0.000000000000000E+000
  0.000000000000000E+000
  0.000000000000000E+000
  0.000000000000000E+000
  0.000000000000000E+000
  0.000000000000000E+000
  0.000000000000000E+000
  0.000000000000000E+000
  0.000000000000000E+000
  0.000000000000000E+000
  0.000000000000000E+000
  0.000000000000000E+000
  0.000000000000000E+000
  0.000000000000000E+000
  0.000000000000000E+000
  0.000000000000000E+000
  0.000000000000000E+000
  0.000000000000000E+000
  0.000000000000000E+000
  0.000000000000000E+000
  0.000000000000000E+000
  0.000000000000000E+000
  0.000000000000000E+000
  0.000000000000000E+000
  0.000000000000000E+000
  0.000000000000000E+000
  0.000000000000000E+000
  0.000000000000000E+000
  0.000000000000000E+000
  0.000000000000000E+000
  0.000000000000000E+000
  0.000000000000000E+000
  0.000000000000000E+000
  0.000000000000000E+000
  0.000000000000000E+000
  0.000000000000000E+000
  0.000000000000000E+000
  0.000000000000000E+000
  0.000000000000000E+000
  0.000000000000000E+000
  0.000000000000000E+000
  0.000000000000000E+000
  0.000000000000000E+000
  0.000000000000000E+000
  0.000000000000000E+000
  0.000000000000000E+000
  0.000000000000000E+000
  0.000000000000000E+000
  0.000000000000000E+000
  0.000000000000000E+000
  0.000000000000000E+000
  0.000000000000000E+000
  0.000000000000000E+000
  0.000000000000000E+000
  0.000000000000000E+000
  0.000000000000000E+000
  0.000000000000000E+000
  0.000000000000000E+000
  0.000000000000000E+000
  0.000000000000000E+000
  0.000000000000000E+000
  0.000000000000000E+000
  0.000000000000000E+000
  0.000000000000000E+000
  0.000000000000000E+000
  0.000000000000000E+000
  0.000000000000000E+000
  0.000000000000000E+000
  0.000000000000000E+000
  0.000000000000000E+000
  0.000000000000000E+000
  0.000000000000000E+000
  0.000000000000000E+000
  0.000000000000000E+000
  0.000000000000000E+000
  0.000000000000000E+000
  0.000000000000000E+000
  0.000000000000000E+000
  0.000000000000000E+000
  0.000000000000000E+000
  0.000000000000000E+000
  0.000000000000000E+000
  0.000000000000000E+000
  0.000000000000000E+000
  0.000000000000000E+000
  0.000000000000000E+000
  0.000000000000000E+000
  0.000000000000000E+000
  0.000000000000000E+000
  0.000000000000000E+000
  0.000000000000000E+000
  0.000000000000000E+000
  0.000000000000000E+000
  0.000000000000000E+000
  0.000000000000000E+000
  0.000000000000000E+000
  0.000000000000000E+000
  0.000000000000000E+000
  0.000000000000000E+000
  0.000000000000000E+000
  0.000000000000000E+000
  0.000000000000000E+000
  0.000000000000000E+000
  0.000000000000000E+000
  0.000000000000000E+000
  0.000000000000000E+000
  0.000000000000000E+000
  0.000000000000000E+000
  0.000000000000000E+000
  0.000000000000000E+000
  0.000000000000000E+000
  0.000000000000000E+000
  0.000000000000000E+000
  0.000000000000000E+000
  0.000000000000000E+000
  0.000000000000000E+000
  0.000000000000000E+000
  0.000000000000000E+000
  0.000000000000000E+000
  0.000000000000000E+000
  0.000000000000000E+000
  0.000000000000000E+000
  0.000000000000000E+000
  0.000000000000000E+000
  0.000000000000000E+000
  0.000000000000000E+000
  0.000000000000000E+000
  0.000000000000000E+000
  0.000000000000000E+000
  0.000000000000000E+000
  0.000000000000000E+000
  0.000000000000000E+000
  0.000000000000000E+000
  0.000000000000000E+000
  0.000000000000000E+000
  0.000000000000000E+000
  0.000000000000000E+000
  0.000000000000000E+000
  0.000000000000000E+000
  0.000000000000000E+000
  0.000000000000000E+000
  0.000000000000000E+000
  0.000000000000000E+000
  0.000000000000000E+000
  0.000000000000000E+000
  0.000000000000000E+000
  0.000000000000000E+000
  0.000000000000000E+000
  0.000000000000000E+000
  0.000000000000000E+000
  0.000000000000000E+000
  0.000000000000000E+000
  0.000000000000000E+000
  0.000000000000000E+000
  0.000000000000000E+000
  0.000000000000000E+000
  0.000000000000000E+000
  0.000000000000000E+000
  0.000000000000000E+000
  0.000000000000000E+000
  0.000000000000000E+000
  0.000000000000000E+000
  0.000000000000000E+000
  0.000000000000000E+000
  0.000000000000000E+000
  0.000000000000000E+000
  0.000000000000000E+000
  0.000000000000000E+000
  0.000000000000000E+000
  0.000000000000000E+000
  0.000000000000000E+000
  0.000000000000000E+000
  0.000000000000000E+000
  0.000000000000000E+000
  0.000000000000000E+000
  0.000000000000000E+000
  0.000000000000000E+000
  0.000000000000000E+000
  0.000000000000000E+000
  0.000000000000000E+000
  0.000000000000000E+000
  0.000000000000000E+000
  0.000000000000000E+000
  0.000000000000000E+000
  0.000000000000000E+000
  0.000000000000000E+000
  0.000000000000000E+000
  0.000000000000000E+000
  0.000000000000000E+000
  0.000000000000000E+000
  0.000000000000000E+000
  0.000000000000000E+000
  0.000000000000000E+000
  0.000000000000000E+000
  0.000000000000000E+000
  0.000000000000000E+000
  0.000000000000000E+000
  0.000000000000000E+000
  0.000000000000000E+000
  0.000000000000000E+000
  0.000000000000000E+000
  0.000000000000000E+000
  0.000000000000000E+000
  0.000000000000000E+000
  0.000000000000000E+000
  0.000000000000000E+000
  0.000000000000000E+000
  0.000000000000000E+000
  0.000000000000000E+000
  0.000000000000000E+000
  0.000000000000000E+000
  0.000000000000000E+000
  0.000000000000000E+000
  0.000000000000000E+000
  0.000000000000000E+000
  0.000000000000000E+000
  0.000000000000000E+000
  0.000000000000000E+000
  0.000000000000000E+000
  0.000000000000000E+000
  0.000000000000000E+000
  0.000000000000000E+000
  0.000000000000000E+000
  0.000000000000000E+000
  0.000000000000000E+000
  0.000000000000000E+000
  0.000000000000000E+000
  0.000000000000000E+000
  0.000000000000000E+000
  0.000000000000000E+000
  0.000000000000000E+000
  0.000000000000000E+000
  0.000000000000000E+000
  0.000000000000000E+000
  0.000000000000000E+000
  0.000000000000000E+000
  0.000000000000000E+000
  0.000000000000000E+000
  0.000000000000000E+000
  0.000000000000000E+000
  0.000000000000000E+000
  0.000000000000000E+000
  0.000000000000000E+000
  0.000000000000000E+000
  0.000000000000000E+000
  0.000000000000000E+000
  0.000000000000000E+000
  0.000000000000000E+000
  0.000000000000000E+000
  0.000000000000000E+000
  0.000000000000000E+000
  0.000000000000000E+000
  0.000000000000000E+000
  0.000000000000000E+000
  0.000000000000000E+000
  0.000000000000000E+000
  0.000000000000000E+000
  0.000000000000000E+000
  0.000000000000000E+000
  0.000000000000000E+000
  0.000000000000000E+000
  0.000000000000000E+000
  0.000000000000000E+000
  0.000000000000000E+000
  0.000000000000000E+000
  0.000000000000000E+000
  0.000000000000000E+000
  0.000000000000000E+000
  0.000000000000000E+000
  0.000000000000000E+000
  0.000000000000000E+000
  0.000000000000000E+000
  0.000000000000000E+000
  0.000000000000000E+000
  0.000000000000000E+000
  0.000000000000000E+000
  0.000000000000000E+000
  0.000000000000000E+000
  0.000000000000000E+000
  0.000000000000000E+000
  0.000000000000000E+000
  0.000000000000000E+000
  0.000000000000000E+000
  0.000000000000000E+000
  0.000000000000000E+000
  0.000000000000000E+000
  0.000000000000000E+000
  0.000000000000000E+000
  0.000000000000000E+000
  0.000000000000000E+000
  0.000000000000000E+000
  0.000000000000000E+000
  0.000000000000000E+000
  0.000000000000000E+000
  0.000000000000000E+000
  0.000000000000000E+000
  0.000000000000000E+000
  0.000000000000000E+000
  0.000000000000000E+000
  0.000000000000000E+000
  0.000000000000000E+000
  0.000000000000000E+000
  0.000000000000000E+000
  0.000000000000000E+000
  0.000000000000000E+000
  0.000000000000000E+000
  0.000000000000000E+000
  0.000000000000000E+000
  0.000000000000000E+000
  0.000000000000000E+000
  0.000000000000000E+000
  0.000000000000000E+000
  0.000000000000000E+000
  0.000000000000000E+000
  0.000000000000000E+000
  0.000000000000000E+000
  0.000000000000000E+000
  0.000000000000000E+000
  0.000000000000000E+000
  0.000000000000000E+000
  0.000000000000000E+000
  0.000000000000000E+000
  0.000000000000000E+000
  0.000000000000000E+000
  0.000000000000000E+000
  0.000000000000000E+000
  0.000000000000000E+000
  0.000000000000000E+000
  0.000000000000000E+000
  0.000000000000000E+000
  0.000000000000000E+000
  0.000000000000000E+000
  0.000000000000000E+000
  0.000000000000000E+000
  0.000000000000000E+000
  0.000000000000000E+000
  0.000000000000000E+000
  0.000000000000000E+000
  0.000000000000000E+000
  0.000000000000000E+000
  0.000000000000000E+000
  0.000000000000000E+000
  0.000000000000000E+000
  0.000000000000000E+000
  0.000000000000000E+000
  0.000000000000000E+000
  0.000000000000000E+000
  0.000000000000000E+000
  0.000000000000000E+000
  0.000000000000000E+000
  0.000000000000000E+000
  0.000000000000000E+000
  0.000000000000000E+000
  0.000000000000000E+000
  0.000000000000000E+000
  0.000000000000000E+000
  0.000000000000000E+000
  0.000000000000000E+000
  0.000000000000000E+000
  0.000000000000000E+000
  0.000000000000000E+000
  0.000000000000000E+000
  0.000000000000000E+000
  0.000000000000000E+000
  0.000000000000000E+000
  0.000000000000000E+000
  0.000000000000000E+000
  0.000000000000000E+000
  0.000000000000000E+000
  0.000000000000000E+000
  0.000000000000000E+000
  0.000000000000000E+000
  0.000000000000000E+000
  0.000000000000000E+000
  0.000000000000000E+000
  0.000000000000000E+000
  0.000000000000000E+000
  0.000000000000000E+000
  0.000000000000000E+000
  0.000000000000000E+000
  0.000000000000000E+000
  0.000000000000000E+000
  0.000000000000000E+000
  0.000000000000000E+000
  0.000000000000000E+000
  0.000000000000000E+000
  0.000000000000000E+000
  0.000000000000000E+000
  0.000000000000000E+000
  0.000000000000000E+000
  0.000000000000000E+000
  0.000000000000000E+000
  0.000000000000000E+000
  0.000000000000000E+000
  0.000000000000000E+000
  0.000000000000000E+000
  0.000000000000000E+000
  0.000000000000000E+000
  0.000000000000000E+000
  0.000000000000000E+000
  0.000000000000000E+000
  0.000000000000000E+000
  0.000000000000000E+000
  0.000000000000000E+000
  0.000000000000000E+000
  0.000000000000000E+000
  0.000000000000000E+000
  0.000000000000000E+000
  0.000000000000000E+000
  0.000000000000000E+000
  0.000000000000000E+000
  0.000000000000000E+000
  0.000000000000000E+000
  0.000000000000000E+000
  0.000000000000000E+000
  0.000000000000000E+000
  0.000000000000000E+000
  0.000000000000000E+000
  0.000000000000000E+000
  0.000000000000000E+000
  0.000000000000000E+000
  0.000000000000000E+000
  0.000000000000000E+000
  0.000000000000000E+000
  0.000000000000000E+000
  0.000000000000000E+000
  0.000000000000000E+000
  0.000000000000000E+000
  0.000000000000000E+000
  0.000000000000000E+000
  0.000000000000000E+000
  0.000000000000000E+000
  0.000000000000000E+000
  0.000000000000000E+000
  0.000000000000000E+000
  0.000000000000000E+000
  0.000000000000000E+000
  0.000000000000000E+000
  0.000000000000000E+000
  0.000000000000000E+000
  0.000000000000000E+000
  0.000000000000000E+000
  0.000000000000000E+000
  0.000000000000000E+000
  0.000000000000000E+000
  0.000000000000000E+000
  0.000000000000000E+000
  0.000000000000000E+000
  0.000000000000000E+000
  0.000000000000000E+000
  0.000000000000000E+000
  0.000000000000000E+000
  0.000000000000000E+000
  0.000000000000000E+000
  0.000000000000000E+000
  0.000000000000000E+000
  0.000000000000000E+000
  0.000000000000000E+000
  0.000000000000000E+000
  0.000000000000000E+000
  0.000000000000000E+000
  0.000000000000000E+000
  0.000000000000000E+000
  0.000000000000000E+000
  0.000000000000000E+000
  0.000000000000000E+000
  0.000000000000000E+000
  0.000000000000000E+000
  0.000000000000000E+000
  0.000000000000000E+000
  0.000000000000000E+000
  0.000000000000000E+000
  0.000000000000000E+000
  0.000000000000000E+000
  0.000000000000000E+000
  0.000000000000000E+000
  0.000000000000000E+000
  0.000000000000000E+000
  0.000000000000000E+000
  0.000000000000000E+000
  0.000000000000000E+000
  0.000000000000000E+000
  0.000000000000000E+000
  0.000000000000000E+000
  0.000000000000000E+000
  0.000000000000000E+000
  0.000000000000000E+000
  0.000000000000000E+000
  0.000000000000000E+000
  0.000000000000000E+000
  0.000000000000000E+000
  0.000000000000000E+000
  0.000000000000000E+000
  0.000000000000000E+000
  0.000000000000000E+000
  0.000000000000000E+000
  0.000000000000000E+000
  0.000000000000000E+000
  0.000000000000000E+000
  0.000000000000000E+000
  0.000000000000000E+000
  0.000000000000000E+000
  0.000000000000000E+000
  0.000000000000000E+000
  0.000000000000000E+000
  0.000000000000000E+000
  0.000000000000000E+000
  0.000000000000000E+000
  0.000000000000000E+000
  0.000000000000000E+000
  0.000000000000000E+000
  0.000000000000000E+000
  0.000000000000000E+000
  0.000000000000000E+000
  0.000000000000000E+000
  0.000000000000000E+000
  0.000000000000000E+000
  0.000000000000000E+000
  0.000000000000000E+000
  0.000000000000000E+000
  0.000000000000000E+000
  0.000000000000000E+000
  0.000000000000000E+000
  0.000000000000000E+000
  0.000000000000000E+000
  0.000000000000000E+000
  0.000000000000000E+000
  0.000000000000000E+000
  0.000000000000000E+000
  0.000000000000000E+000
  0.000000000000000E+000
  0.000000000000000E+000
  0.000000000000000E+000
  0.000000000000000E+000
  0.000000000000000E+000
  0.000000000000000E+000
  0.000000000000000E+000
  0.000000000000000E+000
  0.000000000000000E+000
  0.000000000000000E+000
  0.000000000000000E+000
  0.000000000000000E+000
  0.000000000000000E+000
  0.000000000000000E+000
  0.000000000000000E+000
  0.000000000000000E+000
  0.000000000000000E+000
  0.000000000000000E+000
  0.000000000000000E+000
  0.000000000000000E+000
  0.000000000000000E+000
  0.000000000000000E+000
  0.000000000000000E+000
  0.000000000000000E+000
  0.000000000000000E+000
  0.000000000000000E+000
  0.000000000000000E+000
  0.000000000000000E+000
  0.000000000000000E+000
  0.000000000000000E+000
  0.000000000000000E+000
  0.000000000000000E+000
  0.000000000000000E+000
  0.000000000000000E+000
  0.000000000000000E+000
  0.000000000000000E+000
  0.000000000000000E+000
  0.000000000000000E+000
  0.000000000000000E+000
  0.000000000000000E+000
  0.000000000000000E+000
  0.000000000000000E+000
  0.000000000000000E+000
  0.000000000000000E+000
  0.000000000000000E+000
  0.000000000000000E+000
  0.000000000000000E+000
  0.000000000000000E+000
  0.000000000000000E+000
  0.000000000000000E+000
  0.000000000000000E+000
  0.000000000000000E+000
  0.000000000000000E+000
  0.000000000000000E+000
  0.000000000000000E+000
  0.000000000000000E+000
  0.000000000000000E+000
  0.000000000000000E+000
  0.000000000000000E+000
  0.000000000000000E+000
  0.000000000000000E+000
  0.000000000000000E+000
  0.000000000000000E+000
  0.000000000000000E+000
  0.000000000000000E+000
  0.000000000000000E+000
  0.000000000000000E+000
  0.000000000000000E+000
  0.000000000000000E+000
  0.000000000000000E+000
  0.000000000000000E+000
  0.000000000000000E+000
  0.000000000000000E+000
  0.000000000000000E+000
  0.000000000000000E+000
  0.000000000000000E+000
  0.000000000000000E+000
  0.000000000000000E+000
  0.000000000000000E+000
  0.000000000000000E+000
  0.000000000000000E+000
  0.000000000000000E+000
  0.000000000000000E+000
  0.000000000000000E+000
  0.000000000000000E+000
  0.000000000000000E+000
  0.000000000000000E+000
  0.000000000000000E+000
  0.000000000000000E+000
  0.000000000000000E+000
  0.000000000000000E+000
  0.000000000000000E+000
  0.000000000000000E+000
  0.000000000000000E+000
  0.000000000000000E+000
  0.000000000000000E+000
  0.000000000000000E+000
  0.000000000000000E+000
  0.000000000000000E+000
  0.000000000000000E+000
  0.000000000000000E+000
  0.000000000000000E+000
  0.000000000000000E+000
  0.000000000000000E+000
  0.000000000000000E+000
  0.000000000000000E+000
  0.000000000000000E+000
  0.000000000000000E+000
  0.000000000000000E+000
  0.000000000000000E+000
  0.000000000000000E+000
  0.000000000000000E+000
  0.000000000000000E+000
  0.000000000000000E+000
  0.000000000000000E+000
  0.000000000000000E+000
  0.000000000000000E+000
  0.000000000000000E+000
  0.000000000000000E+000
  0.000000000000000E+000
  0.000000000000000E+000
  0.000000000000000E+000
  0.000000000000000E+000
  0.000000000000000E+000
  0.000000000000000E+000
  0.000000000000000E+000
  0.000000000000000E+000
  0.000000000000000E+000
  0.000000000000000E+000
  0.000000000000000E+000
  0.000000000000000E+000
  0.000000000000000E+000
  0.000000000000000E+000
  0.000000000000000E+000
  0.000000000000000E+000
  0.000000000000000E+000
  0.000000000000000E+000
  0.000000000000000E+000
  0.000000000000000E+000
  0.000000000000000E+000
  0.000000000000000E+000
  0.000000000000000E+000
  0.000000000000000E+000
  0.000000000000000E+000
  0.000000000000000E+000
  0.000000000000000E+000
  0.000000000000000E+000
  0.000000000000000E+000
  0.000000000000000E+000
  0.000000000000000E+000
  0.000000000000000E+000
  0.000000000000000E+000
  0.000000000000000E+000
  0.000000000000000E+000
  0.000000000000000E+000
  0.000000000000000E+000
  0.000000000000000E+000
  0.000000000000000E+000
  0.000000000000000E+000
  0.000000000000000E+000
  0.000000000000000E+000
  0.000000000000000E+000
  0.000000000000000E+000
  0.000000000000000E+000
  0.000000000000000E+000
  0.000000000000000E+000
  0.000000000000000E+000
  0.000000000000000E+000
  0.000000000000000E+000
  0.000000000000000E+000
  0.000000000000000E+000
  0.000000000000000E+000
  0.000000000000000E+000
  0.000000000000000E+000
  0.000000000000000E+000
  0.000000000000000E+000
  0.000000000000000E+000
  0.000000000000000E+000
  0.000000000000000E+000
  0.000000000000000E+000
  0.000000000000000E+000
  0.000000000000000E+000
  0.000000000000000E+000
  0.000000000000000E+000
  0.000000000000000E+000
  0.000000000000000E+000
  0.000000000000000E+000
  0.000000000000000E+000
  0.000000000000000E+000
  0.000000000000000E+000
  0.000000000000000E+000
  0.000000000000000E+000
  0.000000000000000E+000
  0.000000000000000E+000
  0.000000000000000E+000
  0.000000000000000E+000
  0.000000000000000E+000
  0.000000000000000E+000
  0.000000000000000E+000
  0.000000000000000E+000
  0.000000000000000E+000
  0.000000000000000E+000
  0.000000000000000E+000
  0.000000000000000E+000
  0.000000000000000E+000
  0.000000000000000E+000
  0.000000000000000E+000
  0.000000000000000E+000
  0.000000000000000E+000
  0.000000000000000E+000
  0.000000000000000E+000
  0.000000000000000E+000
  0.000000000000000E+000
  0.000000000000000E+000
  0.000000000000000E+000
  0.000000000000000E+000
  0.000000000000000E+000
  0.000000000000000E+000
  0.000000000000000E+000
  0.000000000000000E+000
  0.000000000000000E+000
  0.000000000000000E+000
  0.000000000000000E+000
  0.000000000000000E+000
  0.000000000000000E+000
  0.000000000000000E+000
  0.000000000000000E+000
  0.000000000000000E+000
  0.000000000000000E+000
  0.000000000000000E+000
  0.000000000000000E+000
  0.000000000000000E+000
  0.000000000000000E+000
  0.000000000000000E+000
  0.000000000000000E+000
  0.000000000000000E+000
  0.000000000000000E+000
  0.000000000000000E+000
  0.000000000000000E+000
  0.000000000000000E+000
  0.000000000000000E+000
  0.000000000000000E+000
  0.000000000000000E+000
  0.000000000000000E+000
  0.000000000000000E+000
  0.000000000000000E+000
  0.000000000000000E+000
  0.000000000000000E+000
  0.000000000000000E+000
  0.000000000000000E+000
  0.000000000000000E+000
  0.000000000000000E+000
  0.000000000000000E+000
  0.000000000000000E+000
  0.000000000000000E+000
  0.000000000000000E+000
  0.000000000000000E+000
  0.000000000000000E+000
  0.000000000000000E+000
  0.000000000000000E+000
  0.000000000000000E+000
  0.000000000000000E+000
  0.000000000000000E+000
  0.000000000000000E+000
  0.000000000000000E+000
  0.000000000000000E+000
  0.000000000000000E+000
  0.000000000000000E+000
  0.000000000000000E+000
  0.000000000000000E+000
  0.000000000000000E+000
  0.000000000000000E+000
  0.000000000000000E+000
  0.000000000000000E+000
  0.000000000000000E+000
  0.000000000000000E+000
  0.000000000000000E+000
  0.000000000000000E+000
  0.000000000000000E+000
  0.000000000000000E+000
  0.000000000000000E+000
  0.000000000000000E+000
  0.000000000000000E+000
  0.000000000000000E+000
  0.000000000000000E+000
  0.000000000000000E+000
  0.000000000000000E+000
  0.000000000000000E+000
  0.000000000000000E+000
  0.000000000000000E+000
  0.000000000000000E+000
  0.000000000000000E+000
  0.000000000000000E+000
  0.000000000000000E+000
  0.000000000000000E+000
  0.000000000000000E+000
  0.000000000000000E+000
  0.000000000000000E+000
  0.000000000000000E+000
  0.000000000000000E+000
  0.000000000000000E+000
  0.000000000000000E+000
  0.000000000000000E+000
  0.000000000000000E+000
  0.000000000000000E+000
  0.000000000000000E+000
  0.000000000000000E+000
  0.000000000000000E+000
  0.000000000000000E+000
  0.000000000000000E+000
  0.000000000000000E+000
  0.000000000000000E+000
  0.000000000000000E+000
  0.000000000000000E+000
  0.000000000000000E+000
  0.000000000000000E+000
  0.000000000000000E+000
  0.000000000000000E+000
  0.000000000000000E+000
  0.000000000000000E+000
  0.000000000000000E+000
  0.000000000000000E+000
  0.000000000000000E+000
  0.000000000000000E+000
  0.000000000000000E+000
  0.000000000000000E+000
  0.000000000000000E+000
  0.000000000000000E+000
  0.000000000000000E+000
  0.000000000000000E+000
  0.000000000000000E+000
  0.000000000000000E+000
  0.000000000000000E+000
  0.000000000000000E+000
  0.000000000000000E+000
  0.000000000000000E+000
  0.000000000000000E+000
  0.000000000000000E+000
  0.000000000000000E+000
  0.000000000000000E+000
  0.000000000000000E+000
  0.000000000000000E+000
  0.000000000000000E+000
  0.000000000000000E+000
  0.000000000000000E+000
  0.000000000000000E+000
  0.000000000000000E+000
  0.000000000000000E+000
  0.000000000000000E+000
  0.000000000000000E+000
  0.000000000000000E+000
  0.000000000000000E+000
  0.000000000000000E+000
  0.000000000000000E+000
  0.000000000000000E+000
  0.000000000000000E+000
  0.000000000000000E+000
  0.000000000000000E+000
  0.000000000000000E+000
  0.000000000000000E+000
  0.000000000000000E+000
  0.000000000000000E+000
  0.000000000000000E+000
  0.000000000000000E+000
  0.000000000000000E+000
  0.000000000000000E+000
  0.000000000000000E+000
  0.000000000000000E+000
  0.000000000000000E+000
  0.000000000000000E+000
  0.000000000000000E+000
  0.000000000000000E+000
  0.000000000000000E+000
  0.000000000000000E+000
  0.000000000000000E+000
  0.000000000000000E+000
  0.000000000000000E+000
  0.000000000000000E+000
  0.000000000000000E+000
  0.000000000000000E+000
  0.000000000000000E+000
  0.000000000000000E+000
  0.000000000000000E+000
  0.000000000000000E+000
  0.000000000000000E+000
  0.000000000000000E+000
  0.000000000000000E+000
  0.000000000000000E+000
  0.000000000000000E+000
  0.000000000000000E+000
  0.000000000000000E+000
  0.000000000000000E+000
  0.000000000000000E+000
  0.000000000000000E+000
  0.000000000000000E+000
  0.000000000000000E+000
  0.000000000000000E+000
  0.000000000000000E+000
  0.000000000000000E+000
  0.000000000000000E+000
  0.000000000000000E+000
  0.000000000000000E+000
  0.000000000000000E+000
  0.000000000000000E+000
  0.000000000000000E+000
  0.000000000000000E+000
  0.000000000000000E+000
  0.000000000000000E+000
  0.000000000000000E+000
  0.000000000000000E+000
  0.000000000000000E+000
  0.000000000000000E+000
  0.000000000000000E+000
  0.000000000000000E+000
  0.000000000000000E+000
  0.000000000000000E+000
  0.000000000000000E+000
  0.000000000000000E+000
  0.000000000000000E+000
  0.000000000000000E+000
  0.000000000000000E+000
  0.000000000000000E+000
  0.000000000000000E+000
  0.000000000000000E+000
  0.000000000000000E+000
  0.000000000000000E+000
  0.000000000000000E+000
  0.000000000000000E+000
  0.000000000000000E+000
  0.000000000000000E+000
  0.000000000000000E+000
  0.000000000000000E+000
  0.000000000000000E+000
  0.000000000000000E+000
  0.000000000000000E+000
  0.000000000000000E+000
  0.000000000000000E+000
  0.000000000000000E+000
  0.000000000000000E+000
  0.000000000000000E+000
  0.000000000000000E+000
  0.000000000000000E+000
  0.000000000000000E+000
  0.000000000000000E+000
  0.000000000000000E+000
  0.000000000000000E+000
  0.000000000000000E+000
  0.000000000000000E+000
  0.000000000000000E+000
  0.000000000000000E+000
  0.000000000000000E+000
  0.000000000000000E+000
  0.000000000000000E+000
  0.000000000000000E+000
  0.000000000000000E+000
  0.000000000000000E+000
  0.000000000000000E+000
  0.000000000000000E+000
  0.000000000000000E+000
  0.000000000000000E+000
  0.000000000000000E+000
  0.000000000000000E+000
  0.000000000000000E+000
  0.000000000000000E+000
  0.000000000000000E+000
  0.000000000000000E+000
  0.000000000000000E+000
  0.000000000000000E+000
  0.000000000000000E+000
  0.000000000000000E+000
  0.000000000000000E+000
  0.000000000000000E+000
  0.000000000000000E+000
  0.000000000000000E+000
  0.000000000000000E+000
  0.000000000000000E+000
  0.000000000000000E+000
  0.000000000000000E+000
  0.000000000000000E+000
  0.000000000000000E+000
  0.000000000000000E+000
  0.000000000000000E+000
  0.000000000000000E+000
  0.000000000000000E+000
  0.000000000000000E+000
  0.000000000000000E+000
  0.000000000000000E+000
  0.000000000000000E+000
  0.000000000000000E+000
  0.000000000000000E+000
  0.000000000000000E+000
  0.000000000000000E+000
  0.000000000000000E+000
  0.000000000000000E+000
  0.000000000000000E+000
  0.000000000000000E+000
  0.000000000000000E+000
  0.000000000000000E+000
  0.000000000000000E+000
  0.000000000000000E+000
  0.000000000000000E+000
  0.000000000000000E+000
  0.000000000000000E+000
  0.000000000000000E+000
  0.000000000000000E+000
  0.000000000000000E+000
  0.000000000000000E+000
  0.000000000000000E+000
  0.000000000000000E+000
  0.000000000000000E+000
  0.000000000000000E+000
  0.000000000000000E+000
  0.000000000000000E+000
  0.000000000000000E+000
  0.000000000000000E+000
  0.000000000000000E+000
  0.000000000000000E+000
  0.000000000000000E+000
  0.000000000000000E+000
  0.000000000000000E+000
  0.000000000000000E+000
  0.000000000000000E+000
  0.000000000000000E+000
  0.000000000000000E+000
  0.000000000000000E+000
  0.000000000000000E+000
  0.000000000000000E+000
  0.000000000000000E+000
  0.000000000000000E+000
  0.000000000000000E+000
  0.000000000000000E+000
  0.000000000000000E+000
  0.000000000000000E+000
  0.000000000000000E+000
  0.000000000000000E+000
  0.000000000000000E+000
  0.000000000000000E+000
  0.000000000000000E+000
  0.000000000000000E+000
  0.000000000000000E+000
  0.000000000000000E+000
  0.000000000000000E+000
  0.000000000000000E+000
  0.000000000000000E+000
  0.000000000000000E+000
  0.000000000000000E+000
  0.000000000000000E+000
  0.000000000000000E+000
  0.000000000000000E+000
  0.000000000000000E+000
  0.000000000000000E+000
  0.000000000000000E+000
  0.000000000000000E+000
  0.000000000000000E+000
  0.000000000000000E+000
  0.000000000000000E+000
  0.000000000000000E+000
  0.000000000000000E+000
  0.000000000000000E+000
  0.000000000000000E+000
  0.000000000000000E+000
  0.000000000000000E+000
  0.000000000000000E+000
  0.000000000000000E+000
  0.000000000000000E+000
  0.000000000000000E+000
  0.000000000000000E+000
  0.000000000000000E+000
  0.000000000000000E+000
  0.000000000000000E+000
  0.000000000000000E+000
  0.000000000000000E+000
  0.000000000000000E+000
  0.000000000000000E+000
  0.000000000000000E+000
  0.000000000000000E+000
  0.000000000000000E+000
  0.000000000000000E+000
  0.000000000000000E+000
  0.000000000000000E+000
  0.000000000000000E+000
  0.000000000000000E+000
  0.000000000000000E+000
  0.000000000000000E+000
  0.000000000000000E+000
  0.000000000000000E+000
  0.000000000000000E+000
  0.000000000000000E+000
  0.000000000000000E+000
  0.000000000000000E+000
  0.000000000000000E+000
  0.000000000000000E+000
  0.000000000000000E+000
  0.000000000000000E+000
  0.000000000000000E+000
  0.000000000000000E+000
  0.000000000000000E+000
  0.000000000000000E+000
  0.000000000000000E+000
  0.000000000000000E+000
  0.000000000000000E+000
  0.000000000000000E+000
  0.000000000000000E+000
  0.000000000000000E+000
  0.000000000000000E+000
  0.000000000000000E+000
  0.000000000000000E+000
  0.000000000000000E+000
  0.000000000000000E+000
  0.000000000000000E+000
  0.000000000000000E+000
  0.000000000000000E+000
  0.000000000000000E+000
  0.000000000000000E+000
  0.000000000000000E+000
  0.000000000000000E+000
  0.000000000000000E+000
  0.000000000000000E+000
  0.000000000000000E+000
  0.000000000000000E+000
  0.000000000000000E+000
  0.000000000000000E+000
  0.000000000000000E+000
  0.000000000000000E+000
  0.000000000000000E+000
  0.000000000000000E+000
  0.000000000000000E+000
  0.000000000000000E+000
  0.000000000000000E+000
  0.000000000000000E+000
  0.000000000000000E+000
  0.000000000000000E+000
  0.000000000000000E+000
  0.000000000000000E+000
  0.000000000000000E+000
  0.000000000000000E+000
  0.000000000000000E+000
  0.000000000000000E+000
  0.000000000000000E+000
  0.000000000000000E+000
  0.000000000000000E+000
  0.000000000000000E+000
  0.000000000000000E+000
  0.000000000000000E+000
  0.000000000000000E+000
  0.000000000000000E+000
  0.000000000000000E+000
  0.000000000000000E+000
  0.000000000000000E+000
  0.000000000000000E+000
  0.000000000000000E+000
  0.000000000000000E+000
  0.000000000000000E+000
  0.000000000000000E+000
  0.000000000000000E+000
  0.000000000000000E+000
  0.000000000000000E+000
  0.000000000000000E+000
  0.000000000000000E+000
  0.000000000000000E+000
  0.000000000000000E+000
  0.000000000000000E+000
  0.000000000000000E+000
  0.000000000000000E+000
  0.000000000000000E+000
  0.000000000000000E+000
  0.000000000000000E+000
  0.000000000000000E+000
  0.000000000000000E+000
  0.000000000000000E+000
  0.000000000000000E+000
  0.000000000000000E+000
  0.000000000000000E+000
  0.000000000000000E+000
  0.000000000000000E+000
  0.000000000000000E+000
  0.000000000000000E+000
  0.000000000000000E+000
  0.000000000000000E+000
  0.000000000000000E+000
  0.000000000000000E+000
  0.000000000000000E+000
  0.000000000000000E+000
  0.000000000000000E+000
  0.000000000000000E+000
  0.000000000000000E+000
  0.000000000000000E+000
SCALARS poroL double 
LOOKUP_TABLE default
   1.62499999999991     
  0.124999999999905     
  0.124999999999905     
  0.124999999999905     
  0.124999999999905     
  0.124999999999905     
  0.124999999999905     
  0.124999999999905     
  0.124999999999905     
  0.124999999999905     
  0.124999999999905     
  0.124999999999905     
  0.124999999999905     
  0.124999999999905     
  0.124999999999905     
   1.62499999999990     
  0.124999999999898     
  0.124999999999898     
  0.124999999999898     
  0.124999999999898     
  0.124999999999898     
  0.124999999999898     
  0.124999999999898     
  0.124999999999898     
  0.124999999999898     
  0.124999999999898     
  0.124999999999898     
  0.124999999999898     
  0.124999999999898     
  0.124999999999898     
   1.62499999999989     
  0.124999999999883     
  0.124999999999883     
  0.124999999999883     
  0.124999999999883     
  0.124999999999883     
  0.124999999999883     
  0.124999999999883     
  0.124999999999883     
  0.124999999999883     
  0.124999999999883     
  0.124999999999883     
  0.124999999999883     
  0.124999999999883     
  0.124999999999883     
   1.62499999999986     
  0.124999999999860     
  0.124999999999860     
  0.124999999999860     
  0.124999999999860     
  0.124999999999860     
  0.124999999999860     
  0.124999999999860     
  0.124999999999860     
  0.124999999999860     
  0.124999999999860     
  0.124999999999860     
  0.124999999999860     
  0.124999999999860     
  0.124999999999860     
   1.62499999999983     
  0.124999999999827     
  0.124999999999827     
  0.124999999999827     
  0.124999999999827     
  0.124999999999827     
  0.124999999999827     
  0.124999999999827     
  0.124999999999827     
  0.124999999999827     
  0.124999999999827     
  0.124999999999827     
  0.124999999999827     
  0.124999999999827     
  0.124999999999827     
   1.62499999999978     
  0.124999999999781     
  0.124999999999781     
  0.124999999999781     
  0.124999999999781     
  0.124999999999781     
  0.124999999999781     
  0.124999999999781     
  0.124999999999781     
  0.124999999999781     
  0.124999999999781     
  0.124999999999781     
  0.124999999999781     
  0.124999999999781     
  0.124999999999781     
   1.62499999999972     
  0.124999999999718     
  0.124999999999719     
  0.124999999999718     
  0.124999999999718     
  0.124999999999718     
  0.124999999999718     
  0.124999999999718     
  0.124999999999718     
  0.124999999999718     
  0.124999999999718     
  0.124999999999718     
  0.124999999999718     
  0.124999999999718     
  0.124999999999718     
   1.62499999999963     
  0.124999999999635     
  0.124999999999635     
  0.124999999999635     
  0.124999999999635     
  0.124999999999635     
  0.124999999999635     
  0.124999999999635     
  0.124999999999635     
  0.124999999999635     
  0.124999999999635     
  0.124999999999635     
  0.124999999999635     
  0.124999999999635     
  0.124999999999635     
   1.62499999999953     
  0.124999999999524     
  0.124999999999524     
  0.124999999999524     
  0.124999999999524     
  0.124999999999524     
  0.124999999999524     
  0.124999999999524     
  0.124999999999524     
  0.124999999999524     
  0.124999999999524     
  0.124999999999524     
  0.124999999999524     
  0.124999999999524     
  0.124999999999524     
   1.62499999999938     
  0.124999999999378     
  0.124999999999378     
  0.124999999999378     
  0.124999999999378     
  0.124999999999378     
  0.124999999999378     
  0.124999999999378     
  0.124999999999378     
  0.124999999999378     
  0.124999999999378     
  0.124999999999378     
  0.124999999999378     
  0.124999999999378     
  0.124999999999378     
   1.62499999999918     
  0.124999999999185     
  0.124999999999185     
  0.124999999999185     
  0.124999999999185     
  0.124999999999185     
  0.124999999999185     
  0.124999999999185     
  0.124999999999185     
  0.124999999999185     
  0.124999999999185     
  0.124999999999185     
  0.124999999999185     
  0.124999999999185     
  0.124999999999185     
   1.62499999999893     
  0.124999999998930     
  0.124999999998931     
  0.124999999998930     
  0.124999999998930     
  0.124999999998931     
  0.124999999998931     
  0.124999999998930     
  0.124999999998930     
  0.124999999998930     
  0.124999999998931     
  0.124999999998930     
  0.124999999998930     
  0.124999999998930     
  0.124999999998930     
   1.62499999999860     
  0.124999999998595     
  0.124999999998595     
  0.124999999998596     
  0.124999999998595     
  0.124999999998596     
  0.124999999998596     
  0.124999999998596     
  0.124999999998596     
  0.124999999998596     
  0.124999999998596     
  0.124999999998596     
  0.124999999998596     
  0.124999999998596     
  0.124999999998596     
   1.62499999999816     
  0.124999999998155     
  0.124999999998155     
  0.124999999998155     
  0.124999999998155     
  0.124999999998155     
  0.124999999998155     
  0.124999999998155     
  0.124999999998155     
  0.124999999998155     
  0.124999999998155     
  0.124999999998155     
  0.124999999998155     
  0.124999999998155     
  0.124999999998155     
   1.62499999999758     
  0.124999999997575     
  0.124999999997575     
  0.124999999997575     
  0.124999999997575     
  0.124999999997575     
  0.124999999997575     
  0.124999999997575     
  0.124999999997575     
  0.124999999997575     
  0.124999999997575     
  0.124999999997575     
  0.124999999997575     
  0.124999999997575     
  0.124999999997575     
   1.62499999999681     
  0.124999999996813     
  0.124999999996813     
  0.124999999996813     
  0.124999999996813     
  0.124999999996813     
  0.124999999996813     
  0.124999999996813     
  0.124999999996813     
  0.124999999996813     
  0.124999999996813     
  0.124999999996813     
  0.124999999996813     
  0.124999999996813     
  0.124999999996813     
   1.62499999999581     
  0.124999999995810     
  0.124999999995810     
  0.124999999995810     
  0.124999999995810     
  0.124999999995810     
  0.124999999995810     
  0.124999999995810     
  0.124999999995810     
  0.124999999995810     
  0.124999999995810     
  0.124999999995810     
  0.124999999995810     
  0.124999999995810     
  0.124999999995810     
   1.62499999999449     
  0.124999999994491     
  0.124999999994491     
  0.124999999994491     
  0.124999999994491     
  0.124999999994491     
  0.124999999994491     
  0.124999999994491     
  0.124999999994491     
  0.124999999994491     
  0.124999999994491     
  0.124999999994491     
  0.124999999994491     
  0.124999999994491     
  0.124999999994491     
   1.62499999999276     
  0.124999999992757     
  0.124999999992757     
  0.124999999992757     
  0.124999999992757     
  0.124999999992757     
  0.124999999992757     
  0.124999999992757     
  0.124999999992757     
  0.124999999992757     
  0.124999999992757     
  0.124999999992757     
  0.124999999992757     
  0.124999999992757     
  0.124999999992757     
   1.62499999999048     
  0.124999999990476     
  0.124999999990477     
  0.124999999990476     
  0.124999999990476     
  0.124999999990476     
  0.124999999990476     
  0.124999999990476     
  0.124999999990476     
  0.124999999990476     
  0.124999999990476     
  0.124999999990476     
  0.124999999990476     
  0.124999999990476     
  0.124999999990476     
   1.62499999998748     
  0.124999999987477     
  0.124999999987477     
  0.124999999987477     
  0.124999999987477     
  0.124999999987477     
  0.124999999987477     
  0.124999999987477     
  0.124999999987477     
  0.124999999987477     
  0.124999999987477     
  0.124999999987477     
  0.124999999987477     
  0.124999999987477     
  0.124999999987477     
   1.62499999998353     
  0.124999999983533     
  0.124999999983533     
  0.124999999983533     
  0.124999999983533     
  0.124999999983533     
  0.124999999983533     
  0.124999999983533     
  0.124999999983533     
  0.124999999983533     
  0.124999999983533     
  0.124999999983533     
  0.124999999983533     
  0.124999999983533     
  0.124999999983533     
   1.62499999997835     
  0.124999999978346     
  0.124999999978346     
  0.124999999978346     
  0.124999999978346     
  0.124999999978346     
  0.124999999978346     
  0.124999999978346     
  0.124999999978346     
  0.124999999978346     
  0.124999999978346     
  0.124999999978346     
  0.124999999978346     
  0.124999999978346     
  0.124999999978346     
   1.62499999997152     
  0.124999999971525     
  0.124999999971525     
  0.124999999971526     
  0.124999999971525     
  0.124999999971525     
  0.124999999971525     
  0.124999999971525     
  0.124999999971525     
  0.124999999971525     
  0.124999999971525     
  0.124999999971525     
  0.124999999971525     
  0.124999999971525     
  0.124999999971525     
   1.62499999996255     
  0.124999999962556     
  0.124999999962556     
  0.124999999962556     
  0.124999999962556     
  0.124999999962556     
  0.124999999962556     
  0.124999999962556     
  0.124999999962556     
  0.124999999962556     
  0.124999999962556     
  0.124999999962556     
  0.124999999962556     
  0.124999999962556     
  0.124999999962556     
   1.62499999995076     
  0.124999999950760     
  0.124999999950760     
  0.124999999950760     
  0.124999999950760     
  0.124999999950760     
  0.124999999950760     
  0.124999999950760     
  0.124999999950760     
  0.124999999950760     
  0.124999999950760     
  0.124999999950760     
  0.124999999950760     
  0.124999999950760     
  0.124999999950760     
   1.62499999993525     
  0.124999999935249     
  0.124999999935249     
  0.124999999935249     
  0.124999999935249     
  0.124999999935249     
  0.124999999935249     
  0.124999999935249     
  0.124999999935249     
  0.124999999935249     
  0.124999999935249     
  0.124999999935249     
  0.124999999935249     
  0.124999999935249     
  0.124999999935249     
   1.62499999991485     
  0.124999999914851     
  0.124999999914851     
  0.124999999914851     
  0.124999999914851     
  0.124999999914851     
  0.124999999914851     
  0.124999999914851     
  0.124999999914851     
  0.124999999914851     
  0.124999999914851     
  0.124999999914851     
  0.124999999914851     
  0.124999999914851     
  0.124999999914851     
   1.62499999988803     
  0.124999999888027     
  0.124999999888027     
  0.124999999888027     
  0.124999999888027     
  0.124999999888027     
  0.124999999888026     
  0.124999999888027     
  0.124999999888027     
  0.124999999888026     
  0.124999999888026     
  0.124999999888027     
  0.124999999888027     
  0.124999999888026     
  0.124999999888026     
   1.62499999985275     
  0.124999999852752     
  0.124999999852752     
  0.124999999852752     
  0.124999999852752     
  0.124999999852752     
  0.124999999852752     
  0.124999999852752     
  0.124999999852752     
  0.124999999852752     
  0.124999999852752     
  0.124999999852752     
  0.124999999852752     
  0.124999999852752     
  0.124999999852752     
   1.62499999980636     
  0.124999999806364     
  0.124999999806364     
  0.124999999806364     
  0.124999999806364     
  0.124999999806364     
  0.124999999806364     
  0.124999999806364     
  0.124999999806364     
  0.124999999806364     
  0.124999999806364     
  0.124999999806364     
  0.124999999806364     
  0.124999999806364     
  0.124999999806364     
   1.62499999974536     
  0.124999999745363     
  0.124999999745362     
  0.124999999745363     
  0.124999999745362     
  0.124999999745362     
  0.124999999745362     
  0.124999999745362     
  0.124999999745362     
  0.124999999745362     
  0.124999999745362     
  0.124999999745362     
  0.124999999745362     
  0.124999999745362     
  0.124999999745362     
   1.62499999966514     
  0.124999999665143     
  0.124999999665143     
  0.124999999665143     
  0.124999999665143     
  0.124999999665143     
  0.124999999665143     
  0.124999999665143     
  0.124999999665143     
  0.124999999665143     
  0.124999999665143     
  0.124999999665143     
  0.124999999665143     
  0.124999999665143     
  0.124999999665143     
   1.62499999955965     
  0.124999999559652     
  0.124999999559652     
  0.124999999559652     
  0.124999999559652     
  0.124999999559652     
  0.124999999559652     
  0.124999999559652     
  0.124999999559652     
  0.124999999559652     
  0.124999999559652     
  0.124999999559652     
  0.124999999559652     
  0.124999999559652     
  0.124999999559652     
   1.62499999942093     
  0.124999999420927     
  0.124999999420927     
  0.124999999420927     
  0.124999999420927     
  0.124999999420927     
  0.124999999420927     
  0.124999999420927     
  0.124999999420927     
  0.124999999420927     
  0.124999999420927     
  0.124999999420927     
  0.124999999420927     
  0.124999999420927     
  0.124999999420927     
   1.62499999923850     
  0.124999999238499     
  0.124999999238499     
  0.124999999238499     
  0.124999999238499     
  0.124999999238499     
  0.124999999238499     
  0.124999999238499     
  0.124999999238499     
  0.124999999238499     
  0.124999999238499     
  0.124999999238499     
  0.124999999238499     
  0.124999999238499     
  0.124999999238499     
   1.62499999899860     
  0.124999998998599     
  0.124999998998599     
  0.124999998998599     
  0.124999998998599     
  0.124999998998599     
  0.124999998998599     
  0.124999998998599     
  0.124999998998599     
  0.124999998998599     
  0.124999998998599     
  0.124999998998599     
  0.124999998998599     
  0.124999998998599     
  0.124999998998599     
   1.62499999868312     
  0.124999998683122     
  0.124999998683122     
  0.124999998683122     
  0.124999998683122     
  0.124999998683122     
  0.124999998683122     
  0.124999998683122     
  0.124999998683122     
  0.124999998683122     
  0.124999998683122     
  0.124999998683122     
  0.124999998683122     
  0.124999998683122     
  0.124999998683122     
   1.62499999826826     
  0.124999998268258     
  0.124999998268258     
  0.124999998268258     
  0.124999998268258     
  0.124999998268258     
  0.124999998268258     
  0.124999998268258     
  0.124999998268258     
  0.124999998268258     
  0.124999998268258     
  0.124999998268258     
  0.124999998268258     
  0.124999998268258     
  0.124999998268258     
   1.62499999772270     
  0.124999997722697     
  0.124999997722696     
  0.124999997722696     
  0.124999997722697     
  0.124999997722697     
  0.124999997722697     
  0.124999997722697     
  0.124999997722696     
  0.124999997722696     
  0.124999997722696     
  0.124999997722697     
  0.124999997722697     
  0.124999997722697     
  0.124999997722697     
   1.62499999700526     
  0.124999997005264     
  0.124999997005263     
  0.124999997005263     
  0.124999997005264     
  0.124999997005264     
  0.124999997005263     
  0.124999997005263     
  0.124999997005263     
  0.124999997005263     
  0.124999997005264     
  0.124999997005264     
  0.124999997005264     
  0.124999997005264     
  0.124999997005264     
   1.62499999606181     
  0.124999996061813     
  0.124999996061813     
  0.124999996061813     
  0.124999996061813     
  0.124999996061813     
  0.124999996061813     
  0.124999996061813     
  0.124999996061813     
  0.124999996061813     
  0.124999996061813     
  0.124999996061813     
  0.124999996061813     
  0.124999996061813     
  0.124999996061813     
   1.62499999482114     
  0.124999994821141     
  0.124999994821141     
  0.124999994821141     
  0.124999994821141     
  0.124999994821141     
  0.124999994821141     
  0.124999994821140     
  0.124999994821140     
  0.124999994821140     
  0.124999994821141     
  0.124999994821141     
  0.124999994821140     
  0.124999994821141     
  0.124999994821141     
   1.62499999318961     
  0.124999993189611     
  0.124999993189611     
  0.124999993189611     
  0.124999993189611     
  0.124999993189611     
  0.124999993189611     
  0.124999993189611     
  0.124999993189611     
  0.124999993189611     
  0.124999993189611     
  0.124999993189611     
  0.124999993189611     
  0.124999993189611     
  0.124999993189611     
   1.62499999104409     
  0.124999991044091     
  0.124999991044091     
  0.124999991044091     
  0.124999991044090     
  0.124999991044091     
  0.124999991044091     
  0.124999991044090     
  0.124999991044090     
  0.124999991044090     
  0.124999991044091     
  0.124999991044090     
  0.124999991044090     
  0.124999991044091     
  0.124999991044091     
   1.62499998822265     
  0.124999988222652     
  0.124999988222652     
  0.124999988222652     
  0.124999988222652     
  0.124999988222652     
  0.124999988222652     
  0.124999988222652     
  0.124999988222652     
  0.124999988222652     
  0.124999988222652     
  0.124999988222652     
  0.124999988222652     
  0.124999988222652     
  0.124999988222652     
   1.62499998451236     
  0.124999984512357     
  0.124999984512358     
  0.124999984512358     
  0.124999984512357     
  0.124999984512358     
  0.124999984512358     
  0.124999984512358     
  0.124999984512358     
  0.124999984512358     
  0.124999984512358     
  0.124999984512358     
  0.124999984512358     
  0.124999984512358     
  0.124999984512358     
   1.62499997963318     
  0.124999979633185     
  0.124999979633184     
  0.124999979633184     
  0.124999979633185     
  0.124999979633185     
  0.124999979633185     
  0.124999979633184     
  0.124999979633185     
  0.124999979633185     
  0.124999979633185     
  0.124999979633185     
  0.124999979633184     
  0.124999979633185     
  0.124999979633185     
   1.62499997321689     
  0.124999973216894     
  0.124999973216894     
  0.124999973216893     
  0.124999973216893     
  0.124999973216893     
  0.124999973216893     
  0.124999973216894     
  0.124999973216894     
  0.124999973216893     
  0.124999973216894     
  0.124999973216894     
  0.124999973216894     
  0.124999973216894     
  0.124999973216894     
   1.62499996477924     
  0.124999964779236     
  0.124999964779236     
  0.124999964779236     
  0.124999964779236     
  0.124999964779236     
  0.124999964779236     
  0.124999964779236     
  0.124999964779236     
  0.124999964779236     
  0.124999964779236     
  0.124999964779236     
  0.124999964779236     
  0.124999964779236     
  0.124999964779236     
   1.62499995368341     
  0.124999953683408     
  0.124999953683408     
  0.124999953683408     
  0.124999953683408     
  0.124999953683408     
  0.124999953683408     
  0.124999953683408     
  0.124999953683408     
  0.124999953683408     
  0.124999953683408     
  0.124999953683408     
  0.124999953683408     
  0.124999953683408     
  0.124999953683408     
   1.62499993909199     
  0.124999939091988     
  0.124999939091988     
  0.124999939091988     
  0.124999939091988     
  0.124999939091988     
  0.124999939091988     
  0.124999939091988     
  0.124999939091988     
  0.124999939091988     
  0.124999939091988     
  0.124999939091988     
  0.124999939091988     
  0.124999939091988     
  0.124999939091988     
   1.62499991990374     
  0.124999919903737     
  0.124999919903738     
  0.124999919903737     
  0.124999919903738     
  0.124999919903737     
  0.124999919903737     
  0.124999919903738     
  0.124999919903737     
  0.124999919903738     
  0.124999919903738     
  0.124999919903737     
  0.124999919903737     
  0.124999919903738     
  0.124999919903738     
   1.62499989467049     
  0.124999894670486     
  0.124999894670486     
  0.124999894670486     
  0.124999894670486     
  0.124999894670486     
  0.124999894670486     
  0.124999894670486     
  0.124999894670486     
  0.124999894670486     
  0.124999894670486     
  0.124999894670486     
  0.124999894670486     
  0.124999894670486     
  0.124999894670486     
   1.62499986148784     
  0.124999861487838     
  0.124999861487838     
  0.124999861487838     
  0.124999861487838     
  0.124999861487838     
  0.124999861487837     
  0.124999861487838     
  0.124999861487838     
  0.124999861487838     
  0.124999861487838     
  0.124999861487838     
  0.124999861487838     
  0.124999861487838     
  0.124999861487838     
   1.62499981785144     
  0.124999817851441     
  0.124999817851441     
  0.124999817851442     
  0.124999817851441     
  0.124999817851441     
  0.124999817851442     
  0.124999817851441     
  0.124999817851441     
  0.124999817851441     
  0.124999817851441     
  0.124999817851441     
  0.124999817851441     
  0.124999817851441     
  0.124999817851441     
   1.62499976046798     
  0.124999760467984     
  0.124999760467984     
  0.124999760467984     
  0.124999760467984     
  0.124999760467984     
  0.124999760467984     
  0.124999760467984     
  0.124999760467984     
  0.124999760467984     
  0.124999760467984     
  0.124999760467984     
  0.124999760467984     
  0.124999760467984     
  0.124999760467984     
   1.62499968500664     
  0.124999685006639     
  0.124999685006639     
  0.124999685006639     
  0.124999685006639     
  0.124999685006639     
  0.124999685006639     
  0.124999685006639     
  0.124999685006639     
  0.124999685006639     
  0.124999685006639     
  0.124999685006639     
  0.124999685006639     
  0.124999685006639     
  0.124999685006639     
   1.62499958577221     
  0.124999585772210     
  0.124999585772210     
  0.124999585772210     
  0.124999585772210     
  0.124999585772210     
  0.124999585772210     
  0.124999585772210     
  0.124999585772210     
  0.124999585772210     
  0.124999585772210     
  0.124999585772210     
  0.124999585772210     
  0.124999585772210     
  0.124999585772210     
   1.62499945527531     
  0.124999455275307     
  0.124999455275307     
  0.124999455275307     
  0.124999455275307     
  0.124999455275307     
  0.124999455275307     
  0.124999455275307     
  0.124999455275307     
  0.124999455275307     
  0.124999455275307     
  0.124999455275307     
  0.124999455275307     
  0.124999455275307     
  0.124999455275307     
   1.62499928366711     
  0.124999283667106     
  0.124999283667107     
  0.124999283667107     
  0.124999283667106     
  0.124999283667106     
  0.124999283667106     
  0.124999283667106     
  0.124999283667107     
  0.124999283667107     
  0.124999283667106     
  0.124999283667107     
  0.124999283667107     
  0.124999283667106     
  0.124999283667107     
   1.62499905799605     
  0.124999057996046     
  0.124999057996046     
  0.124999057996046     
  0.124999057996046     
  0.124999057996046     
  0.124999057996046     
  0.124999057996046     
  0.124999057996046     
  0.124999057996046     
  0.124999057996046     
  0.124999057996046     
  0.124999057996046     
  0.124999057996046     
  0.124999057996046     
   1.62499876123035     
  0.124998761230348     
  0.124998761230348     
  0.124998761230348     
  0.124998761230348     
  0.124998761230348     
  0.124998761230348     
  0.124998761230348     
  0.124998761230348     
  0.124998761230348     
  0.124998761230348     
  0.124998761230348     
  0.124998761230348     
  0.124998761230348     
  0.124998761230348     
   1.62499837097260     
  0.124998370972601     
  0.124998370972601     
  0.124998370972601     
  0.124998370972601     
  0.124998370972601     
  0.124998370972601     
  0.124998370972601     
  0.124998370972601     
  0.124998370972601     
  0.124998370972601     
  0.124998370972601     
  0.124998370972601     
  0.124998370972601     
  0.124998370972601     
   1.62499785776939     
  0.124997857769390     
  0.124997857769390     
  0.124997857769390     
  0.124997857769390     
  0.124997857769390     
  0.124997857769390     
  0.124997857769390     
  0.124997857769390     
  0.124997857769390     
  0.124997857769390     
  0.124997857769390     
  0.124997857769390     
  0.124997857769390     
  0.124997857769390     
   1.62499718288840     
  0.124997182888397     
  0.124997182888397     
  0.124997182888398     
  0.124997182888397     
  0.124997182888398     
  0.124997182888398     
  0.124997182888398     
  0.124997182888398     
  0.124997182888398     
  0.124997182888398     
  0.124997182888397     
  0.124997182888398     
  0.124997182888398     
  0.124997182888398     
   1.62499629539521     
  0.124996295395209     
  0.124996295395209     
  0.124996295395209     
  0.124996295395209     
  0.124996295395209     
  0.124996295395209     
  0.124996295395208     
  0.124996295395208     
  0.124996295395208     
  0.124996295395208     
  0.124996295395209     
  0.124996295395209     
  0.124996295395208     
  0.124996295395208     
   1.62499512830921     
  0.124995128309206     
  0.124995128309206     
  0.124995128309206     
  0.124995128309206     
  0.124995128309206     
  0.124995128309206     
  0.124995128309206     
  0.124995128309206     
  0.124995128309206     
  0.124995128309206     
  0.124995128309206     
  0.124995128309206     
  0.124995128309206     
  0.124995128309206     
   1.62499359354842     
  0.124993593548426     
  0.124993593548426     
  0.124993593548426     
  0.124993593548426     
  0.124993593548426     
  0.124993593548425     
  0.124993593548426     
  0.124993593548426     
  0.124993593548426     
  0.124993593548426     
  0.124993593548426     
  0.124993593548426     
  0.124993593548426     
  0.124993593548426     
   1.62499157528187     
  0.124991575281867     
  0.124991575281867     
  0.124991575281867     
  0.124991575281867     
  0.124991575281867     
  0.124991575281867     
  0.124991575281867     
  0.124991575281867     
  0.124991575281867     
  0.124991575281867     
  0.124991575281867     
  0.124991575281867     
  0.124991575281867     
  0.124991575281867     
   1.62498892118752     
  0.124988921187525     
  0.124988921187525     
  0.124988921187525     
  0.124988921187525     
  0.124988921187525     
  0.124988921187525     
  0.124988921187525     
  0.124988921187525     
  0.124988921187525     
  0.124988921187525     
  0.124988921187525     
  0.124988921187525     
  0.124988921187525     
  0.124988921187525     
   1.62498543095639     
  0.124985430956392     
  0.124985430956392     
  0.124985430956392     
  0.124985430956392     
  0.124985430956392     
  0.124985430956392     
  0.124985430956392     
  0.124985430956392     
  0.124985430956392     
  0.124985430956392     
  0.124985430956392     
  0.124985430956393     
  0.124985430956393     
  0.124985430956392     
   1.62498084117480     
  0.124980841174799     
  0.124980841174799     
  0.124980841174799     
  0.124980841174799     
  0.124980841174799     
  0.124980841174799     
  0.124980841174799     
  0.124980841174800     
  0.124980841174799     
  0.124980841174799     
  0.124980841174799     
  0.124980841174799     
  0.124980841174799     
  0.124980841174799     
   1.62497480544414     
  0.124974805444134     
  0.124974805444134     
  0.124974805444134     
  0.124974805444135     
  0.124974805444134     
  0.124974805444134     
  0.124974805444134     
  0.124974805444134     
  0.124974805444134     
  0.124974805444134     
  0.124974805444134     
  0.124974805444134     
  0.124974805444134     
  0.124974805444134     
   1.62496686823756     
  0.124966868237555     
  0.124966868237555     
  0.124966868237555     
  0.124966868237554     
  0.124966868237555     
  0.124966868237555     
  0.124966868237555     
  0.124966868237555     
  0.124966868237555     
  0.124966868237555     
  0.124966868237554     
  0.124966868237555     
  0.124966868237554     
  0.124966868237555     
   1.62495643052060     
  0.124956430520602     
  0.124956430520602     
  0.124956430520602     
  0.124956430520602     
  0.124956430520602     
  0.124956430520602     
  0.124956430520602     
  0.124956430520602     
  0.124956430520602     
  0.124956430520602     
  0.124956430520602     
  0.124956430520602     
  0.124956430520602     
  0.124956430520602     
   1.62494270454105     
  0.124942704541053     
  0.124942704541054     
  0.124942704541054     
  0.124942704541054     
  0.124942704541054     
  0.124942704541054     
  0.124942704541054     
  0.124942704541054     
  0.124942704541054     
  0.124942704541054     
  0.124942704541054     
  0.124942704541054     
  0.124942704541054     
  0.124942704541054     
   1.62492465437592     
  0.124924654375924     
  0.124924654375925     
  0.124924654375925     
  0.124924654375924     
  0.124924654375924     
  0.124924654375925     
  0.124924654375925     
  0.124924654375925     
  0.124924654375925     
  0.124924654375925     
  0.124924654375925     
  0.124924654375925     
  0.124924654375925     
  0.124924654375925     
   1.62490091774860     
  0.124900917748601     
  0.124900917748601     
  0.124900917748601     
  0.124900917748601     
  0.124900917748602     
  0.124900917748602     
  0.124900917748602     
  0.124900917748602     
  0.124900917748602     
  0.124900917748602     
  0.124900917748602     
  0.124900917748602     
  0.124900917748602     
  0.124900917748602     
   1.62486970321552     
  0.124869703215512     
  0.124869703215512     
  0.124869703215512     
  0.124869703215512     
  0.124869703215512     
  0.124869703215513     
  0.124869703215513     
  0.124869703215512     
  0.124869703215512     
  0.124869703215512     
  0.124869703215512     
  0.124869703215513     
  0.124869703215513     
  0.124869703215512     
   1.62482865496284     
  0.124828654962839     
  0.124828654962839     
  0.124828654962839     
  0.124828654962839     
  0.124828654962839     
  0.124828654962839     
  0.124828654962839     
  0.124828654962839     
  0.124828654962839     
  0.124828654962839     
  0.124828654962839     
  0.124828654962840     
  0.124828654962839     
  0.124828654962839     
   1.62477467500925     
  0.124774675009248     
  0.124774675009248     
  0.124774675009249     
  0.124774675009249     
  0.124774675009249     
  0.124774675009248     
  0.124774675009249     
  0.124774675009249     
  0.124774675009249     
  0.124774675009249     
  0.124774675009249     
  0.124774675009249     
  0.124774675009249     
  0.124774675009249     
   1.62470368939598     
  0.124703689395979     
  0.124703689395979     
  0.124703689395979     
  0.124703689395979     
  0.124703689395978     
  0.124703689395978     
  0.124703689395979     
  0.124703689395979     
  0.124703689395979     
  0.124703689395978     
  0.124703689395979     
  0.124703689395979     
  0.124703689395979     
  0.124703689395979     
   1.62461034071826     
  0.124610340718254     
  0.124610340718254     
  0.124610340718254     
  0.124610340718254     
  0.124610340718254     
  0.124610340718254     
  0.124610340718254     
  0.124610340718254     
  0.124610340718254     
  0.124610340718254     
  0.124610340718254     
  0.124610340718254     
  0.124610340718254     
  0.124610340718254     
   1.62448758379285     
  0.124487583792850     
  0.124487583792851     
  0.124487583792850     
  0.124487583792851     
  0.124487583792851     
  0.124487583792851     
  0.124487583792850     
  0.124487583792850     
  0.124487583792850     
  0.124487583792851     
  0.124487583792851     
  0.124487583792851     
  0.124487583792851     
  0.124487583792851     
   1.62432615394615     
  0.124326153946152     
  0.124326153946153     
  0.124326153946153     
  0.124326153946153     
  0.124326153946153     
  0.124326153946153     
  0.124326153946153     
  0.124326153946153     
  0.124326153946153     
  0.124326153946153     
  0.124326153946153     
  0.124326153946153     
  0.124326153946153     
  0.124326153946153     
   1.62411386779351     
  0.124113867793504     
  0.124113867793504     
  0.124113867793504     
  0.124113867793505     
  0.124113867793504     
  0.124113867793504     
  0.124113867793504     
  0.124113867793504     
  0.124113867793504     
  0.124113867793504     
  0.124113867793505     
  0.124113867793505     
  0.124113867793505     
  0.124113867793505     
   1.62383470373848     
  0.123834703738479     
  0.123834703738479     
  0.123834703738479     
  0.123834703738479     
  0.123834703738479     
  0.123834703738479     
  0.123834703738479     
  0.123834703738479     
  0.123834703738479     
  0.123834703738480     
  0.123834703738480     
  0.123834703738480     
  0.123834703738479     
  0.123834703738479     
   1.62346759279579     
  0.123467592795792     
  0.123467592795792     
  0.123467592795792     
  0.123467592795792     
  0.123467592795792     
  0.123467592795792     
  0.123467592795792     
  0.123467592795792     
  0.123467592795792     
  0.123467592795792     
  0.123467592795792     
  0.123467592795792     
  0.123467592795792     
  0.123467592795792     
   1.62298482847920     
  0.122984828479202     
  0.122984828479201     
  0.122984828479202     
  0.122984828479204     
  0.122984828479203     
  0.122984828479202     
  0.122984828479202     
  0.122984828479201     
  0.122984828479202     
  0.122984828479203     
  0.122984828479202     
  0.122984828479202     
  0.122984828479203     
  0.122984828479203     
