# vtk DataFile Version 3.0
vtk output
ASCII
DATASET UNSTRUCTURED_GRID
POINTS      5151 double 
  0.00000000E+00  1.00000000E+02  0.00000000E+00
  0.00000000E+00  9.80000000E+01  0.00000000E+00
  0.00000000E+00  9.60000000E+01  0.00000000E+00
  0.00000000E+00  9.40000000E+01  0.00000000E+00
  0.00000000E+00  9.20000000E+01  0.00000000E+00
  0.00000000E+00  9.00000000E+01  0.00000000E+00
  0.00000000E+00  8.80000000E+01  0.00000000E+00
  0.00000000E+00  8.60000000E+01  0.00000000E+00
  0.00000000E+00  8.40000000E+01  0.00000000E+00
  0.00000000E+00  8.20000000E+01  0.00000000E+00
  0.00000000E+00  8.00000000E+01  0.00000000E+00
  0.00000000E+00  7.80000000E+01  0.00000000E+00
  0.00000000E+00  7.60000000E+01  0.00000000E+00
  0.00000000E+00  7.40000000E+01  0.00000000E+00
  0.00000000E+00  7.20000000E+01  0.00000000E+00
  0.00000000E+00  7.00000000E+01  0.00000000E+00
  0.00000000E+00  6.80000000E+01  0.00000000E+00
  0.00000000E+00  6.60000000E+01  0.00000000E+00
  0.00000000E+00  6.40000000E+01  0.00000000E+00
  0.00000000E+00  6.20000000E+01  0.00000000E+00
  0.00000000E+00  6.00000000E+01  0.00000000E+00
  0.00000000E+00  5.80000000E+01  0.00000000E+00
  0.00000000E+00  5.60000000E+01  0.00000000E+00
  0.00000000E+00  5.40000000E+01  0.00000000E+00
  0.00000000E+00  5.20000000E+01  0.00000000E+00
  0.00000000E+00  5.00000000E+01  0.00000000E+00
  0.00000000E+00  4.80000000E+01  0.00000000E+00
  0.00000000E+00  4.60000000E+01  0.00000000E+00
  0.00000000E+00  4.40000000E+01  0.00000000E+00
  0.00000000E+00  4.20000000E+01  0.00000000E+00
  0.00000000E+00  4.00000000E+01  0.00000000E+00
  0.00000000E+00  3.80000000E+01  0.00000000E+00
  0.00000000E+00  3.60000000E+01  0.00000000E+00
  0.00000000E+00  3.40000000E+01  0.00000000E+00
  0.00000000E+00  3.20000000E+01  0.00000000E+00
  0.00000000E+00  3.00000000E+01  0.00000000E+00
  0.00000000E+00  2.80000000E+01  0.00000000E+00
  0.00000000E+00  2.60000000E+01  0.00000000E+00
  0.00000000E+00  2.40000000E+01  0.00000000E+00
  0.00000000E+00  2.20000000E+01  0.00000000E+00
  0.00000000E+00  2.00000000E+01  0.00000000E+00
  0.00000000E+00  1.80000000E+01  0.00000000E+00
  0.00000000E+00  1.60000000E+01  0.00000000E+00
  0.00000000E+00  1.40000000E+01  0.00000000E+00
  0.00000000E+00  1.20000000E+01  0.00000000E+00
  0.00000000E+00  1.00000000E+01  0.00000000E+00
  0.00000000E+00  8.00000000E+00  0.00000000E+00
  0.00000000E+00  6.00000000E+00  0.00000000E+00
  0.00000000E+00  4.00000000E+00  0.00000000E+00
  0.00000000E+00  2.00000000E+00  0.00000000E+00
  0.00000000E+00 -3.33066907E-14  0.00000000E+00
  1.00000000E+01  1.00000000E+02  0.00000000E+00
  1.00000000E+01  9.80000000E+01  0.00000000E+00
  1.00000000E+01  9.60000000E+01  0.00000000E+00
  1.00000000E+01  9.40000000E+01  0.00000000E+00
  1.00000000E+01  9.20000000E+01  0.00000000E+00
  1.00000000E+01  9.00000000E+01  0.00000000E+00
  1.00000000E+01  8.80000000E+01  0.00000000E+00
  1.00000000E+01  8.60000000E+01  0.00000000E+00
  1.00000000E+01  8.40000000E+01  0.00000000E+00
  1.00000000E+01  8.20000000E+01  0.00000000E+00
  1.00000000E+01  8.00000000E+01  0.00000000E+00
  1.00000000E+01  7.80000000E+01  0.00000000E+00
  1.00000000E+01  7.60000000E+01  0.00000000E+00
  1.00000000E+01  7.40000000E+01  0.00000000E+00
  1.00000000E+01  7.20000000E+01  0.00000000E+00
  1.00000000E+01  7.00000000E+01  0.00000000E+00
  1.00000000E+01  6.80000000E+01  0.00000000E+00
  1.00000000E+01  6.60000000E+01  0.00000000E+00
  1.00000000E+01  6.40000000E+01  0.00000000E+00
  1.00000000E+01  6.20000000E+01  0.00000000E+00
  1.00000000E+01  6.00000000E+01  0.00000000E+00
  1.00000000E+01  5.80000000E+01  0.00000000E+00
  1.00000000E+01  5.60000000E+01  0.00000000E+00
  1.00000000E+01  5.40000000E+01  0.00000000E+00
  1.00000000E+01  5.20000000E+01  0.00000000E+00
  1.00000000E+01  5.00000000E+01  0.00000000E+00
  1.00000000E+01  4.80000000E+01  0.00000000E+00
  1.00000000E+01  4.60000000E+01  0.00000000E+00
  1.00000000E+01  4.40000000E+01  0.00000000E+00
  1.00000000E+01  4.20000000E+01  0.00000000E+00
  1.00000000E+01  4.00000000E+01  0.00000000E+00
  1.00000000E+01  3.80000000E+01  0.00000000E+00
  1.00000000E+01  3.60000000E+01  0.00000000E+00
  1.00000000E+01  3.40000000E+01  0.00000000E+00
  1.00000000E+01  3.20000000E+01  0.00000000E+00
  1.00000000E+01  3.00000000E+01  0.00000000E+00
  1.00000000E+01  2.80000000E+01  0.00000000E+00
  1.00000000E+01  2.60000000E+01  0.00000000E+00
  1.00000000E+01  2.40000000E+01  0.00000000E+00
  1.00000000E+01  2.20000000E+01  0.00000000E+00
  1.00000000E+01  2.00000000E+01  0.00000000E+00
  1.00000000E+01  1.80000000E+01  0.00000000E+00
  1.00000000E+01  1.60000000E+01  0.00000000E+00
  1.00000000E+01  1.40000000E+01  0.00000000E+00
  1.00000000E+01  1.20000000E+01  0.00000000E+00
  1.00000000E+01  1.00000000E+01  0.00000000E+00
  1.00000000E+01  8.00000000E+00  0.00000000E+00
  1.00000000E+01  6.00000000E+00  0.00000000E+00
  1.00000000E+01  4.00000000E+00  0.00000000E+00
  1.00000000E+01  2.00000000E+00  0.00000000E+00
  1.00000000E+01 -3.33066907E-14  0.00000000E+00
  2.00000000E+01  1.00000000E+02  0.00000000E+00
  2.00000000E+01  9.80000000E+01  0.00000000E+00
  2.00000000E+01  9.60000000E+01  0.00000000E+00
  2.00000000E+01  9.40000000E+01  0.00000000E+00
  2.00000000E+01  9.20000000E+01  0.00000000E+00
  2.00000000E+01  9.00000000E+01  0.00000000E+00
  2.00000000E+01  8.80000000E+01  0.00000000E+00
  2.00000000E+01  8.60000000E+01  0.00000000E+00
  2.00000000E+01  8.40000000E+01  0.00000000E+00
  2.00000000E+01  8.20000000E+01  0.00000000E+00
  2.00000000E+01  8.00000000E+01  0.00000000E+00
  2.00000000E+01  7.80000000E+01  0.00000000E+00
  2.00000000E+01  7.60000000E+01  0.00000000E+00
  2.00000000E+01  7.40000000E+01  0.00000000E+00
  2.00000000E+01  7.20000000E+01  0.00000000E+00
  2.00000000E+01  7.00000000E+01  0.00000000E+00
  2.00000000E+01  6.80000000E+01  0.00000000E+00
  2.00000000E+01  6.60000000E+01  0.00000000E+00
  2.00000000E+01  6.40000000E+01  0.00000000E+00
  2.00000000E+01  6.20000000E+01  0.00000000E+00
  2.00000000E+01  6.00000000E+01  0.00000000E+00
  2.00000000E+01  5.80000000E+01  0.00000000E+00
  2.00000000E+01  5.60000000E+01  0.00000000E+00
  2.00000000E+01  5.40000000E+01  0.00000000E+00
  2.00000000E+01  5.20000000E+01  0.00000000E+00
  2.00000000E+01  5.00000000E+01  0.00000000E+00
  2.00000000E+01  4.80000000E+01  0.00000000E+00
  2.00000000E+01  4.60000000E+01  0.00000000E+00
  2.00000000E+01  4.40000000E+01  0.00000000E+00
  2.00000000E+01  4.20000000E+01  0.00000000E+00
  2.00000000E+01  4.00000000E+01  0.00000000E+00
  2.00000000E+01  3.80000000E+01  0.00000000E+00
  2.00000000E+01  3.60000000E+01  0.00000000E+00
  2.00000000E+01  3.40000000E+01  0.00000000E+00
  2.00000000E+01  3.20000000E+01  0.00000000E+00
  2.00000000E+01  3.00000000E+01  0.00000000E+00
  2.00000000E+01  2.80000000E+01  0.00000000E+00
  2.00000000E+01  2.60000000E+01  0.00000000E+00
  2.00000000E+01  2.40000000E+01  0.00000000E+00
  2.00000000E+01  2.20000000E+01  0.00000000E+00
  2.00000000E+01  2.00000000E+01  0.00000000E+00
  2.00000000E+01  1.80000000E+01  0.00000000E+00
  2.00000000E+01  1.60000000E+01  0.00000000E+00
  2.00000000E+01  1.40000000E+01  0.00000000E+00
  2.00000000E+01  1.20000000E+01  0.00000000E+00
  2.00000000E+01  1.00000000E+01  0.00000000E+00
  2.00000000E+01  8.00000000E+00  0.00000000E+00
  2.00000000E+01  6.00000000E+00  0.00000000E+00
  2.00000000E+01  4.00000000E+00  0.00000000E+00
  2.00000000E+01  2.00000000E+00  0.00000000E+00
  2.00000000E+01 -3.33066907E-14  0.00000000E+00
  3.00000000E+01  1.00000000E+02  0.00000000E+00
  3.00000000E+01  9.80000000E+01  0.00000000E+00
  3.00000000E+01  9.60000000E+01  0.00000000E+00
  3.00000000E+01  9.40000000E+01  0.00000000E+00
  3.00000000E+01  9.20000000E+01  0.00000000E+00
  3.00000000E+01  9.00000000E+01  0.00000000E+00
  3.00000000E+01  8.80000000E+01  0.00000000E+00
  3.00000000E+01  8.60000000E+01  0.00000000E+00
  3.00000000E+01  8.40000000E+01  0.00000000E+00
  3.00000000E+01  8.20000000E+01  0.00000000E+00
  3.00000000E+01  8.00000000E+01  0.00000000E+00
  3.00000000E+01  7.80000000E+01  0.00000000E+00
  3.00000000E+01  7.60000000E+01  0.00000000E+00
  3.00000000E+01  7.40000000E+01  0.00000000E+00
  3.00000000E+01  7.20000000E+01  0.00000000E+00
  3.00000000E+01  7.00000000E+01  0.00000000E+00
  3.00000000E+01  6.80000000E+01  0.00000000E+00
  3.00000000E+01  6.60000000E+01  0.00000000E+00
  3.00000000E+01  6.40000000E+01  0.00000000E+00
  3.00000000E+01  6.20000000E+01  0.00000000E+00
  3.00000000E+01  6.00000000E+01  0.00000000E+00
  3.00000000E+01  5.80000000E+01  0.00000000E+00
  3.00000000E+01  5.60000000E+01  0.00000000E+00
  3.00000000E+01  5.40000000E+01  0.00000000E+00
  3.00000000E+01  5.20000000E+01  0.00000000E+00
  3.00000000E+01  5.00000000E+01  0.00000000E+00
  3.00000000E+01  4.80000000E+01  0.00000000E+00
  3.00000000E+01  4.60000000E+01  0.00000000E+00
  3.00000000E+01  4.40000000E+01  0.00000000E+00
  3.00000000E+01  4.20000000E+01  0.00000000E+00
  3.00000000E+01  4.00000000E+01  0.00000000E+00
  3.00000000E+01  3.80000000E+01  0.00000000E+00
  3.00000000E+01  3.60000000E+01  0.00000000E+00
  3.00000000E+01  3.40000000E+01  0.00000000E+00
  3.00000000E+01  3.20000000E+01  0.00000000E+00
  3.00000000E+01  3.00000000E+01  0.00000000E+00
  3.00000000E+01  2.80000000E+01  0.00000000E+00
  3.00000000E+01  2.60000000E+01  0.00000000E+00
  3.00000000E+01  2.40000000E+01  0.00000000E+00
  3.00000000E+01  2.20000000E+01  0.00000000E+00
  3.00000000E+01  2.00000000E+01  0.00000000E+00
  3.00000000E+01  1.80000000E+01  0.00000000E+00
  3.00000000E+01  1.60000000E+01  0.00000000E+00
  3.00000000E+01  1.40000000E+01  0.00000000E+00
  3.00000000E+01  1.20000000E+01  0.00000000E+00
  3.00000000E+01  1.00000000E+01  0.00000000E+00
  3.00000000E+01  8.00000000E+00  0.00000000E+00
  3.00000000E+01  6.00000000E+00  0.00000000E+00
  3.00000000E+01  4.00000000E+00  0.00000000E+00
  3.00000000E+01  2.00000000E+00  0.00000000E+00
  3.00000000E+01 -3.33066907E-14  0.00000000E+00
  4.00000000E+01  1.00000000E+02  0.00000000E+00
  4.00000000E+01  9.80000000E+01  0.00000000E+00
  4.00000000E+01  9.60000000E+01  0.00000000E+00
  4.00000000E+01  9.40000000E+01  0.00000000E+00
  4.00000000E+01  9.20000000E+01  0.00000000E+00
  4.00000000E+01  9.00000000E+01  0.00000000E+00
  4.00000000E+01  8.80000000E+01  0.00000000E+00
  4.00000000E+01  8.60000000E+01  0.00000000E+00
  4.00000000E+01  8.40000000E+01  0.00000000E+00
  4.00000000E+01  8.20000000E+01  0.00000000E+00
  4.00000000E+01  8.00000000E+01  0.00000000E+00
  4.00000000E+01  7.80000000E+01  0.00000000E+00
  4.00000000E+01  7.60000000E+01  0.00000000E+00
  4.00000000E+01  7.40000000E+01  0.00000000E+00
  4.00000000E+01  7.20000000E+01  0.00000000E+00
  4.00000000E+01  7.00000000E+01  0.00000000E+00
  4.00000000E+01  6.80000000E+01  0.00000000E+00
  4.00000000E+01  6.60000000E+01  0.00000000E+00
  4.00000000E+01  6.40000000E+01  0.00000000E+00
  4.00000000E+01  6.20000000E+01  0.00000000E+00
  4.00000000E+01  6.00000000E+01  0.00000000E+00
  4.00000000E+01  5.80000000E+01  0.00000000E+00
  4.00000000E+01  5.60000000E+01  0.00000000E+00
  4.00000000E+01  5.40000000E+01  0.00000000E+00
  4.00000000E+01  5.20000000E+01  0.00000000E+00
  4.00000000E+01  5.00000000E+01  0.00000000E+00
  4.00000000E+01  4.80000000E+01  0.00000000E+00
  4.00000000E+01  4.60000000E+01  0.00000000E+00
  4.00000000E+01  4.40000000E+01  0.00000000E+00
  4.00000000E+01  4.20000000E+01  0.00000000E+00
  4.00000000E+01  4.00000000E+01  0.00000000E+00
  4.00000000E+01  3.80000000E+01  0.00000000E+00
  4.00000000E+01  3.60000000E+01  0.00000000E+00
  4.00000000E+01  3.40000000E+01  0.00000000E+00
  4.00000000E+01  3.20000000E+01  0.00000000E+00
  4.00000000E+01  3.00000000E+01  0.00000000E+00
  4.00000000E+01  2.80000000E+01  0.00000000E+00
  4.00000000E+01  2.60000000E+01  0.00000000E+00
  4.00000000E+01  2.40000000E+01  0.00000000E+00
  4.00000000E+01  2.20000000E+01  0.00000000E+00
  4.00000000E+01  2.00000000E+01  0.00000000E+00
  4.00000000E+01  1.80000000E+01  0.00000000E+00
  4.00000000E+01  1.60000000E+01  0.00000000E+00
  4.00000000E+01  1.40000000E+01  0.00000000E+00
  4.00000000E+01  1.20000000E+01  0.00000000E+00
  4.00000000E+01  1.00000000E+01  0.00000000E+00
  4.00000000E+01  8.00000000E+00  0.00000000E+00
  4.00000000E+01  6.00000000E+00  0.00000000E+00
  4.00000000E+01  4.00000000E+00  0.00000000E+00
  4.00000000E+01  2.00000000E+00  0.00000000E+00
  4.00000000E+01 -3.33066907E-14  0.00000000E+00
  5.00000000E+01  1.00000000E+02  0.00000000E+00
  5.00000000E+01  9.80000000E+01  0.00000000E+00
  5.00000000E+01  9.60000000E+01  0.00000000E+00
  5.00000000E+01  9.40000000E+01  0.00000000E+00
  5.00000000E+01  9.20000000E+01  0.00000000E+00
  5.00000000E+01  9.00000000E+01  0.00000000E+00
  5.00000000E+01  8.80000000E+01  0.00000000E+00
  5.00000000E+01  8.60000000E+01  0.00000000E+00
  5.00000000E+01  8.40000000E+01  0.00000000E+00
  5.00000000E+01  8.20000000E+01  0.00000000E+00
  5.00000000E+01  8.00000000E+01  0.00000000E+00
  5.00000000E+01  7.80000000E+01  0.00000000E+00
  5.00000000E+01  7.60000000E+01  0.00000000E+00
  5.00000000E+01  7.40000000E+01  0.00000000E+00
  5.00000000E+01  7.20000000E+01  0.00000000E+00
  5.00000000E+01  7.00000000E+01  0.00000000E+00
  5.00000000E+01  6.80000000E+01  0.00000000E+00
  5.00000000E+01  6.60000000E+01  0.00000000E+00
  5.00000000E+01  6.40000000E+01  0.00000000E+00
  5.00000000E+01  6.20000000E+01  0.00000000E+00
  5.00000000E+01  6.00000000E+01  0.00000000E+00
  5.00000000E+01  5.80000000E+01  0.00000000E+00
  5.00000000E+01  5.60000000E+01  0.00000000E+00
  5.00000000E+01  5.40000000E+01  0.00000000E+00
  5.00000000E+01  5.20000000E+01  0.00000000E+00
  5.00000000E+01  5.00000000E+01  0.00000000E+00
  5.00000000E+01  4.80000000E+01  0.00000000E+00
  5.00000000E+01  4.60000000E+01  0.00000000E+00
  5.00000000E+01  4.40000000E+01  0.00000000E+00
  5.00000000E+01  4.20000000E+01  0.00000000E+00
  5.00000000E+01  4.00000000E+01  0.00000000E+00
  5.00000000E+01  3.80000000E+01  0.00000000E+00
  5.00000000E+01  3.60000000E+01  0.00000000E+00
  5.00000000E+01  3.40000000E+01  0.00000000E+00
  5.00000000E+01  3.20000000E+01  0.00000000E+00
  5.00000000E+01  3.00000000E+01  0.00000000E+00
  5.00000000E+01  2.80000000E+01  0.00000000E+00
  5.00000000E+01  2.60000000E+01  0.00000000E+00
  5.00000000E+01  2.40000000E+01  0.00000000E+00
  5.00000000E+01  2.20000000E+01  0.00000000E+00
  5.00000000E+01  2.00000000E+01  0.00000000E+00
  5.00000000E+01  1.80000000E+01  0.00000000E+00
  5.00000000E+01  1.60000000E+01  0.00000000E+00
  5.00000000E+01  1.40000000E+01  0.00000000E+00
  5.00000000E+01  1.20000000E+01  0.00000000E+00
  5.00000000E+01  1.00000000E+01  0.00000000E+00
  5.00000000E+01  8.00000000E+00  0.00000000E+00
  5.00000000E+01  6.00000000E+00  0.00000000E+00
  5.00000000E+01  4.00000000E+00  0.00000000E+00
  5.00000000E+01  2.00000000E+00  0.00000000E+00
  5.00000000E+01 -3.33066907E-14  0.00000000E+00
  6.00000000E+01  1.00000000E+02  0.00000000E+00
  6.00000000E+01  9.80000000E+01  0.00000000E+00
  6.00000000E+01  9.60000000E+01  0.00000000E+00
  6.00000000E+01  9.40000000E+01  0.00000000E+00
  6.00000000E+01  9.20000000E+01  0.00000000E+00
  6.00000000E+01  9.00000000E+01  0.00000000E+00
  6.00000000E+01  8.80000000E+01  0.00000000E+00
  6.00000000E+01  8.60000000E+01  0.00000000E+00
  6.00000000E+01  8.40000000E+01  0.00000000E+00
  6.00000000E+01  8.20000000E+01  0.00000000E+00
  6.00000000E+01  8.00000000E+01  0.00000000E+00
  6.00000000E+01  7.80000000E+01  0.00000000E+00
  6.00000000E+01  7.60000000E+01  0.00000000E+00
  6.00000000E+01  7.40000000E+01  0.00000000E+00
  6.00000000E+01  7.20000000E+01  0.00000000E+00
  6.00000000E+01  7.00000000E+01  0.00000000E+00
  6.00000000E+01  6.80000000E+01  0.00000000E+00
  6.00000000E+01  6.60000000E+01  0.00000000E+00
  6.00000000E+01  6.40000000E+01  0.00000000E+00
  6.00000000E+01  6.20000000E+01  0.00000000E+00
  6.00000000E+01  6.00000000E+01  0.00000000E+00
  6.00000000E+01  5.80000000E+01  0.00000000E+00
  6.00000000E+01  5.60000000E+01  0.00000000E+00
  6.00000000E+01  5.40000000E+01  0.00000000E+00
  6.00000000E+01  5.20000000E+01  0.00000000E+00
  6.00000000E+01  5.00000000E+01  0.00000000E+00
  6.00000000E+01  4.80000000E+01  0.00000000E+00
  6.00000000E+01  4.60000000E+01  0.00000000E+00
  6.00000000E+01  4.40000000E+01  0.00000000E+00
  6.00000000E+01  4.20000000E+01  0.00000000E+00
  6.00000000E+01  4.00000000E+01  0.00000000E+00
  6.00000000E+01  3.80000000E+01  0.00000000E+00
  6.00000000E+01  3.60000000E+01  0.00000000E+00
  6.00000000E+01  3.40000000E+01  0.00000000E+00
  6.00000000E+01  3.20000000E+01  0.00000000E+00
  6.00000000E+01  3.00000000E+01  0.00000000E+00
  6.00000000E+01  2.80000000E+01  0.00000000E+00
  6.00000000E+01  2.60000000E+01  0.00000000E+00
  6.00000000E+01  2.40000000E+01  0.00000000E+00
  6.00000000E+01  2.20000000E+01  0.00000000E+00
  6.00000000E+01  2.00000000E+01  0.00000000E+00
  6.00000000E+01  1.80000000E+01  0.00000000E+00
  6.00000000E+01  1.60000000E+01  0.00000000E+00
  6.00000000E+01  1.40000000E+01  0.00000000E+00
  6.00000000E+01  1.20000000E+01  0.00000000E+00
  6.00000000E+01  1.00000000E+01  0.00000000E+00
  6.00000000E+01  8.00000000E+00  0.00000000E+00
  6.00000000E+01  6.00000000E+00  0.00000000E+00
  6.00000000E+01  4.00000000E+00  0.00000000E+00
  6.00000000E+01  2.00000000E+00  0.00000000E+00
  6.00000000E+01 -3.33066907E-14  0.00000000E+00
  7.00000000E+01  1.00000000E+02  0.00000000E+00
  7.00000000E+01  9.80000000E+01  0.00000000E+00
  7.00000000E+01  9.60000000E+01  0.00000000E+00
  7.00000000E+01  9.40000000E+01  0.00000000E+00
  7.00000000E+01  9.20000000E+01  0.00000000E+00
  7.00000000E+01  9.00000000E+01  0.00000000E+00
  7.00000000E+01  8.80000000E+01  0.00000000E+00
  7.00000000E+01  8.60000000E+01  0.00000000E+00
  7.00000000E+01  8.40000000E+01  0.00000000E+00
  7.00000000E+01  8.20000000E+01  0.00000000E+00
  7.00000000E+01  8.00000000E+01  0.00000000E+00
  7.00000000E+01  7.80000000E+01  0.00000000E+00
  7.00000000E+01  7.60000000E+01  0.00000000E+00
  7.00000000E+01  7.40000000E+01  0.00000000E+00
  7.00000000E+01  7.20000000E+01  0.00000000E+00
  7.00000000E+01  7.00000000E+01  0.00000000E+00
  7.00000000E+01  6.80000000E+01  0.00000000E+00
  7.00000000E+01  6.60000000E+01  0.00000000E+00
  7.00000000E+01  6.40000000E+01  0.00000000E+00
  7.00000000E+01  6.20000000E+01  0.00000000E+00
  7.00000000E+01  6.00000000E+01  0.00000000E+00
  7.00000000E+01  5.80000000E+01  0.00000000E+00
  7.00000000E+01  5.60000000E+01  0.00000000E+00
  7.00000000E+01  5.40000000E+01  0.00000000E+00
  7.00000000E+01  5.20000000E+01  0.00000000E+00
  7.00000000E+01  5.00000000E+01  0.00000000E+00
  7.00000000E+01  4.80000000E+01  0.00000000E+00
  7.00000000E+01  4.60000000E+01  0.00000000E+00
  7.00000000E+01  4.40000000E+01  0.00000000E+00
  7.00000000E+01  4.20000000E+01  0.00000000E+00
  7.00000000E+01  4.00000000E+01  0.00000000E+00
  7.00000000E+01  3.80000000E+01  0.00000000E+00
  7.00000000E+01  3.60000000E+01  0.00000000E+00
  7.00000000E+01  3.40000000E+01  0.00000000E+00
  7.00000000E+01  3.20000000E+01  0.00000000E+00
  7.00000000E+01  3.00000000E+01  0.00000000E+00
  7.00000000E+01  2.80000000E+01  0.00000000E+00
  7.00000000E+01  2.60000000E+01  0.00000000E+00
  7.00000000E+01  2.40000000E+01  0.00000000E+00
  7.00000000E+01  2.20000000E+01  0.00000000E+00
  7.00000000E+01  2.00000000E+01  0.00000000E+00
  7.00000000E+01  1.80000000E+01  0.00000000E+00
  7.00000000E+01  1.60000000E+01  0.00000000E+00
  7.00000000E+01  1.40000000E+01  0.00000000E+00
  7.00000000E+01  1.20000000E+01  0.00000000E+00
  7.00000000E+01  1.00000000E+01  0.00000000E+00
  7.00000000E+01  8.00000000E+00  0.00000000E+00
  7.00000000E+01  6.00000000E+00  0.00000000E+00
  7.00000000E+01  4.00000000E+00  0.00000000E+00
  7.00000000E+01  2.00000000E+00  0.00000000E+00
  7.00000000E+01 -3.33066907E-14  0.00000000E+00
  8.00000000E+01  1.00000000E+02  0.00000000E+00
  8.00000000E+01  9.80000000E+01  0.00000000E+00
  8.00000000E+01  9.60000000E+01  0.00000000E+00
  8.00000000E+01  9.40000000E+01  0.00000000E+00
  8.00000000E+01  9.20000000E+01  0.00000000E+00
  8.00000000E+01  9.00000000E+01  0.00000000E+00
  8.00000000E+01  8.80000000E+01  0.00000000E+00
  8.00000000E+01  8.60000000E+01  0.00000000E+00
  8.00000000E+01  8.40000000E+01  0.00000000E+00
  8.00000000E+01  8.20000000E+01  0.00000000E+00
  8.00000000E+01  8.00000000E+01  0.00000000E+00
  8.00000000E+01  7.80000000E+01  0.00000000E+00
  8.00000000E+01  7.60000000E+01  0.00000000E+00
  8.00000000E+01  7.40000000E+01  0.00000000E+00
  8.00000000E+01  7.20000000E+01  0.00000000E+00
  8.00000000E+01  7.00000000E+01  0.00000000E+00
  8.00000000E+01  6.80000000E+01  0.00000000E+00
  8.00000000E+01  6.60000000E+01  0.00000000E+00
  8.00000000E+01  6.40000000E+01  0.00000000E+00
  8.00000000E+01  6.20000000E+01  0.00000000E+00
  8.00000000E+01  6.00000000E+01  0.00000000E+00
  8.00000000E+01  5.80000000E+01  0.00000000E+00
  8.00000000E+01  5.60000000E+01  0.00000000E+00
  8.00000000E+01  5.40000000E+01  0.00000000E+00
  8.00000000E+01  5.20000000E+01  0.00000000E+00
  8.00000000E+01  5.00000000E+01  0.00000000E+00
  8.00000000E+01  4.80000000E+01  0.00000000E+00
  8.00000000E+01  4.60000000E+01  0.00000000E+00
  8.00000000E+01  4.40000000E+01  0.00000000E+00
  8.00000000E+01  4.20000000E+01  0.00000000E+00
  8.00000000E+01  4.00000000E+01  0.00000000E+00
  8.00000000E+01  3.80000000E+01  0.00000000E+00
  8.00000000E+01  3.60000000E+01  0.00000000E+00
  8.00000000E+01  3.40000000E+01  0.00000000E+00
  8.00000000E+01  3.20000000E+01  0.00000000E+00
  8.00000000E+01  3.00000000E+01  0.00000000E+00
  8.00000000E+01  2.80000000E+01  0.00000000E+00
  8.00000000E+01  2.60000000E+01  0.00000000E+00
  8.00000000E+01  2.40000000E+01  0.00000000E+00
  8.00000000E+01  2.20000000E+01  0.00000000E+00
  8.00000000E+01  2.00000000E+01  0.00000000E+00
  8.00000000E+01  1.80000000E+01  0.00000000E+00
  8.00000000E+01  1.60000000E+01  0.00000000E+00
  8.00000000E+01  1.40000000E+01  0.00000000E+00
  8.00000000E+01  1.20000000E+01  0.00000000E+00
  8.00000000E+01  1.00000000E+01  0.00000000E+00
  8.00000000E+01  8.00000000E+00  0.00000000E+00
  8.00000000E+01  6.00000000E+00  0.00000000E+00
  8.00000000E+01  4.00000000E+00  0.00000000E+00
  8.00000000E+01  2.00000000E+00  0.00000000E+00
  8.00000000E+01 -3.33066907E-14  0.00000000E+00
  9.00000000E+01  1.00000000E+02  0.00000000E+00
  9.00000000E+01  9.80000000E+01  0.00000000E+00
  9.00000000E+01  9.60000000E+01  0.00000000E+00
  9.00000000E+01  9.40000000E+01  0.00000000E+00
  9.00000000E+01  9.20000000E+01  0.00000000E+00
  9.00000000E+01  9.00000000E+01  0.00000000E+00
  9.00000000E+01  8.80000000E+01  0.00000000E+00
  9.00000000E+01  8.60000000E+01  0.00000000E+00
  9.00000000E+01  8.40000000E+01  0.00000000E+00
  9.00000000E+01  8.20000000E+01  0.00000000E+00
  9.00000000E+01  8.00000000E+01  0.00000000E+00
  9.00000000E+01  7.80000000E+01  0.00000000E+00
  9.00000000E+01  7.60000000E+01  0.00000000E+00
  9.00000000E+01  7.40000000E+01  0.00000000E+00
  9.00000000E+01  7.20000000E+01  0.00000000E+00
  9.00000000E+01  7.00000000E+01  0.00000000E+00
  9.00000000E+01  6.80000000E+01  0.00000000E+00
  9.00000000E+01  6.60000000E+01  0.00000000E+00
  9.00000000E+01  6.40000000E+01  0.00000000E+00
  9.00000000E+01  6.20000000E+01  0.00000000E+00
  9.00000000E+01  6.00000000E+01  0.00000000E+00
  9.00000000E+01  5.80000000E+01  0.00000000E+00
  9.00000000E+01  5.60000000E+01  0.00000000E+00
  9.00000000E+01  5.40000000E+01  0.00000000E+00
  9.00000000E+01  5.20000000E+01  0.00000000E+00
  9.00000000E+01  5.00000000E+01  0.00000000E+00
  9.00000000E+01  4.80000000E+01  0.00000000E+00
  9.00000000E+01  4.60000000E+01  0.00000000E+00
  9.00000000E+01  4.40000000E+01  0.00000000E+00
  9.00000000E+01  4.20000000E+01  0.00000000E+00
  9.00000000E+01  4.00000000E+01  0.00000000E+00
  9.00000000E+01  3.80000000E+01  0.00000000E+00
  9.00000000E+01  3.60000000E+01  0.00000000E+00
  9.00000000E+01  3.40000000E+01  0.00000000E+00
  9.00000000E+01  3.20000000E+01  0.00000000E+00
  9.00000000E+01  3.00000000E+01  0.00000000E+00
  9.00000000E+01  2.80000000E+01  0.00000000E+00
  9.00000000E+01  2.60000000E+01  0.00000000E+00
  9.00000000E+01  2.40000000E+01  0.00000000E+00
  9.00000000E+01  2.20000000E+01  0.00000000E+00
  9.00000000E+01  2.00000000E+01  0.00000000E+00
  9.00000000E+01  1.80000000E+01  0.00000000E+00
  9.00000000E+01  1.60000000E+01  0.00000000E+00
  9.00000000E+01  1.40000000E+01  0.00000000E+00
  9.00000000E+01  1.20000000E+01  0.00000000E+00
  9.00000000E+01  1.00000000E+01  0.00000000E+00
  9.00000000E+01  8.00000000E+00  0.00000000E+00
  9.00000000E+01  6.00000000E+00  0.00000000E+00
  9.00000000E+01  4.00000000E+00  0.00000000E+00
  9.00000000E+01  2.00000000E+00  0.00000000E+00
  9.00000000E+01 -3.33066907E-14  0.00000000E+00
  1.00000000E+02  1.00000000E+02  0.00000000E+00
  1.00000000E+02  9.80000000E+01  0.00000000E+00
  1.00000000E+02  9.60000000E+01  0.00000000E+00
  1.00000000E+02  9.40000000E+01  0.00000000E+00
  1.00000000E+02  9.20000000E+01  0.00000000E+00
  1.00000000E+02  9.00000000E+01  0.00000000E+00
  1.00000000E+02  8.80000000E+01  0.00000000E+00
  1.00000000E+02  8.60000000E+01  0.00000000E+00
  1.00000000E+02  8.40000000E+01  0.00000000E+00
  1.00000000E+02  8.20000000E+01  0.00000000E+00
  1.00000000E+02  8.00000000E+01  0.00000000E+00
  1.00000000E+02  7.80000000E+01  0.00000000E+00
  1.00000000E+02  7.60000000E+01  0.00000000E+00
  1.00000000E+02  7.40000000E+01  0.00000000E+00
  1.00000000E+02  7.20000000E+01  0.00000000E+00
  1.00000000E+02  7.00000000E+01  0.00000000E+00
  1.00000000E+02  6.80000000E+01  0.00000000E+00
  1.00000000E+02  6.60000000E+01  0.00000000E+00
  1.00000000E+02  6.40000000E+01  0.00000000E+00
  1.00000000E+02  6.20000000E+01  0.00000000E+00
  1.00000000E+02  6.00000000E+01  0.00000000E+00
  1.00000000E+02  5.80000000E+01  0.00000000E+00
  1.00000000E+02  5.60000000E+01  0.00000000E+00
  1.00000000E+02  5.40000000E+01  0.00000000E+00
  1.00000000E+02  5.20000000E+01  0.00000000E+00
  1.00000000E+02  5.00000000E+01  0.00000000E+00
  1.00000000E+02  4.80000000E+01  0.00000000E+00
  1.00000000E+02  4.60000000E+01  0.00000000E+00
  1.00000000E+02  4.40000000E+01  0.00000000E+00
  1.00000000E+02  4.20000000E+01  0.00000000E+00
  1.00000000E+02  4.00000000E+01  0.00000000E+00
  1.00000000E+02  3.80000000E+01  0.00000000E+00
  1.00000000E+02  3.60000000E+01  0.00000000E+00
  1.00000000E+02  3.40000000E+01  0.00000000E+00
  1.00000000E+02  3.20000000E+01  0.00000000E+00
  1.00000000E+02  3.00000000E+01  0.00000000E+00
  1.00000000E+02  2.80000000E+01  0.00000000E+00
  1.00000000E+02  2.60000000E+01  0.00000000E+00
  1.00000000E+02  2.40000000E+01  0.00000000E+00
  1.00000000E+02  2.20000000E+01  0.00000000E+00
  1.00000000E+02  2.00000000E+01  0.00000000E+00
  1.00000000E+02  1.80000000E+01  0.00000000E+00
  1.00000000E+02  1.60000000E+01  0.00000000E+00
  1.00000000E+02  1.40000000E+01  0.00000000E+00
  1.00000000E+02  1.20000000E+01  0.00000000E+00
  1.00000000E+02  1.00000000E+01  0.00000000E+00
  1.00000000E+02  8.00000000E+00  0.00000000E+00
  1.00000000E+02  6.00000000E+00  0.00000000E+00
  1.00000000E+02  4.00000000E+00  0.00000000E+00
  1.00000000E+02  2.00000000E+00  0.00000000E+00
  1.00000000E+02 -3.33066907E-14  0.00000000E+00
  1.10000000E+02  1.00000000E+02  0.00000000E+00
  1.10000000E+02  9.80000000E+01  0.00000000E+00
  1.10000000E+02  9.60000000E+01  0.00000000E+00
  1.10000000E+02  9.40000000E+01  0.00000000E+00
  1.10000000E+02  9.20000000E+01  0.00000000E+00
  1.10000000E+02  9.00000000E+01  0.00000000E+00
  1.10000000E+02  8.80000000E+01  0.00000000E+00
  1.10000000E+02  8.60000000E+01  0.00000000E+00
  1.10000000E+02  8.40000000E+01  0.00000000E+00
  1.10000000E+02  8.20000000E+01  0.00000000E+00
  1.10000000E+02  8.00000000E+01  0.00000000E+00
  1.10000000E+02  7.80000000E+01  0.00000000E+00
  1.10000000E+02  7.60000000E+01  0.00000000E+00
  1.10000000E+02  7.40000000E+01  0.00000000E+00
  1.10000000E+02  7.20000000E+01  0.00000000E+00
  1.10000000E+02  7.00000000E+01  0.00000000E+00
  1.10000000E+02  6.80000000E+01  0.00000000E+00
  1.10000000E+02  6.60000000E+01  0.00000000E+00
  1.10000000E+02  6.40000000E+01  0.00000000E+00
  1.10000000E+02  6.20000000E+01  0.00000000E+00
  1.10000000E+02  6.00000000E+01  0.00000000E+00
  1.10000000E+02  5.80000000E+01  0.00000000E+00
  1.10000000E+02  5.60000000E+01  0.00000000E+00
  1.10000000E+02  5.40000000E+01  0.00000000E+00
  1.10000000E+02  5.20000000E+01  0.00000000E+00
  1.10000000E+02  5.00000000E+01  0.00000000E+00
  1.10000000E+02  4.80000000E+01  0.00000000E+00
  1.10000000E+02  4.60000000E+01  0.00000000E+00
  1.10000000E+02  4.40000000E+01  0.00000000E+00
  1.10000000E+02  4.20000000E+01  0.00000000E+00
  1.10000000E+02  4.00000000E+01  0.00000000E+00
  1.10000000E+02  3.80000000E+01  0.00000000E+00
  1.10000000E+02  3.60000000E+01  0.00000000E+00
  1.10000000E+02  3.40000000E+01  0.00000000E+00
  1.10000000E+02  3.20000000E+01  0.00000000E+00
  1.10000000E+02  3.00000000E+01  0.00000000E+00
  1.10000000E+02  2.80000000E+01  0.00000000E+00
  1.10000000E+02  2.60000000E+01  0.00000000E+00
  1.10000000E+02  2.40000000E+01  0.00000000E+00
  1.10000000E+02  2.20000000E+01  0.00000000E+00
  1.10000000E+02  2.00000000E+01  0.00000000E+00
  1.10000000E+02  1.80000000E+01  0.00000000E+00
  1.10000000E+02  1.60000000E+01  0.00000000E+00
  1.10000000E+02  1.40000000E+01  0.00000000E+00
  1.10000000E+02  1.20000000E+01  0.00000000E+00
  1.10000000E+02  1.00000000E+01  0.00000000E+00
  1.10000000E+02  8.00000000E+00  0.00000000E+00
  1.10000000E+02  6.00000000E+00  0.00000000E+00
  1.10000000E+02  4.00000000E+00  0.00000000E+00
  1.10000000E+02  2.00000000E+00  0.00000000E+00
  1.10000000E+02 -3.33066907E-14  0.00000000E+00
  1.20000000E+02  1.00000000E+02  0.00000000E+00
  1.20000000E+02  9.80000000E+01  0.00000000E+00
  1.20000000E+02  9.60000000E+01  0.00000000E+00
  1.20000000E+02  9.40000000E+01  0.00000000E+00
  1.20000000E+02  9.20000000E+01  0.00000000E+00
  1.20000000E+02  9.00000000E+01  0.00000000E+00
  1.20000000E+02  8.80000000E+01  0.00000000E+00
  1.20000000E+02  8.60000000E+01  0.00000000E+00
  1.20000000E+02  8.40000000E+01  0.00000000E+00
  1.20000000E+02  8.20000000E+01  0.00000000E+00
  1.20000000E+02  8.00000000E+01  0.00000000E+00
  1.20000000E+02  7.80000000E+01  0.00000000E+00
  1.20000000E+02  7.60000000E+01  0.00000000E+00
  1.20000000E+02  7.40000000E+01  0.00000000E+00
  1.20000000E+02  7.20000000E+01  0.00000000E+00
  1.20000000E+02  7.00000000E+01  0.00000000E+00
  1.20000000E+02  6.80000000E+01  0.00000000E+00
  1.20000000E+02  6.60000000E+01  0.00000000E+00
  1.20000000E+02  6.40000000E+01  0.00000000E+00
  1.20000000E+02  6.20000000E+01  0.00000000E+00
  1.20000000E+02  6.00000000E+01  0.00000000E+00
  1.20000000E+02  5.80000000E+01  0.00000000E+00
  1.20000000E+02  5.60000000E+01  0.00000000E+00
  1.20000000E+02  5.40000000E+01  0.00000000E+00
  1.20000000E+02  5.20000000E+01  0.00000000E+00
  1.20000000E+02  5.00000000E+01  0.00000000E+00
  1.20000000E+02  4.80000000E+01  0.00000000E+00
  1.20000000E+02  4.60000000E+01  0.00000000E+00
  1.20000000E+02  4.40000000E+01  0.00000000E+00
  1.20000000E+02  4.20000000E+01  0.00000000E+00
  1.20000000E+02  4.00000000E+01  0.00000000E+00
  1.20000000E+02  3.80000000E+01  0.00000000E+00
  1.20000000E+02  3.60000000E+01  0.00000000E+00
  1.20000000E+02  3.40000000E+01  0.00000000E+00
  1.20000000E+02  3.20000000E+01  0.00000000E+00
  1.20000000E+02  3.00000000E+01  0.00000000E+00
  1.20000000E+02  2.80000000E+01  0.00000000E+00
  1.20000000E+02  2.60000000E+01  0.00000000E+00
  1.20000000E+02  2.40000000E+01  0.00000000E+00
  1.20000000E+02  2.20000000E+01  0.00000000E+00
  1.20000000E+02  2.00000000E+01  0.00000000E+00
  1.20000000E+02  1.80000000E+01  0.00000000E+00
  1.20000000E+02  1.60000000E+01  0.00000000E+00
  1.20000000E+02  1.40000000E+01  0.00000000E+00
  1.20000000E+02  1.20000000E+01  0.00000000E+00
  1.20000000E+02  1.00000000E+01  0.00000000E+00
  1.20000000E+02  8.00000000E+00  0.00000000E+00
  1.20000000E+02  6.00000000E+00  0.00000000E+00
  1.20000000E+02  4.00000000E+00  0.00000000E+00
  1.20000000E+02  2.00000000E+00  0.00000000E+00
  1.20000000E+02 -3.33066907E-14  0.00000000E+00
  1.30000000E+02  1.00000000E+02  0.00000000E+00
  1.30000000E+02  9.80000000E+01  0.00000000E+00
  1.30000000E+02  9.60000000E+01  0.00000000E+00
  1.30000000E+02  9.40000000E+01  0.00000000E+00
  1.30000000E+02  9.20000000E+01  0.00000000E+00
  1.30000000E+02  9.00000000E+01  0.00000000E+00
  1.30000000E+02  8.80000000E+01  0.00000000E+00
  1.30000000E+02  8.60000000E+01  0.00000000E+00
  1.30000000E+02  8.40000000E+01  0.00000000E+00
  1.30000000E+02  8.20000000E+01  0.00000000E+00
  1.30000000E+02  8.00000000E+01  0.00000000E+00
  1.30000000E+02  7.80000000E+01  0.00000000E+00
  1.30000000E+02  7.60000000E+01  0.00000000E+00
  1.30000000E+02  7.40000000E+01  0.00000000E+00
  1.30000000E+02  7.20000000E+01  0.00000000E+00
  1.30000000E+02  7.00000000E+01  0.00000000E+00
  1.30000000E+02  6.80000000E+01  0.00000000E+00
  1.30000000E+02  6.60000000E+01  0.00000000E+00
  1.30000000E+02  6.40000000E+01  0.00000000E+00
  1.30000000E+02  6.20000000E+01  0.00000000E+00
  1.30000000E+02  6.00000000E+01  0.00000000E+00
  1.30000000E+02  5.80000000E+01  0.00000000E+00
  1.30000000E+02  5.60000000E+01  0.00000000E+00
  1.30000000E+02  5.40000000E+01  0.00000000E+00
  1.30000000E+02  5.20000000E+01  0.00000000E+00
  1.30000000E+02  5.00000000E+01  0.00000000E+00
  1.30000000E+02  4.80000000E+01  0.00000000E+00
  1.30000000E+02  4.60000000E+01  0.00000000E+00
  1.30000000E+02  4.40000000E+01  0.00000000E+00
  1.30000000E+02  4.20000000E+01  0.00000000E+00
  1.30000000E+02  4.00000000E+01  0.00000000E+00
  1.30000000E+02  3.80000000E+01  0.00000000E+00
  1.30000000E+02  3.60000000E+01  0.00000000E+00
  1.30000000E+02  3.40000000E+01  0.00000000E+00
  1.30000000E+02  3.20000000E+01  0.00000000E+00
  1.30000000E+02  3.00000000E+01  0.00000000E+00
  1.30000000E+02  2.80000000E+01  0.00000000E+00
  1.30000000E+02  2.60000000E+01  0.00000000E+00
  1.30000000E+02  2.40000000E+01  0.00000000E+00
  1.30000000E+02  2.20000000E+01  0.00000000E+00
  1.30000000E+02  2.00000000E+01  0.00000000E+00
  1.30000000E+02  1.80000000E+01  0.00000000E+00
  1.30000000E+02  1.60000000E+01  0.00000000E+00
  1.30000000E+02  1.40000000E+01  0.00000000E+00
  1.30000000E+02  1.20000000E+01  0.00000000E+00
  1.30000000E+02  1.00000000E+01  0.00000000E+00
  1.30000000E+02  8.00000000E+00  0.00000000E+00
  1.30000000E+02  6.00000000E+00  0.00000000E+00
  1.30000000E+02  4.00000000E+00  0.00000000E+00
  1.30000000E+02  2.00000000E+00  0.00000000E+00
  1.30000000E+02 -3.33066907E-14  0.00000000E+00
  1.40000000E+02  1.00000000E+02  0.00000000E+00
  1.40000000E+02  9.80000000E+01  0.00000000E+00
  1.40000000E+02  9.60000000E+01  0.00000000E+00
  1.40000000E+02  9.40000000E+01  0.00000000E+00
  1.40000000E+02  9.20000000E+01  0.00000000E+00
  1.40000000E+02  9.00000000E+01  0.00000000E+00
  1.40000000E+02  8.80000000E+01  0.00000000E+00
  1.40000000E+02  8.60000000E+01  0.00000000E+00
  1.40000000E+02  8.40000000E+01  0.00000000E+00
  1.40000000E+02  8.20000000E+01  0.00000000E+00
  1.40000000E+02  8.00000000E+01  0.00000000E+00
  1.40000000E+02  7.80000000E+01  0.00000000E+00
  1.40000000E+02  7.60000000E+01  0.00000000E+00
  1.40000000E+02  7.40000000E+01  0.00000000E+00
  1.40000000E+02  7.20000000E+01  0.00000000E+00
  1.40000000E+02  7.00000000E+01  0.00000000E+00
  1.40000000E+02  6.80000000E+01  0.00000000E+00
  1.40000000E+02  6.60000000E+01  0.00000000E+00
  1.40000000E+02  6.40000000E+01  0.00000000E+00
  1.40000000E+02  6.20000000E+01  0.00000000E+00
  1.40000000E+02  6.00000000E+01  0.00000000E+00
  1.40000000E+02  5.80000000E+01  0.00000000E+00
  1.40000000E+02  5.60000000E+01  0.00000000E+00
  1.40000000E+02  5.40000000E+01  0.00000000E+00
  1.40000000E+02  5.20000000E+01  0.00000000E+00
  1.40000000E+02  5.00000000E+01  0.00000000E+00
  1.40000000E+02  4.80000000E+01  0.00000000E+00
  1.40000000E+02  4.60000000E+01  0.00000000E+00
  1.40000000E+02  4.40000000E+01  0.00000000E+00
  1.40000000E+02  4.20000000E+01  0.00000000E+00
  1.40000000E+02  4.00000000E+01  0.00000000E+00
  1.40000000E+02  3.80000000E+01  0.00000000E+00
  1.40000000E+02  3.60000000E+01  0.00000000E+00
  1.40000000E+02  3.40000000E+01  0.00000000E+00
  1.40000000E+02  3.20000000E+01  0.00000000E+00
  1.40000000E+02  3.00000000E+01  0.00000000E+00
  1.40000000E+02  2.80000000E+01  0.00000000E+00
  1.40000000E+02  2.60000000E+01  0.00000000E+00
  1.40000000E+02  2.40000000E+01  0.00000000E+00
  1.40000000E+02  2.20000000E+01  0.00000000E+00
  1.40000000E+02  2.00000000E+01  0.00000000E+00
  1.40000000E+02  1.80000000E+01  0.00000000E+00
  1.40000000E+02  1.60000000E+01  0.00000000E+00
  1.40000000E+02  1.40000000E+01  0.00000000E+00
  1.40000000E+02  1.20000000E+01  0.00000000E+00
  1.40000000E+02  1.00000000E+01  0.00000000E+00
  1.40000000E+02  8.00000000E+00  0.00000000E+00
  1.40000000E+02  6.00000000E+00  0.00000000E+00
  1.40000000E+02  4.00000000E+00  0.00000000E+00
  1.40000000E+02  2.00000000E+00  0.00000000E+00
  1.40000000E+02 -3.33066907E-14  0.00000000E+00
  1.50000000E+02  1.00000000E+02  0.00000000E+00
  1.50000000E+02  9.80000000E+01  0.00000000E+00
  1.50000000E+02  9.60000000E+01  0.00000000E+00
  1.50000000E+02  9.40000000E+01  0.00000000E+00
  1.50000000E+02  9.20000000E+01  0.00000000E+00
  1.50000000E+02  9.00000000E+01  0.00000000E+00
  1.50000000E+02  8.80000000E+01  0.00000000E+00
  1.50000000E+02  8.60000000E+01  0.00000000E+00
  1.50000000E+02  8.40000000E+01  0.00000000E+00
  1.50000000E+02  8.20000000E+01  0.00000000E+00
  1.50000000E+02  8.00000000E+01  0.00000000E+00
  1.50000000E+02  7.80000000E+01  0.00000000E+00
  1.50000000E+02  7.60000000E+01  0.00000000E+00
  1.50000000E+02  7.40000000E+01  0.00000000E+00
  1.50000000E+02  7.20000000E+01  0.00000000E+00
  1.50000000E+02  7.00000000E+01  0.00000000E+00
  1.50000000E+02  6.80000000E+01  0.00000000E+00
  1.50000000E+02  6.60000000E+01  0.00000000E+00
  1.50000000E+02  6.40000000E+01  0.00000000E+00
  1.50000000E+02  6.20000000E+01  0.00000000E+00
  1.50000000E+02  6.00000000E+01  0.00000000E+00
  1.50000000E+02  5.80000000E+01  0.00000000E+00
  1.50000000E+02  5.60000000E+01  0.00000000E+00
  1.50000000E+02  5.40000000E+01  0.00000000E+00
  1.50000000E+02  5.20000000E+01  0.00000000E+00
  1.50000000E+02  5.00000000E+01  0.00000000E+00
  1.50000000E+02  4.80000000E+01  0.00000000E+00
  1.50000000E+02  4.60000000E+01  0.00000000E+00
  1.50000000E+02  4.40000000E+01  0.00000000E+00
  1.50000000E+02  4.20000000E+01  0.00000000E+00
  1.50000000E+02  4.00000000E+01  0.00000000E+00
  1.50000000E+02  3.80000000E+01  0.00000000E+00
  1.50000000E+02  3.60000000E+01  0.00000000E+00
  1.50000000E+02  3.40000000E+01  0.00000000E+00
  1.50000000E+02  3.20000000E+01  0.00000000E+00
  1.50000000E+02  3.00000000E+01  0.00000000E+00
  1.50000000E+02  2.80000000E+01  0.00000000E+00
  1.50000000E+02  2.60000000E+01  0.00000000E+00
  1.50000000E+02  2.40000000E+01  0.00000000E+00
  1.50000000E+02  2.20000000E+01  0.00000000E+00
  1.50000000E+02  2.00000000E+01  0.00000000E+00
  1.50000000E+02  1.80000000E+01  0.00000000E+00
  1.50000000E+02  1.60000000E+01  0.00000000E+00
  1.50000000E+02  1.40000000E+01  0.00000000E+00
  1.50000000E+02  1.20000000E+01  0.00000000E+00
  1.50000000E+02  1.00000000E+01  0.00000000E+00
  1.50000000E+02  8.00000000E+00  0.00000000E+00
  1.50000000E+02  6.00000000E+00  0.00000000E+00
  1.50000000E+02  4.00000000E+00  0.00000000E+00
  1.50000000E+02  2.00000000E+00  0.00000000E+00
  1.50000000E+02 -3.33066907E-14  0.00000000E+00
  1.60000000E+02  1.00000000E+02  0.00000000E+00
  1.60000000E+02  9.80000000E+01  0.00000000E+00
  1.60000000E+02  9.60000000E+01  0.00000000E+00
  1.60000000E+02  9.40000000E+01  0.00000000E+00
  1.60000000E+02  9.20000000E+01  0.00000000E+00
  1.60000000E+02  9.00000000E+01  0.00000000E+00
  1.60000000E+02  8.80000000E+01  0.00000000E+00
  1.60000000E+02  8.60000000E+01  0.00000000E+00
  1.60000000E+02  8.40000000E+01  0.00000000E+00
  1.60000000E+02  8.20000000E+01  0.00000000E+00
  1.60000000E+02  8.00000000E+01  0.00000000E+00
  1.60000000E+02  7.80000000E+01  0.00000000E+00
  1.60000000E+02  7.60000000E+01  0.00000000E+00
  1.60000000E+02  7.40000000E+01  0.00000000E+00
  1.60000000E+02  7.20000000E+01  0.00000000E+00
  1.60000000E+02  7.00000000E+01  0.00000000E+00
  1.60000000E+02  6.80000000E+01  0.00000000E+00
  1.60000000E+02  6.60000000E+01  0.00000000E+00
  1.60000000E+02  6.40000000E+01  0.00000000E+00
  1.60000000E+02  6.20000000E+01  0.00000000E+00
  1.60000000E+02  6.00000000E+01  0.00000000E+00
  1.60000000E+02  5.80000000E+01  0.00000000E+00
  1.60000000E+02  5.60000000E+01  0.00000000E+00
  1.60000000E+02  5.40000000E+01  0.00000000E+00
  1.60000000E+02  5.20000000E+01  0.00000000E+00
  1.60000000E+02  5.00000000E+01  0.00000000E+00
  1.60000000E+02  4.80000000E+01  0.00000000E+00
  1.60000000E+02  4.60000000E+01  0.00000000E+00
  1.60000000E+02  4.40000000E+01  0.00000000E+00
  1.60000000E+02  4.20000000E+01  0.00000000E+00
  1.60000000E+02  4.00000000E+01  0.00000000E+00
  1.60000000E+02  3.80000000E+01  0.00000000E+00
  1.60000000E+02  3.60000000E+01  0.00000000E+00
  1.60000000E+02  3.40000000E+01  0.00000000E+00
  1.60000000E+02  3.20000000E+01  0.00000000E+00
  1.60000000E+02  3.00000000E+01  0.00000000E+00
  1.60000000E+02  2.80000000E+01  0.00000000E+00
  1.60000000E+02  2.60000000E+01  0.00000000E+00
  1.60000000E+02  2.40000000E+01  0.00000000E+00
  1.60000000E+02  2.20000000E+01  0.00000000E+00
  1.60000000E+02  2.00000000E+01  0.00000000E+00
  1.60000000E+02  1.80000000E+01  0.00000000E+00
  1.60000000E+02  1.60000000E+01  0.00000000E+00
  1.60000000E+02  1.40000000E+01  0.00000000E+00
  1.60000000E+02  1.20000000E+01  0.00000000E+00
  1.60000000E+02  1.00000000E+01  0.00000000E+00
  1.60000000E+02  8.00000000E+00  0.00000000E+00
  1.60000000E+02  6.00000000E+00  0.00000000E+00
  1.60000000E+02  4.00000000E+00  0.00000000E+00
  1.60000000E+02  2.00000000E+00  0.00000000E+00
  1.60000000E+02 -3.33066907E-14  0.00000000E+00
  1.70000000E+02  1.00000000E+02  0.00000000E+00
  1.70000000E+02  9.80000000E+01  0.00000000E+00
  1.70000000E+02  9.60000000E+01  0.00000000E+00
  1.70000000E+02  9.40000000E+01  0.00000000E+00
  1.70000000E+02  9.20000000E+01  0.00000000E+00
  1.70000000E+02  9.00000000E+01  0.00000000E+00
  1.70000000E+02  8.80000000E+01  0.00000000E+00
  1.70000000E+02  8.60000000E+01  0.00000000E+00
  1.70000000E+02  8.40000000E+01  0.00000000E+00
  1.70000000E+02  8.20000000E+01  0.00000000E+00
  1.70000000E+02  8.00000000E+01  0.00000000E+00
  1.70000000E+02  7.80000000E+01  0.00000000E+00
  1.70000000E+02  7.60000000E+01  0.00000000E+00
  1.70000000E+02  7.40000000E+01  0.00000000E+00
  1.70000000E+02  7.20000000E+01  0.00000000E+00
  1.70000000E+02  7.00000000E+01  0.00000000E+00
  1.70000000E+02  6.80000000E+01  0.00000000E+00
  1.70000000E+02  6.60000000E+01  0.00000000E+00
  1.70000000E+02  6.40000000E+01  0.00000000E+00
  1.70000000E+02  6.20000000E+01  0.00000000E+00
  1.70000000E+02  6.00000000E+01  0.00000000E+00
  1.70000000E+02  5.80000000E+01  0.00000000E+00
  1.70000000E+02  5.60000000E+01  0.00000000E+00
  1.70000000E+02  5.40000000E+01  0.00000000E+00
  1.70000000E+02  5.20000000E+01  0.00000000E+00
  1.70000000E+02  5.00000000E+01  0.00000000E+00
  1.70000000E+02  4.80000000E+01  0.00000000E+00
  1.70000000E+02  4.60000000E+01  0.00000000E+00
  1.70000000E+02  4.40000000E+01  0.00000000E+00
  1.70000000E+02  4.20000000E+01  0.00000000E+00
  1.70000000E+02  4.00000000E+01  0.00000000E+00
  1.70000000E+02  3.80000000E+01  0.00000000E+00
  1.70000000E+02  3.60000000E+01  0.00000000E+00
  1.70000000E+02  3.40000000E+01  0.00000000E+00
  1.70000000E+02  3.20000000E+01  0.00000000E+00
  1.70000000E+02  3.00000000E+01  0.00000000E+00
  1.70000000E+02  2.80000000E+01  0.00000000E+00
  1.70000000E+02  2.60000000E+01  0.00000000E+00
  1.70000000E+02  2.40000000E+01  0.00000000E+00
  1.70000000E+02  2.20000000E+01  0.00000000E+00
  1.70000000E+02  2.00000000E+01  0.00000000E+00
  1.70000000E+02  1.80000000E+01  0.00000000E+00
  1.70000000E+02  1.60000000E+01  0.00000000E+00
  1.70000000E+02  1.40000000E+01  0.00000000E+00
  1.70000000E+02  1.20000000E+01  0.00000000E+00
  1.70000000E+02  1.00000000E+01  0.00000000E+00
  1.70000000E+02  8.00000000E+00  0.00000000E+00
  1.70000000E+02  6.00000000E+00  0.00000000E+00
  1.70000000E+02  4.00000000E+00  0.00000000E+00
  1.70000000E+02  2.00000000E+00  0.00000000E+00
  1.70000000E+02 -3.33066907E-14  0.00000000E+00
  1.80000000E+02  1.00000000E+02  0.00000000E+00
  1.80000000E+02  9.80000000E+01  0.00000000E+00
  1.80000000E+02  9.60000000E+01  0.00000000E+00
  1.80000000E+02  9.40000000E+01  0.00000000E+00
  1.80000000E+02  9.20000000E+01  0.00000000E+00
  1.80000000E+02  9.00000000E+01  0.00000000E+00
  1.80000000E+02  8.80000000E+01  0.00000000E+00
  1.80000000E+02  8.60000000E+01  0.00000000E+00
  1.80000000E+02  8.40000000E+01  0.00000000E+00
  1.80000000E+02  8.20000000E+01  0.00000000E+00
  1.80000000E+02  8.00000000E+01  0.00000000E+00
  1.80000000E+02  7.80000000E+01  0.00000000E+00
  1.80000000E+02  7.60000000E+01  0.00000000E+00
  1.80000000E+02  7.40000000E+01  0.00000000E+00
  1.80000000E+02  7.20000000E+01  0.00000000E+00
  1.80000000E+02  7.00000000E+01  0.00000000E+00
  1.80000000E+02  6.80000000E+01  0.00000000E+00
  1.80000000E+02  6.60000000E+01  0.00000000E+00
  1.80000000E+02  6.40000000E+01  0.00000000E+00
  1.80000000E+02  6.20000000E+01  0.00000000E+00
  1.80000000E+02  6.00000000E+01  0.00000000E+00
  1.80000000E+02  5.80000000E+01  0.00000000E+00
  1.80000000E+02  5.60000000E+01  0.00000000E+00
  1.80000000E+02  5.40000000E+01  0.00000000E+00
  1.80000000E+02  5.20000000E+01  0.00000000E+00
  1.80000000E+02  5.00000000E+01  0.00000000E+00
  1.80000000E+02  4.80000000E+01  0.00000000E+00
  1.80000000E+02  4.60000000E+01  0.00000000E+00
  1.80000000E+02  4.40000000E+01  0.00000000E+00
  1.80000000E+02  4.20000000E+01  0.00000000E+00
  1.80000000E+02  4.00000000E+01  0.00000000E+00
  1.80000000E+02  3.80000000E+01  0.00000000E+00
  1.80000000E+02  3.60000000E+01  0.00000000E+00
  1.80000000E+02  3.40000000E+01  0.00000000E+00
  1.80000000E+02  3.20000000E+01  0.00000000E+00
  1.80000000E+02  3.00000000E+01  0.00000000E+00
  1.80000000E+02  2.80000000E+01  0.00000000E+00
  1.80000000E+02  2.60000000E+01  0.00000000E+00
  1.80000000E+02  2.40000000E+01  0.00000000E+00
  1.80000000E+02  2.20000000E+01  0.00000000E+00
  1.80000000E+02  2.00000000E+01  0.00000000E+00
  1.80000000E+02  1.80000000E+01  0.00000000E+00
  1.80000000E+02  1.60000000E+01  0.00000000E+00
  1.80000000E+02  1.40000000E+01  0.00000000E+00
  1.80000000E+02  1.20000000E+01  0.00000000E+00
  1.80000000E+02  1.00000000E+01  0.00000000E+00
  1.80000000E+02  8.00000000E+00  0.00000000E+00
  1.80000000E+02  6.00000000E+00  0.00000000E+00
  1.80000000E+02  4.00000000E+00  0.00000000E+00
  1.80000000E+02  2.00000000E+00  0.00000000E+00
  1.80000000E+02 -3.33066907E-14  0.00000000E+00
  1.90000000E+02  1.00000000E+02  0.00000000E+00
  1.90000000E+02  9.80000000E+01  0.00000000E+00
  1.90000000E+02  9.60000000E+01  0.00000000E+00
  1.90000000E+02  9.40000000E+01  0.00000000E+00
  1.90000000E+02  9.20000000E+01  0.00000000E+00
  1.90000000E+02  9.00000000E+01  0.00000000E+00
  1.90000000E+02  8.80000000E+01  0.00000000E+00
  1.90000000E+02  8.60000000E+01  0.00000000E+00
  1.90000000E+02  8.40000000E+01  0.00000000E+00
  1.90000000E+02  8.20000000E+01  0.00000000E+00
  1.90000000E+02  8.00000000E+01  0.00000000E+00
  1.90000000E+02  7.80000000E+01  0.00000000E+00
  1.90000000E+02  7.60000000E+01  0.00000000E+00
  1.90000000E+02  7.40000000E+01  0.00000000E+00
  1.90000000E+02  7.20000000E+01  0.00000000E+00
  1.90000000E+02  7.00000000E+01  0.00000000E+00
  1.90000000E+02  6.80000000E+01  0.00000000E+00
  1.90000000E+02  6.60000000E+01  0.00000000E+00
  1.90000000E+02  6.40000000E+01  0.00000000E+00
  1.90000000E+02  6.20000000E+01  0.00000000E+00
  1.90000000E+02  6.00000000E+01  0.00000000E+00
  1.90000000E+02  5.80000000E+01  0.00000000E+00
  1.90000000E+02  5.60000000E+01  0.00000000E+00
  1.90000000E+02  5.40000000E+01  0.00000000E+00
  1.90000000E+02  5.20000000E+01  0.00000000E+00
  1.90000000E+02  5.00000000E+01  0.00000000E+00
  1.90000000E+02  4.80000000E+01  0.00000000E+00
  1.90000000E+02  4.60000000E+01  0.00000000E+00
  1.90000000E+02  4.40000000E+01  0.00000000E+00
  1.90000000E+02  4.20000000E+01  0.00000000E+00
  1.90000000E+02  4.00000000E+01  0.00000000E+00
  1.90000000E+02  3.80000000E+01  0.00000000E+00
  1.90000000E+02  3.60000000E+01  0.00000000E+00
  1.90000000E+02  3.40000000E+01  0.00000000E+00
  1.90000000E+02  3.20000000E+01  0.00000000E+00
  1.90000000E+02  3.00000000E+01  0.00000000E+00
  1.90000000E+02  2.80000000E+01  0.00000000E+00
  1.90000000E+02  2.60000000E+01  0.00000000E+00
  1.90000000E+02  2.40000000E+01  0.00000000E+00
  1.90000000E+02  2.20000000E+01  0.00000000E+00
  1.90000000E+02  2.00000000E+01  0.00000000E+00
  1.90000000E+02  1.80000000E+01  0.00000000E+00
  1.90000000E+02  1.60000000E+01  0.00000000E+00
  1.90000000E+02  1.40000000E+01  0.00000000E+00
  1.90000000E+02  1.20000000E+01  0.00000000E+00
  1.90000000E+02  1.00000000E+01  0.00000000E+00
  1.90000000E+02  8.00000000E+00  0.00000000E+00
  1.90000000E+02  6.00000000E+00  0.00000000E+00
  1.90000000E+02  4.00000000E+00  0.00000000E+00
  1.90000000E+02  2.00000000E+00  0.00000000E+00
  1.90000000E+02 -3.33066907E-14  0.00000000E+00
  2.00000000E+02  1.00000000E+02  0.00000000E+00
  2.00000000E+02  9.80000000E+01  0.00000000E+00
  2.00000000E+02  9.60000000E+01  0.00000000E+00
  2.00000000E+02  9.40000000E+01  0.00000000E+00
  2.00000000E+02  9.20000000E+01  0.00000000E+00
  2.00000000E+02  9.00000000E+01  0.00000000E+00
  2.00000000E+02  8.80000000E+01  0.00000000E+00
  2.00000000E+02  8.60000000E+01  0.00000000E+00
  2.00000000E+02  8.40000000E+01  0.00000000E+00
  2.00000000E+02  8.20000000E+01  0.00000000E+00
  2.00000000E+02  8.00000000E+01  0.00000000E+00
  2.00000000E+02  7.80000000E+01  0.00000000E+00
  2.00000000E+02  7.60000000E+01  0.00000000E+00
  2.00000000E+02  7.40000000E+01  0.00000000E+00
  2.00000000E+02  7.20000000E+01  0.00000000E+00
  2.00000000E+02  7.00000000E+01  0.00000000E+00
  2.00000000E+02  6.80000000E+01  0.00000000E+00
  2.00000000E+02  6.60000000E+01  0.00000000E+00
  2.00000000E+02  6.40000000E+01  0.00000000E+00
  2.00000000E+02  6.20000000E+01  0.00000000E+00
  2.00000000E+02  6.00000000E+01  0.00000000E+00
  2.00000000E+02  5.80000000E+01  0.00000000E+00
  2.00000000E+02  5.60000000E+01  0.00000000E+00
  2.00000000E+02  5.40000000E+01  0.00000000E+00
  2.00000000E+02  5.20000000E+01  0.00000000E+00
  2.00000000E+02  5.00000000E+01  0.00000000E+00
  2.00000000E+02  4.80000000E+01  0.00000000E+00
  2.00000000E+02  4.60000000E+01  0.00000000E+00
  2.00000000E+02  4.40000000E+01  0.00000000E+00
  2.00000000E+02  4.20000000E+01  0.00000000E+00
  2.00000000E+02  4.00000000E+01  0.00000000E+00
  2.00000000E+02  3.80000000E+01  0.00000000E+00
  2.00000000E+02  3.60000000E+01  0.00000000E+00
  2.00000000E+02  3.40000000E+01  0.00000000E+00
  2.00000000E+02  3.20000000E+01  0.00000000E+00
  2.00000000E+02  3.00000000E+01  0.00000000E+00
  2.00000000E+02  2.80000000E+01  0.00000000E+00
  2.00000000E+02  2.60000000E+01  0.00000000E+00
  2.00000000E+02  2.40000000E+01  0.00000000E+00
  2.00000000E+02  2.20000000E+01  0.00000000E+00
  2.00000000E+02  2.00000000E+01  0.00000000E+00
  2.00000000E+02  1.80000000E+01  0.00000000E+00
  2.00000000E+02  1.60000000E+01  0.00000000E+00
  2.00000000E+02  1.40000000E+01  0.00000000E+00
  2.00000000E+02  1.20000000E+01  0.00000000E+00
  2.00000000E+02  1.00000000E+01  0.00000000E+00
  2.00000000E+02  8.00000000E+00  0.00000000E+00
  2.00000000E+02  6.00000000E+00  0.00000000E+00
  2.00000000E+02  4.00000000E+00  0.00000000E+00
  2.00000000E+02  2.00000000E+00  0.00000000E+00
  2.00000000E+02 -3.33066907E-14  0.00000000E+00
  2.10000000E+02  1.00000000E+02  0.00000000E+00
  2.10000000E+02  9.80000000E+01  0.00000000E+00
  2.10000000E+02  9.60000000E+01  0.00000000E+00
  2.10000000E+02  9.40000000E+01  0.00000000E+00
  2.10000000E+02  9.20000000E+01  0.00000000E+00
  2.10000000E+02  9.00000000E+01  0.00000000E+00
  2.10000000E+02  8.80000000E+01  0.00000000E+00
  2.10000000E+02  8.60000000E+01  0.00000000E+00
  2.10000000E+02  8.40000000E+01  0.00000000E+00
  2.10000000E+02  8.20000000E+01  0.00000000E+00
  2.10000000E+02  8.00000000E+01  0.00000000E+00
  2.10000000E+02  7.80000000E+01  0.00000000E+00
  2.10000000E+02  7.60000000E+01  0.00000000E+00
  2.10000000E+02  7.40000000E+01  0.00000000E+00
  2.10000000E+02  7.20000000E+01  0.00000000E+00
  2.10000000E+02  7.00000000E+01  0.00000000E+00
  2.10000000E+02  6.80000000E+01  0.00000000E+00
  2.10000000E+02  6.60000000E+01  0.00000000E+00
  2.10000000E+02  6.40000000E+01  0.00000000E+00
  2.10000000E+02  6.20000000E+01  0.00000000E+00
  2.10000000E+02  6.00000000E+01  0.00000000E+00
  2.10000000E+02  5.80000000E+01  0.00000000E+00
  2.10000000E+02  5.60000000E+01  0.00000000E+00
  2.10000000E+02  5.40000000E+01  0.00000000E+00
  2.10000000E+02  5.20000000E+01  0.00000000E+00
  2.10000000E+02  5.00000000E+01  0.00000000E+00
  2.10000000E+02  4.80000000E+01  0.00000000E+00
  2.10000000E+02  4.60000000E+01  0.00000000E+00
  2.10000000E+02  4.40000000E+01  0.00000000E+00
  2.10000000E+02  4.20000000E+01  0.00000000E+00
  2.10000000E+02  4.00000000E+01  0.00000000E+00
  2.10000000E+02  3.80000000E+01  0.00000000E+00
  2.10000000E+02  3.60000000E+01  0.00000000E+00
  2.10000000E+02  3.40000000E+01  0.00000000E+00
  2.10000000E+02  3.20000000E+01  0.00000000E+00
  2.10000000E+02  3.00000000E+01  0.00000000E+00
  2.10000000E+02  2.80000000E+01  0.00000000E+00
  2.10000000E+02  2.60000000E+01  0.00000000E+00
  2.10000000E+02  2.40000000E+01  0.00000000E+00
  2.10000000E+02  2.20000000E+01  0.00000000E+00
  2.10000000E+02  2.00000000E+01  0.00000000E+00
  2.10000000E+02  1.80000000E+01  0.00000000E+00
  2.10000000E+02  1.60000000E+01  0.00000000E+00
  2.10000000E+02  1.40000000E+01  0.00000000E+00
  2.10000000E+02  1.20000000E+01  0.00000000E+00
  2.10000000E+02  1.00000000E+01  0.00000000E+00
  2.10000000E+02  8.00000000E+00  0.00000000E+00
  2.10000000E+02  6.00000000E+00  0.00000000E+00
  2.10000000E+02  4.00000000E+00  0.00000000E+00
  2.10000000E+02  2.00000000E+00  0.00000000E+00
  2.10000000E+02 -3.33066907E-14  0.00000000E+00
  2.20000000E+02  1.00000000E+02  0.00000000E+00
  2.20000000E+02  9.80000000E+01  0.00000000E+00
  2.20000000E+02  9.60000000E+01  0.00000000E+00
  2.20000000E+02  9.40000000E+01  0.00000000E+00
  2.20000000E+02  9.20000000E+01  0.00000000E+00
  2.20000000E+02  9.00000000E+01  0.00000000E+00
  2.20000000E+02  8.80000000E+01  0.00000000E+00
  2.20000000E+02  8.60000000E+01  0.00000000E+00
  2.20000000E+02  8.40000000E+01  0.00000000E+00
  2.20000000E+02  8.20000000E+01  0.00000000E+00
  2.20000000E+02  8.00000000E+01  0.00000000E+00
  2.20000000E+02  7.80000000E+01  0.00000000E+00
  2.20000000E+02  7.60000000E+01  0.00000000E+00
  2.20000000E+02  7.40000000E+01  0.00000000E+00
  2.20000000E+02  7.20000000E+01  0.00000000E+00
  2.20000000E+02  7.00000000E+01  0.00000000E+00
  2.20000000E+02  6.80000000E+01  0.00000000E+00
  2.20000000E+02  6.60000000E+01  0.00000000E+00
  2.20000000E+02  6.40000000E+01  0.00000000E+00
  2.20000000E+02  6.20000000E+01  0.00000000E+00
  2.20000000E+02  6.00000000E+01  0.00000000E+00
  2.20000000E+02  5.80000000E+01  0.00000000E+00
  2.20000000E+02  5.60000000E+01  0.00000000E+00
  2.20000000E+02  5.40000000E+01  0.00000000E+00
  2.20000000E+02  5.20000000E+01  0.00000000E+00
  2.20000000E+02  5.00000000E+01  0.00000000E+00
  2.20000000E+02  4.80000000E+01  0.00000000E+00
  2.20000000E+02  4.60000000E+01  0.00000000E+00
  2.20000000E+02  4.40000000E+01  0.00000000E+00
  2.20000000E+02  4.20000000E+01  0.00000000E+00
  2.20000000E+02  4.00000000E+01  0.00000000E+00
  2.20000000E+02  3.80000000E+01  0.00000000E+00
  2.20000000E+02  3.60000000E+01  0.00000000E+00
  2.20000000E+02  3.40000000E+01  0.00000000E+00
  2.20000000E+02  3.20000000E+01  0.00000000E+00
  2.20000000E+02  3.00000000E+01  0.00000000E+00
  2.20000000E+02  2.80000000E+01  0.00000000E+00
  2.20000000E+02  2.60000000E+01  0.00000000E+00
  2.20000000E+02  2.40000000E+01  0.00000000E+00
  2.20000000E+02  2.20000000E+01  0.00000000E+00
  2.20000000E+02  2.00000000E+01  0.00000000E+00
  2.20000000E+02  1.80000000E+01  0.00000000E+00
  2.20000000E+02  1.60000000E+01  0.00000000E+00
  2.20000000E+02  1.40000000E+01  0.00000000E+00
  2.20000000E+02  1.20000000E+01  0.00000000E+00
  2.20000000E+02  1.00000000E+01  0.00000000E+00
  2.20000000E+02  8.00000000E+00  0.00000000E+00
  2.20000000E+02  6.00000000E+00  0.00000000E+00
  2.20000000E+02  4.00000000E+00  0.00000000E+00
  2.20000000E+02  2.00000000E+00  0.00000000E+00
  2.20000000E+02 -3.33066907E-14  0.00000000E+00
  2.30000000E+02  1.00000000E+02  0.00000000E+00
  2.30000000E+02  9.80000000E+01  0.00000000E+00
  2.30000000E+02  9.60000000E+01  0.00000000E+00
  2.30000000E+02  9.40000000E+01  0.00000000E+00
  2.30000000E+02  9.20000000E+01  0.00000000E+00
  2.30000000E+02  9.00000000E+01  0.00000000E+00
  2.30000000E+02  8.80000000E+01  0.00000000E+00
  2.30000000E+02  8.60000000E+01  0.00000000E+00
  2.30000000E+02  8.40000000E+01  0.00000000E+00
  2.30000000E+02  8.20000000E+01  0.00000000E+00
  2.30000000E+02  8.00000000E+01  0.00000000E+00
  2.30000000E+02  7.80000000E+01  0.00000000E+00
  2.30000000E+02  7.60000000E+01  0.00000000E+00
  2.30000000E+02  7.40000000E+01  0.00000000E+00
  2.30000000E+02  7.20000000E+01  0.00000000E+00
  2.30000000E+02  7.00000000E+01  0.00000000E+00
  2.30000000E+02  6.80000000E+01  0.00000000E+00
  2.30000000E+02  6.60000000E+01  0.00000000E+00
  2.30000000E+02  6.40000000E+01  0.00000000E+00
  2.30000000E+02  6.20000000E+01  0.00000000E+00
  2.30000000E+02  6.00000000E+01  0.00000000E+00
  2.30000000E+02  5.80000000E+01  0.00000000E+00
  2.30000000E+02  5.60000000E+01  0.00000000E+00
  2.30000000E+02  5.40000000E+01  0.00000000E+00
  2.30000000E+02  5.20000000E+01  0.00000000E+00
  2.30000000E+02  5.00000000E+01  0.00000000E+00
  2.30000000E+02  4.80000000E+01  0.00000000E+00
  2.30000000E+02  4.60000000E+01  0.00000000E+00
  2.30000000E+02  4.40000000E+01  0.00000000E+00
  2.30000000E+02  4.20000000E+01  0.00000000E+00
  2.30000000E+02  4.00000000E+01  0.00000000E+00
  2.30000000E+02  3.80000000E+01  0.00000000E+00
  2.30000000E+02  3.60000000E+01  0.00000000E+00
  2.30000000E+02  3.40000000E+01  0.00000000E+00
  2.30000000E+02  3.20000000E+01  0.00000000E+00
  2.30000000E+02  3.00000000E+01  0.00000000E+00
  2.30000000E+02  2.80000000E+01  0.00000000E+00
  2.30000000E+02  2.60000000E+01  0.00000000E+00
  2.30000000E+02  2.40000000E+01  0.00000000E+00
  2.30000000E+02  2.20000000E+01  0.00000000E+00
  2.30000000E+02  2.00000000E+01  0.00000000E+00
  2.30000000E+02  1.80000000E+01  0.00000000E+00
  2.30000000E+02  1.60000000E+01  0.00000000E+00
  2.30000000E+02  1.40000000E+01  0.00000000E+00
  2.30000000E+02  1.20000000E+01  0.00000000E+00
  2.30000000E+02  1.00000000E+01  0.00000000E+00
  2.30000000E+02  8.00000000E+00  0.00000000E+00
  2.30000000E+02  6.00000000E+00  0.00000000E+00
  2.30000000E+02  4.00000000E+00  0.00000000E+00
  2.30000000E+02  2.00000000E+00  0.00000000E+00
  2.30000000E+02 -3.33066907E-14  0.00000000E+00
  2.40000000E+02  1.00000000E+02  0.00000000E+00
  2.40000000E+02  9.80000000E+01  0.00000000E+00
  2.40000000E+02  9.60000000E+01  0.00000000E+00
  2.40000000E+02  9.40000000E+01  0.00000000E+00
  2.40000000E+02  9.20000000E+01  0.00000000E+00
  2.40000000E+02  9.00000000E+01  0.00000000E+00
  2.40000000E+02  8.80000000E+01  0.00000000E+00
  2.40000000E+02  8.60000000E+01  0.00000000E+00
  2.40000000E+02  8.40000000E+01  0.00000000E+00
  2.40000000E+02  8.20000000E+01  0.00000000E+00
  2.40000000E+02  8.00000000E+01  0.00000000E+00
  2.40000000E+02  7.80000000E+01  0.00000000E+00
  2.40000000E+02  7.60000000E+01  0.00000000E+00
  2.40000000E+02  7.40000000E+01  0.00000000E+00
  2.40000000E+02  7.20000000E+01  0.00000000E+00
  2.40000000E+02  7.00000000E+01  0.00000000E+00
  2.40000000E+02  6.80000000E+01  0.00000000E+00
  2.40000000E+02  6.60000000E+01  0.00000000E+00
  2.40000000E+02  6.40000000E+01  0.00000000E+00
  2.40000000E+02  6.20000000E+01  0.00000000E+00
  2.40000000E+02  6.00000000E+01  0.00000000E+00
  2.40000000E+02  5.80000000E+01  0.00000000E+00
  2.40000000E+02  5.60000000E+01  0.00000000E+00
  2.40000000E+02  5.40000000E+01  0.00000000E+00
  2.40000000E+02  5.20000000E+01  0.00000000E+00
  2.40000000E+02  5.00000000E+01  0.00000000E+00
  2.40000000E+02  4.80000000E+01  0.00000000E+00
  2.40000000E+02  4.60000000E+01  0.00000000E+00
  2.40000000E+02  4.40000000E+01  0.00000000E+00
  2.40000000E+02  4.20000000E+01  0.00000000E+00
  2.40000000E+02  4.00000000E+01  0.00000000E+00
  2.40000000E+02  3.80000000E+01  0.00000000E+00
  2.40000000E+02  3.60000000E+01  0.00000000E+00
  2.40000000E+02  3.40000000E+01  0.00000000E+00
  2.40000000E+02  3.20000000E+01  0.00000000E+00
  2.40000000E+02  3.00000000E+01  0.00000000E+00
  2.40000000E+02  2.80000000E+01  0.00000000E+00
  2.40000000E+02  2.60000000E+01  0.00000000E+00
  2.40000000E+02  2.40000000E+01  0.00000000E+00
  2.40000000E+02  2.20000000E+01  0.00000000E+00
  2.40000000E+02  2.00000000E+01  0.00000000E+00
  2.40000000E+02  1.80000000E+01  0.00000000E+00
  2.40000000E+02  1.60000000E+01  0.00000000E+00
  2.40000000E+02  1.40000000E+01  0.00000000E+00
  2.40000000E+02  1.20000000E+01  0.00000000E+00
  2.40000000E+02  1.00000000E+01  0.00000000E+00
  2.40000000E+02  8.00000000E+00  0.00000000E+00
  2.40000000E+02  6.00000000E+00  0.00000000E+00
  2.40000000E+02  4.00000000E+00  0.00000000E+00
  2.40000000E+02  2.00000000E+00  0.00000000E+00
  2.40000000E+02 -3.33066907E-14  0.00000000E+00
  2.50000000E+02  1.00000000E+02  0.00000000E+00
  2.50000000E+02  9.80000000E+01  0.00000000E+00
  2.50000000E+02  9.60000000E+01  0.00000000E+00
  2.50000000E+02  9.40000000E+01  0.00000000E+00
  2.50000000E+02  9.20000000E+01  0.00000000E+00
  2.50000000E+02  9.00000000E+01  0.00000000E+00
  2.50000000E+02  8.80000000E+01  0.00000000E+00
  2.50000000E+02  8.60000000E+01  0.00000000E+00
  2.50000000E+02  8.40000000E+01  0.00000000E+00
  2.50000000E+02  8.20000000E+01  0.00000000E+00
  2.50000000E+02  8.00000000E+01  0.00000000E+00
  2.50000000E+02  7.80000000E+01  0.00000000E+00
  2.50000000E+02  7.60000000E+01  0.00000000E+00
  2.50000000E+02  7.40000000E+01  0.00000000E+00
  2.50000000E+02  7.20000000E+01  0.00000000E+00
  2.50000000E+02  7.00000000E+01  0.00000000E+00
  2.50000000E+02  6.80000000E+01  0.00000000E+00
  2.50000000E+02  6.60000000E+01  0.00000000E+00
  2.50000000E+02  6.40000000E+01  0.00000000E+00
  2.50000000E+02  6.20000000E+01  0.00000000E+00
  2.50000000E+02  6.00000000E+01  0.00000000E+00
  2.50000000E+02  5.80000000E+01  0.00000000E+00
  2.50000000E+02  5.60000000E+01  0.00000000E+00
  2.50000000E+02  5.40000000E+01  0.00000000E+00
  2.50000000E+02  5.20000000E+01  0.00000000E+00
  2.50000000E+02  5.00000000E+01  0.00000000E+00
  2.50000000E+02  4.80000000E+01  0.00000000E+00
  2.50000000E+02  4.60000000E+01  0.00000000E+00
  2.50000000E+02  4.40000000E+01  0.00000000E+00
  2.50000000E+02  4.20000000E+01  0.00000000E+00
  2.50000000E+02  4.00000000E+01  0.00000000E+00
  2.50000000E+02  3.80000000E+01  0.00000000E+00
  2.50000000E+02  3.60000000E+01  0.00000000E+00
  2.50000000E+02  3.40000000E+01  0.00000000E+00
  2.50000000E+02  3.20000000E+01  0.00000000E+00
  2.50000000E+02  3.00000000E+01  0.00000000E+00
  2.50000000E+02  2.80000000E+01  0.00000000E+00
  2.50000000E+02  2.60000000E+01  0.00000000E+00
  2.50000000E+02  2.40000000E+01  0.00000000E+00
  2.50000000E+02  2.20000000E+01  0.00000000E+00
  2.50000000E+02  2.00000000E+01  0.00000000E+00
  2.50000000E+02  1.80000000E+01  0.00000000E+00
  2.50000000E+02  1.60000000E+01  0.00000000E+00
  2.50000000E+02  1.40000000E+01  0.00000000E+00
  2.50000000E+02  1.20000000E+01  0.00000000E+00
  2.50000000E+02  1.00000000E+01  0.00000000E+00
  2.50000000E+02  8.00000000E+00  0.00000000E+00
  2.50000000E+02  6.00000000E+00  0.00000000E+00
  2.50000000E+02  4.00000000E+00  0.00000000E+00
  2.50000000E+02  2.00000000E+00  0.00000000E+00
  2.50000000E+02 -3.33066907E-14  0.00000000E+00
  2.60000000E+02  1.00000000E+02  0.00000000E+00
  2.60000000E+02  9.80000000E+01  0.00000000E+00
  2.60000000E+02  9.60000000E+01  0.00000000E+00
  2.60000000E+02  9.40000000E+01  0.00000000E+00
  2.60000000E+02  9.20000000E+01  0.00000000E+00
  2.60000000E+02  9.00000000E+01  0.00000000E+00
  2.60000000E+02  8.80000000E+01  0.00000000E+00
  2.60000000E+02  8.60000000E+01  0.00000000E+00
  2.60000000E+02  8.40000000E+01  0.00000000E+00
  2.60000000E+02  8.20000000E+01  0.00000000E+00
  2.60000000E+02  8.00000000E+01  0.00000000E+00
  2.60000000E+02  7.80000000E+01  0.00000000E+00
  2.60000000E+02  7.60000000E+01  0.00000000E+00
  2.60000000E+02  7.40000000E+01  0.00000000E+00
  2.60000000E+02  7.20000000E+01  0.00000000E+00
  2.60000000E+02  7.00000000E+01  0.00000000E+00
  2.60000000E+02  6.80000000E+01  0.00000000E+00
  2.60000000E+02  6.60000000E+01  0.00000000E+00
  2.60000000E+02  6.40000000E+01  0.00000000E+00
  2.60000000E+02  6.20000000E+01  0.00000000E+00
  2.60000000E+02  6.00000000E+01  0.00000000E+00
  2.60000000E+02  5.80000000E+01  0.00000000E+00
  2.60000000E+02  5.60000000E+01  0.00000000E+00
  2.60000000E+02  5.40000000E+01  0.00000000E+00
  2.60000000E+02  5.20000000E+01  0.00000000E+00
  2.60000000E+02  5.00000000E+01  0.00000000E+00
  2.60000000E+02  4.80000000E+01  0.00000000E+00
  2.60000000E+02  4.60000000E+01  0.00000000E+00
  2.60000000E+02  4.40000000E+01  0.00000000E+00
  2.60000000E+02  4.20000000E+01  0.00000000E+00
  2.60000000E+02  4.00000000E+01  0.00000000E+00
  2.60000000E+02  3.80000000E+01  0.00000000E+00
  2.60000000E+02  3.60000000E+01  0.00000000E+00
  2.60000000E+02  3.40000000E+01  0.00000000E+00
  2.60000000E+02  3.20000000E+01  0.00000000E+00
  2.60000000E+02  3.00000000E+01  0.00000000E+00
  2.60000000E+02  2.80000000E+01  0.00000000E+00
  2.60000000E+02  2.60000000E+01  0.00000000E+00
  2.60000000E+02  2.40000000E+01  0.00000000E+00
  2.60000000E+02  2.20000000E+01  0.00000000E+00
  2.60000000E+02  2.00000000E+01  0.00000000E+00
  2.60000000E+02  1.80000000E+01  0.00000000E+00
  2.60000000E+02  1.60000000E+01  0.00000000E+00
  2.60000000E+02  1.40000000E+01  0.00000000E+00
  2.60000000E+02  1.20000000E+01  0.00000000E+00
  2.60000000E+02  1.00000000E+01  0.00000000E+00
  2.60000000E+02  8.00000000E+00  0.00000000E+00
  2.60000000E+02  6.00000000E+00  0.00000000E+00
  2.60000000E+02  4.00000000E+00  0.00000000E+00
  2.60000000E+02  2.00000000E+00  0.00000000E+00
  2.60000000E+02 -3.33066907E-14  0.00000000E+00
  2.70000000E+02  1.00000000E+02  0.00000000E+00
  2.70000000E+02  9.80000000E+01  0.00000000E+00
  2.70000000E+02  9.60000000E+01  0.00000000E+00
  2.70000000E+02  9.40000000E+01  0.00000000E+00
  2.70000000E+02  9.20000000E+01  0.00000000E+00
  2.70000000E+02  9.00000000E+01  0.00000000E+00
  2.70000000E+02  8.80000000E+01  0.00000000E+00
  2.70000000E+02  8.60000000E+01  0.00000000E+00
  2.70000000E+02  8.40000000E+01  0.00000000E+00
  2.70000000E+02  8.20000000E+01  0.00000000E+00
  2.70000000E+02  8.00000000E+01  0.00000000E+00
  2.70000000E+02  7.80000000E+01  0.00000000E+00
  2.70000000E+02  7.60000000E+01  0.00000000E+00
  2.70000000E+02  7.40000000E+01  0.00000000E+00
  2.70000000E+02  7.20000000E+01  0.00000000E+00
  2.70000000E+02  7.00000000E+01  0.00000000E+00
  2.70000000E+02  6.80000000E+01  0.00000000E+00
  2.70000000E+02  6.60000000E+01  0.00000000E+00
  2.70000000E+02  6.40000000E+01  0.00000000E+00
  2.70000000E+02  6.20000000E+01  0.00000000E+00
  2.70000000E+02  6.00000000E+01  0.00000000E+00
  2.70000000E+02  5.80000000E+01  0.00000000E+00
  2.70000000E+02  5.60000000E+01  0.00000000E+00
  2.70000000E+02  5.40000000E+01  0.00000000E+00
  2.70000000E+02  5.20000000E+01  0.00000000E+00
  2.70000000E+02  5.00000000E+01  0.00000000E+00
  2.70000000E+02  4.80000000E+01  0.00000000E+00
  2.70000000E+02  4.60000000E+01  0.00000000E+00
  2.70000000E+02  4.40000000E+01  0.00000000E+00
  2.70000000E+02  4.20000000E+01  0.00000000E+00
  2.70000000E+02  4.00000000E+01  0.00000000E+00
  2.70000000E+02  3.80000000E+01  0.00000000E+00
  2.70000000E+02  3.60000000E+01  0.00000000E+00
  2.70000000E+02  3.40000000E+01  0.00000000E+00
  2.70000000E+02  3.20000000E+01  0.00000000E+00
  2.70000000E+02  3.00000000E+01  0.00000000E+00
  2.70000000E+02  2.80000000E+01  0.00000000E+00
  2.70000000E+02  2.60000000E+01  0.00000000E+00
  2.70000000E+02  2.40000000E+01  0.00000000E+00
  2.70000000E+02  2.20000000E+01  0.00000000E+00
  2.70000000E+02  2.00000000E+01  0.00000000E+00
  2.70000000E+02  1.80000000E+01  0.00000000E+00
  2.70000000E+02  1.60000000E+01  0.00000000E+00
  2.70000000E+02  1.40000000E+01  0.00000000E+00
  2.70000000E+02  1.20000000E+01  0.00000000E+00
  2.70000000E+02  1.00000000E+01  0.00000000E+00
  2.70000000E+02  8.00000000E+00  0.00000000E+00
  2.70000000E+02  6.00000000E+00  0.00000000E+00
  2.70000000E+02  4.00000000E+00  0.00000000E+00
  2.70000000E+02  2.00000000E+00  0.00000000E+00
  2.70000000E+02 -3.33066907E-14  0.00000000E+00
  2.80000000E+02  1.00000000E+02  0.00000000E+00
  2.80000000E+02  9.80000000E+01  0.00000000E+00
  2.80000000E+02  9.60000000E+01  0.00000000E+00
  2.80000000E+02  9.40000000E+01  0.00000000E+00
  2.80000000E+02  9.20000000E+01  0.00000000E+00
  2.80000000E+02  9.00000000E+01  0.00000000E+00
  2.80000000E+02  8.80000000E+01  0.00000000E+00
  2.80000000E+02  8.60000000E+01  0.00000000E+00
  2.80000000E+02  8.40000000E+01  0.00000000E+00
  2.80000000E+02  8.20000000E+01  0.00000000E+00
  2.80000000E+02  8.00000000E+01  0.00000000E+00
  2.80000000E+02  7.80000000E+01  0.00000000E+00
  2.80000000E+02  7.60000000E+01  0.00000000E+00
  2.80000000E+02  7.40000000E+01  0.00000000E+00
  2.80000000E+02  7.20000000E+01  0.00000000E+00
  2.80000000E+02  7.00000000E+01  0.00000000E+00
  2.80000000E+02  6.80000000E+01  0.00000000E+00
  2.80000000E+02  6.60000000E+01  0.00000000E+00
  2.80000000E+02  6.40000000E+01  0.00000000E+00
  2.80000000E+02  6.20000000E+01  0.00000000E+00
  2.80000000E+02  6.00000000E+01  0.00000000E+00
  2.80000000E+02  5.80000000E+01  0.00000000E+00
  2.80000000E+02  5.60000000E+01  0.00000000E+00
  2.80000000E+02  5.40000000E+01  0.00000000E+00
  2.80000000E+02  5.20000000E+01  0.00000000E+00
  2.80000000E+02  5.00000000E+01  0.00000000E+00
  2.80000000E+02  4.80000000E+01  0.00000000E+00
  2.80000000E+02  4.60000000E+01  0.00000000E+00
  2.80000000E+02  4.40000000E+01  0.00000000E+00
  2.80000000E+02  4.20000000E+01  0.00000000E+00
  2.80000000E+02  4.00000000E+01  0.00000000E+00
  2.80000000E+02  3.80000000E+01  0.00000000E+00
  2.80000000E+02  3.60000000E+01  0.00000000E+00
  2.80000000E+02  3.40000000E+01  0.00000000E+00
  2.80000000E+02  3.20000000E+01  0.00000000E+00
  2.80000000E+02  3.00000000E+01  0.00000000E+00
  2.80000000E+02  2.80000000E+01  0.00000000E+00
  2.80000000E+02  2.60000000E+01  0.00000000E+00
  2.80000000E+02  2.40000000E+01  0.00000000E+00
  2.80000000E+02  2.20000000E+01  0.00000000E+00
  2.80000000E+02  2.00000000E+01  0.00000000E+00
  2.80000000E+02  1.80000000E+01  0.00000000E+00
  2.80000000E+02  1.60000000E+01  0.00000000E+00
  2.80000000E+02  1.40000000E+01  0.00000000E+00
  2.80000000E+02  1.20000000E+01  0.00000000E+00
  2.80000000E+02  1.00000000E+01  0.00000000E+00
  2.80000000E+02  8.00000000E+00  0.00000000E+00
  2.80000000E+02  6.00000000E+00  0.00000000E+00
  2.80000000E+02  4.00000000E+00  0.00000000E+00
  2.80000000E+02  2.00000000E+00  0.00000000E+00
  2.80000000E+02 -3.33066907E-14  0.00000000E+00
  2.90000000E+02  1.00000000E+02  0.00000000E+00
  2.90000000E+02  9.80000000E+01  0.00000000E+00
  2.90000000E+02  9.60000000E+01  0.00000000E+00
  2.90000000E+02  9.40000000E+01  0.00000000E+00
  2.90000000E+02  9.20000000E+01  0.00000000E+00
  2.90000000E+02  9.00000000E+01  0.00000000E+00
  2.90000000E+02  8.80000000E+01  0.00000000E+00
  2.90000000E+02  8.60000000E+01  0.00000000E+00
  2.90000000E+02  8.40000000E+01  0.00000000E+00
  2.90000000E+02  8.20000000E+01  0.00000000E+00
  2.90000000E+02  8.00000000E+01  0.00000000E+00
  2.90000000E+02  7.80000000E+01  0.00000000E+00
  2.90000000E+02  7.60000000E+01  0.00000000E+00
  2.90000000E+02  7.40000000E+01  0.00000000E+00
  2.90000000E+02  7.20000000E+01  0.00000000E+00
  2.90000000E+02  7.00000000E+01  0.00000000E+00
  2.90000000E+02  6.80000000E+01  0.00000000E+00
  2.90000000E+02  6.60000000E+01  0.00000000E+00
  2.90000000E+02  6.40000000E+01  0.00000000E+00
  2.90000000E+02  6.20000000E+01  0.00000000E+00
  2.90000000E+02  6.00000000E+01  0.00000000E+00
  2.90000000E+02  5.80000000E+01  0.00000000E+00
  2.90000000E+02  5.60000000E+01  0.00000000E+00
  2.90000000E+02  5.40000000E+01  0.00000000E+00
  2.90000000E+02  5.20000000E+01  0.00000000E+00
  2.90000000E+02  5.00000000E+01  0.00000000E+00
  2.90000000E+02  4.80000000E+01  0.00000000E+00
  2.90000000E+02  4.60000000E+01  0.00000000E+00
  2.90000000E+02  4.40000000E+01  0.00000000E+00
  2.90000000E+02  4.20000000E+01  0.00000000E+00
  2.90000000E+02  4.00000000E+01  0.00000000E+00
  2.90000000E+02  3.80000000E+01  0.00000000E+00
  2.90000000E+02  3.60000000E+01  0.00000000E+00
  2.90000000E+02  3.40000000E+01  0.00000000E+00
  2.90000000E+02  3.20000000E+01  0.00000000E+00
  2.90000000E+02  3.00000000E+01  0.00000000E+00
  2.90000000E+02  2.80000000E+01  0.00000000E+00
  2.90000000E+02  2.60000000E+01  0.00000000E+00
  2.90000000E+02  2.40000000E+01  0.00000000E+00
  2.90000000E+02  2.20000000E+01  0.00000000E+00
  2.90000000E+02  2.00000000E+01  0.00000000E+00
  2.90000000E+02  1.80000000E+01  0.00000000E+00
  2.90000000E+02  1.60000000E+01  0.00000000E+00
  2.90000000E+02  1.40000000E+01  0.00000000E+00
  2.90000000E+02  1.20000000E+01  0.00000000E+00
  2.90000000E+02  1.00000000E+01  0.00000000E+00
  2.90000000E+02  8.00000000E+00  0.00000000E+00
  2.90000000E+02  6.00000000E+00  0.00000000E+00
  2.90000000E+02  4.00000000E+00  0.00000000E+00
  2.90000000E+02  2.00000000E+00  0.00000000E+00
  2.90000000E+02 -3.33066907E-14  0.00000000E+00
  3.00000000E+02  1.00000000E+02  0.00000000E+00
  3.00000000E+02  9.80000000E+01  0.00000000E+00
  3.00000000E+02  9.60000000E+01  0.00000000E+00
  3.00000000E+02  9.40000000E+01  0.00000000E+00
  3.00000000E+02  9.20000000E+01  0.00000000E+00
  3.00000000E+02  9.00000000E+01  0.00000000E+00
  3.00000000E+02  8.80000000E+01  0.00000000E+00
  3.00000000E+02  8.60000000E+01  0.00000000E+00
  3.00000000E+02  8.40000000E+01  0.00000000E+00
  3.00000000E+02  8.20000000E+01  0.00000000E+00
  3.00000000E+02  8.00000000E+01  0.00000000E+00
  3.00000000E+02  7.80000000E+01  0.00000000E+00
  3.00000000E+02  7.60000000E+01  0.00000000E+00
  3.00000000E+02  7.40000000E+01  0.00000000E+00
  3.00000000E+02  7.20000000E+01  0.00000000E+00
  3.00000000E+02  7.00000000E+01  0.00000000E+00
  3.00000000E+02  6.80000000E+01  0.00000000E+00
  3.00000000E+02  6.60000000E+01  0.00000000E+00
  3.00000000E+02  6.40000000E+01  0.00000000E+00
  3.00000000E+02  6.20000000E+01  0.00000000E+00
  3.00000000E+02  6.00000000E+01  0.00000000E+00
  3.00000000E+02  5.80000000E+01  0.00000000E+00
  3.00000000E+02  5.60000000E+01  0.00000000E+00
  3.00000000E+02  5.40000000E+01  0.00000000E+00
  3.00000000E+02  5.20000000E+01  0.00000000E+00
  3.00000000E+02  5.00000000E+01  0.00000000E+00
  3.00000000E+02  4.80000000E+01  0.00000000E+00
  3.00000000E+02  4.60000000E+01  0.00000000E+00
  3.00000000E+02  4.40000000E+01  0.00000000E+00
  3.00000000E+02  4.20000000E+01  0.00000000E+00
  3.00000000E+02  4.00000000E+01  0.00000000E+00
  3.00000000E+02  3.80000000E+01  0.00000000E+00
  3.00000000E+02  3.60000000E+01  0.00000000E+00
  3.00000000E+02  3.40000000E+01  0.00000000E+00
  3.00000000E+02  3.20000000E+01  0.00000000E+00
  3.00000000E+02  3.00000000E+01  0.00000000E+00
  3.00000000E+02  2.80000000E+01  0.00000000E+00
  3.00000000E+02  2.60000000E+01  0.00000000E+00
  3.00000000E+02  2.40000000E+01  0.00000000E+00
  3.00000000E+02  2.20000000E+01  0.00000000E+00
  3.00000000E+02  2.00000000E+01  0.00000000E+00
  3.00000000E+02  1.80000000E+01  0.00000000E+00
  3.00000000E+02  1.60000000E+01  0.00000000E+00
  3.00000000E+02  1.40000000E+01  0.00000000E+00
  3.00000000E+02  1.20000000E+01  0.00000000E+00
  3.00000000E+02  1.00000000E+01  0.00000000E+00
  3.00000000E+02  8.00000000E+00  0.00000000E+00
  3.00000000E+02  6.00000000E+00  0.00000000E+00
  3.00000000E+02  4.00000000E+00  0.00000000E+00
  3.00000000E+02  2.00000000E+00  0.00000000E+00
  3.00000000E+02 -3.33066907E-14  0.00000000E+00
  3.10000000E+02  1.00000000E+02  0.00000000E+00
  3.10000000E+02  9.80000000E+01  0.00000000E+00
  3.10000000E+02  9.60000000E+01  0.00000000E+00
  3.10000000E+02  9.40000000E+01  0.00000000E+00
  3.10000000E+02  9.20000000E+01  0.00000000E+00
  3.10000000E+02  9.00000000E+01  0.00000000E+00
  3.10000000E+02  8.80000000E+01  0.00000000E+00
  3.10000000E+02  8.60000000E+01  0.00000000E+00
  3.10000000E+02  8.40000000E+01  0.00000000E+00
  3.10000000E+02  8.20000000E+01  0.00000000E+00
  3.10000000E+02  8.00000000E+01  0.00000000E+00
  3.10000000E+02  7.80000000E+01  0.00000000E+00
  3.10000000E+02  7.60000000E+01  0.00000000E+00
  3.10000000E+02  7.40000000E+01  0.00000000E+00
  3.10000000E+02  7.20000000E+01  0.00000000E+00
  3.10000000E+02  7.00000000E+01  0.00000000E+00
  3.10000000E+02  6.80000000E+01  0.00000000E+00
  3.10000000E+02  6.60000000E+01  0.00000000E+00
  3.10000000E+02  6.40000000E+01  0.00000000E+00
  3.10000000E+02  6.20000000E+01  0.00000000E+00
  3.10000000E+02  6.00000000E+01  0.00000000E+00
  3.10000000E+02  5.80000000E+01  0.00000000E+00
  3.10000000E+02  5.60000000E+01  0.00000000E+00
  3.10000000E+02  5.40000000E+01  0.00000000E+00
  3.10000000E+02  5.20000000E+01  0.00000000E+00
  3.10000000E+02  5.00000000E+01  0.00000000E+00
  3.10000000E+02  4.80000000E+01  0.00000000E+00
  3.10000000E+02  4.60000000E+01  0.00000000E+00
  3.10000000E+02  4.40000000E+01  0.00000000E+00
  3.10000000E+02  4.20000000E+01  0.00000000E+00
  3.10000000E+02  4.00000000E+01  0.00000000E+00
  3.10000000E+02  3.80000000E+01  0.00000000E+00
  3.10000000E+02  3.60000000E+01  0.00000000E+00
  3.10000000E+02  3.40000000E+01  0.00000000E+00
  3.10000000E+02  3.20000000E+01  0.00000000E+00
  3.10000000E+02  3.00000000E+01  0.00000000E+00
  3.10000000E+02  2.80000000E+01  0.00000000E+00
  3.10000000E+02  2.60000000E+01  0.00000000E+00
  3.10000000E+02  2.40000000E+01  0.00000000E+00
  3.10000000E+02  2.20000000E+01  0.00000000E+00
  3.10000000E+02  2.00000000E+01  0.00000000E+00
  3.10000000E+02  1.80000000E+01  0.00000000E+00
  3.10000000E+02  1.60000000E+01  0.00000000E+00
  3.10000000E+02  1.40000000E+01  0.00000000E+00
  3.10000000E+02  1.20000000E+01  0.00000000E+00
  3.10000000E+02  1.00000000E+01  0.00000000E+00
  3.10000000E+02  8.00000000E+00  0.00000000E+00
  3.10000000E+02  6.00000000E+00  0.00000000E+00
  3.10000000E+02  4.00000000E+00  0.00000000E+00
  3.10000000E+02  2.00000000E+00  0.00000000E+00
  3.10000000E+02 -3.33066907E-14  0.00000000E+00
  3.20000000E+02  1.00000000E+02  0.00000000E+00
  3.20000000E+02  9.80000000E+01  0.00000000E+00
  3.20000000E+02  9.60000000E+01  0.00000000E+00
  3.20000000E+02  9.40000000E+01  0.00000000E+00
  3.20000000E+02  9.20000000E+01  0.00000000E+00
  3.20000000E+02  9.00000000E+01  0.00000000E+00
  3.20000000E+02  8.80000000E+01  0.00000000E+00
  3.20000000E+02  8.60000000E+01  0.00000000E+00
  3.20000000E+02  8.40000000E+01  0.00000000E+00
  3.20000000E+02  8.20000000E+01  0.00000000E+00
  3.20000000E+02  8.00000000E+01  0.00000000E+00
  3.20000000E+02  7.80000000E+01  0.00000000E+00
  3.20000000E+02  7.60000000E+01  0.00000000E+00
  3.20000000E+02  7.40000000E+01  0.00000000E+00
  3.20000000E+02  7.20000000E+01  0.00000000E+00
  3.20000000E+02  7.00000000E+01  0.00000000E+00
  3.20000000E+02  6.80000000E+01  0.00000000E+00
  3.20000000E+02  6.60000000E+01  0.00000000E+00
  3.20000000E+02  6.40000000E+01  0.00000000E+00
  3.20000000E+02  6.20000000E+01  0.00000000E+00
  3.20000000E+02  6.00000000E+01  0.00000000E+00
  3.20000000E+02  5.80000000E+01  0.00000000E+00
  3.20000000E+02  5.60000000E+01  0.00000000E+00
  3.20000000E+02  5.40000000E+01  0.00000000E+00
  3.20000000E+02  5.20000000E+01  0.00000000E+00
  3.20000000E+02  5.00000000E+01  0.00000000E+00
  3.20000000E+02  4.80000000E+01  0.00000000E+00
  3.20000000E+02  4.60000000E+01  0.00000000E+00
  3.20000000E+02  4.40000000E+01  0.00000000E+00
  3.20000000E+02  4.20000000E+01  0.00000000E+00
  3.20000000E+02  4.00000000E+01  0.00000000E+00
  3.20000000E+02  3.80000000E+01  0.00000000E+00
  3.20000000E+02  3.60000000E+01  0.00000000E+00
  3.20000000E+02  3.40000000E+01  0.00000000E+00
  3.20000000E+02  3.20000000E+01  0.00000000E+00
  3.20000000E+02  3.00000000E+01  0.00000000E+00
  3.20000000E+02  2.80000000E+01  0.00000000E+00
  3.20000000E+02  2.60000000E+01  0.00000000E+00
  3.20000000E+02  2.40000000E+01  0.00000000E+00
  3.20000000E+02  2.20000000E+01  0.00000000E+00
  3.20000000E+02  2.00000000E+01  0.00000000E+00
  3.20000000E+02  1.80000000E+01  0.00000000E+00
  3.20000000E+02  1.60000000E+01  0.00000000E+00
  3.20000000E+02  1.40000000E+01  0.00000000E+00
  3.20000000E+02  1.20000000E+01  0.00000000E+00
  3.20000000E+02  1.00000000E+01  0.00000000E+00
  3.20000000E+02  8.00000000E+00  0.00000000E+00
  3.20000000E+02  6.00000000E+00  0.00000000E+00
  3.20000000E+02  4.00000000E+00  0.00000000E+00
  3.20000000E+02  2.00000000E+00  0.00000000E+00
  3.20000000E+02 -3.33066907E-14  0.00000000E+00
  3.30000000E+02  1.00000000E+02  0.00000000E+00
  3.30000000E+02  9.80000000E+01  0.00000000E+00
  3.30000000E+02  9.60000000E+01  0.00000000E+00
  3.30000000E+02  9.40000000E+01  0.00000000E+00
  3.30000000E+02  9.20000000E+01  0.00000000E+00
  3.30000000E+02  9.00000000E+01  0.00000000E+00
  3.30000000E+02  8.80000000E+01  0.00000000E+00
  3.30000000E+02  8.60000000E+01  0.00000000E+00
  3.30000000E+02  8.40000000E+01  0.00000000E+00
  3.30000000E+02  8.20000000E+01  0.00000000E+00
  3.30000000E+02  8.00000000E+01  0.00000000E+00
  3.30000000E+02  7.80000000E+01  0.00000000E+00
  3.30000000E+02  7.60000000E+01  0.00000000E+00
  3.30000000E+02  7.40000000E+01  0.00000000E+00
  3.30000000E+02  7.20000000E+01  0.00000000E+00
  3.30000000E+02  7.00000000E+01  0.00000000E+00
  3.30000000E+02  6.80000000E+01  0.00000000E+00
  3.30000000E+02  6.60000000E+01  0.00000000E+00
  3.30000000E+02  6.40000000E+01  0.00000000E+00
  3.30000000E+02  6.20000000E+01  0.00000000E+00
  3.30000000E+02  6.00000000E+01  0.00000000E+00
  3.30000000E+02  5.80000000E+01  0.00000000E+00
  3.30000000E+02  5.60000000E+01  0.00000000E+00
  3.30000000E+02  5.40000000E+01  0.00000000E+00
  3.30000000E+02  5.20000000E+01  0.00000000E+00
  3.30000000E+02  5.00000000E+01  0.00000000E+00
  3.30000000E+02  4.80000000E+01  0.00000000E+00
  3.30000000E+02  4.60000000E+01  0.00000000E+00
  3.30000000E+02  4.40000000E+01  0.00000000E+00
  3.30000000E+02  4.20000000E+01  0.00000000E+00
  3.30000000E+02  4.00000000E+01  0.00000000E+00
  3.30000000E+02  3.80000000E+01  0.00000000E+00
  3.30000000E+02  3.60000000E+01  0.00000000E+00
  3.30000000E+02  3.40000000E+01  0.00000000E+00
  3.30000000E+02  3.20000000E+01  0.00000000E+00
  3.30000000E+02  3.00000000E+01  0.00000000E+00
  3.30000000E+02  2.80000000E+01  0.00000000E+00
  3.30000000E+02  2.60000000E+01  0.00000000E+00
  3.30000000E+02  2.40000000E+01  0.00000000E+00
  3.30000000E+02  2.20000000E+01  0.00000000E+00
  3.30000000E+02  2.00000000E+01  0.00000000E+00
  3.30000000E+02  1.80000000E+01  0.00000000E+00
  3.30000000E+02  1.60000000E+01  0.00000000E+00
  3.30000000E+02  1.40000000E+01  0.00000000E+00
  3.30000000E+02  1.20000000E+01  0.00000000E+00
  3.30000000E+02  1.00000000E+01  0.00000000E+00
  3.30000000E+02  8.00000000E+00  0.00000000E+00
  3.30000000E+02  6.00000000E+00  0.00000000E+00
  3.30000000E+02  4.00000000E+00  0.00000000E+00
  3.30000000E+02  2.00000000E+00  0.00000000E+00
  3.30000000E+02 -3.33066907E-14  0.00000000E+00
  3.40000000E+02  1.00000000E+02  0.00000000E+00
  3.40000000E+02  9.80000000E+01  0.00000000E+00
  3.40000000E+02  9.60000000E+01  0.00000000E+00
  3.40000000E+02  9.40000000E+01  0.00000000E+00
  3.40000000E+02  9.20000000E+01  0.00000000E+00
  3.40000000E+02  9.00000000E+01  0.00000000E+00
  3.40000000E+02  8.80000000E+01  0.00000000E+00
  3.40000000E+02  8.60000000E+01  0.00000000E+00
  3.40000000E+02  8.40000000E+01  0.00000000E+00
  3.40000000E+02  8.20000000E+01  0.00000000E+00
  3.40000000E+02  8.00000000E+01  0.00000000E+00
  3.40000000E+02  7.80000000E+01  0.00000000E+00
  3.40000000E+02  7.60000000E+01  0.00000000E+00
  3.40000000E+02  7.40000000E+01  0.00000000E+00
  3.40000000E+02  7.20000000E+01  0.00000000E+00
  3.40000000E+02  7.00000000E+01  0.00000000E+00
  3.40000000E+02  6.80000000E+01  0.00000000E+00
  3.40000000E+02  6.60000000E+01  0.00000000E+00
  3.40000000E+02  6.40000000E+01  0.00000000E+00
  3.40000000E+02  6.20000000E+01  0.00000000E+00
  3.40000000E+02  6.00000000E+01  0.00000000E+00
  3.40000000E+02  5.80000000E+01  0.00000000E+00
  3.40000000E+02  5.60000000E+01  0.00000000E+00
  3.40000000E+02  5.40000000E+01  0.00000000E+00
  3.40000000E+02  5.20000000E+01  0.00000000E+00
  3.40000000E+02  5.00000000E+01  0.00000000E+00
  3.40000000E+02  4.80000000E+01  0.00000000E+00
  3.40000000E+02  4.60000000E+01  0.00000000E+00
  3.40000000E+02  4.40000000E+01  0.00000000E+00
  3.40000000E+02  4.20000000E+01  0.00000000E+00
  3.40000000E+02  4.00000000E+01  0.00000000E+00
  3.40000000E+02  3.80000000E+01  0.00000000E+00
  3.40000000E+02  3.60000000E+01  0.00000000E+00
  3.40000000E+02  3.40000000E+01  0.00000000E+00
  3.40000000E+02  3.20000000E+01  0.00000000E+00
  3.40000000E+02  3.00000000E+01  0.00000000E+00
  3.40000000E+02  2.80000000E+01  0.00000000E+00
  3.40000000E+02  2.60000000E+01  0.00000000E+00
  3.40000000E+02  2.40000000E+01  0.00000000E+00
  3.40000000E+02  2.20000000E+01  0.00000000E+00
  3.40000000E+02  2.00000000E+01  0.00000000E+00
  3.40000000E+02  1.80000000E+01  0.00000000E+00
  3.40000000E+02  1.60000000E+01  0.00000000E+00
  3.40000000E+02  1.40000000E+01  0.00000000E+00
  3.40000000E+02  1.20000000E+01  0.00000000E+00
  3.40000000E+02  1.00000000E+01  0.00000000E+00
  3.40000000E+02  8.00000000E+00  0.00000000E+00
  3.40000000E+02  6.00000000E+00  0.00000000E+00
  3.40000000E+02  4.00000000E+00  0.00000000E+00
  3.40000000E+02  2.00000000E+00  0.00000000E+00
  3.40000000E+02 -3.33066907E-14  0.00000000E+00
  3.50000000E+02  1.00000000E+02  0.00000000E+00
  3.50000000E+02  9.80000000E+01  0.00000000E+00
  3.50000000E+02  9.60000000E+01  0.00000000E+00
  3.50000000E+02  9.40000000E+01  0.00000000E+00
  3.50000000E+02  9.20000000E+01  0.00000000E+00
  3.50000000E+02  9.00000000E+01  0.00000000E+00
  3.50000000E+02  8.80000000E+01  0.00000000E+00
  3.50000000E+02  8.60000000E+01  0.00000000E+00
  3.50000000E+02  8.40000000E+01  0.00000000E+00
  3.50000000E+02  8.20000000E+01  0.00000000E+00
  3.50000000E+02  8.00000000E+01  0.00000000E+00
  3.50000000E+02  7.80000000E+01  0.00000000E+00
  3.50000000E+02  7.60000000E+01  0.00000000E+00
  3.50000000E+02  7.40000000E+01  0.00000000E+00
  3.50000000E+02  7.20000000E+01  0.00000000E+00
  3.50000000E+02  7.00000000E+01  0.00000000E+00
  3.50000000E+02  6.80000000E+01  0.00000000E+00
  3.50000000E+02  6.60000000E+01  0.00000000E+00
  3.50000000E+02  6.40000000E+01  0.00000000E+00
  3.50000000E+02  6.20000000E+01  0.00000000E+00
  3.50000000E+02  6.00000000E+01  0.00000000E+00
  3.50000000E+02  5.80000000E+01  0.00000000E+00
  3.50000000E+02  5.60000000E+01  0.00000000E+00
  3.50000000E+02  5.40000000E+01  0.00000000E+00
  3.50000000E+02  5.20000000E+01  0.00000000E+00
  3.50000000E+02  5.00000000E+01  0.00000000E+00
  3.50000000E+02  4.80000000E+01  0.00000000E+00
  3.50000000E+02  4.60000000E+01  0.00000000E+00
  3.50000000E+02  4.40000000E+01  0.00000000E+00
  3.50000000E+02  4.20000000E+01  0.00000000E+00
  3.50000000E+02  4.00000000E+01  0.00000000E+00
  3.50000000E+02  3.80000000E+01  0.00000000E+00
  3.50000000E+02  3.60000000E+01  0.00000000E+00
  3.50000000E+02  3.40000000E+01  0.00000000E+00
  3.50000000E+02  3.20000000E+01  0.00000000E+00
  3.50000000E+02  3.00000000E+01  0.00000000E+00
  3.50000000E+02  2.80000000E+01  0.00000000E+00
  3.50000000E+02  2.60000000E+01  0.00000000E+00
  3.50000000E+02  2.40000000E+01  0.00000000E+00
  3.50000000E+02  2.20000000E+01  0.00000000E+00
  3.50000000E+02  2.00000000E+01  0.00000000E+00
  3.50000000E+02  1.80000000E+01  0.00000000E+00
  3.50000000E+02  1.60000000E+01  0.00000000E+00
  3.50000000E+02  1.40000000E+01  0.00000000E+00
  3.50000000E+02  1.20000000E+01  0.00000000E+00
  3.50000000E+02  1.00000000E+01  0.00000000E+00
  3.50000000E+02  8.00000000E+00  0.00000000E+00
  3.50000000E+02  6.00000000E+00  0.00000000E+00
  3.50000000E+02  4.00000000E+00  0.00000000E+00
  3.50000000E+02  2.00000000E+00  0.00000000E+00
  3.50000000E+02 -3.33066907E-14  0.00000000E+00
  3.60000000E+02  1.00000000E+02  0.00000000E+00
  3.60000000E+02  9.80000000E+01  0.00000000E+00
  3.60000000E+02  9.60000000E+01  0.00000000E+00
  3.60000000E+02  9.40000000E+01  0.00000000E+00
  3.60000000E+02  9.20000000E+01  0.00000000E+00
  3.60000000E+02  9.00000000E+01  0.00000000E+00
  3.60000000E+02  8.80000000E+01  0.00000000E+00
  3.60000000E+02  8.60000000E+01  0.00000000E+00
  3.60000000E+02  8.40000000E+01  0.00000000E+00
  3.60000000E+02  8.20000000E+01  0.00000000E+00
  3.60000000E+02  8.00000000E+01  0.00000000E+00
  3.60000000E+02  7.80000000E+01  0.00000000E+00
  3.60000000E+02  7.60000000E+01  0.00000000E+00
  3.60000000E+02  7.40000000E+01  0.00000000E+00
  3.60000000E+02  7.20000000E+01  0.00000000E+00
  3.60000000E+02  7.00000000E+01  0.00000000E+00
  3.60000000E+02  6.80000000E+01  0.00000000E+00
  3.60000000E+02  6.60000000E+01  0.00000000E+00
  3.60000000E+02  6.40000000E+01  0.00000000E+00
  3.60000000E+02  6.20000000E+01  0.00000000E+00
  3.60000000E+02  6.00000000E+01  0.00000000E+00
  3.60000000E+02  5.80000000E+01  0.00000000E+00
  3.60000000E+02  5.60000000E+01  0.00000000E+00
  3.60000000E+02  5.40000000E+01  0.00000000E+00
  3.60000000E+02  5.20000000E+01  0.00000000E+00
  3.60000000E+02  5.00000000E+01  0.00000000E+00
  3.60000000E+02  4.80000000E+01  0.00000000E+00
  3.60000000E+02  4.60000000E+01  0.00000000E+00
  3.60000000E+02  4.40000000E+01  0.00000000E+00
  3.60000000E+02  4.20000000E+01  0.00000000E+00
  3.60000000E+02  4.00000000E+01  0.00000000E+00
  3.60000000E+02  3.80000000E+01  0.00000000E+00
  3.60000000E+02  3.60000000E+01  0.00000000E+00
  3.60000000E+02  3.40000000E+01  0.00000000E+00
  3.60000000E+02  3.20000000E+01  0.00000000E+00
  3.60000000E+02  3.00000000E+01  0.00000000E+00
  3.60000000E+02  2.80000000E+01  0.00000000E+00
  3.60000000E+02  2.60000000E+01  0.00000000E+00
  3.60000000E+02  2.40000000E+01  0.00000000E+00
  3.60000000E+02  2.20000000E+01  0.00000000E+00
  3.60000000E+02  2.00000000E+01  0.00000000E+00
  3.60000000E+02  1.80000000E+01  0.00000000E+00
  3.60000000E+02  1.60000000E+01  0.00000000E+00
  3.60000000E+02  1.40000000E+01  0.00000000E+00
  3.60000000E+02  1.20000000E+01  0.00000000E+00
  3.60000000E+02  1.00000000E+01  0.00000000E+00
  3.60000000E+02  8.00000000E+00  0.00000000E+00
  3.60000000E+02  6.00000000E+00  0.00000000E+00
  3.60000000E+02  4.00000000E+00  0.00000000E+00
  3.60000000E+02  2.00000000E+00  0.00000000E+00
  3.60000000E+02 -3.33066907E-14  0.00000000E+00
  3.70000000E+02  1.00000000E+02  0.00000000E+00
  3.70000000E+02  9.80000000E+01  0.00000000E+00
  3.70000000E+02  9.60000000E+01  0.00000000E+00
  3.70000000E+02  9.40000000E+01  0.00000000E+00
  3.70000000E+02  9.20000000E+01  0.00000000E+00
  3.70000000E+02  9.00000000E+01  0.00000000E+00
  3.70000000E+02  8.80000000E+01  0.00000000E+00
  3.70000000E+02  8.60000000E+01  0.00000000E+00
  3.70000000E+02  8.40000000E+01  0.00000000E+00
  3.70000000E+02  8.20000000E+01  0.00000000E+00
  3.70000000E+02  8.00000000E+01  0.00000000E+00
  3.70000000E+02  7.80000000E+01  0.00000000E+00
  3.70000000E+02  7.60000000E+01  0.00000000E+00
  3.70000000E+02  7.40000000E+01  0.00000000E+00
  3.70000000E+02  7.20000000E+01  0.00000000E+00
  3.70000000E+02  7.00000000E+01  0.00000000E+00
  3.70000000E+02  6.80000000E+01  0.00000000E+00
  3.70000000E+02  6.60000000E+01  0.00000000E+00
  3.70000000E+02  6.40000000E+01  0.00000000E+00
  3.70000000E+02  6.20000000E+01  0.00000000E+00
  3.70000000E+02  6.00000000E+01  0.00000000E+00
  3.70000000E+02  5.80000000E+01  0.00000000E+00
  3.70000000E+02  5.60000000E+01  0.00000000E+00
  3.70000000E+02  5.40000000E+01  0.00000000E+00
  3.70000000E+02  5.20000000E+01  0.00000000E+00
  3.70000000E+02  5.00000000E+01  0.00000000E+00
  3.70000000E+02  4.80000000E+01  0.00000000E+00
  3.70000000E+02  4.60000000E+01  0.00000000E+00
  3.70000000E+02  4.40000000E+01  0.00000000E+00
  3.70000000E+02  4.20000000E+01  0.00000000E+00
  3.70000000E+02  4.00000000E+01  0.00000000E+00
  3.70000000E+02  3.80000000E+01  0.00000000E+00
  3.70000000E+02  3.60000000E+01  0.00000000E+00
  3.70000000E+02  3.40000000E+01  0.00000000E+00
  3.70000000E+02  3.20000000E+01  0.00000000E+00
  3.70000000E+02  3.00000000E+01  0.00000000E+00
  3.70000000E+02  2.80000000E+01  0.00000000E+00
  3.70000000E+02  2.60000000E+01  0.00000000E+00
  3.70000000E+02  2.40000000E+01  0.00000000E+00
  3.70000000E+02  2.20000000E+01  0.00000000E+00
  3.70000000E+02  2.00000000E+01  0.00000000E+00
  3.70000000E+02  1.80000000E+01  0.00000000E+00
  3.70000000E+02  1.60000000E+01  0.00000000E+00
  3.70000000E+02  1.40000000E+01  0.00000000E+00
  3.70000000E+02  1.20000000E+01  0.00000000E+00
  3.70000000E+02  1.00000000E+01  0.00000000E+00
  3.70000000E+02  8.00000000E+00  0.00000000E+00
  3.70000000E+02  6.00000000E+00  0.00000000E+00
  3.70000000E+02  4.00000000E+00  0.00000000E+00
  3.70000000E+02  2.00000000E+00  0.00000000E+00
  3.70000000E+02 -3.33066907E-14  0.00000000E+00
  3.80000000E+02  1.00000000E+02  0.00000000E+00
  3.80000000E+02  9.80000000E+01  0.00000000E+00
  3.80000000E+02  9.60000000E+01  0.00000000E+00
  3.80000000E+02  9.40000000E+01  0.00000000E+00
  3.80000000E+02  9.20000000E+01  0.00000000E+00
  3.80000000E+02  9.00000000E+01  0.00000000E+00
  3.80000000E+02  8.80000000E+01  0.00000000E+00
  3.80000000E+02  8.60000000E+01  0.00000000E+00
  3.80000000E+02  8.40000000E+01  0.00000000E+00
  3.80000000E+02  8.20000000E+01  0.00000000E+00
  3.80000000E+02  8.00000000E+01  0.00000000E+00
  3.80000000E+02  7.80000000E+01  0.00000000E+00
  3.80000000E+02  7.60000000E+01  0.00000000E+00
  3.80000000E+02  7.40000000E+01  0.00000000E+00
  3.80000000E+02  7.20000000E+01  0.00000000E+00
  3.80000000E+02  7.00000000E+01  0.00000000E+00
  3.80000000E+02  6.80000000E+01  0.00000000E+00
  3.80000000E+02  6.60000000E+01  0.00000000E+00
  3.80000000E+02  6.40000000E+01  0.00000000E+00
  3.80000000E+02  6.20000000E+01  0.00000000E+00
  3.80000000E+02  6.00000000E+01  0.00000000E+00
  3.80000000E+02  5.80000000E+01  0.00000000E+00
  3.80000000E+02  5.60000000E+01  0.00000000E+00
  3.80000000E+02  5.40000000E+01  0.00000000E+00
  3.80000000E+02  5.20000000E+01  0.00000000E+00
  3.80000000E+02  5.00000000E+01  0.00000000E+00
  3.80000000E+02  4.80000000E+01  0.00000000E+00
  3.80000000E+02  4.60000000E+01  0.00000000E+00
  3.80000000E+02  4.40000000E+01  0.00000000E+00
  3.80000000E+02  4.20000000E+01  0.00000000E+00
  3.80000000E+02  4.00000000E+01  0.00000000E+00
  3.80000000E+02  3.80000000E+01  0.00000000E+00
  3.80000000E+02  3.60000000E+01  0.00000000E+00
  3.80000000E+02  3.40000000E+01  0.00000000E+00
  3.80000000E+02  3.20000000E+01  0.00000000E+00
  3.80000000E+02  3.00000000E+01  0.00000000E+00
  3.80000000E+02  2.80000000E+01  0.00000000E+00
  3.80000000E+02  2.60000000E+01  0.00000000E+00
  3.80000000E+02  2.40000000E+01  0.00000000E+00
  3.80000000E+02  2.20000000E+01  0.00000000E+00
  3.80000000E+02  2.00000000E+01  0.00000000E+00
  3.80000000E+02  1.80000000E+01  0.00000000E+00
  3.80000000E+02  1.60000000E+01  0.00000000E+00
  3.80000000E+02  1.40000000E+01  0.00000000E+00
  3.80000000E+02  1.20000000E+01  0.00000000E+00
  3.80000000E+02  1.00000000E+01  0.00000000E+00
  3.80000000E+02  8.00000000E+00  0.00000000E+00
  3.80000000E+02  6.00000000E+00  0.00000000E+00
  3.80000000E+02  4.00000000E+00  0.00000000E+00
  3.80000000E+02  2.00000000E+00  0.00000000E+00
  3.80000000E+02 -3.33066907E-14  0.00000000E+00
  3.90000000E+02  1.00000000E+02  0.00000000E+00
  3.90000000E+02  9.80000000E+01  0.00000000E+00
  3.90000000E+02  9.60000000E+01  0.00000000E+00
  3.90000000E+02  9.40000000E+01  0.00000000E+00
  3.90000000E+02  9.20000000E+01  0.00000000E+00
  3.90000000E+02  9.00000000E+01  0.00000000E+00
  3.90000000E+02  8.80000000E+01  0.00000000E+00
  3.90000000E+02  8.60000000E+01  0.00000000E+00
  3.90000000E+02  8.40000000E+01  0.00000000E+00
  3.90000000E+02  8.20000000E+01  0.00000000E+00
  3.90000000E+02  8.00000000E+01  0.00000000E+00
  3.90000000E+02  7.80000000E+01  0.00000000E+00
  3.90000000E+02  7.60000000E+01  0.00000000E+00
  3.90000000E+02  7.40000000E+01  0.00000000E+00
  3.90000000E+02  7.20000000E+01  0.00000000E+00
  3.90000000E+02  7.00000000E+01  0.00000000E+00
  3.90000000E+02  6.80000000E+01  0.00000000E+00
  3.90000000E+02  6.60000000E+01  0.00000000E+00
  3.90000000E+02  6.40000000E+01  0.00000000E+00
  3.90000000E+02  6.20000000E+01  0.00000000E+00
  3.90000000E+02  6.00000000E+01  0.00000000E+00
  3.90000000E+02  5.80000000E+01  0.00000000E+00
  3.90000000E+02  5.60000000E+01  0.00000000E+00
  3.90000000E+02  5.40000000E+01  0.00000000E+00
  3.90000000E+02  5.20000000E+01  0.00000000E+00
  3.90000000E+02  5.00000000E+01  0.00000000E+00
  3.90000000E+02  4.80000000E+01  0.00000000E+00
  3.90000000E+02  4.60000000E+01  0.00000000E+00
  3.90000000E+02  4.40000000E+01  0.00000000E+00
  3.90000000E+02  4.20000000E+01  0.00000000E+00
  3.90000000E+02  4.00000000E+01  0.00000000E+00
  3.90000000E+02  3.80000000E+01  0.00000000E+00
  3.90000000E+02  3.60000000E+01  0.00000000E+00
  3.90000000E+02  3.40000000E+01  0.00000000E+00
  3.90000000E+02  3.20000000E+01  0.00000000E+00
  3.90000000E+02  3.00000000E+01  0.00000000E+00
  3.90000000E+02  2.80000000E+01  0.00000000E+00
  3.90000000E+02  2.60000000E+01  0.00000000E+00
  3.90000000E+02  2.40000000E+01  0.00000000E+00
  3.90000000E+02  2.20000000E+01  0.00000000E+00
  3.90000000E+02  2.00000000E+01  0.00000000E+00
  3.90000000E+02  1.80000000E+01  0.00000000E+00
  3.90000000E+02  1.60000000E+01  0.00000000E+00
  3.90000000E+02  1.40000000E+01  0.00000000E+00
  3.90000000E+02  1.20000000E+01  0.00000000E+00
  3.90000000E+02  1.00000000E+01  0.00000000E+00
  3.90000000E+02  8.00000000E+00  0.00000000E+00
  3.90000000E+02  6.00000000E+00  0.00000000E+00
  3.90000000E+02  4.00000000E+00  0.00000000E+00
  3.90000000E+02  2.00000000E+00  0.00000000E+00
  3.90000000E+02 -3.33066907E-14  0.00000000E+00
  4.00000000E+02  1.00000000E+02  0.00000000E+00
  4.00000000E+02  9.80000000E+01  0.00000000E+00
  4.00000000E+02  9.60000000E+01  0.00000000E+00
  4.00000000E+02  9.40000000E+01  0.00000000E+00
  4.00000000E+02  9.20000000E+01  0.00000000E+00
  4.00000000E+02  9.00000000E+01  0.00000000E+00
  4.00000000E+02  8.80000000E+01  0.00000000E+00
  4.00000000E+02  8.60000000E+01  0.00000000E+00
  4.00000000E+02  8.40000000E+01  0.00000000E+00
  4.00000000E+02  8.20000000E+01  0.00000000E+00
  4.00000000E+02  8.00000000E+01  0.00000000E+00
  4.00000000E+02  7.80000000E+01  0.00000000E+00
  4.00000000E+02  7.60000000E+01  0.00000000E+00
  4.00000000E+02  7.40000000E+01  0.00000000E+00
  4.00000000E+02  7.20000000E+01  0.00000000E+00
  4.00000000E+02  7.00000000E+01  0.00000000E+00
  4.00000000E+02  6.80000000E+01  0.00000000E+00
  4.00000000E+02  6.60000000E+01  0.00000000E+00
  4.00000000E+02  6.40000000E+01  0.00000000E+00
  4.00000000E+02  6.20000000E+01  0.00000000E+00
  4.00000000E+02  6.00000000E+01  0.00000000E+00
  4.00000000E+02  5.80000000E+01  0.00000000E+00
  4.00000000E+02  5.60000000E+01  0.00000000E+00
  4.00000000E+02  5.40000000E+01  0.00000000E+00
  4.00000000E+02  5.20000000E+01  0.00000000E+00
  4.00000000E+02  5.00000000E+01  0.00000000E+00
  4.00000000E+02  4.80000000E+01  0.00000000E+00
  4.00000000E+02  4.60000000E+01  0.00000000E+00
  4.00000000E+02  4.40000000E+01  0.00000000E+00
  4.00000000E+02  4.20000000E+01  0.00000000E+00
  4.00000000E+02  4.00000000E+01  0.00000000E+00
  4.00000000E+02  3.80000000E+01  0.00000000E+00
  4.00000000E+02  3.60000000E+01  0.00000000E+00
  4.00000000E+02  3.40000000E+01  0.00000000E+00
  4.00000000E+02  3.20000000E+01  0.00000000E+00
  4.00000000E+02  3.00000000E+01  0.00000000E+00
  4.00000000E+02  2.80000000E+01  0.00000000E+00
  4.00000000E+02  2.60000000E+01  0.00000000E+00
  4.00000000E+02  2.40000000E+01  0.00000000E+00
  4.00000000E+02  2.20000000E+01  0.00000000E+00
  4.00000000E+02  2.00000000E+01  0.00000000E+00
  4.00000000E+02  1.80000000E+01  0.00000000E+00
  4.00000000E+02  1.60000000E+01  0.00000000E+00
  4.00000000E+02  1.40000000E+01  0.00000000E+00
  4.00000000E+02  1.20000000E+01  0.00000000E+00
  4.00000000E+02  1.00000000E+01  0.00000000E+00
  4.00000000E+02  8.00000000E+00  0.00000000E+00
  4.00000000E+02  6.00000000E+00  0.00000000E+00
  4.00000000E+02  4.00000000E+00  0.00000000E+00
  4.00000000E+02  2.00000000E+00  0.00000000E+00
  4.00000000E+02 -3.33066907E-14  0.00000000E+00
  4.10000000E+02  1.00000000E+02  0.00000000E+00
  4.10000000E+02  9.80000000E+01  0.00000000E+00
  4.10000000E+02  9.60000000E+01  0.00000000E+00
  4.10000000E+02  9.40000000E+01  0.00000000E+00
  4.10000000E+02  9.20000000E+01  0.00000000E+00
  4.10000000E+02  9.00000000E+01  0.00000000E+00
  4.10000000E+02  8.80000000E+01  0.00000000E+00
  4.10000000E+02  8.60000000E+01  0.00000000E+00
  4.10000000E+02  8.40000000E+01  0.00000000E+00
  4.10000000E+02  8.20000000E+01  0.00000000E+00
  4.10000000E+02  8.00000000E+01  0.00000000E+00
  4.10000000E+02  7.80000000E+01  0.00000000E+00
  4.10000000E+02  7.60000000E+01  0.00000000E+00
  4.10000000E+02  7.40000000E+01  0.00000000E+00
  4.10000000E+02  7.20000000E+01  0.00000000E+00
  4.10000000E+02  7.00000000E+01  0.00000000E+00
  4.10000000E+02  6.80000000E+01  0.00000000E+00
  4.10000000E+02  6.60000000E+01  0.00000000E+00
  4.10000000E+02  6.40000000E+01  0.00000000E+00
  4.10000000E+02  6.20000000E+01  0.00000000E+00
  4.10000000E+02  6.00000000E+01  0.00000000E+00
  4.10000000E+02  5.80000000E+01  0.00000000E+00
  4.10000000E+02  5.60000000E+01  0.00000000E+00
  4.10000000E+02  5.40000000E+01  0.00000000E+00
  4.10000000E+02  5.20000000E+01  0.00000000E+00
  4.10000000E+02  5.00000000E+01  0.00000000E+00
  4.10000000E+02  4.80000000E+01  0.00000000E+00
  4.10000000E+02  4.60000000E+01  0.00000000E+00
  4.10000000E+02  4.40000000E+01  0.00000000E+00
  4.10000000E+02  4.20000000E+01  0.00000000E+00
  4.10000000E+02  4.00000000E+01  0.00000000E+00
  4.10000000E+02  3.80000000E+01  0.00000000E+00
  4.10000000E+02  3.60000000E+01  0.00000000E+00
  4.10000000E+02  3.40000000E+01  0.00000000E+00
  4.10000000E+02  3.20000000E+01  0.00000000E+00
  4.10000000E+02  3.00000000E+01  0.00000000E+00
  4.10000000E+02  2.80000000E+01  0.00000000E+00
  4.10000000E+02  2.60000000E+01  0.00000000E+00
  4.10000000E+02  2.40000000E+01  0.00000000E+00
  4.10000000E+02  2.20000000E+01  0.00000000E+00
  4.10000000E+02  2.00000000E+01  0.00000000E+00
  4.10000000E+02  1.80000000E+01  0.00000000E+00
  4.10000000E+02  1.60000000E+01  0.00000000E+00
  4.10000000E+02  1.40000000E+01  0.00000000E+00
  4.10000000E+02  1.20000000E+01  0.00000000E+00
  4.10000000E+02  1.00000000E+01  0.00000000E+00
  4.10000000E+02  8.00000000E+00  0.00000000E+00
  4.10000000E+02  6.00000000E+00  0.00000000E+00
  4.10000000E+02  4.00000000E+00  0.00000000E+00
  4.10000000E+02  2.00000000E+00  0.00000000E+00
  4.10000000E+02 -3.33066907E-14  0.00000000E+00
  4.20000000E+02  1.00000000E+02  0.00000000E+00
  4.20000000E+02  9.80000000E+01  0.00000000E+00
  4.20000000E+02  9.60000000E+01  0.00000000E+00
  4.20000000E+02  9.40000000E+01  0.00000000E+00
  4.20000000E+02  9.20000000E+01  0.00000000E+00
  4.20000000E+02  9.00000000E+01  0.00000000E+00
  4.20000000E+02  8.80000000E+01  0.00000000E+00
  4.20000000E+02  8.60000000E+01  0.00000000E+00
  4.20000000E+02  8.40000000E+01  0.00000000E+00
  4.20000000E+02  8.20000000E+01  0.00000000E+00
  4.20000000E+02  8.00000000E+01  0.00000000E+00
  4.20000000E+02  7.80000000E+01  0.00000000E+00
  4.20000000E+02  7.60000000E+01  0.00000000E+00
  4.20000000E+02  7.40000000E+01  0.00000000E+00
  4.20000000E+02  7.20000000E+01  0.00000000E+00
  4.20000000E+02  7.00000000E+01  0.00000000E+00
  4.20000000E+02  6.80000000E+01  0.00000000E+00
  4.20000000E+02  6.60000000E+01  0.00000000E+00
  4.20000000E+02  6.40000000E+01  0.00000000E+00
  4.20000000E+02  6.20000000E+01  0.00000000E+00
  4.20000000E+02  6.00000000E+01  0.00000000E+00
  4.20000000E+02  5.80000000E+01  0.00000000E+00
  4.20000000E+02  5.60000000E+01  0.00000000E+00
  4.20000000E+02  5.40000000E+01  0.00000000E+00
  4.20000000E+02  5.20000000E+01  0.00000000E+00
  4.20000000E+02  5.00000000E+01  0.00000000E+00
  4.20000000E+02  4.80000000E+01  0.00000000E+00
  4.20000000E+02  4.60000000E+01  0.00000000E+00
  4.20000000E+02  4.40000000E+01  0.00000000E+00
  4.20000000E+02  4.20000000E+01  0.00000000E+00
  4.20000000E+02  4.00000000E+01  0.00000000E+00
  4.20000000E+02  3.80000000E+01  0.00000000E+00
  4.20000000E+02  3.60000000E+01  0.00000000E+00
  4.20000000E+02  3.40000000E+01  0.00000000E+00
  4.20000000E+02  3.20000000E+01  0.00000000E+00
  4.20000000E+02  3.00000000E+01  0.00000000E+00
  4.20000000E+02  2.80000000E+01  0.00000000E+00
  4.20000000E+02  2.60000000E+01  0.00000000E+00
  4.20000000E+02  2.40000000E+01  0.00000000E+00
  4.20000000E+02  2.20000000E+01  0.00000000E+00
  4.20000000E+02  2.00000000E+01  0.00000000E+00
  4.20000000E+02  1.80000000E+01  0.00000000E+00
  4.20000000E+02  1.60000000E+01  0.00000000E+00
  4.20000000E+02  1.40000000E+01  0.00000000E+00
  4.20000000E+02  1.20000000E+01  0.00000000E+00
  4.20000000E+02  1.00000000E+01  0.00000000E+00
  4.20000000E+02  8.00000000E+00  0.00000000E+00
  4.20000000E+02  6.00000000E+00  0.00000000E+00
  4.20000000E+02  4.00000000E+00  0.00000000E+00
  4.20000000E+02  2.00000000E+00  0.00000000E+00
  4.20000000E+02 -3.33066907E-14  0.00000000E+00
  4.30000000E+02  1.00000000E+02  0.00000000E+00
  4.30000000E+02  9.80000000E+01  0.00000000E+00
  4.30000000E+02  9.60000000E+01  0.00000000E+00
  4.30000000E+02  9.40000000E+01  0.00000000E+00
  4.30000000E+02  9.20000000E+01  0.00000000E+00
  4.30000000E+02  9.00000000E+01  0.00000000E+00
  4.30000000E+02  8.80000000E+01  0.00000000E+00
  4.30000000E+02  8.60000000E+01  0.00000000E+00
  4.30000000E+02  8.40000000E+01  0.00000000E+00
  4.30000000E+02  8.20000000E+01  0.00000000E+00
  4.30000000E+02  8.00000000E+01  0.00000000E+00
  4.30000000E+02  7.80000000E+01  0.00000000E+00
  4.30000000E+02  7.60000000E+01  0.00000000E+00
  4.30000000E+02  7.40000000E+01  0.00000000E+00
  4.30000000E+02  7.20000000E+01  0.00000000E+00
  4.30000000E+02  7.00000000E+01  0.00000000E+00
  4.30000000E+02  6.80000000E+01  0.00000000E+00
  4.30000000E+02  6.60000000E+01  0.00000000E+00
  4.30000000E+02  6.40000000E+01  0.00000000E+00
  4.30000000E+02  6.20000000E+01  0.00000000E+00
  4.30000000E+02  6.00000000E+01  0.00000000E+00
  4.30000000E+02  5.80000000E+01  0.00000000E+00
  4.30000000E+02  5.60000000E+01  0.00000000E+00
  4.30000000E+02  5.40000000E+01  0.00000000E+00
  4.30000000E+02  5.20000000E+01  0.00000000E+00
  4.30000000E+02  5.00000000E+01  0.00000000E+00
  4.30000000E+02  4.80000000E+01  0.00000000E+00
  4.30000000E+02  4.60000000E+01  0.00000000E+00
  4.30000000E+02  4.40000000E+01  0.00000000E+00
  4.30000000E+02  4.20000000E+01  0.00000000E+00
  4.30000000E+02  4.00000000E+01  0.00000000E+00
  4.30000000E+02  3.80000000E+01  0.00000000E+00
  4.30000000E+02  3.60000000E+01  0.00000000E+00
  4.30000000E+02  3.40000000E+01  0.00000000E+00
  4.30000000E+02  3.20000000E+01  0.00000000E+00
  4.30000000E+02  3.00000000E+01  0.00000000E+00
  4.30000000E+02  2.80000000E+01  0.00000000E+00
  4.30000000E+02  2.60000000E+01  0.00000000E+00
  4.30000000E+02  2.40000000E+01  0.00000000E+00
  4.30000000E+02  2.20000000E+01  0.00000000E+00
  4.30000000E+02  2.00000000E+01  0.00000000E+00
  4.30000000E+02  1.80000000E+01  0.00000000E+00
  4.30000000E+02  1.60000000E+01  0.00000000E+00
  4.30000000E+02  1.40000000E+01  0.00000000E+00
  4.30000000E+02  1.20000000E+01  0.00000000E+00
  4.30000000E+02  1.00000000E+01  0.00000000E+00
  4.30000000E+02  8.00000000E+00  0.00000000E+00
  4.30000000E+02  6.00000000E+00  0.00000000E+00
  4.30000000E+02  4.00000000E+00  0.00000000E+00
  4.30000000E+02  2.00000000E+00  0.00000000E+00
  4.30000000E+02 -3.33066907E-14  0.00000000E+00
  4.40000000E+02  1.00000000E+02  0.00000000E+00
  4.40000000E+02  9.80000000E+01  0.00000000E+00
  4.40000000E+02  9.60000000E+01  0.00000000E+00
  4.40000000E+02  9.40000000E+01  0.00000000E+00
  4.40000000E+02  9.20000000E+01  0.00000000E+00
  4.40000000E+02  9.00000000E+01  0.00000000E+00
  4.40000000E+02  8.80000000E+01  0.00000000E+00
  4.40000000E+02  8.60000000E+01  0.00000000E+00
  4.40000000E+02  8.40000000E+01  0.00000000E+00
  4.40000000E+02  8.20000000E+01  0.00000000E+00
  4.40000000E+02  8.00000000E+01  0.00000000E+00
  4.40000000E+02  7.80000000E+01  0.00000000E+00
  4.40000000E+02  7.60000000E+01  0.00000000E+00
  4.40000000E+02  7.40000000E+01  0.00000000E+00
  4.40000000E+02  7.20000000E+01  0.00000000E+00
  4.40000000E+02  7.00000000E+01  0.00000000E+00
  4.40000000E+02  6.80000000E+01  0.00000000E+00
  4.40000000E+02  6.60000000E+01  0.00000000E+00
  4.40000000E+02  6.40000000E+01  0.00000000E+00
  4.40000000E+02  6.20000000E+01  0.00000000E+00
  4.40000000E+02  6.00000000E+01  0.00000000E+00
  4.40000000E+02  5.80000000E+01  0.00000000E+00
  4.40000000E+02  5.60000000E+01  0.00000000E+00
  4.40000000E+02  5.40000000E+01  0.00000000E+00
  4.40000000E+02  5.20000000E+01  0.00000000E+00
  4.40000000E+02  5.00000000E+01  0.00000000E+00
  4.40000000E+02  4.80000000E+01  0.00000000E+00
  4.40000000E+02  4.60000000E+01  0.00000000E+00
  4.40000000E+02  4.40000000E+01  0.00000000E+00
  4.40000000E+02  4.20000000E+01  0.00000000E+00
  4.40000000E+02  4.00000000E+01  0.00000000E+00
  4.40000000E+02  3.80000000E+01  0.00000000E+00
  4.40000000E+02  3.60000000E+01  0.00000000E+00
  4.40000000E+02  3.40000000E+01  0.00000000E+00
  4.40000000E+02  3.20000000E+01  0.00000000E+00
  4.40000000E+02  3.00000000E+01  0.00000000E+00
  4.40000000E+02  2.80000000E+01  0.00000000E+00
  4.40000000E+02  2.60000000E+01  0.00000000E+00
  4.40000000E+02  2.40000000E+01  0.00000000E+00
  4.40000000E+02  2.20000000E+01  0.00000000E+00
  4.40000000E+02  2.00000000E+01  0.00000000E+00
  4.40000000E+02  1.80000000E+01  0.00000000E+00
  4.40000000E+02  1.60000000E+01  0.00000000E+00
  4.40000000E+02  1.40000000E+01  0.00000000E+00
  4.40000000E+02  1.20000000E+01  0.00000000E+00
  4.40000000E+02  1.00000000E+01  0.00000000E+00
  4.40000000E+02  8.00000000E+00  0.00000000E+00
  4.40000000E+02  6.00000000E+00  0.00000000E+00
  4.40000000E+02  4.00000000E+00  0.00000000E+00
  4.40000000E+02  2.00000000E+00  0.00000000E+00
  4.40000000E+02 -3.33066907E-14  0.00000000E+00
  4.50000000E+02  1.00000000E+02  0.00000000E+00
  4.50000000E+02  9.80000000E+01  0.00000000E+00
  4.50000000E+02  9.60000000E+01  0.00000000E+00
  4.50000000E+02  9.40000000E+01  0.00000000E+00
  4.50000000E+02  9.20000000E+01  0.00000000E+00
  4.50000000E+02  9.00000000E+01  0.00000000E+00
  4.50000000E+02  8.80000000E+01  0.00000000E+00
  4.50000000E+02  8.60000000E+01  0.00000000E+00
  4.50000000E+02  8.40000000E+01  0.00000000E+00
  4.50000000E+02  8.20000000E+01  0.00000000E+00
  4.50000000E+02  8.00000000E+01  0.00000000E+00
  4.50000000E+02  7.80000000E+01  0.00000000E+00
  4.50000000E+02  7.60000000E+01  0.00000000E+00
  4.50000000E+02  7.40000000E+01  0.00000000E+00
  4.50000000E+02  7.20000000E+01  0.00000000E+00
  4.50000000E+02  7.00000000E+01  0.00000000E+00
  4.50000000E+02  6.80000000E+01  0.00000000E+00
  4.50000000E+02  6.60000000E+01  0.00000000E+00
  4.50000000E+02  6.40000000E+01  0.00000000E+00
  4.50000000E+02  6.20000000E+01  0.00000000E+00
  4.50000000E+02  6.00000000E+01  0.00000000E+00
  4.50000000E+02  5.80000000E+01  0.00000000E+00
  4.50000000E+02  5.60000000E+01  0.00000000E+00
  4.50000000E+02  5.40000000E+01  0.00000000E+00
  4.50000000E+02  5.20000000E+01  0.00000000E+00
  4.50000000E+02  5.00000000E+01  0.00000000E+00
  4.50000000E+02  4.80000000E+01  0.00000000E+00
  4.50000000E+02  4.60000000E+01  0.00000000E+00
  4.50000000E+02  4.40000000E+01  0.00000000E+00
  4.50000000E+02  4.20000000E+01  0.00000000E+00
  4.50000000E+02  4.00000000E+01  0.00000000E+00
  4.50000000E+02  3.80000000E+01  0.00000000E+00
  4.50000000E+02  3.60000000E+01  0.00000000E+00
  4.50000000E+02  3.40000000E+01  0.00000000E+00
  4.50000000E+02  3.20000000E+01  0.00000000E+00
  4.50000000E+02  3.00000000E+01  0.00000000E+00
  4.50000000E+02  2.80000000E+01  0.00000000E+00
  4.50000000E+02  2.60000000E+01  0.00000000E+00
  4.50000000E+02  2.40000000E+01  0.00000000E+00
  4.50000000E+02  2.20000000E+01  0.00000000E+00
  4.50000000E+02  2.00000000E+01  0.00000000E+00
  4.50000000E+02  1.80000000E+01  0.00000000E+00
  4.50000000E+02  1.60000000E+01  0.00000000E+00
  4.50000000E+02  1.40000000E+01  0.00000000E+00
  4.50000000E+02  1.20000000E+01  0.00000000E+00
  4.50000000E+02  1.00000000E+01  0.00000000E+00
  4.50000000E+02  8.00000000E+00  0.00000000E+00
  4.50000000E+02  6.00000000E+00  0.00000000E+00
  4.50000000E+02  4.00000000E+00  0.00000000E+00
  4.50000000E+02  2.00000000E+00  0.00000000E+00
  4.50000000E+02 -3.33066907E-14  0.00000000E+00
  4.60000000E+02  1.00000000E+02  0.00000000E+00
  4.60000000E+02  9.80000000E+01  0.00000000E+00
  4.60000000E+02  9.60000000E+01  0.00000000E+00
  4.60000000E+02  9.40000000E+01  0.00000000E+00
  4.60000000E+02  9.20000000E+01  0.00000000E+00
  4.60000000E+02  9.00000000E+01  0.00000000E+00
  4.60000000E+02  8.80000000E+01  0.00000000E+00
  4.60000000E+02  8.60000000E+01  0.00000000E+00
  4.60000000E+02  8.40000000E+01  0.00000000E+00
  4.60000000E+02  8.20000000E+01  0.00000000E+00
  4.60000000E+02  8.00000000E+01  0.00000000E+00
  4.60000000E+02  7.80000000E+01  0.00000000E+00
  4.60000000E+02  7.60000000E+01  0.00000000E+00
  4.60000000E+02  7.40000000E+01  0.00000000E+00
  4.60000000E+02  7.20000000E+01  0.00000000E+00
  4.60000000E+02  7.00000000E+01  0.00000000E+00
  4.60000000E+02  6.80000000E+01  0.00000000E+00
  4.60000000E+02  6.60000000E+01  0.00000000E+00
  4.60000000E+02  6.40000000E+01  0.00000000E+00
  4.60000000E+02  6.20000000E+01  0.00000000E+00
  4.60000000E+02  6.00000000E+01  0.00000000E+00
  4.60000000E+02  5.80000000E+01  0.00000000E+00
  4.60000000E+02  5.60000000E+01  0.00000000E+00
  4.60000000E+02  5.40000000E+01  0.00000000E+00
  4.60000000E+02  5.20000000E+01  0.00000000E+00
  4.60000000E+02  5.00000000E+01  0.00000000E+00
  4.60000000E+02  4.80000000E+01  0.00000000E+00
  4.60000000E+02  4.60000000E+01  0.00000000E+00
  4.60000000E+02  4.40000000E+01  0.00000000E+00
  4.60000000E+02  4.20000000E+01  0.00000000E+00
  4.60000000E+02  4.00000000E+01  0.00000000E+00
  4.60000000E+02  3.80000000E+01  0.00000000E+00
  4.60000000E+02  3.60000000E+01  0.00000000E+00
  4.60000000E+02  3.40000000E+01  0.00000000E+00
  4.60000000E+02  3.20000000E+01  0.00000000E+00
  4.60000000E+02  3.00000000E+01  0.00000000E+00
  4.60000000E+02  2.80000000E+01  0.00000000E+00
  4.60000000E+02  2.60000000E+01  0.00000000E+00
  4.60000000E+02  2.40000000E+01  0.00000000E+00
  4.60000000E+02  2.20000000E+01  0.00000000E+00
  4.60000000E+02  2.00000000E+01  0.00000000E+00
  4.60000000E+02  1.80000000E+01  0.00000000E+00
  4.60000000E+02  1.60000000E+01  0.00000000E+00
  4.60000000E+02  1.40000000E+01  0.00000000E+00
  4.60000000E+02  1.20000000E+01  0.00000000E+00
  4.60000000E+02  1.00000000E+01  0.00000000E+00
  4.60000000E+02  8.00000000E+00  0.00000000E+00
  4.60000000E+02  6.00000000E+00  0.00000000E+00
  4.60000000E+02  4.00000000E+00  0.00000000E+00
  4.60000000E+02  2.00000000E+00  0.00000000E+00
  4.60000000E+02 -3.33066907E-14  0.00000000E+00
  4.70000000E+02  1.00000000E+02  0.00000000E+00
  4.70000000E+02  9.80000000E+01  0.00000000E+00
  4.70000000E+02  9.60000000E+01  0.00000000E+00
  4.70000000E+02  9.40000000E+01  0.00000000E+00
  4.70000000E+02  9.20000000E+01  0.00000000E+00
  4.70000000E+02  9.00000000E+01  0.00000000E+00
  4.70000000E+02  8.80000000E+01  0.00000000E+00
  4.70000000E+02  8.60000000E+01  0.00000000E+00
  4.70000000E+02  8.40000000E+01  0.00000000E+00
  4.70000000E+02  8.20000000E+01  0.00000000E+00
  4.70000000E+02  8.00000000E+01  0.00000000E+00
  4.70000000E+02  7.80000000E+01  0.00000000E+00
  4.70000000E+02  7.60000000E+01  0.00000000E+00
  4.70000000E+02  7.40000000E+01  0.00000000E+00
  4.70000000E+02  7.20000000E+01  0.00000000E+00
  4.70000000E+02  7.00000000E+01  0.00000000E+00
  4.70000000E+02  6.80000000E+01  0.00000000E+00
  4.70000000E+02  6.60000000E+01  0.00000000E+00
  4.70000000E+02  6.40000000E+01  0.00000000E+00
  4.70000000E+02  6.20000000E+01  0.00000000E+00
  4.70000000E+02  6.00000000E+01  0.00000000E+00
  4.70000000E+02  5.80000000E+01  0.00000000E+00
  4.70000000E+02  5.60000000E+01  0.00000000E+00
  4.70000000E+02  5.40000000E+01  0.00000000E+00
  4.70000000E+02  5.20000000E+01  0.00000000E+00
  4.70000000E+02  5.00000000E+01  0.00000000E+00
  4.70000000E+02  4.80000000E+01  0.00000000E+00
  4.70000000E+02  4.60000000E+01  0.00000000E+00
  4.70000000E+02  4.40000000E+01  0.00000000E+00
  4.70000000E+02  4.20000000E+01  0.00000000E+00
  4.70000000E+02  4.00000000E+01  0.00000000E+00
  4.70000000E+02  3.80000000E+01  0.00000000E+00
  4.70000000E+02  3.60000000E+01  0.00000000E+00
  4.70000000E+02  3.40000000E+01  0.00000000E+00
  4.70000000E+02  3.20000000E+01  0.00000000E+00
  4.70000000E+02  3.00000000E+01  0.00000000E+00
  4.70000000E+02  2.80000000E+01  0.00000000E+00
  4.70000000E+02  2.60000000E+01  0.00000000E+00
  4.70000000E+02  2.40000000E+01  0.00000000E+00
  4.70000000E+02  2.20000000E+01  0.00000000E+00
  4.70000000E+02  2.00000000E+01  0.00000000E+00
  4.70000000E+02  1.80000000E+01  0.00000000E+00
  4.70000000E+02  1.60000000E+01  0.00000000E+00
  4.70000000E+02  1.40000000E+01  0.00000000E+00
  4.70000000E+02  1.20000000E+01  0.00000000E+00
  4.70000000E+02  1.00000000E+01  0.00000000E+00
  4.70000000E+02  8.00000000E+00  0.00000000E+00
  4.70000000E+02  6.00000000E+00  0.00000000E+00
  4.70000000E+02  4.00000000E+00  0.00000000E+00
  4.70000000E+02  2.00000000E+00  0.00000000E+00
  4.70000000E+02 -3.33066907E-14  0.00000000E+00
  4.80000000E+02  1.00000000E+02  0.00000000E+00
  4.80000000E+02  9.80000000E+01  0.00000000E+00
  4.80000000E+02  9.60000000E+01  0.00000000E+00
  4.80000000E+02  9.40000000E+01  0.00000000E+00
  4.80000000E+02  9.20000000E+01  0.00000000E+00
  4.80000000E+02  9.00000000E+01  0.00000000E+00
  4.80000000E+02  8.80000000E+01  0.00000000E+00
  4.80000000E+02  8.60000000E+01  0.00000000E+00
  4.80000000E+02  8.40000000E+01  0.00000000E+00
  4.80000000E+02  8.20000000E+01  0.00000000E+00
  4.80000000E+02  8.00000000E+01  0.00000000E+00
  4.80000000E+02  7.80000000E+01  0.00000000E+00
  4.80000000E+02  7.60000000E+01  0.00000000E+00
  4.80000000E+02  7.40000000E+01  0.00000000E+00
  4.80000000E+02  7.20000000E+01  0.00000000E+00
  4.80000000E+02  7.00000000E+01  0.00000000E+00
  4.80000000E+02  6.80000000E+01  0.00000000E+00
  4.80000000E+02  6.60000000E+01  0.00000000E+00
  4.80000000E+02  6.40000000E+01  0.00000000E+00
  4.80000000E+02  6.20000000E+01  0.00000000E+00
  4.80000000E+02  6.00000000E+01  0.00000000E+00
  4.80000000E+02  5.80000000E+01  0.00000000E+00
  4.80000000E+02  5.60000000E+01  0.00000000E+00
  4.80000000E+02  5.40000000E+01  0.00000000E+00
  4.80000000E+02  5.20000000E+01  0.00000000E+00
  4.80000000E+02  5.00000000E+01  0.00000000E+00
  4.80000000E+02  4.80000000E+01  0.00000000E+00
  4.80000000E+02  4.60000000E+01  0.00000000E+00
  4.80000000E+02  4.40000000E+01  0.00000000E+00
  4.80000000E+02  4.20000000E+01  0.00000000E+00
  4.80000000E+02  4.00000000E+01  0.00000000E+00
  4.80000000E+02  3.80000000E+01  0.00000000E+00
  4.80000000E+02  3.60000000E+01  0.00000000E+00
  4.80000000E+02  3.40000000E+01  0.00000000E+00
  4.80000000E+02  3.20000000E+01  0.00000000E+00
  4.80000000E+02  3.00000000E+01  0.00000000E+00
  4.80000000E+02  2.80000000E+01  0.00000000E+00
  4.80000000E+02  2.60000000E+01  0.00000000E+00
  4.80000000E+02  2.40000000E+01  0.00000000E+00
  4.80000000E+02  2.20000000E+01  0.00000000E+00
  4.80000000E+02  2.00000000E+01  0.00000000E+00
  4.80000000E+02  1.80000000E+01  0.00000000E+00
  4.80000000E+02  1.60000000E+01  0.00000000E+00
  4.80000000E+02  1.40000000E+01  0.00000000E+00
  4.80000000E+02  1.20000000E+01  0.00000000E+00
  4.80000000E+02  1.00000000E+01  0.00000000E+00
  4.80000000E+02  8.00000000E+00  0.00000000E+00
  4.80000000E+02  6.00000000E+00  0.00000000E+00
  4.80000000E+02  4.00000000E+00  0.00000000E+00
  4.80000000E+02  2.00000000E+00  0.00000000E+00
  4.80000000E+02 -3.33066907E-14  0.00000000E+00
  4.90000000E+02  1.00000000E+02  0.00000000E+00
  4.90000000E+02  9.80000000E+01  0.00000000E+00
  4.90000000E+02  9.60000000E+01  0.00000000E+00
  4.90000000E+02  9.40000000E+01  0.00000000E+00
  4.90000000E+02  9.20000000E+01  0.00000000E+00
  4.90000000E+02  9.00000000E+01  0.00000000E+00
  4.90000000E+02  8.80000000E+01  0.00000000E+00
  4.90000000E+02  8.60000000E+01  0.00000000E+00
  4.90000000E+02  8.40000000E+01  0.00000000E+00
  4.90000000E+02  8.20000000E+01  0.00000000E+00
  4.90000000E+02  8.00000000E+01  0.00000000E+00
  4.90000000E+02  7.80000000E+01  0.00000000E+00
  4.90000000E+02  7.60000000E+01  0.00000000E+00
  4.90000000E+02  7.40000000E+01  0.00000000E+00
  4.90000000E+02  7.20000000E+01  0.00000000E+00
  4.90000000E+02  7.00000000E+01  0.00000000E+00
  4.90000000E+02  6.80000000E+01  0.00000000E+00
  4.90000000E+02  6.60000000E+01  0.00000000E+00
  4.90000000E+02  6.40000000E+01  0.00000000E+00
  4.90000000E+02  6.20000000E+01  0.00000000E+00
  4.90000000E+02  6.00000000E+01  0.00000000E+00
  4.90000000E+02  5.80000000E+01  0.00000000E+00
  4.90000000E+02  5.60000000E+01  0.00000000E+00
  4.90000000E+02  5.40000000E+01  0.00000000E+00
  4.90000000E+02  5.20000000E+01  0.00000000E+00
  4.90000000E+02  5.00000000E+01  0.00000000E+00
  4.90000000E+02  4.80000000E+01  0.00000000E+00
  4.90000000E+02  4.60000000E+01  0.00000000E+00
  4.90000000E+02  4.40000000E+01  0.00000000E+00
  4.90000000E+02  4.20000000E+01  0.00000000E+00
  4.90000000E+02  4.00000000E+01  0.00000000E+00
  4.90000000E+02  3.80000000E+01  0.00000000E+00
  4.90000000E+02  3.60000000E+01  0.00000000E+00
  4.90000000E+02  3.40000000E+01  0.00000000E+00
  4.90000000E+02  3.20000000E+01  0.00000000E+00
  4.90000000E+02  3.00000000E+01  0.00000000E+00
  4.90000000E+02  2.80000000E+01  0.00000000E+00
  4.90000000E+02  2.60000000E+01  0.00000000E+00
  4.90000000E+02  2.40000000E+01  0.00000000E+00
  4.90000000E+02  2.20000000E+01  0.00000000E+00
  4.90000000E+02  2.00000000E+01  0.00000000E+00
  4.90000000E+02  1.80000000E+01  0.00000000E+00
  4.90000000E+02  1.60000000E+01  0.00000000E+00
  4.90000000E+02  1.40000000E+01  0.00000000E+00
  4.90000000E+02  1.20000000E+01  0.00000000E+00
  4.90000000E+02  1.00000000E+01  0.00000000E+00
  4.90000000E+02  8.00000000E+00  0.00000000E+00
  4.90000000E+02  6.00000000E+00  0.00000000E+00
  4.90000000E+02  4.00000000E+00  0.00000000E+00
  4.90000000E+02  2.00000000E+00  0.00000000E+00
  4.90000000E+02 -3.33066907E-14  0.00000000E+00
  5.00000000E+02  1.00000000E+02  0.00000000E+00
  5.00000000E+02  9.80000000E+01  0.00000000E+00
  5.00000000E+02  9.60000000E+01  0.00000000E+00
  5.00000000E+02  9.40000000E+01  0.00000000E+00
  5.00000000E+02  9.20000000E+01  0.00000000E+00
  5.00000000E+02  9.00000000E+01  0.00000000E+00
  5.00000000E+02  8.80000000E+01  0.00000000E+00
  5.00000000E+02  8.60000000E+01  0.00000000E+00
  5.00000000E+02  8.40000000E+01  0.00000000E+00
  5.00000000E+02  8.20000000E+01  0.00000000E+00
  5.00000000E+02  8.00000000E+01  0.00000000E+00
  5.00000000E+02  7.80000000E+01  0.00000000E+00
  5.00000000E+02  7.60000000E+01  0.00000000E+00
  5.00000000E+02  7.40000000E+01  0.00000000E+00
  5.00000000E+02  7.20000000E+01  0.00000000E+00
  5.00000000E+02  7.00000000E+01  0.00000000E+00
  5.00000000E+02  6.80000000E+01  0.00000000E+00
  5.00000000E+02  6.60000000E+01  0.00000000E+00
  5.00000000E+02  6.40000000E+01  0.00000000E+00
  5.00000000E+02  6.20000000E+01  0.00000000E+00
  5.00000000E+02  6.00000000E+01  0.00000000E+00
  5.00000000E+02  5.80000000E+01  0.00000000E+00
  5.00000000E+02  5.60000000E+01  0.00000000E+00
  5.00000000E+02  5.40000000E+01  0.00000000E+00
  5.00000000E+02  5.20000000E+01  0.00000000E+00
  5.00000000E+02  5.00000000E+01  0.00000000E+00
  5.00000000E+02  4.80000000E+01  0.00000000E+00
  5.00000000E+02  4.60000000E+01  0.00000000E+00
  5.00000000E+02  4.40000000E+01  0.00000000E+00
  5.00000000E+02  4.20000000E+01  0.00000000E+00
  5.00000000E+02  4.00000000E+01  0.00000000E+00
  5.00000000E+02  3.80000000E+01  0.00000000E+00
  5.00000000E+02  3.60000000E+01  0.00000000E+00
  5.00000000E+02  3.40000000E+01  0.00000000E+00
  5.00000000E+02  3.20000000E+01  0.00000000E+00
  5.00000000E+02  3.00000000E+01  0.00000000E+00
  5.00000000E+02  2.80000000E+01  0.00000000E+00
  5.00000000E+02  2.60000000E+01  0.00000000E+00
  5.00000000E+02  2.40000000E+01  0.00000000E+00
  5.00000000E+02  2.20000000E+01  0.00000000E+00
  5.00000000E+02  2.00000000E+01  0.00000000E+00
  5.00000000E+02  1.80000000E+01  0.00000000E+00
  5.00000000E+02  1.60000000E+01  0.00000000E+00
  5.00000000E+02  1.40000000E+01  0.00000000E+00
  5.00000000E+02  1.20000000E+01  0.00000000E+00
  5.00000000E+02  1.00000000E+01  0.00000000E+00
  5.00000000E+02  8.00000000E+00  0.00000000E+00
  5.00000000E+02  6.00000000E+00  0.00000000E+00
  5.00000000E+02  4.00000000E+00  0.00000000E+00
  5.00000000E+02  2.00000000E+00  0.00000000E+00
  5.00000000E+02 -3.33066907E-14  0.00000000E+00
  5.10000000E+02  1.00000000E+02  0.00000000E+00
  5.10000000E+02  9.80000000E+01  0.00000000E+00
  5.10000000E+02  9.60000000E+01  0.00000000E+00
  5.10000000E+02  9.40000000E+01  0.00000000E+00
  5.10000000E+02  9.20000000E+01  0.00000000E+00
  5.10000000E+02  9.00000000E+01  0.00000000E+00
  5.10000000E+02  8.80000000E+01  0.00000000E+00
  5.10000000E+02  8.60000000E+01  0.00000000E+00
  5.10000000E+02  8.40000000E+01  0.00000000E+00
  5.10000000E+02  8.20000000E+01  0.00000000E+00
  5.10000000E+02  8.00000000E+01  0.00000000E+00
  5.10000000E+02  7.80000000E+01  0.00000000E+00
  5.10000000E+02  7.60000000E+01  0.00000000E+00
  5.10000000E+02  7.40000000E+01  0.00000000E+00
  5.10000000E+02  7.20000000E+01  0.00000000E+00
  5.10000000E+02  7.00000000E+01  0.00000000E+00
  5.10000000E+02  6.80000000E+01  0.00000000E+00
  5.10000000E+02  6.60000000E+01  0.00000000E+00
  5.10000000E+02  6.40000000E+01  0.00000000E+00
  5.10000000E+02  6.20000000E+01  0.00000000E+00
  5.10000000E+02  6.00000000E+01  0.00000000E+00
  5.10000000E+02  5.80000000E+01  0.00000000E+00
  5.10000000E+02  5.60000000E+01  0.00000000E+00
  5.10000000E+02  5.40000000E+01  0.00000000E+00
  5.10000000E+02  5.20000000E+01  0.00000000E+00
  5.10000000E+02  5.00000000E+01  0.00000000E+00
  5.10000000E+02  4.80000000E+01  0.00000000E+00
  5.10000000E+02  4.60000000E+01  0.00000000E+00
  5.10000000E+02  4.40000000E+01  0.00000000E+00
  5.10000000E+02  4.20000000E+01  0.00000000E+00
  5.10000000E+02  4.00000000E+01  0.00000000E+00
  5.10000000E+02  3.80000000E+01  0.00000000E+00
  5.10000000E+02  3.60000000E+01  0.00000000E+00
  5.10000000E+02  3.40000000E+01  0.00000000E+00
  5.10000000E+02  3.20000000E+01  0.00000000E+00
  5.10000000E+02  3.00000000E+01  0.00000000E+00
  5.10000000E+02  2.80000000E+01  0.00000000E+00
  5.10000000E+02  2.60000000E+01  0.00000000E+00
  5.10000000E+02  2.40000000E+01  0.00000000E+00
  5.10000000E+02  2.20000000E+01  0.00000000E+00
  5.10000000E+02  2.00000000E+01  0.00000000E+00
  5.10000000E+02  1.80000000E+01  0.00000000E+00
  5.10000000E+02  1.60000000E+01  0.00000000E+00
  5.10000000E+02  1.40000000E+01  0.00000000E+00
  5.10000000E+02  1.20000000E+01  0.00000000E+00
  5.10000000E+02  1.00000000E+01  0.00000000E+00
  5.10000000E+02  8.00000000E+00  0.00000000E+00
  5.10000000E+02  6.00000000E+00  0.00000000E+00
  5.10000000E+02  4.00000000E+00  0.00000000E+00
  5.10000000E+02  2.00000000E+00  0.00000000E+00
  5.10000000E+02 -3.33066907E-14  0.00000000E+00
  5.20000000E+02  1.00000000E+02  0.00000000E+00
  5.20000000E+02  9.80000000E+01  0.00000000E+00
  5.20000000E+02  9.60000000E+01  0.00000000E+00
  5.20000000E+02  9.40000000E+01  0.00000000E+00
  5.20000000E+02  9.20000000E+01  0.00000000E+00
  5.20000000E+02  9.00000000E+01  0.00000000E+00
  5.20000000E+02  8.80000000E+01  0.00000000E+00
  5.20000000E+02  8.60000000E+01  0.00000000E+00
  5.20000000E+02  8.40000000E+01  0.00000000E+00
  5.20000000E+02  8.20000000E+01  0.00000000E+00
  5.20000000E+02  8.00000000E+01  0.00000000E+00
  5.20000000E+02  7.80000000E+01  0.00000000E+00
  5.20000000E+02  7.60000000E+01  0.00000000E+00
  5.20000000E+02  7.40000000E+01  0.00000000E+00
  5.20000000E+02  7.20000000E+01  0.00000000E+00
  5.20000000E+02  7.00000000E+01  0.00000000E+00
  5.20000000E+02  6.80000000E+01  0.00000000E+00
  5.20000000E+02  6.60000000E+01  0.00000000E+00
  5.20000000E+02  6.40000000E+01  0.00000000E+00
  5.20000000E+02  6.20000000E+01  0.00000000E+00
  5.20000000E+02  6.00000000E+01  0.00000000E+00
  5.20000000E+02  5.80000000E+01  0.00000000E+00
  5.20000000E+02  5.60000000E+01  0.00000000E+00
  5.20000000E+02  5.40000000E+01  0.00000000E+00
  5.20000000E+02  5.20000000E+01  0.00000000E+00
  5.20000000E+02  5.00000000E+01  0.00000000E+00
  5.20000000E+02  4.80000000E+01  0.00000000E+00
  5.20000000E+02  4.60000000E+01  0.00000000E+00
  5.20000000E+02  4.40000000E+01  0.00000000E+00
  5.20000000E+02  4.20000000E+01  0.00000000E+00
  5.20000000E+02  4.00000000E+01  0.00000000E+00
  5.20000000E+02  3.80000000E+01  0.00000000E+00
  5.20000000E+02  3.60000000E+01  0.00000000E+00
  5.20000000E+02  3.40000000E+01  0.00000000E+00
  5.20000000E+02  3.20000000E+01  0.00000000E+00
  5.20000000E+02  3.00000000E+01  0.00000000E+00
  5.20000000E+02  2.80000000E+01  0.00000000E+00
  5.20000000E+02  2.60000000E+01  0.00000000E+00
  5.20000000E+02  2.40000000E+01  0.00000000E+00
  5.20000000E+02  2.20000000E+01  0.00000000E+00
  5.20000000E+02  2.00000000E+01  0.00000000E+00
  5.20000000E+02  1.80000000E+01  0.00000000E+00
  5.20000000E+02  1.60000000E+01  0.00000000E+00
  5.20000000E+02  1.40000000E+01  0.00000000E+00
  5.20000000E+02  1.20000000E+01  0.00000000E+00
  5.20000000E+02  1.00000000E+01  0.00000000E+00
  5.20000000E+02  8.00000000E+00  0.00000000E+00
  5.20000000E+02  6.00000000E+00  0.00000000E+00
  5.20000000E+02  4.00000000E+00  0.00000000E+00
  5.20000000E+02  2.00000000E+00  0.00000000E+00
  5.20000000E+02 -3.33066907E-14  0.00000000E+00
  5.30000000E+02  1.00000000E+02  0.00000000E+00
  5.30000000E+02  9.80000000E+01  0.00000000E+00
  5.30000000E+02  9.60000000E+01  0.00000000E+00
  5.30000000E+02  9.40000000E+01  0.00000000E+00
  5.30000000E+02  9.20000000E+01  0.00000000E+00
  5.30000000E+02  9.00000000E+01  0.00000000E+00
  5.30000000E+02  8.80000000E+01  0.00000000E+00
  5.30000000E+02  8.60000000E+01  0.00000000E+00
  5.30000000E+02  8.40000000E+01  0.00000000E+00
  5.30000000E+02  8.20000000E+01  0.00000000E+00
  5.30000000E+02  8.00000000E+01  0.00000000E+00
  5.30000000E+02  7.80000000E+01  0.00000000E+00
  5.30000000E+02  7.60000000E+01  0.00000000E+00
  5.30000000E+02  7.40000000E+01  0.00000000E+00
  5.30000000E+02  7.20000000E+01  0.00000000E+00
  5.30000000E+02  7.00000000E+01  0.00000000E+00
  5.30000000E+02  6.80000000E+01  0.00000000E+00
  5.30000000E+02  6.60000000E+01  0.00000000E+00
  5.30000000E+02  6.40000000E+01  0.00000000E+00
  5.30000000E+02  6.20000000E+01  0.00000000E+00
  5.30000000E+02  6.00000000E+01  0.00000000E+00
  5.30000000E+02  5.80000000E+01  0.00000000E+00
  5.30000000E+02  5.60000000E+01  0.00000000E+00
  5.30000000E+02  5.40000000E+01  0.00000000E+00
  5.30000000E+02  5.20000000E+01  0.00000000E+00
  5.30000000E+02  5.00000000E+01  0.00000000E+00
  5.30000000E+02  4.80000000E+01  0.00000000E+00
  5.30000000E+02  4.60000000E+01  0.00000000E+00
  5.30000000E+02  4.40000000E+01  0.00000000E+00
  5.30000000E+02  4.20000000E+01  0.00000000E+00
  5.30000000E+02  4.00000000E+01  0.00000000E+00
  5.30000000E+02  3.80000000E+01  0.00000000E+00
  5.30000000E+02  3.60000000E+01  0.00000000E+00
  5.30000000E+02  3.40000000E+01  0.00000000E+00
  5.30000000E+02  3.20000000E+01  0.00000000E+00
  5.30000000E+02  3.00000000E+01  0.00000000E+00
  5.30000000E+02  2.80000000E+01  0.00000000E+00
  5.30000000E+02  2.60000000E+01  0.00000000E+00
  5.30000000E+02  2.40000000E+01  0.00000000E+00
  5.30000000E+02  2.20000000E+01  0.00000000E+00
  5.30000000E+02  2.00000000E+01  0.00000000E+00
  5.30000000E+02  1.80000000E+01  0.00000000E+00
  5.30000000E+02  1.60000000E+01  0.00000000E+00
  5.30000000E+02  1.40000000E+01  0.00000000E+00
  5.30000000E+02  1.20000000E+01  0.00000000E+00
  5.30000000E+02  1.00000000E+01  0.00000000E+00
  5.30000000E+02  8.00000000E+00  0.00000000E+00
  5.30000000E+02  6.00000000E+00  0.00000000E+00
  5.30000000E+02  4.00000000E+00  0.00000000E+00
  5.30000000E+02  2.00000000E+00  0.00000000E+00
  5.30000000E+02 -3.33066907E-14  0.00000000E+00
  5.40000000E+02  1.00000000E+02  0.00000000E+00
  5.40000000E+02  9.80000000E+01  0.00000000E+00
  5.40000000E+02  9.60000000E+01  0.00000000E+00
  5.40000000E+02  9.40000000E+01  0.00000000E+00
  5.40000000E+02  9.20000000E+01  0.00000000E+00
  5.40000000E+02  9.00000000E+01  0.00000000E+00
  5.40000000E+02  8.80000000E+01  0.00000000E+00
  5.40000000E+02  8.60000000E+01  0.00000000E+00
  5.40000000E+02  8.40000000E+01  0.00000000E+00
  5.40000000E+02  8.20000000E+01  0.00000000E+00
  5.40000000E+02  8.00000000E+01  0.00000000E+00
  5.40000000E+02  7.80000000E+01  0.00000000E+00
  5.40000000E+02  7.60000000E+01  0.00000000E+00
  5.40000000E+02  7.40000000E+01  0.00000000E+00
  5.40000000E+02  7.20000000E+01  0.00000000E+00
  5.40000000E+02  7.00000000E+01  0.00000000E+00
  5.40000000E+02  6.80000000E+01  0.00000000E+00
  5.40000000E+02  6.60000000E+01  0.00000000E+00
  5.40000000E+02  6.40000000E+01  0.00000000E+00
  5.40000000E+02  6.20000000E+01  0.00000000E+00
  5.40000000E+02  6.00000000E+01  0.00000000E+00
  5.40000000E+02  5.80000000E+01  0.00000000E+00
  5.40000000E+02  5.60000000E+01  0.00000000E+00
  5.40000000E+02  5.40000000E+01  0.00000000E+00
  5.40000000E+02  5.20000000E+01  0.00000000E+00
  5.40000000E+02  5.00000000E+01  0.00000000E+00
  5.40000000E+02  4.80000000E+01  0.00000000E+00
  5.40000000E+02  4.60000000E+01  0.00000000E+00
  5.40000000E+02  4.40000000E+01  0.00000000E+00
  5.40000000E+02  4.20000000E+01  0.00000000E+00
  5.40000000E+02  4.00000000E+01  0.00000000E+00
  5.40000000E+02  3.80000000E+01  0.00000000E+00
  5.40000000E+02  3.60000000E+01  0.00000000E+00
  5.40000000E+02  3.40000000E+01  0.00000000E+00
  5.40000000E+02  3.20000000E+01  0.00000000E+00
  5.40000000E+02  3.00000000E+01  0.00000000E+00
  5.40000000E+02  2.80000000E+01  0.00000000E+00
  5.40000000E+02  2.60000000E+01  0.00000000E+00
  5.40000000E+02  2.40000000E+01  0.00000000E+00
  5.40000000E+02  2.20000000E+01  0.00000000E+00
  5.40000000E+02  2.00000000E+01  0.00000000E+00
  5.40000000E+02  1.80000000E+01  0.00000000E+00
  5.40000000E+02  1.60000000E+01  0.00000000E+00
  5.40000000E+02  1.40000000E+01  0.00000000E+00
  5.40000000E+02  1.20000000E+01  0.00000000E+00
  5.40000000E+02  1.00000000E+01  0.00000000E+00
  5.40000000E+02  8.00000000E+00  0.00000000E+00
  5.40000000E+02  6.00000000E+00  0.00000000E+00
  5.40000000E+02  4.00000000E+00  0.00000000E+00
  5.40000000E+02  2.00000000E+00  0.00000000E+00
  5.40000000E+02 -3.33066907E-14  0.00000000E+00
  5.50000000E+02  1.00000000E+02  0.00000000E+00
  5.50000000E+02  9.80000000E+01  0.00000000E+00
  5.50000000E+02  9.60000000E+01  0.00000000E+00
  5.50000000E+02  9.40000000E+01  0.00000000E+00
  5.50000000E+02  9.20000000E+01  0.00000000E+00
  5.50000000E+02  9.00000000E+01  0.00000000E+00
  5.50000000E+02  8.80000000E+01  0.00000000E+00
  5.50000000E+02  8.60000000E+01  0.00000000E+00
  5.50000000E+02  8.40000000E+01  0.00000000E+00
  5.50000000E+02  8.20000000E+01  0.00000000E+00
  5.50000000E+02  8.00000000E+01  0.00000000E+00
  5.50000000E+02  7.80000000E+01  0.00000000E+00
  5.50000000E+02  7.60000000E+01  0.00000000E+00
  5.50000000E+02  7.40000000E+01  0.00000000E+00
  5.50000000E+02  7.20000000E+01  0.00000000E+00
  5.50000000E+02  7.00000000E+01  0.00000000E+00
  5.50000000E+02  6.80000000E+01  0.00000000E+00
  5.50000000E+02  6.60000000E+01  0.00000000E+00
  5.50000000E+02  6.40000000E+01  0.00000000E+00
  5.50000000E+02  6.20000000E+01  0.00000000E+00
  5.50000000E+02  6.00000000E+01  0.00000000E+00
  5.50000000E+02  5.80000000E+01  0.00000000E+00
  5.50000000E+02  5.60000000E+01  0.00000000E+00
  5.50000000E+02  5.40000000E+01  0.00000000E+00
  5.50000000E+02  5.20000000E+01  0.00000000E+00
  5.50000000E+02  5.00000000E+01  0.00000000E+00
  5.50000000E+02  4.80000000E+01  0.00000000E+00
  5.50000000E+02  4.60000000E+01  0.00000000E+00
  5.50000000E+02  4.40000000E+01  0.00000000E+00
  5.50000000E+02  4.20000000E+01  0.00000000E+00
  5.50000000E+02  4.00000000E+01  0.00000000E+00
  5.50000000E+02  3.80000000E+01  0.00000000E+00
  5.50000000E+02  3.60000000E+01  0.00000000E+00
  5.50000000E+02  3.40000000E+01  0.00000000E+00
  5.50000000E+02  3.20000000E+01  0.00000000E+00
  5.50000000E+02  3.00000000E+01  0.00000000E+00
  5.50000000E+02  2.80000000E+01  0.00000000E+00
  5.50000000E+02  2.60000000E+01  0.00000000E+00
  5.50000000E+02  2.40000000E+01  0.00000000E+00
  5.50000000E+02  2.20000000E+01  0.00000000E+00
  5.50000000E+02  2.00000000E+01  0.00000000E+00
  5.50000000E+02  1.80000000E+01  0.00000000E+00
  5.50000000E+02  1.60000000E+01  0.00000000E+00
  5.50000000E+02  1.40000000E+01  0.00000000E+00
  5.50000000E+02  1.20000000E+01  0.00000000E+00
  5.50000000E+02  1.00000000E+01  0.00000000E+00
  5.50000000E+02  8.00000000E+00  0.00000000E+00
  5.50000000E+02  6.00000000E+00  0.00000000E+00
  5.50000000E+02  4.00000000E+00  0.00000000E+00
  5.50000000E+02  2.00000000E+00  0.00000000E+00
  5.50000000E+02 -3.33066907E-14  0.00000000E+00
  5.60000000E+02  1.00000000E+02  0.00000000E+00
  5.60000000E+02  9.80000000E+01  0.00000000E+00
  5.60000000E+02  9.60000000E+01  0.00000000E+00
  5.60000000E+02  9.40000000E+01  0.00000000E+00
  5.60000000E+02  9.20000000E+01  0.00000000E+00
  5.60000000E+02  9.00000000E+01  0.00000000E+00
  5.60000000E+02  8.80000000E+01  0.00000000E+00
  5.60000000E+02  8.60000000E+01  0.00000000E+00
  5.60000000E+02  8.40000000E+01  0.00000000E+00
  5.60000000E+02  8.20000000E+01  0.00000000E+00
  5.60000000E+02  8.00000000E+01  0.00000000E+00
  5.60000000E+02  7.80000000E+01  0.00000000E+00
  5.60000000E+02  7.60000000E+01  0.00000000E+00
  5.60000000E+02  7.40000000E+01  0.00000000E+00
  5.60000000E+02  7.20000000E+01  0.00000000E+00
  5.60000000E+02  7.00000000E+01  0.00000000E+00
  5.60000000E+02  6.80000000E+01  0.00000000E+00
  5.60000000E+02  6.60000000E+01  0.00000000E+00
  5.60000000E+02  6.40000000E+01  0.00000000E+00
  5.60000000E+02  6.20000000E+01  0.00000000E+00
  5.60000000E+02  6.00000000E+01  0.00000000E+00
  5.60000000E+02  5.80000000E+01  0.00000000E+00
  5.60000000E+02  5.60000000E+01  0.00000000E+00
  5.60000000E+02  5.40000000E+01  0.00000000E+00
  5.60000000E+02  5.20000000E+01  0.00000000E+00
  5.60000000E+02  5.00000000E+01  0.00000000E+00
  5.60000000E+02  4.80000000E+01  0.00000000E+00
  5.60000000E+02  4.60000000E+01  0.00000000E+00
  5.60000000E+02  4.40000000E+01  0.00000000E+00
  5.60000000E+02  4.20000000E+01  0.00000000E+00
  5.60000000E+02  4.00000000E+01  0.00000000E+00
  5.60000000E+02  3.80000000E+01  0.00000000E+00
  5.60000000E+02  3.60000000E+01  0.00000000E+00
  5.60000000E+02  3.40000000E+01  0.00000000E+00
  5.60000000E+02  3.20000000E+01  0.00000000E+00
  5.60000000E+02  3.00000000E+01  0.00000000E+00
  5.60000000E+02  2.80000000E+01  0.00000000E+00
  5.60000000E+02  2.60000000E+01  0.00000000E+00
  5.60000000E+02  2.40000000E+01  0.00000000E+00
  5.60000000E+02  2.20000000E+01  0.00000000E+00
  5.60000000E+02  2.00000000E+01  0.00000000E+00
  5.60000000E+02  1.80000000E+01  0.00000000E+00
  5.60000000E+02  1.60000000E+01  0.00000000E+00
  5.60000000E+02  1.40000000E+01  0.00000000E+00
  5.60000000E+02  1.20000000E+01  0.00000000E+00
  5.60000000E+02  1.00000000E+01  0.00000000E+00
  5.60000000E+02  8.00000000E+00  0.00000000E+00
  5.60000000E+02  6.00000000E+00  0.00000000E+00
  5.60000000E+02  4.00000000E+00  0.00000000E+00
  5.60000000E+02  2.00000000E+00  0.00000000E+00
  5.60000000E+02 -3.33066907E-14  0.00000000E+00
  5.70000000E+02  1.00000000E+02  0.00000000E+00
  5.70000000E+02  9.80000000E+01  0.00000000E+00
  5.70000000E+02  9.60000000E+01  0.00000000E+00
  5.70000000E+02  9.40000000E+01  0.00000000E+00
  5.70000000E+02  9.20000000E+01  0.00000000E+00
  5.70000000E+02  9.00000000E+01  0.00000000E+00
  5.70000000E+02  8.80000000E+01  0.00000000E+00
  5.70000000E+02  8.60000000E+01  0.00000000E+00
  5.70000000E+02  8.40000000E+01  0.00000000E+00
  5.70000000E+02  8.20000000E+01  0.00000000E+00
  5.70000000E+02  8.00000000E+01  0.00000000E+00
  5.70000000E+02  7.80000000E+01  0.00000000E+00
  5.70000000E+02  7.60000000E+01  0.00000000E+00
  5.70000000E+02  7.40000000E+01  0.00000000E+00
  5.70000000E+02  7.20000000E+01  0.00000000E+00
  5.70000000E+02  7.00000000E+01  0.00000000E+00
  5.70000000E+02  6.80000000E+01  0.00000000E+00
  5.70000000E+02  6.60000000E+01  0.00000000E+00
  5.70000000E+02  6.40000000E+01  0.00000000E+00
  5.70000000E+02  6.20000000E+01  0.00000000E+00
  5.70000000E+02  6.00000000E+01  0.00000000E+00
  5.70000000E+02  5.80000000E+01  0.00000000E+00
  5.70000000E+02  5.60000000E+01  0.00000000E+00
  5.70000000E+02  5.40000000E+01  0.00000000E+00
  5.70000000E+02  5.20000000E+01  0.00000000E+00
  5.70000000E+02  5.00000000E+01  0.00000000E+00
  5.70000000E+02  4.80000000E+01  0.00000000E+00
  5.70000000E+02  4.60000000E+01  0.00000000E+00
  5.70000000E+02  4.40000000E+01  0.00000000E+00
  5.70000000E+02  4.20000000E+01  0.00000000E+00
  5.70000000E+02  4.00000000E+01  0.00000000E+00
  5.70000000E+02  3.80000000E+01  0.00000000E+00
  5.70000000E+02  3.60000000E+01  0.00000000E+00
  5.70000000E+02  3.40000000E+01  0.00000000E+00
  5.70000000E+02  3.20000000E+01  0.00000000E+00
  5.70000000E+02  3.00000000E+01  0.00000000E+00
  5.70000000E+02  2.80000000E+01  0.00000000E+00
  5.70000000E+02  2.60000000E+01  0.00000000E+00
  5.70000000E+02  2.40000000E+01  0.00000000E+00
  5.70000000E+02  2.20000000E+01  0.00000000E+00
  5.70000000E+02  2.00000000E+01  0.00000000E+00
  5.70000000E+02  1.80000000E+01  0.00000000E+00
  5.70000000E+02  1.60000000E+01  0.00000000E+00
  5.70000000E+02  1.40000000E+01  0.00000000E+00
  5.70000000E+02  1.20000000E+01  0.00000000E+00
  5.70000000E+02  1.00000000E+01  0.00000000E+00
  5.70000000E+02  8.00000000E+00  0.00000000E+00
  5.70000000E+02  6.00000000E+00  0.00000000E+00
  5.70000000E+02  4.00000000E+00  0.00000000E+00
  5.70000000E+02  2.00000000E+00  0.00000000E+00
  5.70000000E+02 -3.33066907E-14  0.00000000E+00
  5.80000000E+02  1.00000000E+02  0.00000000E+00
  5.80000000E+02  9.80000000E+01  0.00000000E+00
  5.80000000E+02  9.60000000E+01  0.00000000E+00
  5.80000000E+02  9.40000000E+01  0.00000000E+00
  5.80000000E+02  9.20000000E+01  0.00000000E+00
  5.80000000E+02  9.00000000E+01  0.00000000E+00
  5.80000000E+02  8.80000000E+01  0.00000000E+00
  5.80000000E+02  8.60000000E+01  0.00000000E+00
  5.80000000E+02  8.40000000E+01  0.00000000E+00
  5.80000000E+02  8.20000000E+01  0.00000000E+00
  5.80000000E+02  8.00000000E+01  0.00000000E+00
  5.80000000E+02  7.80000000E+01  0.00000000E+00
  5.80000000E+02  7.60000000E+01  0.00000000E+00
  5.80000000E+02  7.40000000E+01  0.00000000E+00
  5.80000000E+02  7.20000000E+01  0.00000000E+00
  5.80000000E+02  7.00000000E+01  0.00000000E+00
  5.80000000E+02  6.80000000E+01  0.00000000E+00
  5.80000000E+02  6.60000000E+01  0.00000000E+00
  5.80000000E+02  6.40000000E+01  0.00000000E+00
  5.80000000E+02  6.20000000E+01  0.00000000E+00
  5.80000000E+02  6.00000000E+01  0.00000000E+00
  5.80000000E+02  5.80000000E+01  0.00000000E+00
  5.80000000E+02  5.60000000E+01  0.00000000E+00
  5.80000000E+02  5.40000000E+01  0.00000000E+00
  5.80000000E+02  5.20000000E+01  0.00000000E+00
  5.80000000E+02  5.00000000E+01  0.00000000E+00
  5.80000000E+02  4.80000000E+01  0.00000000E+00
  5.80000000E+02  4.60000000E+01  0.00000000E+00
  5.80000000E+02  4.40000000E+01  0.00000000E+00
  5.80000000E+02  4.20000000E+01  0.00000000E+00
  5.80000000E+02  4.00000000E+01  0.00000000E+00
  5.80000000E+02  3.80000000E+01  0.00000000E+00
  5.80000000E+02  3.60000000E+01  0.00000000E+00
  5.80000000E+02  3.40000000E+01  0.00000000E+00
  5.80000000E+02  3.20000000E+01  0.00000000E+00
  5.80000000E+02  3.00000000E+01  0.00000000E+00
  5.80000000E+02  2.80000000E+01  0.00000000E+00
  5.80000000E+02  2.60000000E+01  0.00000000E+00
  5.80000000E+02  2.40000000E+01  0.00000000E+00
  5.80000000E+02  2.20000000E+01  0.00000000E+00
  5.80000000E+02  2.00000000E+01  0.00000000E+00
  5.80000000E+02  1.80000000E+01  0.00000000E+00
  5.80000000E+02  1.60000000E+01  0.00000000E+00
  5.80000000E+02  1.40000000E+01  0.00000000E+00
  5.80000000E+02  1.20000000E+01  0.00000000E+00
  5.80000000E+02  1.00000000E+01  0.00000000E+00
  5.80000000E+02  8.00000000E+00  0.00000000E+00
  5.80000000E+02  6.00000000E+00  0.00000000E+00
  5.80000000E+02  4.00000000E+00  0.00000000E+00
  5.80000000E+02  2.00000000E+00  0.00000000E+00
  5.80000000E+02 -3.33066907E-14  0.00000000E+00
  5.90000000E+02  1.00000000E+02  0.00000000E+00
  5.90000000E+02  9.80000000E+01  0.00000000E+00
  5.90000000E+02  9.60000000E+01  0.00000000E+00
  5.90000000E+02  9.40000000E+01  0.00000000E+00
  5.90000000E+02  9.20000000E+01  0.00000000E+00
  5.90000000E+02  9.00000000E+01  0.00000000E+00
  5.90000000E+02  8.80000000E+01  0.00000000E+00
  5.90000000E+02  8.60000000E+01  0.00000000E+00
  5.90000000E+02  8.40000000E+01  0.00000000E+00
  5.90000000E+02  8.20000000E+01  0.00000000E+00
  5.90000000E+02  8.00000000E+01  0.00000000E+00
  5.90000000E+02  7.80000000E+01  0.00000000E+00
  5.90000000E+02  7.60000000E+01  0.00000000E+00
  5.90000000E+02  7.40000000E+01  0.00000000E+00
  5.90000000E+02  7.20000000E+01  0.00000000E+00
  5.90000000E+02  7.00000000E+01  0.00000000E+00
  5.90000000E+02  6.80000000E+01  0.00000000E+00
  5.90000000E+02  6.60000000E+01  0.00000000E+00
  5.90000000E+02  6.40000000E+01  0.00000000E+00
  5.90000000E+02  6.20000000E+01  0.00000000E+00
  5.90000000E+02  6.00000000E+01  0.00000000E+00
  5.90000000E+02  5.80000000E+01  0.00000000E+00
  5.90000000E+02  5.60000000E+01  0.00000000E+00
  5.90000000E+02  5.40000000E+01  0.00000000E+00
  5.90000000E+02  5.20000000E+01  0.00000000E+00
  5.90000000E+02  5.00000000E+01  0.00000000E+00
  5.90000000E+02  4.80000000E+01  0.00000000E+00
  5.90000000E+02  4.60000000E+01  0.00000000E+00
  5.90000000E+02  4.40000000E+01  0.00000000E+00
  5.90000000E+02  4.20000000E+01  0.00000000E+00
  5.90000000E+02  4.00000000E+01  0.00000000E+00
  5.90000000E+02  3.80000000E+01  0.00000000E+00
  5.90000000E+02  3.60000000E+01  0.00000000E+00
  5.90000000E+02  3.40000000E+01  0.00000000E+00
  5.90000000E+02  3.20000000E+01  0.00000000E+00
  5.90000000E+02  3.00000000E+01  0.00000000E+00
  5.90000000E+02  2.80000000E+01  0.00000000E+00
  5.90000000E+02  2.60000000E+01  0.00000000E+00
  5.90000000E+02  2.40000000E+01  0.00000000E+00
  5.90000000E+02  2.20000000E+01  0.00000000E+00
  5.90000000E+02  2.00000000E+01  0.00000000E+00
  5.90000000E+02  1.80000000E+01  0.00000000E+00
  5.90000000E+02  1.60000000E+01  0.00000000E+00
  5.90000000E+02  1.40000000E+01  0.00000000E+00
  5.90000000E+02  1.20000000E+01  0.00000000E+00
  5.90000000E+02  1.00000000E+01  0.00000000E+00
  5.90000000E+02  8.00000000E+00  0.00000000E+00
  5.90000000E+02  6.00000000E+00  0.00000000E+00
  5.90000000E+02  4.00000000E+00  0.00000000E+00
  5.90000000E+02  2.00000000E+00  0.00000000E+00
  5.90000000E+02 -3.33066907E-14  0.00000000E+00
  6.00000000E+02  1.00000000E+02  0.00000000E+00
  6.00000000E+02  9.80000000E+01  0.00000000E+00
  6.00000000E+02  9.60000000E+01  0.00000000E+00
  6.00000000E+02  9.40000000E+01  0.00000000E+00
  6.00000000E+02  9.20000000E+01  0.00000000E+00
  6.00000000E+02  9.00000000E+01  0.00000000E+00
  6.00000000E+02  8.80000000E+01  0.00000000E+00
  6.00000000E+02  8.60000000E+01  0.00000000E+00
  6.00000000E+02  8.40000000E+01  0.00000000E+00
  6.00000000E+02  8.20000000E+01  0.00000000E+00
  6.00000000E+02  8.00000000E+01  0.00000000E+00
  6.00000000E+02  7.80000000E+01  0.00000000E+00
  6.00000000E+02  7.60000000E+01  0.00000000E+00
  6.00000000E+02  7.40000000E+01  0.00000000E+00
  6.00000000E+02  7.20000000E+01  0.00000000E+00
  6.00000000E+02  7.00000000E+01  0.00000000E+00
  6.00000000E+02  6.80000000E+01  0.00000000E+00
  6.00000000E+02  6.60000000E+01  0.00000000E+00
  6.00000000E+02  6.40000000E+01  0.00000000E+00
  6.00000000E+02  6.20000000E+01  0.00000000E+00
  6.00000000E+02  6.00000000E+01  0.00000000E+00
  6.00000000E+02  5.80000000E+01  0.00000000E+00
  6.00000000E+02  5.60000000E+01  0.00000000E+00
  6.00000000E+02  5.40000000E+01  0.00000000E+00
  6.00000000E+02  5.20000000E+01  0.00000000E+00
  6.00000000E+02  5.00000000E+01  0.00000000E+00
  6.00000000E+02  4.80000000E+01  0.00000000E+00
  6.00000000E+02  4.60000000E+01  0.00000000E+00
  6.00000000E+02  4.40000000E+01  0.00000000E+00
  6.00000000E+02  4.20000000E+01  0.00000000E+00
  6.00000000E+02  4.00000000E+01  0.00000000E+00
  6.00000000E+02  3.80000000E+01  0.00000000E+00
  6.00000000E+02  3.60000000E+01  0.00000000E+00
  6.00000000E+02  3.40000000E+01  0.00000000E+00
  6.00000000E+02  3.20000000E+01  0.00000000E+00
  6.00000000E+02  3.00000000E+01  0.00000000E+00
  6.00000000E+02  2.80000000E+01  0.00000000E+00
  6.00000000E+02  2.60000000E+01  0.00000000E+00
  6.00000000E+02  2.40000000E+01  0.00000000E+00
  6.00000000E+02  2.20000000E+01  0.00000000E+00
  6.00000000E+02  2.00000000E+01  0.00000000E+00
  6.00000000E+02  1.80000000E+01  0.00000000E+00
  6.00000000E+02  1.60000000E+01  0.00000000E+00
  6.00000000E+02  1.40000000E+01  0.00000000E+00
  6.00000000E+02  1.20000000E+01  0.00000000E+00
  6.00000000E+02  1.00000000E+01  0.00000000E+00
  6.00000000E+02  8.00000000E+00  0.00000000E+00
  6.00000000E+02  6.00000000E+00  0.00000000E+00
  6.00000000E+02  4.00000000E+00  0.00000000E+00
  6.00000000E+02  2.00000000E+00  0.00000000E+00
  6.00000000E+02 -3.33066907E-14  0.00000000E+00
  6.10000000E+02  1.00000000E+02  0.00000000E+00
  6.10000000E+02  9.80000000E+01  0.00000000E+00
  6.10000000E+02  9.60000000E+01  0.00000000E+00
  6.10000000E+02  9.40000000E+01  0.00000000E+00
  6.10000000E+02  9.20000000E+01  0.00000000E+00
  6.10000000E+02  9.00000000E+01  0.00000000E+00
  6.10000000E+02  8.80000000E+01  0.00000000E+00
  6.10000000E+02  8.60000000E+01  0.00000000E+00
  6.10000000E+02  8.40000000E+01  0.00000000E+00
  6.10000000E+02  8.20000000E+01  0.00000000E+00
  6.10000000E+02  8.00000000E+01  0.00000000E+00
  6.10000000E+02  7.80000000E+01  0.00000000E+00
  6.10000000E+02  7.60000000E+01  0.00000000E+00
  6.10000000E+02  7.40000000E+01  0.00000000E+00
  6.10000000E+02  7.20000000E+01  0.00000000E+00
  6.10000000E+02  7.00000000E+01  0.00000000E+00
  6.10000000E+02  6.80000000E+01  0.00000000E+00
  6.10000000E+02  6.60000000E+01  0.00000000E+00
  6.10000000E+02  6.40000000E+01  0.00000000E+00
  6.10000000E+02  6.20000000E+01  0.00000000E+00
  6.10000000E+02  6.00000000E+01  0.00000000E+00
  6.10000000E+02  5.80000000E+01  0.00000000E+00
  6.10000000E+02  5.60000000E+01  0.00000000E+00
  6.10000000E+02  5.40000000E+01  0.00000000E+00
  6.10000000E+02  5.20000000E+01  0.00000000E+00
  6.10000000E+02  5.00000000E+01  0.00000000E+00
  6.10000000E+02  4.80000000E+01  0.00000000E+00
  6.10000000E+02  4.60000000E+01  0.00000000E+00
  6.10000000E+02  4.40000000E+01  0.00000000E+00
  6.10000000E+02  4.20000000E+01  0.00000000E+00
  6.10000000E+02  4.00000000E+01  0.00000000E+00
  6.10000000E+02  3.80000000E+01  0.00000000E+00
  6.10000000E+02  3.60000000E+01  0.00000000E+00
  6.10000000E+02  3.40000000E+01  0.00000000E+00
  6.10000000E+02  3.20000000E+01  0.00000000E+00
  6.10000000E+02  3.00000000E+01  0.00000000E+00
  6.10000000E+02  2.80000000E+01  0.00000000E+00
  6.10000000E+02  2.60000000E+01  0.00000000E+00
  6.10000000E+02  2.40000000E+01  0.00000000E+00
  6.10000000E+02  2.20000000E+01  0.00000000E+00
  6.10000000E+02  2.00000000E+01  0.00000000E+00
  6.10000000E+02  1.80000000E+01  0.00000000E+00
  6.10000000E+02  1.60000000E+01  0.00000000E+00
  6.10000000E+02  1.40000000E+01  0.00000000E+00
  6.10000000E+02  1.20000000E+01  0.00000000E+00
  6.10000000E+02  1.00000000E+01  0.00000000E+00
  6.10000000E+02  8.00000000E+00  0.00000000E+00
  6.10000000E+02  6.00000000E+00  0.00000000E+00
  6.10000000E+02  4.00000000E+00  0.00000000E+00
  6.10000000E+02  2.00000000E+00  0.00000000E+00
  6.10000000E+02 -3.33066907E-14  0.00000000E+00
  6.20000000E+02  1.00000000E+02  0.00000000E+00
  6.20000000E+02  9.80000000E+01  0.00000000E+00
  6.20000000E+02  9.60000000E+01  0.00000000E+00
  6.20000000E+02  9.40000000E+01  0.00000000E+00
  6.20000000E+02  9.20000000E+01  0.00000000E+00
  6.20000000E+02  9.00000000E+01  0.00000000E+00
  6.20000000E+02  8.80000000E+01  0.00000000E+00
  6.20000000E+02  8.60000000E+01  0.00000000E+00
  6.20000000E+02  8.40000000E+01  0.00000000E+00
  6.20000000E+02  8.20000000E+01  0.00000000E+00
  6.20000000E+02  8.00000000E+01  0.00000000E+00
  6.20000000E+02  7.80000000E+01  0.00000000E+00
  6.20000000E+02  7.60000000E+01  0.00000000E+00
  6.20000000E+02  7.40000000E+01  0.00000000E+00
  6.20000000E+02  7.20000000E+01  0.00000000E+00
  6.20000000E+02  7.00000000E+01  0.00000000E+00
  6.20000000E+02  6.80000000E+01  0.00000000E+00
  6.20000000E+02  6.60000000E+01  0.00000000E+00
  6.20000000E+02  6.40000000E+01  0.00000000E+00
  6.20000000E+02  6.20000000E+01  0.00000000E+00
  6.20000000E+02  6.00000000E+01  0.00000000E+00
  6.20000000E+02  5.80000000E+01  0.00000000E+00
  6.20000000E+02  5.60000000E+01  0.00000000E+00
  6.20000000E+02  5.40000000E+01  0.00000000E+00
  6.20000000E+02  5.20000000E+01  0.00000000E+00
  6.20000000E+02  5.00000000E+01  0.00000000E+00
  6.20000000E+02  4.80000000E+01  0.00000000E+00
  6.20000000E+02  4.60000000E+01  0.00000000E+00
  6.20000000E+02  4.40000000E+01  0.00000000E+00
  6.20000000E+02  4.20000000E+01  0.00000000E+00
  6.20000000E+02  4.00000000E+01  0.00000000E+00
  6.20000000E+02  3.80000000E+01  0.00000000E+00
  6.20000000E+02  3.60000000E+01  0.00000000E+00
  6.20000000E+02  3.40000000E+01  0.00000000E+00
  6.20000000E+02  3.20000000E+01  0.00000000E+00
  6.20000000E+02  3.00000000E+01  0.00000000E+00
  6.20000000E+02  2.80000000E+01  0.00000000E+00
  6.20000000E+02  2.60000000E+01  0.00000000E+00
  6.20000000E+02  2.40000000E+01  0.00000000E+00
  6.20000000E+02  2.20000000E+01  0.00000000E+00
  6.20000000E+02  2.00000000E+01  0.00000000E+00
  6.20000000E+02  1.80000000E+01  0.00000000E+00
  6.20000000E+02  1.60000000E+01  0.00000000E+00
  6.20000000E+02  1.40000000E+01  0.00000000E+00
  6.20000000E+02  1.20000000E+01  0.00000000E+00
  6.20000000E+02  1.00000000E+01  0.00000000E+00
  6.20000000E+02  8.00000000E+00  0.00000000E+00
  6.20000000E+02  6.00000000E+00  0.00000000E+00
  6.20000000E+02  4.00000000E+00  0.00000000E+00
  6.20000000E+02  2.00000000E+00  0.00000000E+00
  6.20000000E+02 -3.33066907E-14  0.00000000E+00
  6.30000000E+02  1.00000000E+02  0.00000000E+00
  6.30000000E+02  9.80000000E+01  0.00000000E+00
  6.30000000E+02  9.60000000E+01  0.00000000E+00
  6.30000000E+02  9.40000000E+01  0.00000000E+00
  6.30000000E+02  9.20000000E+01  0.00000000E+00
  6.30000000E+02  9.00000000E+01  0.00000000E+00
  6.30000000E+02  8.80000000E+01  0.00000000E+00
  6.30000000E+02  8.60000000E+01  0.00000000E+00
  6.30000000E+02  8.40000000E+01  0.00000000E+00
  6.30000000E+02  8.20000000E+01  0.00000000E+00
  6.30000000E+02  8.00000000E+01  0.00000000E+00
  6.30000000E+02  7.80000000E+01  0.00000000E+00
  6.30000000E+02  7.60000000E+01  0.00000000E+00
  6.30000000E+02  7.40000000E+01  0.00000000E+00
  6.30000000E+02  7.20000000E+01  0.00000000E+00
  6.30000000E+02  7.00000000E+01  0.00000000E+00
  6.30000000E+02  6.80000000E+01  0.00000000E+00
  6.30000000E+02  6.60000000E+01  0.00000000E+00
  6.30000000E+02  6.40000000E+01  0.00000000E+00
  6.30000000E+02  6.20000000E+01  0.00000000E+00
  6.30000000E+02  6.00000000E+01  0.00000000E+00
  6.30000000E+02  5.80000000E+01  0.00000000E+00
  6.30000000E+02  5.60000000E+01  0.00000000E+00
  6.30000000E+02  5.40000000E+01  0.00000000E+00
  6.30000000E+02  5.20000000E+01  0.00000000E+00
  6.30000000E+02  5.00000000E+01  0.00000000E+00
  6.30000000E+02  4.80000000E+01  0.00000000E+00
  6.30000000E+02  4.60000000E+01  0.00000000E+00
  6.30000000E+02  4.40000000E+01  0.00000000E+00
  6.30000000E+02  4.20000000E+01  0.00000000E+00
  6.30000000E+02  4.00000000E+01  0.00000000E+00
  6.30000000E+02  3.80000000E+01  0.00000000E+00
  6.30000000E+02  3.60000000E+01  0.00000000E+00
  6.30000000E+02  3.40000000E+01  0.00000000E+00
  6.30000000E+02  3.20000000E+01  0.00000000E+00
  6.30000000E+02  3.00000000E+01  0.00000000E+00
  6.30000000E+02  2.80000000E+01  0.00000000E+00
  6.30000000E+02  2.60000000E+01  0.00000000E+00
  6.30000000E+02  2.40000000E+01  0.00000000E+00
  6.30000000E+02  2.20000000E+01  0.00000000E+00
  6.30000000E+02  2.00000000E+01  0.00000000E+00
  6.30000000E+02  1.80000000E+01  0.00000000E+00
  6.30000000E+02  1.60000000E+01  0.00000000E+00
  6.30000000E+02  1.40000000E+01  0.00000000E+00
  6.30000000E+02  1.20000000E+01  0.00000000E+00
  6.30000000E+02  1.00000000E+01  0.00000000E+00
  6.30000000E+02  8.00000000E+00  0.00000000E+00
  6.30000000E+02  6.00000000E+00  0.00000000E+00
  6.30000000E+02  4.00000000E+00  0.00000000E+00
  6.30000000E+02  2.00000000E+00  0.00000000E+00
  6.30000000E+02 -3.33066907E-14  0.00000000E+00
  6.40000000E+02  1.00000000E+02  0.00000000E+00
  6.40000000E+02  9.80000000E+01  0.00000000E+00
  6.40000000E+02  9.60000000E+01  0.00000000E+00
  6.40000000E+02  9.40000000E+01  0.00000000E+00
  6.40000000E+02  9.20000000E+01  0.00000000E+00
  6.40000000E+02  9.00000000E+01  0.00000000E+00
  6.40000000E+02  8.80000000E+01  0.00000000E+00
  6.40000000E+02  8.60000000E+01  0.00000000E+00
  6.40000000E+02  8.40000000E+01  0.00000000E+00
  6.40000000E+02  8.20000000E+01  0.00000000E+00
  6.40000000E+02  8.00000000E+01  0.00000000E+00
  6.40000000E+02  7.80000000E+01  0.00000000E+00
  6.40000000E+02  7.60000000E+01  0.00000000E+00
  6.40000000E+02  7.40000000E+01  0.00000000E+00
  6.40000000E+02  7.20000000E+01  0.00000000E+00
  6.40000000E+02  7.00000000E+01  0.00000000E+00
  6.40000000E+02  6.80000000E+01  0.00000000E+00
  6.40000000E+02  6.60000000E+01  0.00000000E+00
  6.40000000E+02  6.40000000E+01  0.00000000E+00
  6.40000000E+02  6.20000000E+01  0.00000000E+00
  6.40000000E+02  6.00000000E+01  0.00000000E+00
  6.40000000E+02  5.80000000E+01  0.00000000E+00
  6.40000000E+02  5.60000000E+01  0.00000000E+00
  6.40000000E+02  5.40000000E+01  0.00000000E+00
  6.40000000E+02  5.20000000E+01  0.00000000E+00
  6.40000000E+02  5.00000000E+01  0.00000000E+00
  6.40000000E+02  4.80000000E+01  0.00000000E+00
  6.40000000E+02  4.60000000E+01  0.00000000E+00
  6.40000000E+02  4.40000000E+01  0.00000000E+00
  6.40000000E+02  4.20000000E+01  0.00000000E+00
  6.40000000E+02  4.00000000E+01  0.00000000E+00
  6.40000000E+02  3.80000000E+01  0.00000000E+00
  6.40000000E+02  3.60000000E+01  0.00000000E+00
  6.40000000E+02  3.40000000E+01  0.00000000E+00
  6.40000000E+02  3.20000000E+01  0.00000000E+00
  6.40000000E+02  3.00000000E+01  0.00000000E+00
  6.40000000E+02  2.80000000E+01  0.00000000E+00
  6.40000000E+02  2.60000000E+01  0.00000000E+00
  6.40000000E+02  2.40000000E+01  0.00000000E+00
  6.40000000E+02  2.20000000E+01  0.00000000E+00
  6.40000000E+02  2.00000000E+01  0.00000000E+00
  6.40000000E+02  1.80000000E+01  0.00000000E+00
  6.40000000E+02  1.60000000E+01  0.00000000E+00
  6.40000000E+02  1.40000000E+01  0.00000000E+00
  6.40000000E+02  1.20000000E+01  0.00000000E+00
  6.40000000E+02  1.00000000E+01  0.00000000E+00
  6.40000000E+02  8.00000000E+00  0.00000000E+00
  6.40000000E+02  6.00000000E+00  0.00000000E+00
  6.40000000E+02  4.00000000E+00  0.00000000E+00
  6.40000000E+02  2.00000000E+00  0.00000000E+00
  6.40000000E+02 -3.33066907E-14  0.00000000E+00
  6.50000000E+02  1.00000000E+02  0.00000000E+00
  6.50000000E+02  9.80000000E+01  0.00000000E+00
  6.50000000E+02  9.60000000E+01  0.00000000E+00
  6.50000000E+02  9.40000000E+01  0.00000000E+00
  6.50000000E+02  9.20000000E+01  0.00000000E+00
  6.50000000E+02  9.00000000E+01  0.00000000E+00
  6.50000000E+02  8.80000000E+01  0.00000000E+00
  6.50000000E+02  8.60000000E+01  0.00000000E+00
  6.50000000E+02  8.40000000E+01  0.00000000E+00
  6.50000000E+02  8.20000000E+01  0.00000000E+00
  6.50000000E+02  8.00000000E+01  0.00000000E+00
  6.50000000E+02  7.80000000E+01  0.00000000E+00
  6.50000000E+02  7.60000000E+01  0.00000000E+00
  6.50000000E+02  7.40000000E+01  0.00000000E+00
  6.50000000E+02  7.20000000E+01  0.00000000E+00
  6.50000000E+02  7.00000000E+01  0.00000000E+00
  6.50000000E+02  6.80000000E+01  0.00000000E+00
  6.50000000E+02  6.60000000E+01  0.00000000E+00
  6.50000000E+02  6.40000000E+01  0.00000000E+00
  6.50000000E+02  6.20000000E+01  0.00000000E+00
  6.50000000E+02  6.00000000E+01  0.00000000E+00
  6.50000000E+02  5.80000000E+01  0.00000000E+00
  6.50000000E+02  5.60000000E+01  0.00000000E+00
  6.50000000E+02  5.40000000E+01  0.00000000E+00
  6.50000000E+02  5.20000000E+01  0.00000000E+00
  6.50000000E+02  5.00000000E+01  0.00000000E+00
  6.50000000E+02  4.80000000E+01  0.00000000E+00
  6.50000000E+02  4.60000000E+01  0.00000000E+00
  6.50000000E+02  4.40000000E+01  0.00000000E+00
  6.50000000E+02  4.20000000E+01  0.00000000E+00
  6.50000000E+02  4.00000000E+01  0.00000000E+00
  6.50000000E+02  3.80000000E+01  0.00000000E+00
  6.50000000E+02  3.60000000E+01  0.00000000E+00
  6.50000000E+02  3.40000000E+01  0.00000000E+00
  6.50000000E+02  3.20000000E+01  0.00000000E+00
  6.50000000E+02  3.00000000E+01  0.00000000E+00
  6.50000000E+02  2.80000000E+01  0.00000000E+00
  6.50000000E+02  2.60000000E+01  0.00000000E+00
  6.50000000E+02  2.40000000E+01  0.00000000E+00
  6.50000000E+02  2.20000000E+01  0.00000000E+00
  6.50000000E+02  2.00000000E+01  0.00000000E+00
  6.50000000E+02  1.80000000E+01  0.00000000E+00
  6.50000000E+02  1.60000000E+01  0.00000000E+00
  6.50000000E+02  1.40000000E+01  0.00000000E+00
  6.50000000E+02  1.20000000E+01  0.00000000E+00
  6.50000000E+02  1.00000000E+01  0.00000000E+00
  6.50000000E+02  8.00000000E+00  0.00000000E+00
  6.50000000E+02  6.00000000E+00  0.00000000E+00
  6.50000000E+02  4.00000000E+00  0.00000000E+00
  6.50000000E+02  2.00000000E+00  0.00000000E+00
  6.50000000E+02 -3.33066907E-14  0.00000000E+00
  6.60000000E+02  1.00000000E+02  0.00000000E+00
  6.60000000E+02  9.80000000E+01  0.00000000E+00
  6.60000000E+02  9.60000000E+01  0.00000000E+00
  6.60000000E+02  9.40000000E+01  0.00000000E+00
  6.60000000E+02  9.20000000E+01  0.00000000E+00
  6.60000000E+02  9.00000000E+01  0.00000000E+00
  6.60000000E+02  8.80000000E+01  0.00000000E+00
  6.60000000E+02  8.60000000E+01  0.00000000E+00
  6.60000000E+02  8.40000000E+01  0.00000000E+00
  6.60000000E+02  8.20000000E+01  0.00000000E+00
  6.60000000E+02  8.00000000E+01  0.00000000E+00
  6.60000000E+02  7.80000000E+01  0.00000000E+00
  6.60000000E+02  7.60000000E+01  0.00000000E+00
  6.60000000E+02  7.40000000E+01  0.00000000E+00
  6.60000000E+02  7.20000000E+01  0.00000000E+00
  6.60000000E+02  7.00000000E+01  0.00000000E+00
  6.60000000E+02  6.80000000E+01  0.00000000E+00
  6.60000000E+02  6.60000000E+01  0.00000000E+00
  6.60000000E+02  6.40000000E+01  0.00000000E+00
  6.60000000E+02  6.20000000E+01  0.00000000E+00
  6.60000000E+02  6.00000000E+01  0.00000000E+00
  6.60000000E+02  5.80000000E+01  0.00000000E+00
  6.60000000E+02  5.60000000E+01  0.00000000E+00
  6.60000000E+02  5.40000000E+01  0.00000000E+00
  6.60000000E+02  5.20000000E+01  0.00000000E+00
  6.60000000E+02  5.00000000E+01  0.00000000E+00
  6.60000000E+02  4.80000000E+01  0.00000000E+00
  6.60000000E+02  4.60000000E+01  0.00000000E+00
  6.60000000E+02  4.40000000E+01  0.00000000E+00
  6.60000000E+02  4.20000000E+01  0.00000000E+00
  6.60000000E+02  4.00000000E+01  0.00000000E+00
  6.60000000E+02  3.80000000E+01  0.00000000E+00
  6.60000000E+02  3.60000000E+01  0.00000000E+00
  6.60000000E+02  3.40000000E+01  0.00000000E+00
  6.60000000E+02  3.20000000E+01  0.00000000E+00
  6.60000000E+02  3.00000000E+01  0.00000000E+00
  6.60000000E+02  2.80000000E+01  0.00000000E+00
  6.60000000E+02  2.60000000E+01  0.00000000E+00
  6.60000000E+02  2.40000000E+01  0.00000000E+00
  6.60000000E+02  2.20000000E+01  0.00000000E+00
  6.60000000E+02  2.00000000E+01  0.00000000E+00
  6.60000000E+02  1.80000000E+01  0.00000000E+00
  6.60000000E+02  1.60000000E+01  0.00000000E+00
  6.60000000E+02  1.40000000E+01  0.00000000E+00
  6.60000000E+02  1.20000000E+01  0.00000000E+00
  6.60000000E+02  1.00000000E+01  0.00000000E+00
  6.60000000E+02  8.00000000E+00  0.00000000E+00
  6.60000000E+02  6.00000000E+00  0.00000000E+00
  6.60000000E+02  4.00000000E+00  0.00000000E+00
  6.60000000E+02  2.00000000E+00  0.00000000E+00
  6.60000000E+02 -3.33066907E-14  0.00000000E+00
  6.70000000E+02  1.00000000E+02  0.00000000E+00
  6.70000000E+02  9.80000000E+01  0.00000000E+00
  6.70000000E+02  9.60000000E+01  0.00000000E+00
  6.70000000E+02  9.40000000E+01  0.00000000E+00
  6.70000000E+02  9.20000000E+01  0.00000000E+00
  6.70000000E+02  9.00000000E+01  0.00000000E+00
  6.70000000E+02  8.80000000E+01  0.00000000E+00
  6.70000000E+02  8.60000000E+01  0.00000000E+00
  6.70000000E+02  8.40000000E+01  0.00000000E+00
  6.70000000E+02  8.20000000E+01  0.00000000E+00
  6.70000000E+02  8.00000000E+01  0.00000000E+00
  6.70000000E+02  7.80000000E+01  0.00000000E+00
  6.70000000E+02  7.60000000E+01  0.00000000E+00
  6.70000000E+02  7.40000000E+01  0.00000000E+00
  6.70000000E+02  7.20000000E+01  0.00000000E+00
  6.70000000E+02  7.00000000E+01  0.00000000E+00
  6.70000000E+02  6.80000000E+01  0.00000000E+00
  6.70000000E+02  6.60000000E+01  0.00000000E+00
  6.70000000E+02  6.40000000E+01  0.00000000E+00
  6.70000000E+02  6.20000000E+01  0.00000000E+00
  6.70000000E+02  6.00000000E+01  0.00000000E+00
  6.70000000E+02  5.80000000E+01  0.00000000E+00
  6.70000000E+02  5.60000000E+01  0.00000000E+00
  6.70000000E+02  5.40000000E+01  0.00000000E+00
  6.70000000E+02  5.20000000E+01  0.00000000E+00
  6.70000000E+02  5.00000000E+01  0.00000000E+00
  6.70000000E+02  4.80000000E+01  0.00000000E+00
  6.70000000E+02  4.60000000E+01  0.00000000E+00
  6.70000000E+02  4.40000000E+01  0.00000000E+00
  6.70000000E+02  4.20000000E+01  0.00000000E+00
  6.70000000E+02  4.00000000E+01  0.00000000E+00
  6.70000000E+02  3.80000000E+01  0.00000000E+00
  6.70000000E+02  3.60000000E+01  0.00000000E+00
  6.70000000E+02  3.40000000E+01  0.00000000E+00
  6.70000000E+02  3.20000000E+01  0.00000000E+00
  6.70000000E+02  3.00000000E+01  0.00000000E+00
  6.70000000E+02  2.80000000E+01  0.00000000E+00
  6.70000000E+02  2.60000000E+01  0.00000000E+00
  6.70000000E+02  2.40000000E+01  0.00000000E+00
  6.70000000E+02  2.20000000E+01  0.00000000E+00
  6.70000000E+02  2.00000000E+01  0.00000000E+00
  6.70000000E+02  1.80000000E+01  0.00000000E+00
  6.70000000E+02  1.60000000E+01  0.00000000E+00
  6.70000000E+02  1.40000000E+01  0.00000000E+00
  6.70000000E+02  1.20000000E+01  0.00000000E+00
  6.70000000E+02  1.00000000E+01  0.00000000E+00
  6.70000000E+02  8.00000000E+00  0.00000000E+00
  6.70000000E+02  6.00000000E+00  0.00000000E+00
  6.70000000E+02  4.00000000E+00  0.00000000E+00
  6.70000000E+02  2.00000000E+00  0.00000000E+00
  6.70000000E+02 -3.33066907E-14  0.00000000E+00
  6.80000000E+02  1.00000000E+02  0.00000000E+00
  6.80000000E+02  9.80000000E+01  0.00000000E+00
  6.80000000E+02  9.60000000E+01  0.00000000E+00
  6.80000000E+02  9.40000000E+01  0.00000000E+00
  6.80000000E+02  9.20000000E+01  0.00000000E+00
  6.80000000E+02  9.00000000E+01  0.00000000E+00
  6.80000000E+02  8.80000000E+01  0.00000000E+00
  6.80000000E+02  8.60000000E+01  0.00000000E+00
  6.80000000E+02  8.40000000E+01  0.00000000E+00
  6.80000000E+02  8.20000000E+01  0.00000000E+00
  6.80000000E+02  8.00000000E+01  0.00000000E+00
  6.80000000E+02  7.80000000E+01  0.00000000E+00
  6.80000000E+02  7.60000000E+01  0.00000000E+00
  6.80000000E+02  7.40000000E+01  0.00000000E+00
  6.80000000E+02  7.20000000E+01  0.00000000E+00
  6.80000000E+02  7.00000000E+01  0.00000000E+00
  6.80000000E+02  6.80000000E+01  0.00000000E+00
  6.80000000E+02  6.60000000E+01  0.00000000E+00
  6.80000000E+02  6.40000000E+01  0.00000000E+00
  6.80000000E+02  6.20000000E+01  0.00000000E+00
  6.80000000E+02  6.00000000E+01  0.00000000E+00
  6.80000000E+02  5.80000000E+01  0.00000000E+00
  6.80000000E+02  5.60000000E+01  0.00000000E+00
  6.80000000E+02  5.40000000E+01  0.00000000E+00
  6.80000000E+02  5.20000000E+01  0.00000000E+00
  6.80000000E+02  5.00000000E+01  0.00000000E+00
  6.80000000E+02  4.80000000E+01  0.00000000E+00
  6.80000000E+02  4.60000000E+01  0.00000000E+00
  6.80000000E+02  4.40000000E+01  0.00000000E+00
  6.80000000E+02  4.20000000E+01  0.00000000E+00
  6.80000000E+02  4.00000000E+01  0.00000000E+00
  6.80000000E+02  3.80000000E+01  0.00000000E+00
  6.80000000E+02  3.60000000E+01  0.00000000E+00
  6.80000000E+02  3.40000000E+01  0.00000000E+00
  6.80000000E+02  3.20000000E+01  0.00000000E+00
  6.80000000E+02  3.00000000E+01  0.00000000E+00
  6.80000000E+02  2.80000000E+01  0.00000000E+00
  6.80000000E+02  2.60000000E+01  0.00000000E+00
  6.80000000E+02  2.40000000E+01  0.00000000E+00
  6.80000000E+02  2.20000000E+01  0.00000000E+00
  6.80000000E+02  2.00000000E+01  0.00000000E+00
  6.80000000E+02  1.80000000E+01  0.00000000E+00
  6.80000000E+02  1.60000000E+01  0.00000000E+00
  6.80000000E+02  1.40000000E+01  0.00000000E+00
  6.80000000E+02  1.20000000E+01  0.00000000E+00
  6.80000000E+02  1.00000000E+01  0.00000000E+00
  6.80000000E+02  8.00000000E+00  0.00000000E+00
  6.80000000E+02  6.00000000E+00  0.00000000E+00
  6.80000000E+02  4.00000000E+00  0.00000000E+00
  6.80000000E+02  2.00000000E+00  0.00000000E+00
  6.80000000E+02 -3.33066907E-14  0.00000000E+00
  6.90000000E+02  1.00000000E+02  0.00000000E+00
  6.90000000E+02  9.80000000E+01  0.00000000E+00
  6.90000000E+02  9.60000000E+01  0.00000000E+00
  6.90000000E+02  9.40000000E+01  0.00000000E+00
  6.90000000E+02  9.20000000E+01  0.00000000E+00
  6.90000000E+02  9.00000000E+01  0.00000000E+00
  6.90000000E+02  8.80000000E+01  0.00000000E+00
  6.90000000E+02  8.60000000E+01  0.00000000E+00
  6.90000000E+02  8.40000000E+01  0.00000000E+00
  6.90000000E+02  8.20000000E+01  0.00000000E+00
  6.90000000E+02  8.00000000E+01  0.00000000E+00
  6.90000000E+02  7.80000000E+01  0.00000000E+00
  6.90000000E+02  7.60000000E+01  0.00000000E+00
  6.90000000E+02  7.40000000E+01  0.00000000E+00
  6.90000000E+02  7.20000000E+01  0.00000000E+00
  6.90000000E+02  7.00000000E+01  0.00000000E+00
  6.90000000E+02  6.80000000E+01  0.00000000E+00
  6.90000000E+02  6.60000000E+01  0.00000000E+00
  6.90000000E+02  6.40000000E+01  0.00000000E+00
  6.90000000E+02  6.20000000E+01  0.00000000E+00
  6.90000000E+02  6.00000000E+01  0.00000000E+00
  6.90000000E+02  5.80000000E+01  0.00000000E+00
  6.90000000E+02  5.60000000E+01  0.00000000E+00
  6.90000000E+02  5.40000000E+01  0.00000000E+00
  6.90000000E+02  5.20000000E+01  0.00000000E+00
  6.90000000E+02  5.00000000E+01  0.00000000E+00
  6.90000000E+02  4.80000000E+01  0.00000000E+00
  6.90000000E+02  4.60000000E+01  0.00000000E+00
  6.90000000E+02  4.40000000E+01  0.00000000E+00
  6.90000000E+02  4.20000000E+01  0.00000000E+00
  6.90000000E+02  4.00000000E+01  0.00000000E+00
  6.90000000E+02  3.80000000E+01  0.00000000E+00
  6.90000000E+02  3.60000000E+01  0.00000000E+00
  6.90000000E+02  3.40000000E+01  0.00000000E+00
  6.90000000E+02  3.20000000E+01  0.00000000E+00
  6.90000000E+02  3.00000000E+01  0.00000000E+00
  6.90000000E+02  2.80000000E+01  0.00000000E+00
  6.90000000E+02  2.60000000E+01  0.00000000E+00
  6.90000000E+02  2.40000000E+01  0.00000000E+00
  6.90000000E+02  2.20000000E+01  0.00000000E+00
  6.90000000E+02  2.00000000E+01  0.00000000E+00
  6.90000000E+02  1.80000000E+01  0.00000000E+00
  6.90000000E+02  1.60000000E+01  0.00000000E+00
  6.90000000E+02  1.40000000E+01  0.00000000E+00
  6.90000000E+02  1.20000000E+01  0.00000000E+00
  6.90000000E+02  1.00000000E+01  0.00000000E+00
  6.90000000E+02  8.00000000E+00  0.00000000E+00
  6.90000000E+02  6.00000000E+00  0.00000000E+00
  6.90000000E+02  4.00000000E+00  0.00000000E+00
  6.90000000E+02  2.00000000E+00  0.00000000E+00
  6.90000000E+02 -3.33066907E-14  0.00000000E+00
  7.00000000E+02  1.00000000E+02  0.00000000E+00
  7.00000000E+02  9.80000000E+01  0.00000000E+00
  7.00000000E+02  9.60000000E+01  0.00000000E+00
  7.00000000E+02  9.40000000E+01  0.00000000E+00
  7.00000000E+02  9.20000000E+01  0.00000000E+00
  7.00000000E+02  9.00000000E+01  0.00000000E+00
  7.00000000E+02  8.80000000E+01  0.00000000E+00
  7.00000000E+02  8.60000000E+01  0.00000000E+00
  7.00000000E+02  8.40000000E+01  0.00000000E+00
  7.00000000E+02  8.20000000E+01  0.00000000E+00
  7.00000000E+02  8.00000000E+01  0.00000000E+00
  7.00000000E+02  7.80000000E+01  0.00000000E+00
  7.00000000E+02  7.60000000E+01  0.00000000E+00
  7.00000000E+02  7.40000000E+01  0.00000000E+00
  7.00000000E+02  7.20000000E+01  0.00000000E+00
  7.00000000E+02  7.00000000E+01  0.00000000E+00
  7.00000000E+02  6.80000000E+01  0.00000000E+00
  7.00000000E+02  6.60000000E+01  0.00000000E+00
  7.00000000E+02  6.40000000E+01  0.00000000E+00
  7.00000000E+02  6.20000000E+01  0.00000000E+00
  7.00000000E+02  6.00000000E+01  0.00000000E+00
  7.00000000E+02  5.80000000E+01  0.00000000E+00
  7.00000000E+02  5.60000000E+01  0.00000000E+00
  7.00000000E+02  5.40000000E+01  0.00000000E+00
  7.00000000E+02  5.20000000E+01  0.00000000E+00
  7.00000000E+02  5.00000000E+01  0.00000000E+00
  7.00000000E+02  4.80000000E+01  0.00000000E+00
  7.00000000E+02  4.60000000E+01  0.00000000E+00
  7.00000000E+02  4.40000000E+01  0.00000000E+00
  7.00000000E+02  4.20000000E+01  0.00000000E+00
  7.00000000E+02  4.00000000E+01  0.00000000E+00
  7.00000000E+02  3.80000000E+01  0.00000000E+00
  7.00000000E+02  3.60000000E+01  0.00000000E+00
  7.00000000E+02  3.40000000E+01  0.00000000E+00
  7.00000000E+02  3.20000000E+01  0.00000000E+00
  7.00000000E+02  3.00000000E+01  0.00000000E+00
  7.00000000E+02  2.80000000E+01  0.00000000E+00
  7.00000000E+02  2.60000000E+01  0.00000000E+00
  7.00000000E+02  2.40000000E+01  0.00000000E+00
  7.00000000E+02  2.20000000E+01  0.00000000E+00
  7.00000000E+02  2.00000000E+01  0.00000000E+00
  7.00000000E+02  1.80000000E+01  0.00000000E+00
  7.00000000E+02  1.60000000E+01  0.00000000E+00
  7.00000000E+02  1.40000000E+01  0.00000000E+00
  7.00000000E+02  1.20000000E+01  0.00000000E+00
  7.00000000E+02  1.00000000E+01  0.00000000E+00
  7.00000000E+02  8.00000000E+00  0.00000000E+00
  7.00000000E+02  6.00000000E+00  0.00000000E+00
  7.00000000E+02  4.00000000E+00  0.00000000E+00
  7.00000000E+02  2.00000000E+00  0.00000000E+00
  7.00000000E+02 -3.33066907E-14  0.00000000E+00
  7.10000000E+02  1.00000000E+02  0.00000000E+00
  7.10000000E+02  9.80000000E+01  0.00000000E+00
  7.10000000E+02  9.60000000E+01  0.00000000E+00
  7.10000000E+02  9.40000000E+01  0.00000000E+00
  7.10000000E+02  9.20000000E+01  0.00000000E+00
  7.10000000E+02  9.00000000E+01  0.00000000E+00
  7.10000000E+02  8.80000000E+01  0.00000000E+00
  7.10000000E+02  8.60000000E+01  0.00000000E+00
  7.10000000E+02  8.40000000E+01  0.00000000E+00
  7.10000000E+02  8.20000000E+01  0.00000000E+00
  7.10000000E+02  8.00000000E+01  0.00000000E+00
  7.10000000E+02  7.80000000E+01  0.00000000E+00
  7.10000000E+02  7.60000000E+01  0.00000000E+00
  7.10000000E+02  7.40000000E+01  0.00000000E+00
  7.10000000E+02  7.20000000E+01  0.00000000E+00
  7.10000000E+02  7.00000000E+01  0.00000000E+00
  7.10000000E+02  6.80000000E+01  0.00000000E+00
  7.10000000E+02  6.60000000E+01  0.00000000E+00
  7.10000000E+02  6.40000000E+01  0.00000000E+00
  7.10000000E+02  6.20000000E+01  0.00000000E+00
  7.10000000E+02  6.00000000E+01  0.00000000E+00
  7.10000000E+02  5.80000000E+01  0.00000000E+00
  7.10000000E+02  5.60000000E+01  0.00000000E+00
  7.10000000E+02  5.40000000E+01  0.00000000E+00
  7.10000000E+02  5.20000000E+01  0.00000000E+00
  7.10000000E+02  5.00000000E+01  0.00000000E+00
  7.10000000E+02  4.80000000E+01  0.00000000E+00
  7.10000000E+02  4.60000000E+01  0.00000000E+00
  7.10000000E+02  4.40000000E+01  0.00000000E+00
  7.10000000E+02  4.20000000E+01  0.00000000E+00
  7.10000000E+02  4.00000000E+01  0.00000000E+00
  7.10000000E+02  3.80000000E+01  0.00000000E+00
  7.10000000E+02  3.60000000E+01  0.00000000E+00
  7.10000000E+02  3.40000000E+01  0.00000000E+00
  7.10000000E+02  3.20000000E+01  0.00000000E+00
  7.10000000E+02  3.00000000E+01  0.00000000E+00
  7.10000000E+02  2.80000000E+01  0.00000000E+00
  7.10000000E+02  2.60000000E+01  0.00000000E+00
  7.10000000E+02  2.40000000E+01  0.00000000E+00
  7.10000000E+02  2.20000000E+01  0.00000000E+00
  7.10000000E+02  2.00000000E+01  0.00000000E+00
  7.10000000E+02  1.80000000E+01  0.00000000E+00
  7.10000000E+02  1.60000000E+01  0.00000000E+00
  7.10000000E+02  1.40000000E+01  0.00000000E+00
  7.10000000E+02  1.20000000E+01  0.00000000E+00
  7.10000000E+02  1.00000000E+01  0.00000000E+00
  7.10000000E+02  8.00000000E+00  0.00000000E+00
  7.10000000E+02  6.00000000E+00  0.00000000E+00
  7.10000000E+02  4.00000000E+00  0.00000000E+00
  7.10000000E+02  2.00000000E+00  0.00000000E+00
  7.10000000E+02 -3.33066907E-14  0.00000000E+00
  7.20000000E+02  1.00000000E+02  0.00000000E+00
  7.20000000E+02  9.80000000E+01  0.00000000E+00
  7.20000000E+02  9.60000000E+01  0.00000000E+00
  7.20000000E+02  9.40000000E+01  0.00000000E+00
  7.20000000E+02  9.20000000E+01  0.00000000E+00
  7.20000000E+02  9.00000000E+01  0.00000000E+00
  7.20000000E+02  8.80000000E+01  0.00000000E+00
  7.20000000E+02  8.60000000E+01  0.00000000E+00
  7.20000000E+02  8.40000000E+01  0.00000000E+00
  7.20000000E+02  8.20000000E+01  0.00000000E+00
  7.20000000E+02  8.00000000E+01  0.00000000E+00
  7.20000000E+02  7.80000000E+01  0.00000000E+00
  7.20000000E+02  7.60000000E+01  0.00000000E+00
  7.20000000E+02  7.40000000E+01  0.00000000E+00
  7.20000000E+02  7.20000000E+01  0.00000000E+00
  7.20000000E+02  7.00000000E+01  0.00000000E+00
  7.20000000E+02  6.80000000E+01  0.00000000E+00
  7.20000000E+02  6.60000000E+01  0.00000000E+00
  7.20000000E+02  6.40000000E+01  0.00000000E+00
  7.20000000E+02  6.20000000E+01  0.00000000E+00
  7.20000000E+02  6.00000000E+01  0.00000000E+00
  7.20000000E+02  5.80000000E+01  0.00000000E+00
  7.20000000E+02  5.60000000E+01  0.00000000E+00
  7.20000000E+02  5.40000000E+01  0.00000000E+00
  7.20000000E+02  5.20000000E+01  0.00000000E+00
  7.20000000E+02  5.00000000E+01  0.00000000E+00
  7.20000000E+02  4.80000000E+01  0.00000000E+00
  7.20000000E+02  4.60000000E+01  0.00000000E+00
  7.20000000E+02  4.40000000E+01  0.00000000E+00
  7.20000000E+02  4.20000000E+01  0.00000000E+00
  7.20000000E+02  4.00000000E+01  0.00000000E+00
  7.20000000E+02  3.80000000E+01  0.00000000E+00
  7.20000000E+02  3.60000000E+01  0.00000000E+00
  7.20000000E+02  3.40000000E+01  0.00000000E+00
  7.20000000E+02  3.20000000E+01  0.00000000E+00
  7.20000000E+02  3.00000000E+01  0.00000000E+00
  7.20000000E+02  2.80000000E+01  0.00000000E+00
  7.20000000E+02  2.60000000E+01  0.00000000E+00
  7.20000000E+02  2.40000000E+01  0.00000000E+00
  7.20000000E+02  2.20000000E+01  0.00000000E+00
  7.20000000E+02  2.00000000E+01  0.00000000E+00
  7.20000000E+02  1.80000000E+01  0.00000000E+00
  7.20000000E+02  1.60000000E+01  0.00000000E+00
  7.20000000E+02  1.40000000E+01  0.00000000E+00
  7.20000000E+02  1.20000000E+01  0.00000000E+00
  7.20000000E+02  1.00000000E+01  0.00000000E+00
  7.20000000E+02  8.00000000E+00  0.00000000E+00
  7.20000000E+02  6.00000000E+00  0.00000000E+00
  7.20000000E+02  4.00000000E+00  0.00000000E+00
  7.20000000E+02  2.00000000E+00  0.00000000E+00
  7.20000000E+02 -3.33066907E-14  0.00000000E+00
  7.30000000E+02  1.00000000E+02  0.00000000E+00
  7.30000000E+02  9.80000000E+01  0.00000000E+00
  7.30000000E+02  9.60000000E+01  0.00000000E+00
  7.30000000E+02  9.40000000E+01  0.00000000E+00
  7.30000000E+02  9.20000000E+01  0.00000000E+00
  7.30000000E+02  9.00000000E+01  0.00000000E+00
  7.30000000E+02  8.80000000E+01  0.00000000E+00
  7.30000000E+02  8.60000000E+01  0.00000000E+00
  7.30000000E+02  8.40000000E+01  0.00000000E+00
  7.30000000E+02  8.20000000E+01  0.00000000E+00
  7.30000000E+02  8.00000000E+01  0.00000000E+00
  7.30000000E+02  7.80000000E+01  0.00000000E+00
  7.30000000E+02  7.60000000E+01  0.00000000E+00
  7.30000000E+02  7.40000000E+01  0.00000000E+00
  7.30000000E+02  7.20000000E+01  0.00000000E+00
  7.30000000E+02  7.00000000E+01  0.00000000E+00
  7.30000000E+02  6.80000000E+01  0.00000000E+00
  7.30000000E+02  6.60000000E+01  0.00000000E+00
  7.30000000E+02  6.40000000E+01  0.00000000E+00
  7.30000000E+02  6.20000000E+01  0.00000000E+00
  7.30000000E+02  6.00000000E+01  0.00000000E+00
  7.30000000E+02  5.80000000E+01  0.00000000E+00
  7.30000000E+02  5.60000000E+01  0.00000000E+00
  7.30000000E+02  5.40000000E+01  0.00000000E+00
  7.30000000E+02  5.20000000E+01  0.00000000E+00
  7.30000000E+02  5.00000000E+01  0.00000000E+00
  7.30000000E+02  4.80000000E+01  0.00000000E+00
  7.30000000E+02  4.60000000E+01  0.00000000E+00
  7.30000000E+02  4.40000000E+01  0.00000000E+00
  7.30000000E+02  4.20000000E+01  0.00000000E+00
  7.30000000E+02  4.00000000E+01  0.00000000E+00
  7.30000000E+02  3.80000000E+01  0.00000000E+00
  7.30000000E+02  3.60000000E+01  0.00000000E+00
  7.30000000E+02  3.40000000E+01  0.00000000E+00
  7.30000000E+02  3.20000000E+01  0.00000000E+00
  7.30000000E+02  3.00000000E+01  0.00000000E+00
  7.30000000E+02  2.80000000E+01  0.00000000E+00
  7.30000000E+02  2.60000000E+01  0.00000000E+00
  7.30000000E+02  2.40000000E+01  0.00000000E+00
  7.30000000E+02  2.20000000E+01  0.00000000E+00
  7.30000000E+02  2.00000000E+01  0.00000000E+00
  7.30000000E+02  1.80000000E+01  0.00000000E+00
  7.30000000E+02  1.60000000E+01  0.00000000E+00
  7.30000000E+02  1.40000000E+01  0.00000000E+00
  7.30000000E+02  1.20000000E+01  0.00000000E+00
  7.30000000E+02  1.00000000E+01  0.00000000E+00
  7.30000000E+02  8.00000000E+00  0.00000000E+00
  7.30000000E+02  6.00000000E+00  0.00000000E+00
  7.30000000E+02  4.00000000E+00  0.00000000E+00
  7.30000000E+02  2.00000000E+00  0.00000000E+00
  7.30000000E+02 -3.33066907E-14  0.00000000E+00
  7.40000000E+02  1.00000000E+02  0.00000000E+00
  7.40000000E+02  9.80000000E+01  0.00000000E+00
  7.40000000E+02  9.60000000E+01  0.00000000E+00
  7.40000000E+02  9.40000000E+01  0.00000000E+00
  7.40000000E+02  9.20000000E+01  0.00000000E+00
  7.40000000E+02  9.00000000E+01  0.00000000E+00
  7.40000000E+02  8.80000000E+01  0.00000000E+00
  7.40000000E+02  8.60000000E+01  0.00000000E+00
  7.40000000E+02  8.40000000E+01  0.00000000E+00
  7.40000000E+02  8.20000000E+01  0.00000000E+00
  7.40000000E+02  8.00000000E+01  0.00000000E+00
  7.40000000E+02  7.80000000E+01  0.00000000E+00
  7.40000000E+02  7.60000000E+01  0.00000000E+00
  7.40000000E+02  7.40000000E+01  0.00000000E+00
  7.40000000E+02  7.20000000E+01  0.00000000E+00
  7.40000000E+02  7.00000000E+01  0.00000000E+00
  7.40000000E+02  6.80000000E+01  0.00000000E+00
  7.40000000E+02  6.60000000E+01  0.00000000E+00
  7.40000000E+02  6.40000000E+01  0.00000000E+00
  7.40000000E+02  6.20000000E+01  0.00000000E+00
  7.40000000E+02  6.00000000E+01  0.00000000E+00
  7.40000000E+02  5.80000000E+01  0.00000000E+00
  7.40000000E+02  5.60000000E+01  0.00000000E+00
  7.40000000E+02  5.40000000E+01  0.00000000E+00
  7.40000000E+02  5.20000000E+01  0.00000000E+00
  7.40000000E+02  5.00000000E+01  0.00000000E+00
  7.40000000E+02  4.80000000E+01  0.00000000E+00
  7.40000000E+02  4.60000000E+01  0.00000000E+00
  7.40000000E+02  4.40000000E+01  0.00000000E+00
  7.40000000E+02  4.20000000E+01  0.00000000E+00
  7.40000000E+02  4.00000000E+01  0.00000000E+00
  7.40000000E+02  3.80000000E+01  0.00000000E+00
  7.40000000E+02  3.60000000E+01  0.00000000E+00
  7.40000000E+02  3.40000000E+01  0.00000000E+00
  7.40000000E+02  3.20000000E+01  0.00000000E+00
  7.40000000E+02  3.00000000E+01  0.00000000E+00
  7.40000000E+02  2.80000000E+01  0.00000000E+00
  7.40000000E+02  2.60000000E+01  0.00000000E+00
  7.40000000E+02  2.40000000E+01  0.00000000E+00
  7.40000000E+02  2.20000000E+01  0.00000000E+00
  7.40000000E+02  2.00000000E+01  0.00000000E+00
  7.40000000E+02  1.80000000E+01  0.00000000E+00
  7.40000000E+02  1.60000000E+01  0.00000000E+00
  7.40000000E+02  1.40000000E+01  0.00000000E+00
  7.40000000E+02  1.20000000E+01  0.00000000E+00
  7.40000000E+02  1.00000000E+01  0.00000000E+00
  7.40000000E+02  8.00000000E+00  0.00000000E+00
  7.40000000E+02  6.00000000E+00  0.00000000E+00
  7.40000000E+02  4.00000000E+00  0.00000000E+00
  7.40000000E+02  2.00000000E+00  0.00000000E+00
  7.40000000E+02 -3.33066907E-14  0.00000000E+00
  7.50000000E+02  1.00000000E+02  0.00000000E+00
  7.50000000E+02  9.80000000E+01  0.00000000E+00
  7.50000000E+02  9.60000000E+01  0.00000000E+00
  7.50000000E+02  9.40000000E+01  0.00000000E+00
  7.50000000E+02  9.20000000E+01  0.00000000E+00
  7.50000000E+02  9.00000000E+01  0.00000000E+00
  7.50000000E+02  8.80000000E+01  0.00000000E+00
  7.50000000E+02  8.60000000E+01  0.00000000E+00
  7.50000000E+02  8.40000000E+01  0.00000000E+00
  7.50000000E+02  8.20000000E+01  0.00000000E+00
  7.50000000E+02  8.00000000E+01  0.00000000E+00
  7.50000000E+02  7.80000000E+01  0.00000000E+00
  7.50000000E+02  7.60000000E+01  0.00000000E+00
  7.50000000E+02  7.40000000E+01  0.00000000E+00
  7.50000000E+02  7.20000000E+01  0.00000000E+00
  7.50000000E+02  7.00000000E+01  0.00000000E+00
  7.50000000E+02  6.80000000E+01  0.00000000E+00
  7.50000000E+02  6.60000000E+01  0.00000000E+00
  7.50000000E+02  6.40000000E+01  0.00000000E+00
  7.50000000E+02  6.20000000E+01  0.00000000E+00
  7.50000000E+02  6.00000000E+01  0.00000000E+00
  7.50000000E+02  5.80000000E+01  0.00000000E+00
  7.50000000E+02  5.60000000E+01  0.00000000E+00
  7.50000000E+02  5.40000000E+01  0.00000000E+00
  7.50000000E+02  5.20000000E+01  0.00000000E+00
  7.50000000E+02  5.00000000E+01  0.00000000E+00
  7.50000000E+02  4.80000000E+01  0.00000000E+00
  7.50000000E+02  4.60000000E+01  0.00000000E+00
  7.50000000E+02  4.40000000E+01  0.00000000E+00
  7.50000000E+02  4.20000000E+01  0.00000000E+00
  7.50000000E+02  4.00000000E+01  0.00000000E+00
  7.50000000E+02  3.80000000E+01  0.00000000E+00
  7.50000000E+02  3.60000000E+01  0.00000000E+00
  7.50000000E+02  3.40000000E+01  0.00000000E+00
  7.50000000E+02  3.20000000E+01  0.00000000E+00
  7.50000000E+02  3.00000000E+01  0.00000000E+00
  7.50000000E+02  2.80000000E+01  0.00000000E+00
  7.50000000E+02  2.60000000E+01  0.00000000E+00
  7.50000000E+02  2.40000000E+01  0.00000000E+00
  7.50000000E+02  2.20000000E+01  0.00000000E+00
  7.50000000E+02  2.00000000E+01  0.00000000E+00
  7.50000000E+02  1.80000000E+01  0.00000000E+00
  7.50000000E+02  1.60000000E+01  0.00000000E+00
  7.50000000E+02  1.40000000E+01  0.00000000E+00
  7.50000000E+02  1.20000000E+01  0.00000000E+00
  7.50000000E+02  1.00000000E+01  0.00000000E+00
  7.50000000E+02  8.00000000E+00  0.00000000E+00
  7.50000000E+02  6.00000000E+00  0.00000000E+00
  7.50000000E+02  4.00000000E+00  0.00000000E+00
  7.50000000E+02  2.00000000E+00  0.00000000E+00
  7.50000000E+02 -3.33066907E-14  0.00000000E+00
  7.60000000E+02  1.00000000E+02  0.00000000E+00
  7.60000000E+02  9.80000000E+01  0.00000000E+00
  7.60000000E+02  9.60000000E+01  0.00000000E+00
  7.60000000E+02  9.40000000E+01  0.00000000E+00
  7.60000000E+02  9.20000000E+01  0.00000000E+00
  7.60000000E+02  9.00000000E+01  0.00000000E+00
  7.60000000E+02  8.80000000E+01  0.00000000E+00
  7.60000000E+02  8.60000000E+01  0.00000000E+00
  7.60000000E+02  8.40000000E+01  0.00000000E+00
  7.60000000E+02  8.20000000E+01  0.00000000E+00
  7.60000000E+02  8.00000000E+01  0.00000000E+00
  7.60000000E+02  7.80000000E+01  0.00000000E+00
  7.60000000E+02  7.60000000E+01  0.00000000E+00
  7.60000000E+02  7.40000000E+01  0.00000000E+00
  7.60000000E+02  7.20000000E+01  0.00000000E+00
  7.60000000E+02  7.00000000E+01  0.00000000E+00
  7.60000000E+02  6.80000000E+01  0.00000000E+00
  7.60000000E+02  6.60000000E+01  0.00000000E+00
  7.60000000E+02  6.40000000E+01  0.00000000E+00
  7.60000000E+02  6.20000000E+01  0.00000000E+00
  7.60000000E+02  6.00000000E+01  0.00000000E+00
  7.60000000E+02  5.80000000E+01  0.00000000E+00
  7.60000000E+02  5.60000000E+01  0.00000000E+00
  7.60000000E+02  5.40000000E+01  0.00000000E+00
  7.60000000E+02  5.20000000E+01  0.00000000E+00
  7.60000000E+02  5.00000000E+01  0.00000000E+00
  7.60000000E+02  4.80000000E+01  0.00000000E+00
  7.60000000E+02  4.60000000E+01  0.00000000E+00
  7.60000000E+02  4.40000000E+01  0.00000000E+00
  7.60000000E+02  4.20000000E+01  0.00000000E+00
  7.60000000E+02  4.00000000E+01  0.00000000E+00
  7.60000000E+02  3.80000000E+01  0.00000000E+00
  7.60000000E+02  3.60000000E+01  0.00000000E+00
  7.60000000E+02  3.40000000E+01  0.00000000E+00
  7.60000000E+02  3.20000000E+01  0.00000000E+00
  7.60000000E+02  3.00000000E+01  0.00000000E+00
  7.60000000E+02  2.80000000E+01  0.00000000E+00
  7.60000000E+02  2.60000000E+01  0.00000000E+00
  7.60000000E+02  2.40000000E+01  0.00000000E+00
  7.60000000E+02  2.20000000E+01  0.00000000E+00
  7.60000000E+02  2.00000000E+01  0.00000000E+00
  7.60000000E+02  1.80000000E+01  0.00000000E+00
  7.60000000E+02  1.60000000E+01  0.00000000E+00
  7.60000000E+02  1.40000000E+01  0.00000000E+00
  7.60000000E+02  1.20000000E+01  0.00000000E+00
  7.60000000E+02  1.00000000E+01  0.00000000E+00
  7.60000000E+02  8.00000000E+00  0.00000000E+00
  7.60000000E+02  6.00000000E+00  0.00000000E+00
  7.60000000E+02  4.00000000E+00  0.00000000E+00
  7.60000000E+02  2.00000000E+00  0.00000000E+00
  7.60000000E+02 -3.33066907E-14  0.00000000E+00
  7.70000000E+02  1.00000000E+02  0.00000000E+00
  7.70000000E+02  9.80000000E+01  0.00000000E+00
  7.70000000E+02  9.60000000E+01  0.00000000E+00
  7.70000000E+02  9.40000000E+01  0.00000000E+00
  7.70000000E+02  9.20000000E+01  0.00000000E+00
  7.70000000E+02  9.00000000E+01  0.00000000E+00
  7.70000000E+02  8.80000000E+01  0.00000000E+00
  7.70000000E+02  8.60000000E+01  0.00000000E+00
  7.70000000E+02  8.40000000E+01  0.00000000E+00
  7.70000000E+02  8.20000000E+01  0.00000000E+00
  7.70000000E+02  8.00000000E+01  0.00000000E+00
  7.70000000E+02  7.80000000E+01  0.00000000E+00
  7.70000000E+02  7.60000000E+01  0.00000000E+00
  7.70000000E+02  7.40000000E+01  0.00000000E+00
  7.70000000E+02  7.20000000E+01  0.00000000E+00
  7.70000000E+02  7.00000000E+01  0.00000000E+00
  7.70000000E+02  6.80000000E+01  0.00000000E+00
  7.70000000E+02  6.60000000E+01  0.00000000E+00
  7.70000000E+02  6.40000000E+01  0.00000000E+00
  7.70000000E+02  6.20000000E+01  0.00000000E+00
  7.70000000E+02  6.00000000E+01  0.00000000E+00
  7.70000000E+02  5.80000000E+01  0.00000000E+00
  7.70000000E+02  5.60000000E+01  0.00000000E+00
  7.70000000E+02  5.40000000E+01  0.00000000E+00
  7.70000000E+02  5.20000000E+01  0.00000000E+00
  7.70000000E+02  5.00000000E+01  0.00000000E+00
  7.70000000E+02  4.80000000E+01  0.00000000E+00
  7.70000000E+02  4.60000000E+01  0.00000000E+00
  7.70000000E+02  4.40000000E+01  0.00000000E+00
  7.70000000E+02  4.20000000E+01  0.00000000E+00
  7.70000000E+02  4.00000000E+01  0.00000000E+00
  7.70000000E+02  3.80000000E+01  0.00000000E+00
  7.70000000E+02  3.60000000E+01  0.00000000E+00
  7.70000000E+02  3.40000000E+01  0.00000000E+00
  7.70000000E+02  3.20000000E+01  0.00000000E+00
  7.70000000E+02  3.00000000E+01  0.00000000E+00
  7.70000000E+02  2.80000000E+01  0.00000000E+00
  7.70000000E+02  2.60000000E+01  0.00000000E+00
  7.70000000E+02  2.40000000E+01  0.00000000E+00
  7.70000000E+02  2.20000000E+01  0.00000000E+00
  7.70000000E+02  2.00000000E+01  0.00000000E+00
  7.70000000E+02  1.80000000E+01  0.00000000E+00
  7.70000000E+02  1.60000000E+01  0.00000000E+00
  7.70000000E+02  1.40000000E+01  0.00000000E+00
  7.70000000E+02  1.20000000E+01  0.00000000E+00
  7.70000000E+02  1.00000000E+01  0.00000000E+00
  7.70000000E+02  8.00000000E+00  0.00000000E+00
  7.70000000E+02  6.00000000E+00  0.00000000E+00
  7.70000000E+02  4.00000000E+00  0.00000000E+00
  7.70000000E+02  2.00000000E+00  0.00000000E+00
  7.70000000E+02 -3.33066907E-14  0.00000000E+00
  7.80000000E+02  1.00000000E+02  0.00000000E+00
  7.80000000E+02  9.80000000E+01  0.00000000E+00
  7.80000000E+02  9.60000000E+01  0.00000000E+00
  7.80000000E+02  9.40000000E+01  0.00000000E+00
  7.80000000E+02  9.20000000E+01  0.00000000E+00
  7.80000000E+02  9.00000000E+01  0.00000000E+00
  7.80000000E+02  8.80000000E+01  0.00000000E+00
  7.80000000E+02  8.60000000E+01  0.00000000E+00
  7.80000000E+02  8.40000000E+01  0.00000000E+00
  7.80000000E+02  8.20000000E+01  0.00000000E+00
  7.80000000E+02  8.00000000E+01  0.00000000E+00
  7.80000000E+02  7.80000000E+01  0.00000000E+00
  7.80000000E+02  7.60000000E+01  0.00000000E+00
  7.80000000E+02  7.40000000E+01  0.00000000E+00
  7.80000000E+02  7.20000000E+01  0.00000000E+00
  7.80000000E+02  7.00000000E+01  0.00000000E+00
  7.80000000E+02  6.80000000E+01  0.00000000E+00
  7.80000000E+02  6.60000000E+01  0.00000000E+00
  7.80000000E+02  6.40000000E+01  0.00000000E+00
  7.80000000E+02  6.20000000E+01  0.00000000E+00
  7.80000000E+02  6.00000000E+01  0.00000000E+00
  7.80000000E+02  5.80000000E+01  0.00000000E+00
  7.80000000E+02  5.60000000E+01  0.00000000E+00
  7.80000000E+02  5.40000000E+01  0.00000000E+00
  7.80000000E+02  5.20000000E+01  0.00000000E+00
  7.80000000E+02  5.00000000E+01  0.00000000E+00
  7.80000000E+02  4.80000000E+01  0.00000000E+00
  7.80000000E+02  4.60000000E+01  0.00000000E+00
  7.80000000E+02  4.40000000E+01  0.00000000E+00
  7.80000000E+02  4.20000000E+01  0.00000000E+00
  7.80000000E+02  4.00000000E+01  0.00000000E+00
  7.80000000E+02  3.80000000E+01  0.00000000E+00
  7.80000000E+02  3.60000000E+01  0.00000000E+00
  7.80000000E+02  3.40000000E+01  0.00000000E+00
  7.80000000E+02  3.20000000E+01  0.00000000E+00
  7.80000000E+02  3.00000000E+01  0.00000000E+00
  7.80000000E+02  2.80000000E+01  0.00000000E+00
  7.80000000E+02  2.60000000E+01  0.00000000E+00
  7.80000000E+02  2.40000000E+01  0.00000000E+00
  7.80000000E+02  2.20000000E+01  0.00000000E+00
  7.80000000E+02  2.00000000E+01  0.00000000E+00
  7.80000000E+02  1.80000000E+01  0.00000000E+00
  7.80000000E+02  1.60000000E+01  0.00000000E+00
  7.80000000E+02  1.40000000E+01  0.00000000E+00
  7.80000000E+02  1.20000000E+01  0.00000000E+00
  7.80000000E+02  1.00000000E+01  0.00000000E+00
  7.80000000E+02  8.00000000E+00  0.00000000E+00
  7.80000000E+02  6.00000000E+00  0.00000000E+00
  7.80000000E+02  4.00000000E+00  0.00000000E+00
  7.80000000E+02  2.00000000E+00  0.00000000E+00
  7.80000000E+02 -3.33066907E-14  0.00000000E+00
  7.90000000E+02  1.00000000E+02  0.00000000E+00
  7.90000000E+02  9.80000000E+01  0.00000000E+00
  7.90000000E+02  9.60000000E+01  0.00000000E+00
  7.90000000E+02  9.40000000E+01  0.00000000E+00
  7.90000000E+02  9.20000000E+01  0.00000000E+00
  7.90000000E+02  9.00000000E+01  0.00000000E+00
  7.90000000E+02  8.80000000E+01  0.00000000E+00
  7.90000000E+02  8.60000000E+01  0.00000000E+00
  7.90000000E+02  8.40000000E+01  0.00000000E+00
  7.90000000E+02  8.20000000E+01  0.00000000E+00
  7.90000000E+02  8.00000000E+01  0.00000000E+00
  7.90000000E+02  7.80000000E+01  0.00000000E+00
  7.90000000E+02  7.60000000E+01  0.00000000E+00
  7.90000000E+02  7.40000000E+01  0.00000000E+00
  7.90000000E+02  7.20000000E+01  0.00000000E+00
  7.90000000E+02  7.00000000E+01  0.00000000E+00
  7.90000000E+02  6.80000000E+01  0.00000000E+00
  7.90000000E+02  6.60000000E+01  0.00000000E+00
  7.90000000E+02  6.40000000E+01  0.00000000E+00
  7.90000000E+02  6.20000000E+01  0.00000000E+00
  7.90000000E+02  6.00000000E+01  0.00000000E+00
  7.90000000E+02  5.80000000E+01  0.00000000E+00
  7.90000000E+02  5.60000000E+01  0.00000000E+00
  7.90000000E+02  5.40000000E+01  0.00000000E+00
  7.90000000E+02  5.20000000E+01  0.00000000E+00
  7.90000000E+02  5.00000000E+01  0.00000000E+00
  7.90000000E+02  4.80000000E+01  0.00000000E+00
  7.90000000E+02  4.60000000E+01  0.00000000E+00
  7.90000000E+02  4.40000000E+01  0.00000000E+00
  7.90000000E+02  4.20000000E+01  0.00000000E+00
  7.90000000E+02  4.00000000E+01  0.00000000E+00
  7.90000000E+02  3.80000000E+01  0.00000000E+00
  7.90000000E+02  3.60000000E+01  0.00000000E+00
  7.90000000E+02  3.40000000E+01  0.00000000E+00
  7.90000000E+02  3.20000000E+01  0.00000000E+00
  7.90000000E+02  3.00000000E+01  0.00000000E+00
  7.90000000E+02  2.80000000E+01  0.00000000E+00
  7.90000000E+02  2.60000000E+01  0.00000000E+00
  7.90000000E+02  2.40000000E+01  0.00000000E+00
  7.90000000E+02  2.20000000E+01  0.00000000E+00
  7.90000000E+02  2.00000000E+01  0.00000000E+00
  7.90000000E+02  1.80000000E+01  0.00000000E+00
  7.90000000E+02  1.60000000E+01  0.00000000E+00
  7.90000000E+02  1.40000000E+01  0.00000000E+00
  7.90000000E+02  1.20000000E+01  0.00000000E+00
  7.90000000E+02  1.00000000E+01  0.00000000E+00
  7.90000000E+02  8.00000000E+00  0.00000000E+00
  7.90000000E+02  6.00000000E+00  0.00000000E+00
  7.90000000E+02  4.00000000E+00  0.00000000E+00
  7.90000000E+02  2.00000000E+00  0.00000000E+00
  7.90000000E+02 -3.33066907E-14  0.00000000E+00
  8.00000000E+02  1.00000000E+02  0.00000000E+00
  8.00000000E+02  9.80000000E+01  0.00000000E+00
  8.00000000E+02  9.60000000E+01  0.00000000E+00
  8.00000000E+02  9.40000000E+01  0.00000000E+00
  8.00000000E+02  9.20000000E+01  0.00000000E+00
  8.00000000E+02  9.00000000E+01  0.00000000E+00
  8.00000000E+02  8.80000000E+01  0.00000000E+00
  8.00000000E+02  8.60000000E+01  0.00000000E+00
  8.00000000E+02  8.40000000E+01  0.00000000E+00
  8.00000000E+02  8.20000000E+01  0.00000000E+00
  8.00000000E+02  8.00000000E+01  0.00000000E+00
  8.00000000E+02  7.80000000E+01  0.00000000E+00
  8.00000000E+02  7.60000000E+01  0.00000000E+00
  8.00000000E+02  7.40000000E+01  0.00000000E+00
  8.00000000E+02  7.20000000E+01  0.00000000E+00
  8.00000000E+02  7.00000000E+01  0.00000000E+00
  8.00000000E+02  6.80000000E+01  0.00000000E+00
  8.00000000E+02  6.60000000E+01  0.00000000E+00
  8.00000000E+02  6.40000000E+01  0.00000000E+00
  8.00000000E+02  6.20000000E+01  0.00000000E+00
  8.00000000E+02  6.00000000E+01  0.00000000E+00
  8.00000000E+02  5.80000000E+01  0.00000000E+00
  8.00000000E+02  5.60000000E+01  0.00000000E+00
  8.00000000E+02  5.40000000E+01  0.00000000E+00
  8.00000000E+02  5.20000000E+01  0.00000000E+00
  8.00000000E+02  5.00000000E+01  0.00000000E+00
  8.00000000E+02  4.80000000E+01  0.00000000E+00
  8.00000000E+02  4.60000000E+01  0.00000000E+00
  8.00000000E+02  4.40000000E+01  0.00000000E+00
  8.00000000E+02  4.20000000E+01  0.00000000E+00
  8.00000000E+02  4.00000000E+01  0.00000000E+00
  8.00000000E+02  3.80000000E+01  0.00000000E+00
  8.00000000E+02  3.60000000E+01  0.00000000E+00
  8.00000000E+02  3.40000000E+01  0.00000000E+00
  8.00000000E+02  3.20000000E+01  0.00000000E+00
  8.00000000E+02  3.00000000E+01  0.00000000E+00
  8.00000000E+02  2.80000000E+01  0.00000000E+00
  8.00000000E+02  2.60000000E+01  0.00000000E+00
  8.00000000E+02  2.40000000E+01  0.00000000E+00
  8.00000000E+02  2.20000000E+01  0.00000000E+00
  8.00000000E+02  2.00000000E+01  0.00000000E+00
  8.00000000E+02  1.80000000E+01  0.00000000E+00
  8.00000000E+02  1.60000000E+01  0.00000000E+00
  8.00000000E+02  1.40000000E+01  0.00000000E+00
  8.00000000E+02  1.20000000E+01  0.00000000E+00
  8.00000000E+02  1.00000000E+01  0.00000000E+00
  8.00000000E+02  8.00000000E+00  0.00000000E+00
  8.00000000E+02  6.00000000E+00  0.00000000E+00
  8.00000000E+02  4.00000000E+00  0.00000000E+00
  8.00000000E+02  2.00000000E+00  0.00000000E+00
  8.00000000E+02 -3.33066907E-14  0.00000000E+00
  8.10000000E+02  1.00000000E+02  0.00000000E+00
  8.10000000E+02  9.80000000E+01  0.00000000E+00
  8.10000000E+02  9.60000000E+01  0.00000000E+00
  8.10000000E+02  9.40000000E+01  0.00000000E+00
  8.10000000E+02  9.20000000E+01  0.00000000E+00
  8.10000000E+02  9.00000000E+01  0.00000000E+00
  8.10000000E+02  8.80000000E+01  0.00000000E+00
  8.10000000E+02  8.60000000E+01  0.00000000E+00
  8.10000000E+02  8.40000000E+01  0.00000000E+00
  8.10000000E+02  8.20000000E+01  0.00000000E+00
  8.10000000E+02  8.00000000E+01  0.00000000E+00
  8.10000000E+02  7.80000000E+01  0.00000000E+00
  8.10000000E+02  7.60000000E+01  0.00000000E+00
  8.10000000E+02  7.40000000E+01  0.00000000E+00
  8.10000000E+02  7.20000000E+01  0.00000000E+00
  8.10000000E+02  7.00000000E+01  0.00000000E+00
  8.10000000E+02  6.80000000E+01  0.00000000E+00
  8.10000000E+02  6.60000000E+01  0.00000000E+00
  8.10000000E+02  6.40000000E+01  0.00000000E+00
  8.10000000E+02  6.20000000E+01  0.00000000E+00
  8.10000000E+02  6.00000000E+01  0.00000000E+00
  8.10000000E+02  5.80000000E+01  0.00000000E+00
  8.10000000E+02  5.60000000E+01  0.00000000E+00
  8.10000000E+02  5.40000000E+01  0.00000000E+00
  8.10000000E+02  5.20000000E+01  0.00000000E+00
  8.10000000E+02  5.00000000E+01  0.00000000E+00
  8.10000000E+02  4.80000000E+01  0.00000000E+00
  8.10000000E+02  4.60000000E+01  0.00000000E+00
  8.10000000E+02  4.40000000E+01  0.00000000E+00
  8.10000000E+02  4.20000000E+01  0.00000000E+00
  8.10000000E+02  4.00000000E+01  0.00000000E+00
  8.10000000E+02  3.80000000E+01  0.00000000E+00
  8.10000000E+02  3.60000000E+01  0.00000000E+00
  8.10000000E+02  3.40000000E+01  0.00000000E+00
  8.10000000E+02  3.20000000E+01  0.00000000E+00
  8.10000000E+02  3.00000000E+01  0.00000000E+00
  8.10000000E+02  2.80000000E+01  0.00000000E+00
  8.10000000E+02  2.60000000E+01  0.00000000E+00
  8.10000000E+02  2.40000000E+01  0.00000000E+00
  8.10000000E+02  2.20000000E+01  0.00000000E+00
  8.10000000E+02  2.00000000E+01  0.00000000E+00
  8.10000000E+02  1.80000000E+01  0.00000000E+00
  8.10000000E+02  1.60000000E+01  0.00000000E+00
  8.10000000E+02  1.40000000E+01  0.00000000E+00
  8.10000000E+02  1.20000000E+01  0.00000000E+00
  8.10000000E+02  1.00000000E+01  0.00000000E+00
  8.10000000E+02  8.00000000E+00  0.00000000E+00
  8.10000000E+02  6.00000000E+00  0.00000000E+00
  8.10000000E+02  4.00000000E+00  0.00000000E+00
  8.10000000E+02  2.00000000E+00  0.00000000E+00
  8.10000000E+02 -3.33066907E-14  0.00000000E+00
  8.20000000E+02  1.00000000E+02  0.00000000E+00
  8.20000000E+02  9.80000000E+01  0.00000000E+00
  8.20000000E+02  9.60000000E+01  0.00000000E+00
  8.20000000E+02  9.40000000E+01  0.00000000E+00
  8.20000000E+02  9.20000000E+01  0.00000000E+00
  8.20000000E+02  9.00000000E+01  0.00000000E+00
  8.20000000E+02  8.80000000E+01  0.00000000E+00
  8.20000000E+02  8.60000000E+01  0.00000000E+00
  8.20000000E+02  8.40000000E+01  0.00000000E+00
  8.20000000E+02  8.20000000E+01  0.00000000E+00
  8.20000000E+02  8.00000000E+01  0.00000000E+00
  8.20000000E+02  7.80000000E+01  0.00000000E+00
  8.20000000E+02  7.60000000E+01  0.00000000E+00
  8.20000000E+02  7.40000000E+01  0.00000000E+00
  8.20000000E+02  7.20000000E+01  0.00000000E+00
  8.20000000E+02  7.00000000E+01  0.00000000E+00
  8.20000000E+02  6.80000000E+01  0.00000000E+00
  8.20000000E+02  6.60000000E+01  0.00000000E+00
  8.20000000E+02  6.40000000E+01  0.00000000E+00
  8.20000000E+02  6.20000000E+01  0.00000000E+00
  8.20000000E+02  6.00000000E+01  0.00000000E+00
  8.20000000E+02  5.80000000E+01  0.00000000E+00
  8.20000000E+02  5.60000000E+01  0.00000000E+00
  8.20000000E+02  5.40000000E+01  0.00000000E+00
  8.20000000E+02  5.20000000E+01  0.00000000E+00
  8.20000000E+02  5.00000000E+01  0.00000000E+00
  8.20000000E+02  4.80000000E+01  0.00000000E+00
  8.20000000E+02  4.60000000E+01  0.00000000E+00
  8.20000000E+02  4.40000000E+01  0.00000000E+00
  8.20000000E+02  4.20000000E+01  0.00000000E+00
  8.20000000E+02  4.00000000E+01  0.00000000E+00
  8.20000000E+02  3.80000000E+01  0.00000000E+00
  8.20000000E+02  3.60000000E+01  0.00000000E+00
  8.20000000E+02  3.40000000E+01  0.00000000E+00
  8.20000000E+02  3.20000000E+01  0.00000000E+00
  8.20000000E+02  3.00000000E+01  0.00000000E+00
  8.20000000E+02  2.80000000E+01  0.00000000E+00
  8.20000000E+02  2.60000000E+01  0.00000000E+00
  8.20000000E+02  2.40000000E+01  0.00000000E+00
  8.20000000E+02  2.20000000E+01  0.00000000E+00
  8.20000000E+02  2.00000000E+01  0.00000000E+00
  8.20000000E+02  1.80000000E+01  0.00000000E+00
  8.20000000E+02  1.60000000E+01  0.00000000E+00
  8.20000000E+02  1.40000000E+01  0.00000000E+00
  8.20000000E+02  1.20000000E+01  0.00000000E+00
  8.20000000E+02  1.00000000E+01  0.00000000E+00
  8.20000000E+02  8.00000000E+00  0.00000000E+00
  8.20000000E+02  6.00000000E+00  0.00000000E+00
  8.20000000E+02  4.00000000E+00  0.00000000E+00
  8.20000000E+02  2.00000000E+00  0.00000000E+00
  8.20000000E+02 -3.33066907E-14  0.00000000E+00
  8.30000000E+02  1.00000000E+02  0.00000000E+00
  8.30000000E+02  9.80000000E+01  0.00000000E+00
  8.30000000E+02  9.60000000E+01  0.00000000E+00
  8.30000000E+02  9.40000000E+01  0.00000000E+00
  8.30000000E+02  9.20000000E+01  0.00000000E+00
  8.30000000E+02  9.00000000E+01  0.00000000E+00
  8.30000000E+02  8.80000000E+01  0.00000000E+00
  8.30000000E+02  8.60000000E+01  0.00000000E+00
  8.30000000E+02  8.40000000E+01  0.00000000E+00
  8.30000000E+02  8.20000000E+01  0.00000000E+00
  8.30000000E+02  8.00000000E+01  0.00000000E+00
  8.30000000E+02  7.80000000E+01  0.00000000E+00
  8.30000000E+02  7.60000000E+01  0.00000000E+00
  8.30000000E+02  7.40000000E+01  0.00000000E+00
  8.30000000E+02  7.20000000E+01  0.00000000E+00
  8.30000000E+02  7.00000000E+01  0.00000000E+00
  8.30000000E+02  6.80000000E+01  0.00000000E+00
  8.30000000E+02  6.60000000E+01  0.00000000E+00
  8.30000000E+02  6.40000000E+01  0.00000000E+00
  8.30000000E+02  6.20000000E+01  0.00000000E+00
  8.30000000E+02  6.00000000E+01  0.00000000E+00
  8.30000000E+02  5.80000000E+01  0.00000000E+00
  8.30000000E+02  5.60000000E+01  0.00000000E+00
  8.30000000E+02  5.40000000E+01  0.00000000E+00
  8.30000000E+02  5.20000000E+01  0.00000000E+00
  8.30000000E+02  5.00000000E+01  0.00000000E+00
  8.30000000E+02  4.80000000E+01  0.00000000E+00
  8.30000000E+02  4.60000000E+01  0.00000000E+00
  8.30000000E+02  4.40000000E+01  0.00000000E+00
  8.30000000E+02  4.20000000E+01  0.00000000E+00
  8.30000000E+02  4.00000000E+01  0.00000000E+00
  8.30000000E+02  3.80000000E+01  0.00000000E+00
  8.30000000E+02  3.60000000E+01  0.00000000E+00
  8.30000000E+02  3.40000000E+01  0.00000000E+00
  8.30000000E+02  3.20000000E+01  0.00000000E+00
  8.30000000E+02  3.00000000E+01  0.00000000E+00
  8.30000000E+02  2.80000000E+01  0.00000000E+00
  8.30000000E+02  2.60000000E+01  0.00000000E+00
  8.30000000E+02  2.40000000E+01  0.00000000E+00
  8.30000000E+02  2.20000000E+01  0.00000000E+00
  8.30000000E+02  2.00000000E+01  0.00000000E+00
  8.30000000E+02  1.80000000E+01  0.00000000E+00
  8.30000000E+02  1.60000000E+01  0.00000000E+00
  8.30000000E+02  1.40000000E+01  0.00000000E+00
  8.30000000E+02  1.20000000E+01  0.00000000E+00
  8.30000000E+02  1.00000000E+01  0.00000000E+00
  8.30000000E+02  8.00000000E+00  0.00000000E+00
  8.30000000E+02  6.00000000E+00  0.00000000E+00
  8.30000000E+02  4.00000000E+00  0.00000000E+00
  8.30000000E+02  2.00000000E+00  0.00000000E+00
  8.30000000E+02 -3.33066907E-14  0.00000000E+00
  8.40000000E+02  1.00000000E+02  0.00000000E+00
  8.40000000E+02  9.80000000E+01  0.00000000E+00
  8.40000000E+02  9.60000000E+01  0.00000000E+00
  8.40000000E+02  9.40000000E+01  0.00000000E+00
  8.40000000E+02  9.20000000E+01  0.00000000E+00
  8.40000000E+02  9.00000000E+01  0.00000000E+00
  8.40000000E+02  8.80000000E+01  0.00000000E+00
  8.40000000E+02  8.60000000E+01  0.00000000E+00
  8.40000000E+02  8.40000000E+01  0.00000000E+00
  8.40000000E+02  8.20000000E+01  0.00000000E+00
  8.40000000E+02  8.00000000E+01  0.00000000E+00
  8.40000000E+02  7.80000000E+01  0.00000000E+00
  8.40000000E+02  7.60000000E+01  0.00000000E+00
  8.40000000E+02  7.40000000E+01  0.00000000E+00
  8.40000000E+02  7.20000000E+01  0.00000000E+00
  8.40000000E+02  7.00000000E+01  0.00000000E+00
  8.40000000E+02  6.80000000E+01  0.00000000E+00
  8.40000000E+02  6.60000000E+01  0.00000000E+00
  8.40000000E+02  6.40000000E+01  0.00000000E+00
  8.40000000E+02  6.20000000E+01  0.00000000E+00
  8.40000000E+02  6.00000000E+01  0.00000000E+00
  8.40000000E+02  5.80000000E+01  0.00000000E+00
  8.40000000E+02  5.60000000E+01  0.00000000E+00
  8.40000000E+02  5.40000000E+01  0.00000000E+00
  8.40000000E+02  5.20000000E+01  0.00000000E+00
  8.40000000E+02  5.00000000E+01  0.00000000E+00
  8.40000000E+02  4.80000000E+01  0.00000000E+00
  8.40000000E+02  4.60000000E+01  0.00000000E+00
  8.40000000E+02  4.40000000E+01  0.00000000E+00
  8.40000000E+02  4.20000000E+01  0.00000000E+00
  8.40000000E+02  4.00000000E+01  0.00000000E+00
  8.40000000E+02  3.80000000E+01  0.00000000E+00
  8.40000000E+02  3.60000000E+01  0.00000000E+00
  8.40000000E+02  3.40000000E+01  0.00000000E+00
  8.40000000E+02  3.20000000E+01  0.00000000E+00
  8.40000000E+02  3.00000000E+01  0.00000000E+00
  8.40000000E+02  2.80000000E+01  0.00000000E+00
  8.40000000E+02  2.60000000E+01  0.00000000E+00
  8.40000000E+02  2.40000000E+01  0.00000000E+00
  8.40000000E+02  2.20000000E+01  0.00000000E+00
  8.40000000E+02  2.00000000E+01  0.00000000E+00
  8.40000000E+02  1.80000000E+01  0.00000000E+00
  8.40000000E+02  1.60000000E+01  0.00000000E+00
  8.40000000E+02  1.40000000E+01  0.00000000E+00
  8.40000000E+02  1.20000000E+01  0.00000000E+00
  8.40000000E+02  1.00000000E+01  0.00000000E+00
  8.40000000E+02  8.00000000E+00  0.00000000E+00
  8.40000000E+02  6.00000000E+00  0.00000000E+00
  8.40000000E+02  4.00000000E+00  0.00000000E+00
  8.40000000E+02  2.00000000E+00  0.00000000E+00
  8.40000000E+02 -3.33066907E-14  0.00000000E+00
  8.50000000E+02  1.00000000E+02  0.00000000E+00
  8.50000000E+02  9.80000000E+01  0.00000000E+00
  8.50000000E+02  9.60000000E+01  0.00000000E+00
  8.50000000E+02  9.40000000E+01  0.00000000E+00
  8.50000000E+02  9.20000000E+01  0.00000000E+00
  8.50000000E+02  9.00000000E+01  0.00000000E+00
  8.50000000E+02  8.80000000E+01  0.00000000E+00
  8.50000000E+02  8.60000000E+01  0.00000000E+00
  8.50000000E+02  8.40000000E+01  0.00000000E+00
  8.50000000E+02  8.20000000E+01  0.00000000E+00
  8.50000000E+02  8.00000000E+01  0.00000000E+00
  8.50000000E+02  7.80000000E+01  0.00000000E+00
  8.50000000E+02  7.60000000E+01  0.00000000E+00
  8.50000000E+02  7.40000000E+01  0.00000000E+00
  8.50000000E+02  7.20000000E+01  0.00000000E+00
  8.50000000E+02  7.00000000E+01  0.00000000E+00
  8.50000000E+02  6.80000000E+01  0.00000000E+00
  8.50000000E+02  6.60000000E+01  0.00000000E+00
  8.50000000E+02  6.40000000E+01  0.00000000E+00
  8.50000000E+02  6.20000000E+01  0.00000000E+00
  8.50000000E+02  6.00000000E+01  0.00000000E+00
  8.50000000E+02  5.80000000E+01  0.00000000E+00
  8.50000000E+02  5.60000000E+01  0.00000000E+00
  8.50000000E+02  5.40000000E+01  0.00000000E+00
  8.50000000E+02  5.20000000E+01  0.00000000E+00
  8.50000000E+02  5.00000000E+01  0.00000000E+00
  8.50000000E+02  4.80000000E+01  0.00000000E+00
  8.50000000E+02  4.60000000E+01  0.00000000E+00
  8.50000000E+02  4.40000000E+01  0.00000000E+00
  8.50000000E+02  4.20000000E+01  0.00000000E+00
  8.50000000E+02  4.00000000E+01  0.00000000E+00
  8.50000000E+02  3.80000000E+01  0.00000000E+00
  8.50000000E+02  3.60000000E+01  0.00000000E+00
  8.50000000E+02  3.40000000E+01  0.00000000E+00
  8.50000000E+02  3.20000000E+01  0.00000000E+00
  8.50000000E+02  3.00000000E+01  0.00000000E+00
  8.50000000E+02  2.80000000E+01  0.00000000E+00
  8.50000000E+02  2.60000000E+01  0.00000000E+00
  8.50000000E+02  2.40000000E+01  0.00000000E+00
  8.50000000E+02  2.20000000E+01  0.00000000E+00
  8.50000000E+02  2.00000000E+01  0.00000000E+00
  8.50000000E+02  1.80000000E+01  0.00000000E+00
  8.50000000E+02  1.60000000E+01  0.00000000E+00
  8.50000000E+02  1.40000000E+01  0.00000000E+00
  8.50000000E+02  1.20000000E+01  0.00000000E+00
  8.50000000E+02  1.00000000E+01  0.00000000E+00
  8.50000000E+02  8.00000000E+00  0.00000000E+00
  8.50000000E+02  6.00000000E+00  0.00000000E+00
  8.50000000E+02  4.00000000E+00  0.00000000E+00
  8.50000000E+02  2.00000000E+00  0.00000000E+00
  8.50000000E+02 -3.33066907E-14  0.00000000E+00
  8.60000000E+02  1.00000000E+02  0.00000000E+00
  8.60000000E+02  9.80000000E+01  0.00000000E+00
  8.60000000E+02  9.60000000E+01  0.00000000E+00
  8.60000000E+02  9.40000000E+01  0.00000000E+00
  8.60000000E+02  9.20000000E+01  0.00000000E+00
  8.60000000E+02  9.00000000E+01  0.00000000E+00
  8.60000000E+02  8.80000000E+01  0.00000000E+00
  8.60000000E+02  8.60000000E+01  0.00000000E+00
  8.60000000E+02  8.40000000E+01  0.00000000E+00
  8.60000000E+02  8.20000000E+01  0.00000000E+00
  8.60000000E+02  8.00000000E+01  0.00000000E+00
  8.60000000E+02  7.80000000E+01  0.00000000E+00
  8.60000000E+02  7.60000000E+01  0.00000000E+00
  8.60000000E+02  7.40000000E+01  0.00000000E+00
  8.60000000E+02  7.20000000E+01  0.00000000E+00
  8.60000000E+02  7.00000000E+01  0.00000000E+00
  8.60000000E+02  6.80000000E+01  0.00000000E+00
  8.60000000E+02  6.60000000E+01  0.00000000E+00
  8.60000000E+02  6.40000000E+01  0.00000000E+00
  8.60000000E+02  6.20000000E+01  0.00000000E+00
  8.60000000E+02  6.00000000E+01  0.00000000E+00
  8.60000000E+02  5.80000000E+01  0.00000000E+00
  8.60000000E+02  5.60000000E+01  0.00000000E+00
  8.60000000E+02  5.40000000E+01  0.00000000E+00
  8.60000000E+02  5.20000000E+01  0.00000000E+00
  8.60000000E+02  5.00000000E+01  0.00000000E+00
  8.60000000E+02  4.80000000E+01  0.00000000E+00
  8.60000000E+02  4.60000000E+01  0.00000000E+00
  8.60000000E+02  4.40000000E+01  0.00000000E+00
  8.60000000E+02  4.20000000E+01  0.00000000E+00
  8.60000000E+02  4.00000000E+01  0.00000000E+00
  8.60000000E+02  3.80000000E+01  0.00000000E+00
  8.60000000E+02  3.60000000E+01  0.00000000E+00
  8.60000000E+02  3.40000000E+01  0.00000000E+00
  8.60000000E+02  3.20000000E+01  0.00000000E+00
  8.60000000E+02  3.00000000E+01  0.00000000E+00
  8.60000000E+02  2.80000000E+01  0.00000000E+00
  8.60000000E+02  2.60000000E+01  0.00000000E+00
  8.60000000E+02  2.40000000E+01  0.00000000E+00
  8.60000000E+02  2.20000000E+01  0.00000000E+00
  8.60000000E+02  2.00000000E+01  0.00000000E+00
  8.60000000E+02  1.80000000E+01  0.00000000E+00
  8.60000000E+02  1.60000000E+01  0.00000000E+00
  8.60000000E+02  1.40000000E+01  0.00000000E+00
  8.60000000E+02  1.20000000E+01  0.00000000E+00
  8.60000000E+02  1.00000000E+01  0.00000000E+00
  8.60000000E+02  8.00000000E+00  0.00000000E+00
  8.60000000E+02  6.00000000E+00  0.00000000E+00
  8.60000000E+02  4.00000000E+00  0.00000000E+00
  8.60000000E+02  2.00000000E+00  0.00000000E+00
  8.60000000E+02 -3.33066907E-14  0.00000000E+00
  8.70000000E+02  1.00000000E+02  0.00000000E+00
  8.70000000E+02  9.80000000E+01  0.00000000E+00
  8.70000000E+02  9.60000000E+01  0.00000000E+00
  8.70000000E+02  9.40000000E+01  0.00000000E+00
  8.70000000E+02  9.20000000E+01  0.00000000E+00
  8.70000000E+02  9.00000000E+01  0.00000000E+00
  8.70000000E+02  8.80000000E+01  0.00000000E+00
  8.70000000E+02  8.60000000E+01  0.00000000E+00
  8.70000000E+02  8.40000000E+01  0.00000000E+00
  8.70000000E+02  8.20000000E+01  0.00000000E+00
  8.70000000E+02  8.00000000E+01  0.00000000E+00
  8.70000000E+02  7.80000000E+01  0.00000000E+00
  8.70000000E+02  7.60000000E+01  0.00000000E+00
  8.70000000E+02  7.40000000E+01  0.00000000E+00
  8.70000000E+02  7.20000000E+01  0.00000000E+00
  8.70000000E+02  7.00000000E+01  0.00000000E+00
  8.70000000E+02  6.80000000E+01  0.00000000E+00
  8.70000000E+02  6.60000000E+01  0.00000000E+00
  8.70000000E+02  6.40000000E+01  0.00000000E+00
  8.70000000E+02  6.20000000E+01  0.00000000E+00
  8.70000000E+02  6.00000000E+01  0.00000000E+00
  8.70000000E+02  5.80000000E+01  0.00000000E+00
  8.70000000E+02  5.60000000E+01  0.00000000E+00
  8.70000000E+02  5.40000000E+01  0.00000000E+00
  8.70000000E+02  5.20000000E+01  0.00000000E+00
  8.70000000E+02  5.00000000E+01  0.00000000E+00
  8.70000000E+02  4.80000000E+01  0.00000000E+00
  8.70000000E+02  4.60000000E+01  0.00000000E+00
  8.70000000E+02  4.40000000E+01  0.00000000E+00
  8.70000000E+02  4.20000000E+01  0.00000000E+00
  8.70000000E+02  4.00000000E+01  0.00000000E+00
  8.70000000E+02  3.80000000E+01  0.00000000E+00
  8.70000000E+02  3.60000000E+01  0.00000000E+00
  8.70000000E+02  3.40000000E+01  0.00000000E+00
  8.70000000E+02  3.20000000E+01  0.00000000E+00
  8.70000000E+02  3.00000000E+01  0.00000000E+00
  8.70000000E+02  2.80000000E+01  0.00000000E+00
  8.70000000E+02  2.60000000E+01  0.00000000E+00
  8.70000000E+02  2.40000000E+01  0.00000000E+00
  8.70000000E+02  2.20000000E+01  0.00000000E+00
  8.70000000E+02  2.00000000E+01  0.00000000E+00
  8.70000000E+02  1.80000000E+01  0.00000000E+00
  8.70000000E+02  1.60000000E+01  0.00000000E+00
  8.70000000E+02  1.40000000E+01  0.00000000E+00
  8.70000000E+02  1.20000000E+01  0.00000000E+00
  8.70000000E+02  1.00000000E+01  0.00000000E+00
  8.70000000E+02  8.00000000E+00  0.00000000E+00
  8.70000000E+02  6.00000000E+00  0.00000000E+00
  8.70000000E+02  4.00000000E+00  0.00000000E+00
  8.70000000E+02  2.00000000E+00  0.00000000E+00
  8.70000000E+02 -3.33066907E-14  0.00000000E+00
  8.80000000E+02  1.00000000E+02  0.00000000E+00
  8.80000000E+02  9.80000000E+01  0.00000000E+00
  8.80000000E+02  9.60000000E+01  0.00000000E+00
  8.80000000E+02  9.40000000E+01  0.00000000E+00
  8.80000000E+02  9.20000000E+01  0.00000000E+00
  8.80000000E+02  9.00000000E+01  0.00000000E+00
  8.80000000E+02  8.80000000E+01  0.00000000E+00
  8.80000000E+02  8.60000000E+01  0.00000000E+00
  8.80000000E+02  8.40000000E+01  0.00000000E+00
  8.80000000E+02  8.20000000E+01  0.00000000E+00
  8.80000000E+02  8.00000000E+01  0.00000000E+00
  8.80000000E+02  7.80000000E+01  0.00000000E+00
  8.80000000E+02  7.60000000E+01  0.00000000E+00
  8.80000000E+02  7.40000000E+01  0.00000000E+00
  8.80000000E+02  7.20000000E+01  0.00000000E+00
  8.80000000E+02  7.00000000E+01  0.00000000E+00
  8.80000000E+02  6.80000000E+01  0.00000000E+00
  8.80000000E+02  6.60000000E+01  0.00000000E+00
  8.80000000E+02  6.40000000E+01  0.00000000E+00
  8.80000000E+02  6.20000000E+01  0.00000000E+00
  8.80000000E+02  6.00000000E+01  0.00000000E+00
  8.80000000E+02  5.80000000E+01  0.00000000E+00
  8.80000000E+02  5.60000000E+01  0.00000000E+00
  8.80000000E+02  5.40000000E+01  0.00000000E+00
  8.80000000E+02  5.20000000E+01  0.00000000E+00
  8.80000000E+02  5.00000000E+01  0.00000000E+00
  8.80000000E+02  4.80000000E+01  0.00000000E+00
  8.80000000E+02  4.60000000E+01  0.00000000E+00
  8.80000000E+02  4.40000000E+01  0.00000000E+00
  8.80000000E+02  4.20000000E+01  0.00000000E+00
  8.80000000E+02  4.00000000E+01  0.00000000E+00
  8.80000000E+02  3.80000000E+01  0.00000000E+00
  8.80000000E+02  3.60000000E+01  0.00000000E+00
  8.80000000E+02  3.40000000E+01  0.00000000E+00
  8.80000000E+02  3.20000000E+01  0.00000000E+00
  8.80000000E+02  3.00000000E+01  0.00000000E+00
  8.80000000E+02  2.80000000E+01  0.00000000E+00
  8.80000000E+02  2.60000000E+01  0.00000000E+00
  8.80000000E+02  2.40000000E+01  0.00000000E+00
  8.80000000E+02  2.20000000E+01  0.00000000E+00
  8.80000000E+02  2.00000000E+01  0.00000000E+00
  8.80000000E+02  1.80000000E+01  0.00000000E+00
  8.80000000E+02  1.60000000E+01  0.00000000E+00
  8.80000000E+02  1.40000000E+01  0.00000000E+00
  8.80000000E+02  1.20000000E+01  0.00000000E+00
  8.80000000E+02  1.00000000E+01  0.00000000E+00
  8.80000000E+02  8.00000000E+00  0.00000000E+00
  8.80000000E+02  6.00000000E+00  0.00000000E+00
  8.80000000E+02  4.00000000E+00  0.00000000E+00
  8.80000000E+02  2.00000000E+00  0.00000000E+00
  8.80000000E+02 -3.33066907E-14  0.00000000E+00
  8.90000000E+02  1.00000000E+02  0.00000000E+00
  8.90000000E+02  9.80000000E+01  0.00000000E+00
  8.90000000E+02  9.60000000E+01  0.00000000E+00
  8.90000000E+02  9.40000000E+01  0.00000000E+00
  8.90000000E+02  9.20000000E+01  0.00000000E+00
  8.90000000E+02  9.00000000E+01  0.00000000E+00
  8.90000000E+02  8.80000000E+01  0.00000000E+00
  8.90000000E+02  8.60000000E+01  0.00000000E+00
  8.90000000E+02  8.40000000E+01  0.00000000E+00
  8.90000000E+02  8.20000000E+01  0.00000000E+00
  8.90000000E+02  8.00000000E+01  0.00000000E+00
  8.90000000E+02  7.80000000E+01  0.00000000E+00
  8.90000000E+02  7.60000000E+01  0.00000000E+00
  8.90000000E+02  7.40000000E+01  0.00000000E+00
  8.90000000E+02  7.20000000E+01  0.00000000E+00
  8.90000000E+02  7.00000000E+01  0.00000000E+00
  8.90000000E+02  6.80000000E+01  0.00000000E+00
  8.90000000E+02  6.60000000E+01  0.00000000E+00
  8.90000000E+02  6.40000000E+01  0.00000000E+00
  8.90000000E+02  6.20000000E+01  0.00000000E+00
  8.90000000E+02  6.00000000E+01  0.00000000E+00
  8.90000000E+02  5.80000000E+01  0.00000000E+00
  8.90000000E+02  5.60000000E+01  0.00000000E+00
  8.90000000E+02  5.40000000E+01  0.00000000E+00
  8.90000000E+02  5.20000000E+01  0.00000000E+00
  8.90000000E+02  5.00000000E+01  0.00000000E+00
  8.90000000E+02  4.80000000E+01  0.00000000E+00
  8.90000000E+02  4.60000000E+01  0.00000000E+00
  8.90000000E+02  4.40000000E+01  0.00000000E+00
  8.90000000E+02  4.20000000E+01  0.00000000E+00
  8.90000000E+02  4.00000000E+01  0.00000000E+00
  8.90000000E+02  3.80000000E+01  0.00000000E+00
  8.90000000E+02  3.60000000E+01  0.00000000E+00
  8.90000000E+02  3.40000000E+01  0.00000000E+00
  8.90000000E+02  3.20000000E+01  0.00000000E+00
  8.90000000E+02  3.00000000E+01  0.00000000E+00
  8.90000000E+02  2.80000000E+01  0.00000000E+00
  8.90000000E+02  2.60000000E+01  0.00000000E+00
  8.90000000E+02  2.40000000E+01  0.00000000E+00
  8.90000000E+02  2.20000000E+01  0.00000000E+00
  8.90000000E+02  2.00000000E+01  0.00000000E+00
  8.90000000E+02  1.80000000E+01  0.00000000E+00
  8.90000000E+02  1.60000000E+01  0.00000000E+00
  8.90000000E+02  1.40000000E+01  0.00000000E+00
  8.90000000E+02  1.20000000E+01  0.00000000E+00
  8.90000000E+02  1.00000000E+01  0.00000000E+00
  8.90000000E+02  8.00000000E+00  0.00000000E+00
  8.90000000E+02  6.00000000E+00  0.00000000E+00
  8.90000000E+02  4.00000000E+00  0.00000000E+00
  8.90000000E+02  2.00000000E+00  0.00000000E+00
  8.90000000E+02 -3.33066907E-14  0.00000000E+00
  9.00000000E+02  1.00000000E+02  0.00000000E+00
  9.00000000E+02  9.80000000E+01  0.00000000E+00
  9.00000000E+02  9.60000000E+01  0.00000000E+00
  9.00000000E+02  9.40000000E+01  0.00000000E+00
  9.00000000E+02  9.20000000E+01  0.00000000E+00
  9.00000000E+02  9.00000000E+01  0.00000000E+00
  9.00000000E+02  8.80000000E+01  0.00000000E+00
  9.00000000E+02  8.60000000E+01  0.00000000E+00
  9.00000000E+02  8.40000000E+01  0.00000000E+00
  9.00000000E+02  8.20000000E+01  0.00000000E+00
  9.00000000E+02  8.00000000E+01  0.00000000E+00
  9.00000000E+02  7.80000000E+01  0.00000000E+00
  9.00000000E+02  7.60000000E+01  0.00000000E+00
  9.00000000E+02  7.40000000E+01  0.00000000E+00
  9.00000000E+02  7.20000000E+01  0.00000000E+00
  9.00000000E+02  7.00000000E+01  0.00000000E+00
  9.00000000E+02  6.80000000E+01  0.00000000E+00
  9.00000000E+02  6.60000000E+01  0.00000000E+00
  9.00000000E+02  6.40000000E+01  0.00000000E+00
  9.00000000E+02  6.20000000E+01  0.00000000E+00
  9.00000000E+02  6.00000000E+01  0.00000000E+00
  9.00000000E+02  5.80000000E+01  0.00000000E+00
  9.00000000E+02  5.60000000E+01  0.00000000E+00
  9.00000000E+02  5.40000000E+01  0.00000000E+00
  9.00000000E+02  5.20000000E+01  0.00000000E+00
  9.00000000E+02  5.00000000E+01  0.00000000E+00
  9.00000000E+02  4.80000000E+01  0.00000000E+00
  9.00000000E+02  4.60000000E+01  0.00000000E+00
  9.00000000E+02  4.40000000E+01  0.00000000E+00
  9.00000000E+02  4.20000000E+01  0.00000000E+00
  9.00000000E+02  4.00000000E+01  0.00000000E+00
  9.00000000E+02  3.80000000E+01  0.00000000E+00
  9.00000000E+02  3.60000000E+01  0.00000000E+00
  9.00000000E+02  3.40000000E+01  0.00000000E+00
  9.00000000E+02  3.20000000E+01  0.00000000E+00
  9.00000000E+02  3.00000000E+01  0.00000000E+00
  9.00000000E+02  2.80000000E+01  0.00000000E+00
  9.00000000E+02  2.60000000E+01  0.00000000E+00
  9.00000000E+02  2.40000000E+01  0.00000000E+00
  9.00000000E+02  2.20000000E+01  0.00000000E+00
  9.00000000E+02  2.00000000E+01  0.00000000E+00
  9.00000000E+02  1.80000000E+01  0.00000000E+00
  9.00000000E+02  1.60000000E+01  0.00000000E+00
  9.00000000E+02  1.40000000E+01  0.00000000E+00
  9.00000000E+02  1.20000000E+01  0.00000000E+00
  9.00000000E+02  1.00000000E+01  0.00000000E+00
  9.00000000E+02  8.00000000E+00  0.00000000E+00
  9.00000000E+02  6.00000000E+00  0.00000000E+00
  9.00000000E+02  4.00000000E+00  0.00000000E+00
  9.00000000E+02  2.00000000E+00  0.00000000E+00
  9.00000000E+02 -3.33066907E-14  0.00000000E+00
  9.10000000E+02  1.00000000E+02  0.00000000E+00
  9.10000000E+02  9.80000000E+01  0.00000000E+00
  9.10000000E+02  9.60000000E+01  0.00000000E+00
  9.10000000E+02  9.40000000E+01  0.00000000E+00
  9.10000000E+02  9.20000000E+01  0.00000000E+00
  9.10000000E+02  9.00000000E+01  0.00000000E+00
  9.10000000E+02  8.80000000E+01  0.00000000E+00
  9.10000000E+02  8.60000000E+01  0.00000000E+00
  9.10000000E+02  8.40000000E+01  0.00000000E+00
  9.10000000E+02  8.20000000E+01  0.00000000E+00
  9.10000000E+02  8.00000000E+01  0.00000000E+00
  9.10000000E+02  7.80000000E+01  0.00000000E+00
  9.10000000E+02  7.60000000E+01  0.00000000E+00
  9.10000000E+02  7.40000000E+01  0.00000000E+00
  9.10000000E+02  7.20000000E+01  0.00000000E+00
  9.10000000E+02  7.00000000E+01  0.00000000E+00
  9.10000000E+02  6.80000000E+01  0.00000000E+00
  9.10000000E+02  6.60000000E+01  0.00000000E+00
  9.10000000E+02  6.40000000E+01  0.00000000E+00
  9.10000000E+02  6.20000000E+01  0.00000000E+00
  9.10000000E+02  6.00000000E+01  0.00000000E+00
  9.10000000E+02  5.80000000E+01  0.00000000E+00
  9.10000000E+02  5.60000000E+01  0.00000000E+00
  9.10000000E+02  5.40000000E+01  0.00000000E+00
  9.10000000E+02  5.20000000E+01  0.00000000E+00
  9.10000000E+02  5.00000000E+01  0.00000000E+00
  9.10000000E+02  4.80000000E+01  0.00000000E+00
  9.10000000E+02  4.60000000E+01  0.00000000E+00
  9.10000000E+02  4.40000000E+01  0.00000000E+00
  9.10000000E+02  4.20000000E+01  0.00000000E+00
  9.10000000E+02  4.00000000E+01  0.00000000E+00
  9.10000000E+02  3.80000000E+01  0.00000000E+00
  9.10000000E+02  3.60000000E+01  0.00000000E+00
  9.10000000E+02  3.40000000E+01  0.00000000E+00
  9.10000000E+02  3.20000000E+01  0.00000000E+00
  9.10000000E+02  3.00000000E+01  0.00000000E+00
  9.10000000E+02  2.80000000E+01  0.00000000E+00
  9.10000000E+02  2.60000000E+01  0.00000000E+00
  9.10000000E+02  2.40000000E+01  0.00000000E+00
  9.10000000E+02  2.20000000E+01  0.00000000E+00
  9.10000000E+02  2.00000000E+01  0.00000000E+00
  9.10000000E+02  1.80000000E+01  0.00000000E+00
  9.10000000E+02  1.60000000E+01  0.00000000E+00
  9.10000000E+02  1.40000000E+01  0.00000000E+00
  9.10000000E+02  1.20000000E+01  0.00000000E+00
  9.10000000E+02  1.00000000E+01  0.00000000E+00
  9.10000000E+02  8.00000000E+00  0.00000000E+00
  9.10000000E+02  6.00000000E+00  0.00000000E+00
  9.10000000E+02  4.00000000E+00  0.00000000E+00
  9.10000000E+02  2.00000000E+00  0.00000000E+00
  9.10000000E+02 -3.33066907E-14  0.00000000E+00
  9.20000000E+02  1.00000000E+02  0.00000000E+00
  9.20000000E+02  9.80000000E+01  0.00000000E+00
  9.20000000E+02  9.60000000E+01  0.00000000E+00
  9.20000000E+02  9.40000000E+01  0.00000000E+00
  9.20000000E+02  9.20000000E+01  0.00000000E+00
  9.20000000E+02  9.00000000E+01  0.00000000E+00
  9.20000000E+02  8.80000000E+01  0.00000000E+00
  9.20000000E+02  8.60000000E+01  0.00000000E+00
  9.20000000E+02  8.40000000E+01  0.00000000E+00
  9.20000000E+02  8.20000000E+01  0.00000000E+00
  9.20000000E+02  8.00000000E+01  0.00000000E+00
  9.20000000E+02  7.80000000E+01  0.00000000E+00
  9.20000000E+02  7.60000000E+01  0.00000000E+00
  9.20000000E+02  7.40000000E+01  0.00000000E+00
  9.20000000E+02  7.20000000E+01  0.00000000E+00
  9.20000000E+02  7.00000000E+01  0.00000000E+00
  9.20000000E+02  6.80000000E+01  0.00000000E+00
  9.20000000E+02  6.60000000E+01  0.00000000E+00
  9.20000000E+02  6.40000000E+01  0.00000000E+00
  9.20000000E+02  6.20000000E+01  0.00000000E+00
  9.20000000E+02  6.00000000E+01  0.00000000E+00
  9.20000000E+02  5.80000000E+01  0.00000000E+00
  9.20000000E+02  5.60000000E+01  0.00000000E+00
  9.20000000E+02  5.40000000E+01  0.00000000E+00
  9.20000000E+02  5.20000000E+01  0.00000000E+00
  9.20000000E+02  5.00000000E+01  0.00000000E+00
  9.20000000E+02  4.80000000E+01  0.00000000E+00
  9.20000000E+02  4.60000000E+01  0.00000000E+00
  9.20000000E+02  4.40000000E+01  0.00000000E+00
  9.20000000E+02  4.20000000E+01  0.00000000E+00
  9.20000000E+02  4.00000000E+01  0.00000000E+00
  9.20000000E+02  3.80000000E+01  0.00000000E+00
  9.20000000E+02  3.60000000E+01  0.00000000E+00
  9.20000000E+02  3.40000000E+01  0.00000000E+00
  9.20000000E+02  3.20000000E+01  0.00000000E+00
  9.20000000E+02  3.00000000E+01  0.00000000E+00
  9.20000000E+02  2.80000000E+01  0.00000000E+00
  9.20000000E+02  2.60000000E+01  0.00000000E+00
  9.20000000E+02  2.40000000E+01  0.00000000E+00
  9.20000000E+02  2.20000000E+01  0.00000000E+00
  9.20000000E+02  2.00000000E+01  0.00000000E+00
  9.20000000E+02  1.80000000E+01  0.00000000E+00
  9.20000000E+02  1.60000000E+01  0.00000000E+00
  9.20000000E+02  1.40000000E+01  0.00000000E+00
  9.20000000E+02  1.20000000E+01  0.00000000E+00
  9.20000000E+02  1.00000000E+01  0.00000000E+00
  9.20000000E+02  8.00000000E+00  0.00000000E+00
  9.20000000E+02  6.00000000E+00  0.00000000E+00
  9.20000000E+02  4.00000000E+00  0.00000000E+00
  9.20000000E+02  2.00000000E+00  0.00000000E+00
  9.20000000E+02 -3.33066907E-14  0.00000000E+00
  9.30000000E+02  1.00000000E+02  0.00000000E+00
  9.30000000E+02  9.80000000E+01  0.00000000E+00
  9.30000000E+02  9.60000000E+01  0.00000000E+00
  9.30000000E+02  9.40000000E+01  0.00000000E+00
  9.30000000E+02  9.20000000E+01  0.00000000E+00
  9.30000000E+02  9.00000000E+01  0.00000000E+00
  9.30000000E+02  8.80000000E+01  0.00000000E+00
  9.30000000E+02  8.60000000E+01  0.00000000E+00
  9.30000000E+02  8.40000000E+01  0.00000000E+00
  9.30000000E+02  8.20000000E+01  0.00000000E+00
  9.30000000E+02  8.00000000E+01  0.00000000E+00
  9.30000000E+02  7.80000000E+01  0.00000000E+00
  9.30000000E+02  7.60000000E+01  0.00000000E+00
  9.30000000E+02  7.40000000E+01  0.00000000E+00
  9.30000000E+02  7.20000000E+01  0.00000000E+00
  9.30000000E+02  7.00000000E+01  0.00000000E+00
  9.30000000E+02  6.80000000E+01  0.00000000E+00
  9.30000000E+02  6.60000000E+01  0.00000000E+00
  9.30000000E+02  6.40000000E+01  0.00000000E+00
  9.30000000E+02  6.20000000E+01  0.00000000E+00
  9.30000000E+02  6.00000000E+01  0.00000000E+00
  9.30000000E+02  5.80000000E+01  0.00000000E+00
  9.30000000E+02  5.60000000E+01  0.00000000E+00
  9.30000000E+02  5.40000000E+01  0.00000000E+00
  9.30000000E+02  5.20000000E+01  0.00000000E+00
  9.30000000E+02  5.00000000E+01  0.00000000E+00
  9.30000000E+02  4.80000000E+01  0.00000000E+00
  9.30000000E+02  4.60000000E+01  0.00000000E+00
  9.30000000E+02  4.40000000E+01  0.00000000E+00
  9.30000000E+02  4.20000000E+01  0.00000000E+00
  9.30000000E+02  4.00000000E+01  0.00000000E+00
  9.30000000E+02  3.80000000E+01  0.00000000E+00
  9.30000000E+02  3.60000000E+01  0.00000000E+00
  9.30000000E+02  3.40000000E+01  0.00000000E+00
  9.30000000E+02  3.20000000E+01  0.00000000E+00
  9.30000000E+02  3.00000000E+01  0.00000000E+00
  9.30000000E+02  2.80000000E+01  0.00000000E+00
  9.30000000E+02  2.60000000E+01  0.00000000E+00
  9.30000000E+02  2.40000000E+01  0.00000000E+00
  9.30000000E+02  2.20000000E+01  0.00000000E+00
  9.30000000E+02  2.00000000E+01  0.00000000E+00
  9.30000000E+02  1.80000000E+01  0.00000000E+00
  9.30000000E+02  1.60000000E+01  0.00000000E+00
  9.30000000E+02  1.40000000E+01  0.00000000E+00
  9.30000000E+02  1.20000000E+01  0.00000000E+00
  9.30000000E+02  1.00000000E+01  0.00000000E+00
  9.30000000E+02  8.00000000E+00  0.00000000E+00
  9.30000000E+02  6.00000000E+00  0.00000000E+00
  9.30000000E+02  4.00000000E+00  0.00000000E+00
  9.30000000E+02  2.00000000E+00  0.00000000E+00
  9.30000000E+02 -3.33066907E-14  0.00000000E+00
  9.40000000E+02  1.00000000E+02  0.00000000E+00
  9.40000000E+02  9.80000000E+01  0.00000000E+00
  9.40000000E+02  9.60000000E+01  0.00000000E+00
  9.40000000E+02  9.40000000E+01  0.00000000E+00
  9.40000000E+02  9.20000000E+01  0.00000000E+00
  9.40000000E+02  9.00000000E+01  0.00000000E+00
  9.40000000E+02  8.80000000E+01  0.00000000E+00
  9.40000000E+02  8.60000000E+01  0.00000000E+00
  9.40000000E+02  8.40000000E+01  0.00000000E+00
  9.40000000E+02  8.20000000E+01  0.00000000E+00
  9.40000000E+02  8.00000000E+01  0.00000000E+00
  9.40000000E+02  7.80000000E+01  0.00000000E+00
  9.40000000E+02  7.60000000E+01  0.00000000E+00
  9.40000000E+02  7.40000000E+01  0.00000000E+00
  9.40000000E+02  7.20000000E+01  0.00000000E+00
  9.40000000E+02  7.00000000E+01  0.00000000E+00
  9.40000000E+02  6.80000000E+01  0.00000000E+00
  9.40000000E+02  6.60000000E+01  0.00000000E+00
  9.40000000E+02  6.40000000E+01  0.00000000E+00
  9.40000000E+02  6.20000000E+01  0.00000000E+00
  9.40000000E+02  6.00000000E+01  0.00000000E+00
  9.40000000E+02  5.80000000E+01  0.00000000E+00
  9.40000000E+02  5.60000000E+01  0.00000000E+00
  9.40000000E+02  5.40000000E+01  0.00000000E+00
  9.40000000E+02  5.20000000E+01  0.00000000E+00
  9.40000000E+02  5.00000000E+01  0.00000000E+00
  9.40000000E+02  4.80000000E+01  0.00000000E+00
  9.40000000E+02  4.60000000E+01  0.00000000E+00
  9.40000000E+02  4.40000000E+01  0.00000000E+00
  9.40000000E+02  4.20000000E+01  0.00000000E+00
  9.40000000E+02  4.00000000E+01  0.00000000E+00
  9.40000000E+02  3.80000000E+01  0.00000000E+00
  9.40000000E+02  3.60000000E+01  0.00000000E+00
  9.40000000E+02  3.40000000E+01  0.00000000E+00
  9.40000000E+02  3.20000000E+01  0.00000000E+00
  9.40000000E+02  3.00000000E+01  0.00000000E+00
  9.40000000E+02  2.80000000E+01  0.00000000E+00
  9.40000000E+02  2.60000000E+01  0.00000000E+00
  9.40000000E+02  2.40000000E+01  0.00000000E+00
  9.40000000E+02  2.20000000E+01  0.00000000E+00
  9.40000000E+02  2.00000000E+01  0.00000000E+00
  9.40000000E+02  1.80000000E+01  0.00000000E+00
  9.40000000E+02  1.60000000E+01  0.00000000E+00
  9.40000000E+02  1.40000000E+01  0.00000000E+00
  9.40000000E+02  1.20000000E+01  0.00000000E+00
  9.40000000E+02  1.00000000E+01  0.00000000E+00
  9.40000000E+02  8.00000000E+00  0.00000000E+00
  9.40000000E+02  6.00000000E+00  0.00000000E+00
  9.40000000E+02  4.00000000E+00  0.00000000E+00
  9.40000000E+02  2.00000000E+00  0.00000000E+00
  9.40000000E+02 -3.33066907E-14  0.00000000E+00
  9.50000000E+02  1.00000000E+02  0.00000000E+00
  9.50000000E+02  9.80000000E+01  0.00000000E+00
  9.50000000E+02  9.60000000E+01  0.00000000E+00
  9.50000000E+02  9.40000000E+01  0.00000000E+00
  9.50000000E+02  9.20000000E+01  0.00000000E+00
  9.50000000E+02  9.00000000E+01  0.00000000E+00
  9.50000000E+02  8.80000000E+01  0.00000000E+00
  9.50000000E+02  8.60000000E+01  0.00000000E+00
  9.50000000E+02  8.40000000E+01  0.00000000E+00
  9.50000000E+02  8.20000000E+01  0.00000000E+00
  9.50000000E+02  8.00000000E+01  0.00000000E+00
  9.50000000E+02  7.80000000E+01  0.00000000E+00
  9.50000000E+02  7.60000000E+01  0.00000000E+00
  9.50000000E+02  7.40000000E+01  0.00000000E+00
  9.50000000E+02  7.20000000E+01  0.00000000E+00
  9.50000000E+02  7.00000000E+01  0.00000000E+00
  9.50000000E+02  6.80000000E+01  0.00000000E+00
  9.50000000E+02  6.60000000E+01  0.00000000E+00
  9.50000000E+02  6.40000000E+01  0.00000000E+00
  9.50000000E+02  6.20000000E+01  0.00000000E+00
  9.50000000E+02  6.00000000E+01  0.00000000E+00
  9.50000000E+02  5.80000000E+01  0.00000000E+00
  9.50000000E+02  5.60000000E+01  0.00000000E+00
  9.50000000E+02  5.40000000E+01  0.00000000E+00
  9.50000000E+02  5.20000000E+01  0.00000000E+00
  9.50000000E+02  5.00000000E+01  0.00000000E+00
  9.50000000E+02  4.80000000E+01  0.00000000E+00
  9.50000000E+02  4.60000000E+01  0.00000000E+00
  9.50000000E+02  4.40000000E+01  0.00000000E+00
  9.50000000E+02  4.20000000E+01  0.00000000E+00
  9.50000000E+02  4.00000000E+01  0.00000000E+00
  9.50000000E+02  3.80000000E+01  0.00000000E+00
  9.50000000E+02  3.60000000E+01  0.00000000E+00
  9.50000000E+02  3.40000000E+01  0.00000000E+00
  9.50000000E+02  3.20000000E+01  0.00000000E+00
  9.50000000E+02  3.00000000E+01  0.00000000E+00
  9.50000000E+02  2.80000000E+01  0.00000000E+00
  9.50000000E+02  2.60000000E+01  0.00000000E+00
  9.50000000E+02  2.40000000E+01  0.00000000E+00
  9.50000000E+02  2.20000000E+01  0.00000000E+00
  9.50000000E+02  2.00000000E+01  0.00000000E+00
  9.50000000E+02  1.80000000E+01  0.00000000E+00
  9.50000000E+02  1.60000000E+01  0.00000000E+00
  9.50000000E+02  1.40000000E+01  0.00000000E+00
  9.50000000E+02  1.20000000E+01  0.00000000E+00
  9.50000000E+02  1.00000000E+01  0.00000000E+00
  9.50000000E+02  8.00000000E+00  0.00000000E+00
  9.50000000E+02  6.00000000E+00  0.00000000E+00
  9.50000000E+02  4.00000000E+00  0.00000000E+00
  9.50000000E+02  2.00000000E+00  0.00000000E+00
  9.50000000E+02 -3.33066907E-14  0.00000000E+00
  9.60000000E+02  1.00000000E+02  0.00000000E+00
  9.60000000E+02  9.80000000E+01  0.00000000E+00
  9.60000000E+02  9.60000000E+01  0.00000000E+00
  9.60000000E+02  9.40000000E+01  0.00000000E+00
  9.60000000E+02  9.20000000E+01  0.00000000E+00
  9.60000000E+02  9.00000000E+01  0.00000000E+00
  9.60000000E+02  8.80000000E+01  0.00000000E+00
  9.60000000E+02  8.60000000E+01  0.00000000E+00
  9.60000000E+02  8.40000000E+01  0.00000000E+00
  9.60000000E+02  8.20000000E+01  0.00000000E+00
  9.60000000E+02  8.00000000E+01  0.00000000E+00
  9.60000000E+02  7.80000000E+01  0.00000000E+00
  9.60000000E+02  7.60000000E+01  0.00000000E+00
  9.60000000E+02  7.40000000E+01  0.00000000E+00
  9.60000000E+02  7.20000000E+01  0.00000000E+00
  9.60000000E+02  7.00000000E+01  0.00000000E+00
  9.60000000E+02  6.80000000E+01  0.00000000E+00
  9.60000000E+02  6.60000000E+01  0.00000000E+00
  9.60000000E+02  6.40000000E+01  0.00000000E+00
  9.60000000E+02  6.20000000E+01  0.00000000E+00
  9.60000000E+02  6.00000000E+01  0.00000000E+00
  9.60000000E+02  5.80000000E+01  0.00000000E+00
  9.60000000E+02  5.60000000E+01  0.00000000E+00
  9.60000000E+02  5.40000000E+01  0.00000000E+00
  9.60000000E+02  5.20000000E+01  0.00000000E+00
  9.60000000E+02  5.00000000E+01  0.00000000E+00
  9.60000000E+02  4.80000000E+01  0.00000000E+00
  9.60000000E+02  4.60000000E+01  0.00000000E+00
  9.60000000E+02  4.40000000E+01  0.00000000E+00
  9.60000000E+02  4.20000000E+01  0.00000000E+00
  9.60000000E+02  4.00000000E+01  0.00000000E+00
  9.60000000E+02  3.80000000E+01  0.00000000E+00
  9.60000000E+02  3.60000000E+01  0.00000000E+00
  9.60000000E+02  3.40000000E+01  0.00000000E+00
  9.60000000E+02  3.20000000E+01  0.00000000E+00
  9.60000000E+02  3.00000000E+01  0.00000000E+00
  9.60000000E+02  2.80000000E+01  0.00000000E+00
  9.60000000E+02  2.60000000E+01  0.00000000E+00
  9.60000000E+02  2.40000000E+01  0.00000000E+00
  9.60000000E+02  2.20000000E+01  0.00000000E+00
  9.60000000E+02  2.00000000E+01  0.00000000E+00
  9.60000000E+02  1.80000000E+01  0.00000000E+00
  9.60000000E+02  1.60000000E+01  0.00000000E+00
  9.60000000E+02  1.40000000E+01  0.00000000E+00
  9.60000000E+02  1.20000000E+01  0.00000000E+00
  9.60000000E+02  1.00000000E+01  0.00000000E+00
  9.60000000E+02  8.00000000E+00  0.00000000E+00
  9.60000000E+02  6.00000000E+00  0.00000000E+00
  9.60000000E+02  4.00000000E+00  0.00000000E+00
  9.60000000E+02  2.00000000E+00  0.00000000E+00
  9.60000000E+02 -3.33066907E-14  0.00000000E+00
  9.70000000E+02  1.00000000E+02  0.00000000E+00
  9.70000000E+02  9.80000000E+01  0.00000000E+00
  9.70000000E+02  9.60000000E+01  0.00000000E+00
  9.70000000E+02  9.40000000E+01  0.00000000E+00
  9.70000000E+02  9.20000000E+01  0.00000000E+00
  9.70000000E+02  9.00000000E+01  0.00000000E+00
  9.70000000E+02  8.80000000E+01  0.00000000E+00
  9.70000000E+02  8.60000000E+01  0.00000000E+00
  9.70000000E+02  8.40000000E+01  0.00000000E+00
  9.70000000E+02  8.20000000E+01  0.00000000E+00
  9.70000000E+02  8.00000000E+01  0.00000000E+00
  9.70000000E+02  7.80000000E+01  0.00000000E+00
  9.70000000E+02  7.60000000E+01  0.00000000E+00
  9.70000000E+02  7.40000000E+01  0.00000000E+00
  9.70000000E+02  7.20000000E+01  0.00000000E+00
  9.70000000E+02  7.00000000E+01  0.00000000E+00
  9.70000000E+02  6.80000000E+01  0.00000000E+00
  9.70000000E+02  6.60000000E+01  0.00000000E+00
  9.70000000E+02  6.40000000E+01  0.00000000E+00
  9.70000000E+02  6.20000000E+01  0.00000000E+00
  9.70000000E+02  6.00000000E+01  0.00000000E+00
  9.70000000E+02  5.80000000E+01  0.00000000E+00
  9.70000000E+02  5.60000000E+01  0.00000000E+00
  9.70000000E+02  5.40000000E+01  0.00000000E+00
  9.70000000E+02  5.20000000E+01  0.00000000E+00
  9.70000000E+02  5.00000000E+01  0.00000000E+00
  9.70000000E+02  4.80000000E+01  0.00000000E+00
  9.70000000E+02  4.60000000E+01  0.00000000E+00
  9.70000000E+02  4.40000000E+01  0.00000000E+00
  9.70000000E+02  4.20000000E+01  0.00000000E+00
  9.70000000E+02  4.00000000E+01  0.00000000E+00
  9.70000000E+02  3.80000000E+01  0.00000000E+00
  9.70000000E+02  3.60000000E+01  0.00000000E+00
  9.70000000E+02  3.40000000E+01  0.00000000E+00
  9.70000000E+02  3.20000000E+01  0.00000000E+00
  9.70000000E+02  3.00000000E+01  0.00000000E+00
  9.70000000E+02  2.80000000E+01  0.00000000E+00
  9.70000000E+02  2.60000000E+01  0.00000000E+00
  9.70000000E+02  2.40000000E+01  0.00000000E+00
  9.70000000E+02  2.20000000E+01  0.00000000E+00
  9.70000000E+02  2.00000000E+01  0.00000000E+00
  9.70000000E+02  1.80000000E+01  0.00000000E+00
  9.70000000E+02  1.60000000E+01  0.00000000E+00
  9.70000000E+02  1.40000000E+01  0.00000000E+00
  9.70000000E+02  1.20000000E+01  0.00000000E+00
  9.70000000E+02  1.00000000E+01  0.00000000E+00
  9.70000000E+02  8.00000000E+00  0.00000000E+00
  9.70000000E+02  6.00000000E+00  0.00000000E+00
  9.70000000E+02  4.00000000E+00  0.00000000E+00
  9.70000000E+02  2.00000000E+00  0.00000000E+00
  9.70000000E+02 -3.33066907E-14  0.00000000E+00
  9.80000000E+02  1.00000000E+02  0.00000000E+00
  9.80000000E+02  9.80000000E+01  0.00000000E+00
  9.80000000E+02  9.60000000E+01  0.00000000E+00
  9.80000000E+02  9.40000000E+01  0.00000000E+00
  9.80000000E+02  9.20000000E+01  0.00000000E+00
  9.80000000E+02  9.00000000E+01  0.00000000E+00
  9.80000000E+02  8.80000000E+01  0.00000000E+00
  9.80000000E+02  8.60000000E+01  0.00000000E+00
  9.80000000E+02  8.40000000E+01  0.00000000E+00
  9.80000000E+02  8.20000000E+01  0.00000000E+00
  9.80000000E+02  8.00000000E+01  0.00000000E+00
  9.80000000E+02  7.80000000E+01  0.00000000E+00
  9.80000000E+02  7.60000000E+01  0.00000000E+00
  9.80000000E+02  7.40000000E+01  0.00000000E+00
  9.80000000E+02  7.20000000E+01  0.00000000E+00
  9.80000000E+02  7.00000000E+01  0.00000000E+00
  9.80000000E+02  6.80000000E+01  0.00000000E+00
  9.80000000E+02  6.60000000E+01  0.00000000E+00
  9.80000000E+02  6.40000000E+01  0.00000000E+00
  9.80000000E+02  6.20000000E+01  0.00000000E+00
  9.80000000E+02  6.00000000E+01  0.00000000E+00
  9.80000000E+02  5.80000000E+01  0.00000000E+00
  9.80000000E+02  5.60000000E+01  0.00000000E+00
  9.80000000E+02  5.40000000E+01  0.00000000E+00
  9.80000000E+02  5.20000000E+01  0.00000000E+00
  9.80000000E+02  5.00000000E+01  0.00000000E+00
  9.80000000E+02  4.80000000E+01  0.00000000E+00
  9.80000000E+02  4.60000000E+01  0.00000000E+00
  9.80000000E+02  4.40000000E+01  0.00000000E+00
  9.80000000E+02  4.20000000E+01  0.00000000E+00
  9.80000000E+02  4.00000000E+01  0.00000000E+00
  9.80000000E+02  3.80000000E+01  0.00000000E+00
  9.80000000E+02  3.60000000E+01  0.00000000E+00
  9.80000000E+02  3.40000000E+01  0.00000000E+00
  9.80000000E+02  3.20000000E+01  0.00000000E+00
  9.80000000E+02  3.00000000E+01  0.00000000E+00
  9.80000000E+02  2.80000000E+01  0.00000000E+00
  9.80000000E+02  2.60000000E+01  0.00000000E+00
  9.80000000E+02  2.40000000E+01  0.00000000E+00
  9.80000000E+02  2.20000000E+01  0.00000000E+00
  9.80000000E+02  2.00000000E+01  0.00000000E+00
  9.80000000E+02  1.80000000E+01  0.00000000E+00
  9.80000000E+02  1.60000000E+01  0.00000000E+00
  9.80000000E+02  1.40000000E+01  0.00000000E+00
  9.80000000E+02  1.20000000E+01  0.00000000E+00
  9.80000000E+02  1.00000000E+01  0.00000000E+00
  9.80000000E+02  8.00000000E+00  0.00000000E+00
  9.80000000E+02  6.00000000E+00  0.00000000E+00
  9.80000000E+02  4.00000000E+00  0.00000000E+00
  9.80000000E+02  2.00000000E+00  0.00000000E+00
  9.80000000E+02 -3.33066907E-14  0.00000000E+00
  9.90000000E+02  1.00000000E+02  0.00000000E+00
  9.90000000E+02  9.80000000E+01  0.00000000E+00
  9.90000000E+02  9.60000000E+01  0.00000000E+00
  9.90000000E+02  9.40000000E+01  0.00000000E+00
  9.90000000E+02  9.20000000E+01  0.00000000E+00
  9.90000000E+02  9.00000000E+01  0.00000000E+00
  9.90000000E+02  8.80000000E+01  0.00000000E+00
  9.90000000E+02  8.60000000E+01  0.00000000E+00
  9.90000000E+02  8.40000000E+01  0.00000000E+00
  9.90000000E+02  8.20000000E+01  0.00000000E+00
  9.90000000E+02  8.00000000E+01  0.00000000E+00
  9.90000000E+02  7.80000000E+01  0.00000000E+00
  9.90000000E+02  7.60000000E+01  0.00000000E+00
  9.90000000E+02  7.40000000E+01  0.00000000E+00
  9.90000000E+02  7.20000000E+01  0.00000000E+00
  9.90000000E+02  7.00000000E+01  0.00000000E+00
  9.90000000E+02  6.80000000E+01  0.00000000E+00
  9.90000000E+02  6.60000000E+01  0.00000000E+00
  9.90000000E+02  6.40000000E+01  0.00000000E+00
  9.90000000E+02  6.20000000E+01  0.00000000E+00
  9.90000000E+02  6.00000000E+01  0.00000000E+00
  9.90000000E+02  5.80000000E+01  0.00000000E+00
  9.90000000E+02  5.60000000E+01  0.00000000E+00
  9.90000000E+02  5.40000000E+01  0.00000000E+00
  9.90000000E+02  5.20000000E+01  0.00000000E+00
  9.90000000E+02  5.00000000E+01  0.00000000E+00
  9.90000000E+02  4.80000000E+01  0.00000000E+00
  9.90000000E+02  4.60000000E+01  0.00000000E+00
  9.90000000E+02  4.40000000E+01  0.00000000E+00
  9.90000000E+02  4.20000000E+01  0.00000000E+00
  9.90000000E+02  4.00000000E+01  0.00000000E+00
  9.90000000E+02  3.80000000E+01  0.00000000E+00
  9.90000000E+02  3.60000000E+01  0.00000000E+00
  9.90000000E+02  3.40000000E+01  0.00000000E+00
  9.90000000E+02  3.20000000E+01  0.00000000E+00
  9.90000000E+02  3.00000000E+01  0.00000000E+00
  9.90000000E+02  2.80000000E+01  0.00000000E+00
  9.90000000E+02  2.60000000E+01  0.00000000E+00
  9.90000000E+02  2.40000000E+01  0.00000000E+00
  9.90000000E+02  2.20000000E+01  0.00000000E+00
  9.90000000E+02  2.00000000E+01  0.00000000E+00
  9.90000000E+02  1.80000000E+01  0.00000000E+00
  9.90000000E+02  1.60000000E+01  0.00000000E+00
  9.90000000E+02  1.40000000E+01  0.00000000E+00
  9.90000000E+02  1.20000000E+01  0.00000000E+00
  9.90000000E+02  1.00000000E+01  0.00000000E+00
  9.90000000E+02  8.00000000E+00  0.00000000E+00
  9.90000000E+02  6.00000000E+00  0.00000000E+00
  9.90000000E+02  4.00000000E+00  0.00000000E+00
  9.90000000E+02  2.00000000E+00  0.00000000E+00
  9.90000000E+02 -3.33066907E-14  0.00000000E+00
  1.00000000E+03  1.00000000E+02  0.00000000E+00
  1.00000000E+03  9.80000000E+01  0.00000000E+00
  1.00000000E+03  9.60000000E+01  0.00000000E+00
  1.00000000E+03  9.40000000E+01  0.00000000E+00
  1.00000000E+03  9.20000000E+01  0.00000000E+00
  1.00000000E+03  9.00000000E+01  0.00000000E+00
  1.00000000E+03  8.80000000E+01  0.00000000E+00
  1.00000000E+03  8.60000000E+01  0.00000000E+00
  1.00000000E+03  8.40000000E+01  0.00000000E+00
  1.00000000E+03  8.20000000E+01  0.00000000E+00
  1.00000000E+03  8.00000000E+01  0.00000000E+00
  1.00000000E+03  7.80000000E+01  0.00000000E+00
  1.00000000E+03  7.60000000E+01  0.00000000E+00
  1.00000000E+03  7.40000000E+01  0.00000000E+00
  1.00000000E+03  7.20000000E+01  0.00000000E+00
  1.00000000E+03  7.00000000E+01  0.00000000E+00
  1.00000000E+03  6.80000000E+01  0.00000000E+00
  1.00000000E+03  6.60000000E+01  0.00000000E+00
  1.00000000E+03  6.40000000E+01  0.00000000E+00
  1.00000000E+03  6.20000000E+01  0.00000000E+00
  1.00000000E+03  6.00000000E+01  0.00000000E+00
  1.00000000E+03  5.80000000E+01  0.00000000E+00
  1.00000000E+03  5.60000000E+01  0.00000000E+00
  1.00000000E+03  5.40000000E+01  0.00000000E+00
  1.00000000E+03  5.20000000E+01  0.00000000E+00
  1.00000000E+03  5.00000000E+01  0.00000000E+00
  1.00000000E+03  4.80000000E+01  0.00000000E+00
  1.00000000E+03  4.60000000E+01  0.00000000E+00
  1.00000000E+03  4.40000000E+01  0.00000000E+00
  1.00000000E+03  4.20000000E+01  0.00000000E+00
  1.00000000E+03  4.00000000E+01  0.00000000E+00
  1.00000000E+03  3.80000000E+01  0.00000000E+00
  1.00000000E+03  3.60000000E+01  0.00000000E+00
  1.00000000E+03  3.40000000E+01  0.00000000E+00
  1.00000000E+03  3.20000000E+01  0.00000000E+00
  1.00000000E+03  3.00000000E+01  0.00000000E+00
  1.00000000E+03  2.80000000E+01  0.00000000E+00
  1.00000000E+03  2.60000000E+01  0.00000000E+00
  1.00000000E+03  2.40000000E+01  0.00000000E+00
  1.00000000E+03  2.20000000E+01  0.00000000E+00
  1.00000000E+03  2.00000000E+01  0.00000000E+00
  1.00000000E+03  1.80000000E+01  0.00000000E+00
  1.00000000E+03  1.60000000E+01  0.00000000E+00
  1.00000000E+03  1.40000000E+01  0.00000000E+00
  1.00000000E+03  1.20000000E+01  0.00000000E+00
  1.00000000E+03  1.00000000E+01  0.00000000E+00
  1.00000000E+03  8.00000000E+00  0.00000000E+00
  1.00000000E+03  6.00000000E+00  0.00000000E+00
  1.00000000E+03  4.00000000E+00  0.00000000E+00
  1.00000000E+03  2.00000000E+00  0.00000000E+00
  1.00000000E+03 -3.33066907E-14  0.00000000E+00
CELLS      5000     25000
         4           0           1          52          51
         4           1           2          53          52
         4           2           3          54          53
         4           3           4          55          54
         4           4           5          56          55
         4           5           6          57          56
         4           6           7          58          57
         4           7           8          59          58
         4           8           9          60          59
         4           9          10          61          60
         4          10          11          62          61
         4          11          12          63          62
         4          12          13          64          63
         4          13          14          65          64
         4          14          15          66          65
         4          15          16          67          66
         4          16          17          68          67
         4          17          18          69          68
         4          18          19          70          69
         4          19          20          71          70
         4          20          21          72          71
         4          21          22          73          72
         4          22          23          74          73
         4          23          24          75          74
         4          24          25          76          75
         4          25          26          77          76
         4          26          27          78          77
         4          27          28          79          78
         4          28          29          80          79
         4          29          30          81          80
         4          30          31          82          81
         4          31          32          83          82
         4          32          33          84          83
         4          33          34          85          84
         4          34          35          86          85
         4          35          36          87          86
         4          36          37          88          87
         4          37          38          89          88
         4          38          39          90          89
         4          39          40          91          90
         4          40          41          92          91
         4          41          42          93          92
         4          42          43          94          93
         4          43          44          95          94
         4          44          45          96          95
         4          45          46          97          96
         4          46          47          98          97
         4          47          48          99          98
         4          48          49         100          99
         4          49          50         101         100
         4          51          52         103         102
         4          52          53         104         103
         4          53          54         105         104
         4          54          55         106         105
         4          55          56         107         106
         4          56          57         108         107
         4          57          58         109         108
         4          58          59         110         109
         4          59          60         111         110
         4          60          61         112         111
         4          61          62         113         112
         4          62          63         114         113
         4          63          64         115         114
         4          64          65         116         115
         4          65          66         117         116
         4          66          67         118         117
         4          67          68         119         118
         4          68          69         120         119
         4          69          70         121         120
         4          70          71         122         121
         4          71          72         123         122
         4          72          73         124         123
         4          73          74         125         124
         4          74          75         126         125
         4          75          76         127         126
         4          76          77         128         127
         4          77          78         129         128
         4          78          79         130         129
         4          79          80         131         130
         4          80          81         132         131
         4          81          82         133         132
         4          82          83         134         133
         4          83          84         135         134
         4          84          85         136         135
         4          85          86         137         136
         4          86          87         138         137
         4          87          88         139         138
         4          88          89         140         139
         4          89          90         141         140
         4          90          91         142         141
         4          91          92         143         142
         4          92          93         144         143
         4          93          94         145         144
         4          94          95         146         145
         4          95          96         147         146
         4          96          97         148         147
         4          97          98         149         148
         4          98          99         150         149
         4          99         100         151         150
         4         100         101         152         151
         4         102         103         154         153
         4         103         104         155         154
         4         104         105         156         155
         4         105         106         157         156
         4         106         107         158         157
         4         107         108         159         158
         4         108         109         160         159
         4         109         110         161         160
         4         110         111         162         161
         4         111         112         163         162
         4         112         113         164         163
         4         113         114         165         164
         4         114         115         166         165
         4         115         116         167         166
         4         116         117         168         167
         4         117         118         169         168
         4         118         119         170         169
         4         119         120         171         170
         4         120         121         172         171
         4         121         122         173         172
         4         122         123         174         173
         4         123         124         175         174
         4         124         125         176         175
         4         125         126         177         176
         4         126         127         178         177
         4         127         128         179         178
         4         128         129         180         179
         4         129         130         181         180
         4         130         131         182         181
         4         131         132         183         182
         4         132         133         184         183
         4         133         134         185         184
         4         134         135         186         185
         4         135         136         187         186
         4         136         137         188         187
         4         137         138         189         188
         4         138         139         190         189
         4         139         140         191         190
         4         140         141         192         191
         4         141         142         193         192
         4         142         143         194         193
         4         143         144         195         194
         4         144         145         196         195
         4         145         146         197         196
         4         146         147         198         197
         4         147         148         199         198
         4         148         149         200         199
         4         149         150         201         200
         4         150         151         202         201
         4         151         152         203         202
         4         153         154         205         204
         4         154         155         206         205
         4         155         156         207         206
         4         156         157         208         207
         4         157         158         209         208
         4         158         159         210         209
         4         159         160         211         210
         4         160         161         212         211
         4         161         162         213         212
         4         162         163         214         213
         4         163         164         215         214
         4         164         165         216         215
         4         165         166         217         216
         4         166         167         218         217
         4         167         168         219         218
         4         168         169         220         219
         4         169         170         221         220
         4         170         171         222         221
         4         171         172         223         222
         4         172         173         224         223
         4         173         174         225         224
         4         174         175         226         225
         4         175         176         227         226
         4         176         177         228         227
         4         177         178         229         228
         4         178         179         230         229
         4         179         180         231         230
         4         180         181         232         231
         4         181         182         233         232
         4         182         183         234         233
         4         183         184         235         234
         4         184         185         236         235
         4         185         186         237         236
         4         186         187         238         237
         4         187         188         239         238
         4         188         189         240         239
         4         189         190         241         240
         4         190         191         242         241
         4         191         192         243         242
         4         192         193         244         243
         4         193         194         245         244
         4         194         195         246         245
         4         195         196         247         246
         4         196         197         248         247
         4         197         198         249         248
         4         198         199         250         249
         4         199         200         251         250
         4         200         201         252         251
         4         201         202         253         252
         4         202         203         254         253
         4         204         205         256         255
         4         205         206         257         256
         4         206         207         258         257
         4         207         208         259         258
         4         208         209         260         259
         4         209         210         261         260
         4         210         211         262         261
         4         211         212         263         262
         4         212         213         264         263
         4         213         214         265         264
         4         214         215         266         265
         4         215         216         267         266
         4         216         217         268         267
         4         217         218         269         268
         4         218         219         270         269
         4         219         220         271         270
         4         220         221         272         271
         4         221         222         273         272
         4         222         223         274         273
         4         223         224         275         274
         4         224         225         276         275
         4         225         226         277         276
         4         226         227         278         277
         4         227         228         279         278
         4         228         229         280         279
         4         229         230         281         280
         4         230         231         282         281
         4         231         232         283         282
         4         232         233         284         283
         4         233         234         285         284
         4         234         235         286         285
         4         235         236         287         286
         4         236         237         288         287
         4         237         238         289         288
         4         238         239         290         289
         4         239         240         291         290
         4         240         241         292         291
         4         241         242         293         292
         4         242         243         294         293
         4         243         244         295         294
         4         244         245         296         295
         4         245         246         297         296
         4         246         247         298         297
         4         247         248         299         298
         4         248         249         300         299
         4         249         250         301         300
         4         250         251         302         301
         4         251         252         303         302
         4         252         253         304         303
         4         253         254         305         304
         4         255         256         307         306
         4         256         257         308         307
         4         257         258         309         308
         4         258         259         310         309
         4         259         260         311         310
         4         260         261         312         311
         4         261         262         313         312
         4         262         263         314         313
         4         263         264         315         314
         4         264         265         316         315
         4         265         266         317         316
         4         266         267         318         317
         4         267         268         319         318
         4         268         269         320         319
         4         269         270         321         320
         4         270         271         322         321
         4         271         272         323         322
         4         272         273         324         323
         4         273         274         325         324
         4         274         275         326         325
         4         275         276         327         326
         4         276         277         328         327
         4         277         278         329         328
         4         278         279         330         329
         4         279         280         331         330
         4         280         281         332         331
         4         281         282         333         332
         4         282         283         334         333
         4         283         284         335         334
         4         284         285         336         335
         4         285         286         337         336
         4         286         287         338         337
         4         287         288         339         338
         4         288         289         340         339
         4         289         290         341         340
         4         290         291         342         341
         4         291         292         343         342
         4         292         293         344         343
         4         293         294         345         344
         4         294         295         346         345
         4         295         296         347         346
         4         296         297         348         347
         4         297         298         349         348
         4         298         299         350         349
         4         299         300         351         350
         4         300         301         352         351
         4         301         302         353         352
         4         302         303         354         353
         4         303         304         355         354
         4         304         305         356         355
         4         306         307         358         357
         4         307         308         359         358
         4         308         309         360         359
         4         309         310         361         360
         4         310         311         362         361
         4         311         312         363         362
         4         312         313         364         363
         4         313         314         365         364
         4         314         315         366         365
         4         315         316         367         366
         4         316         317         368         367
         4         317         318         369         368
         4         318         319         370         369
         4         319         320         371         370
         4         320         321         372         371
         4         321         322         373         372
         4         322         323         374         373
         4         323         324         375         374
         4         324         325         376         375
         4         325         326         377         376
         4         326         327         378         377
         4         327         328         379         378
         4         328         329         380         379
         4         329         330         381         380
         4         330         331         382         381
         4         331         332         383         382
         4         332         333         384         383
         4         333         334         385         384
         4         334         335         386         385
         4         335         336         387         386
         4         336         337         388         387
         4         337         338         389         388
         4         338         339         390         389
         4         339         340         391         390
         4         340         341         392         391
         4         341         342         393         392
         4         342         343         394         393
         4         343         344         395         394
         4         344         345         396         395
         4         345         346         397         396
         4         346         347         398         397
         4         347         348         399         398
         4         348         349         400         399
         4         349         350         401         400
         4         350         351         402         401
         4         351         352         403         402
         4         352         353         404         403
         4         353         354         405         404
         4         354         355         406         405
         4         355         356         407         406
         4         357         358         409         408
         4         358         359         410         409
         4         359         360         411         410
         4         360         361         412         411
         4         361         362         413         412
         4         362         363         414         413
         4         363         364         415         414
         4         364         365         416         415
         4         365         366         417         416
         4         366         367         418         417
         4         367         368         419         418
         4         368         369         420         419
         4         369         370         421         420
         4         370         371         422         421
         4         371         372         423         422
         4         372         373         424         423
         4         373         374         425         424
         4         374         375         426         425
         4         375         376         427         426
         4         376         377         428         427
         4         377         378         429         428
         4         378         379         430         429
         4         379         380         431         430
         4         380         381         432         431
         4         381         382         433         432
         4         382         383         434         433
         4         383         384         435         434
         4         384         385         436         435
         4         385         386         437         436
         4         386         387         438         437
         4         387         388         439         438
         4         388         389         440         439
         4         389         390         441         440
         4         390         391         442         441
         4         391         392         443         442
         4         392         393         444         443
         4         393         394         445         444
         4         394         395         446         445
         4         395         396         447         446
         4         396         397         448         447
         4         397         398         449         448
         4         398         399         450         449
         4         399         400         451         450
         4         400         401         452         451
         4         401         402         453         452
         4         402         403         454         453
         4         403         404         455         454
         4         404         405         456         455
         4         405         406         457         456
         4         406         407         458         457
         4         408         409         460         459
         4         409         410         461         460
         4         410         411         462         461
         4         411         412         463         462
         4         412         413         464         463
         4         413         414         465         464
         4         414         415         466         465
         4         415         416         467         466
         4         416         417         468         467
         4         417         418         469         468
         4         418         419         470         469
         4         419         420         471         470
         4         420         421         472         471
         4         421         422         473         472
         4         422         423         474         473
         4         423         424         475         474
         4         424         425         476         475
         4         425         426         477         476
         4         426         427         478         477
         4         427         428         479         478
         4         428         429         480         479
         4         429         430         481         480
         4         430         431         482         481
         4         431         432         483         482
         4         432         433         484         483
         4         433         434         485         484
         4         434         435         486         485
         4         435         436         487         486
         4         436         437         488         487
         4         437         438         489         488
         4         438         439         490         489
         4         439         440         491         490
         4         440         441         492         491
         4         441         442         493         492
         4         442         443         494         493
         4         443         444         495         494
         4         444         445         496         495
         4         445         446         497         496
         4         446         447         498         497
         4         447         448         499         498
         4         448         449         500         499
         4         449         450         501         500
         4         450         451         502         501
         4         451         452         503         502
         4         452         453         504         503
         4         453         454         505         504
         4         454         455         506         505
         4         455         456         507         506
         4         456         457         508         507
         4         457         458         509         508
         4         459         460         511         510
         4         460         461         512         511
         4         461         462         513         512
         4         462         463         514         513
         4         463         464         515         514
         4         464         465         516         515
         4         465         466         517         516
         4         466         467         518         517
         4         467         468         519         518
         4         468         469         520         519
         4         469         470         521         520
         4         470         471         522         521
         4         471         472         523         522
         4         472         473         524         523
         4         473         474         525         524
         4         474         475         526         525
         4         475         476         527         526
         4         476         477         528         527
         4         477         478         529         528
         4         478         479         530         529
         4         479         480         531         530
         4         480         481         532         531
         4         481         482         533         532
         4         482         483         534         533
         4         483         484         535         534
         4         484         485         536         535
         4         485         486         537         536
         4         486         487         538         537
         4         487         488         539         538
         4         488         489         540         539
         4         489         490         541         540
         4         490         491         542         541
         4         491         492         543         542
         4         492         493         544         543
         4         493         494         545         544
         4         494         495         546         545
         4         495         496         547         546
         4         496         497         548         547
         4         497         498         549         548
         4         498         499         550         549
         4         499         500         551         550
         4         500         501         552         551
         4         501         502         553         552
         4         502         503         554         553
         4         503         504         555         554
         4         504         505         556         555
         4         505         506         557         556
         4         506         507         558         557
         4         507         508         559         558
         4         508         509         560         559
         4         510         511         562         561
         4         511         512         563         562
         4         512         513         564         563
         4         513         514         565         564
         4         514         515         566         565
         4         515         516         567         566
         4         516         517         568         567
         4         517         518         569         568
         4         518         519         570         569
         4         519         520         571         570
         4         520         521         572         571
         4         521         522         573         572
         4         522         523         574         573
         4         523         524         575         574
         4         524         525         576         575
         4         525         526         577         576
         4         526         527         578         577
         4         527         528         579         578
         4         528         529         580         579
         4         529         530         581         580
         4         530         531         582         581
         4         531         532         583         582
         4         532         533         584         583
         4         533         534         585         584
         4         534         535         586         585
         4         535         536         587         586
         4         536         537         588         587
         4         537         538         589         588
         4         538         539         590         589
         4         539         540         591         590
         4         540         541         592         591
         4         541         542         593         592
         4         542         543         594         593
         4         543         544         595         594
         4         544         545         596         595
         4         545         546         597         596
         4         546         547         598         597
         4         547         548         599         598
         4         548         549         600         599
         4         549         550         601         600
         4         550         551         602         601
         4         551         552         603         602
         4         552         553         604         603
         4         553         554         605         604
         4         554         555         606         605
         4         555         556         607         606
         4         556         557         608         607
         4         557         558         609         608
         4         558         559         610         609
         4         559         560         611         610
         4         561         562         613         612
         4         562         563         614         613
         4         563         564         615         614
         4         564         565         616         615
         4         565         566         617         616
         4         566         567         618         617
         4         567         568         619         618
         4         568         569         620         619
         4         569         570         621         620
         4         570         571         622         621
         4         571         572         623         622
         4         572         573         624         623
         4         573         574         625         624
         4         574         575         626         625
         4         575         576         627         626
         4         576         577         628         627
         4         577         578         629         628
         4         578         579         630         629
         4         579         580         631         630
         4         580         581         632         631
         4         581         582         633         632
         4         582         583         634         633
         4         583         584         635         634
         4         584         585         636         635
         4         585         586         637         636
         4         586         587         638         637
         4         587         588         639         638
         4         588         589         640         639
         4         589         590         641         640
         4         590         591         642         641
         4         591         592         643         642
         4         592         593         644         643
         4         593         594         645         644
         4         594         595         646         645
         4         595         596         647         646
         4         596         597         648         647
         4         597         598         649         648
         4         598         599         650         649
         4         599         600         651         650
         4         600         601         652         651
         4         601         602         653         652
         4         602         603         654         653
         4         603         604         655         654
         4         604         605         656         655
         4         605         606         657         656
         4         606         607         658         657
         4         607         608         659         658
         4         608         609         660         659
         4         609         610         661         660
         4         610         611         662         661
         4         612         613         664         663
         4         613         614         665         664
         4         614         615         666         665
         4         615         616         667         666
         4         616         617         668         667
         4         617         618         669         668
         4         618         619         670         669
         4         619         620         671         670
         4         620         621         672         671
         4         621         622         673         672
         4         622         623         674         673
         4         623         624         675         674
         4         624         625         676         675
         4         625         626         677         676
         4         626         627         678         677
         4         627         628         679         678
         4         628         629         680         679
         4         629         630         681         680
         4         630         631         682         681
         4         631         632         683         682
         4         632         633         684         683
         4         633         634         685         684
         4         634         635         686         685
         4         635         636         687         686
         4         636         637         688         687
         4         637         638         689         688
         4         638         639         690         689
         4         639         640         691         690
         4         640         641         692         691
         4         641         642         693         692
         4         642         643         694         693
         4         643         644         695         694
         4         644         645         696         695
         4         645         646         697         696
         4         646         647         698         697
         4         647         648         699         698
         4         648         649         700         699
         4         649         650         701         700
         4         650         651         702         701
         4         651         652         703         702
         4         652         653         704         703
         4         653         654         705         704
         4         654         655         706         705
         4         655         656         707         706
         4         656         657         708         707
         4         657         658         709         708
         4         658         659         710         709
         4         659         660         711         710
         4         660         661         712         711
         4         661         662         713         712
         4         663         664         715         714
         4         664         665         716         715
         4         665         666         717         716
         4         666         667         718         717
         4         667         668         719         718
         4         668         669         720         719
         4         669         670         721         720
         4         670         671         722         721
         4         671         672         723         722
         4         672         673         724         723
         4         673         674         725         724
         4         674         675         726         725
         4         675         676         727         726
         4         676         677         728         727
         4         677         678         729         728
         4         678         679         730         729
         4         679         680         731         730
         4         680         681         732         731
         4         681         682         733         732
         4         682         683         734         733
         4         683         684         735         734
         4         684         685         736         735
         4         685         686         737         736
         4         686         687         738         737
         4         687         688         739         738
         4         688         689         740         739
         4         689         690         741         740
         4         690         691         742         741
         4         691         692         743         742
         4         692         693         744         743
         4         693         694         745         744
         4         694         695         746         745
         4         695         696         747         746
         4         696         697         748         747
         4         697         698         749         748
         4         698         699         750         749
         4         699         700         751         750
         4         700         701         752         751
         4         701         702         753         752
         4         702         703         754         753
         4         703         704         755         754
         4         704         705         756         755
         4         705         706         757         756
         4         706         707         758         757
         4         707         708         759         758
         4         708         709         760         759
         4         709         710         761         760
         4         710         711         762         761
         4         711         712         763         762
         4         712         713         764         763
         4         714         715         766         765
         4         715         716         767         766
         4         716         717         768         767
         4         717         718         769         768
         4         718         719         770         769
         4         719         720         771         770
         4         720         721         772         771
         4         721         722         773         772
         4         722         723         774         773
         4         723         724         775         774
         4         724         725         776         775
         4         725         726         777         776
         4         726         727         778         777
         4         727         728         779         778
         4         728         729         780         779
         4         729         730         781         780
         4         730         731         782         781
         4         731         732         783         782
         4         732         733         784         783
         4         733         734         785         784
         4         734         735         786         785
         4         735         736         787         786
         4         736         737         788         787
         4         737         738         789         788
         4         738         739         790         789
         4         739         740         791         790
         4         740         741         792         791
         4         741         742         793         792
         4         742         743         794         793
         4         743         744         795         794
         4         744         745         796         795
         4         745         746         797         796
         4         746         747         798         797
         4         747         748         799         798
         4         748         749         800         799
         4         749         750         801         800
         4         750         751         802         801
         4         751         752         803         802
         4         752         753         804         803
         4         753         754         805         804
         4         754         755         806         805
         4         755         756         807         806
         4         756         757         808         807
         4         757         758         809         808
         4         758         759         810         809
         4         759         760         811         810
         4         760         761         812         811
         4         761         762         813         812
         4         762         763         814         813
         4         763         764         815         814
         4         765         766         817         816
         4         766         767         818         817
         4         767         768         819         818
         4         768         769         820         819
         4         769         770         821         820
         4         770         771         822         821
         4         771         772         823         822
         4         772         773         824         823
         4         773         774         825         824
         4         774         775         826         825
         4         775         776         827         826
         4         776         777         828         827
         4         777         778         829         828
         4         778         779         830         829
         4         779         780         831         830
         4         780         781         832         831
         4         781         782         833         832
         4         782         783         834         833
         4         783         784         835         834
         4         784         785         836         835
         4         785         786         837         836
         4         786         787         838         837
         4         787         788         839         838
         4         788         789         840         839
         4         789         790         841         840
         4         790         791         842         841
         4         791         792         843         842
         4         792         793         844         843
         4         793         794         845         844
         4         794         795         846         845
         4         795         796         847         846
         4         796         797         848         847
         4         797         798         849         848
         4         798         799         850         849
         4         799         800         851         850
         4         800         801         852         851
         4         801         802         853         852
         4         802         803         854         853
         4         803         804         855         854
         4         804         805         856         855
         4         805         806         857         856
         4         806         807         858         857
         4         807         808         859         858
         4         808         809         860         859
         4         809         810         861         860
         4         810         811         862         861
         4         811         812         863         862
         4         812         813         864         863
         4         813         814         865         864
         4         814         815         866         865
         4         816         817         868         867
         4         817         818         869         868
         4         818         819         870         869
         4         819         820         871         870
         4         820         821         872         871
         4         821         822         873         872
         4         822         823         874         873
         4         823         824         875         874
         4         824         825         876         875
         4         825         826         877         876
         4         826         827         878         877
         4         827         828         879         878
         4         828         829         880         879
         4         829         830         881         880
         4         830         831         882         881
         4         831         832         883         882
         4         832         833         884         883
         4         833         834         885         884
         4         834         835         886         885
         4         835         836         887         886
         4         836         837         888         887
         4         837         838         889         888
         4         838         839         890         889
         4         839         840         891         890
         4         840         841         892         891
         4         841         842         893         892
         4         842         843         894         893
         4         843         844         895         894
         4         844         845         896         895
         4         845         846         897         896
         4         846         847         898         897
         4         847         848         899         898
         4         848         849         900         899
         4         849         850         901         900
         4         850         851         902         901
         4         851         852         903         902
         4         852         853         904         903
         4         853         854         905         904
         4         854         855         906         905
         4         855         856         907         906
         4         856         857         908         907
         4         857         858         909         908
         4         858         859         910         909
         4         859         860         911         910
         4         860         861         912         911
         4         861         862         913         912
         4         862         863         914         913
         4         863         864         915         914
         4         864         865         916         915
         4         865         866         917         916
         4         867         868         919         918
         4         868         869         920         919
         4         869         870         921         920
         4         870         871         922         921
         4         871         872         923         922
         4         872         873         924         923
         4         873         874         925         924
         4         874         875         926         925
         4         875         876         927         926
         4         876         877         928         927
         4         877         878         929         928
         4         878         879         930         929
         4         879         880         931         930
         4         880         881         932         931
         4         881         882         933         932
         4         882         883         934         933
         4         883         884         935         934
         4         884         885         936         935
         4         885         886         937         936
         4         886         887         938         937
         4         887         888         939         938
         4         888         889         940         939
         4         889         890         941         940
         4         890         891         942         941
         4         891         892         943         942
         4         892         893         944         943
         4         893         894         945         944
         4         894         895         946         945
         4         895         896         947         946
         4         896         897         948         947
         4         897         898         949         948
         4         898         899         950         949
         4         899         900         951         950
         4         900         901         952         951
         4         901         902         953         952
         4         902         903         954         953
         4         903         904         955         954
         4         904         905         956         955
         4         905         906         957         956
         4         906         907         958         957
         4         907         908         959         958
         4         908         909         960         959
         4         909         910         961         960
         4         910         911         962         961
         4         911         912         963         962
         4         912         913         964         963
         4         913         914         965         964
         4         914         915         966         965
         4         915         916         967         966
         4         916         917         968         967
         4         918         919         970         969
         4         919         920         971         970
         4         920         921         972         971
         4         921         922         973         972
         4         922         923         974         973
         4         923         924         975         974
         4         924         925         976         975
         4         925         926         977         976
         4         926         927         978         977
         4         927         928         979         978
         4         928         929         980         979
         4         929         930         981         980
         4         930         931         982         981
         4         931         932         983         982
         4         932         933         984         983
         4         933         934         985         984
         4         934         935         986         985
         4         935         936         987         986
         4         936         937         988         987
         4         937         938         989         988
         4         938         939         990         989
         4         939         940         991         990
         4         940         941         992         991
         4         941         942         993         992
         4         942         943         994         993
         4         943         944         995         994
         4         944         945         996         995
         4         945         946         997         996
         4         946         947         998         997
         4         947         948         999         998
         4         948         949        1000         999
         4         949         950        1001        1000
         4         950         951        1002        1001
         4         951         952        1003        1002
         4         952         953        1004        1003
         4         953         954        1005        1004
         4         954         955        1006        1005
         4         955         956        1007        1006
         4         956         957        1008        1007
         4         957         958        1009        1008
         4         958         959        1010        1009
         4         959         960        1011        1010
         4         960         961        1012        1011
         4         961         962        1013        1012
         4         962         963        1014        1013
         4         963         964        1015        1014
         4         964         965        1016        1015
         4         965         966        1017        1016
         4         966         967        1018        1017
         4         967         968        1019        1018
         4         969         970        1021        1020
         4         970         971        1022        1021
         4         971         972        1023        1022
         4         972         973        1024        1023
         4         973         974        1025        1024
         4         974         975        1026        1025
         4         975         976        1027        1026
         4         976         977        1028        1027
         4         977         978        1029        1028
         4         978         979        1030        1029
         4         979         980        1031        1030
         4         980         981        1032        1031
         4         981         982        1033        1032
         4         982         983        1034        1033
         4         983         984        1035        1034
         4         984         985        1036        1035
         4         985         986        1037        1036
         4         986         987        1038        1037
         4         987         988        1039        1038
         4         988         989        1040        1039
         4         989         990        1041        1040
         4         990         991        1042        1041
         4         991         992        1043        1042
         4         992         993        1044        1043
         4         993         994        1045        1044
         4         994         995        1046        1045
         4         995         996        1047        1046
         4         996         997        1048        1047
         4         997         998        1049        1048
         4         998         999        1050        1049
         4         999        1000        1051        1050
         4        1000        1001        1052        1051
         4        1001        1002        1053        1052
         4        1002        1003        1054        1053
         4        1003        1004        1055        1054
         4        1004        1005        1056        1055
         4        1005        1006        1057        1056
         4        1006        1007        1058        1057
         4        1007        1008        1059        1058
         4        1008        1009        1060        1059
         4        1009        1010        1061        1060
         4        1010        1011        1062        1061
         4        1011        1012        1063        1062
         4        1012        1013        1064        1063
         4        1013        1014        1065        1064
         4        1014        1015        1066        1065
         4        1015        1016        1067        1066
         4        1016        1017        1068        1067
         4        1017        1018        1069        1068
         4        1018        1019        1070        1069
         4        1020        1021        1072        1071
         4        1021        1022        1073        1072
         4        1022        1023        1074        1073
         4        1023        1024        1075        1074
         4        1024        1025        1076        1075
         4        1025        1026        1077        1076
         4        1026        1027        1078        1077
         4        1027        1028        1079        1078
         4        1028        1029        1080        1079
         4        1029        1030        1081        1080
         4        1030        1031        1082        1081
         4        1031        1032        1083        1082
         4        1032        1033        1084        1083
         4        1033        1034        1085        1084
         4        1034        1035        1086        1085
         4        1035        1036        1087        1086
         4        1036        1037        1088        1087
         4        1037        1038        1089        1088
         4        1038        1039        1090        1089
         4        1039        1040        1091        1090
         4        1040        1041        1092        1091
         4        1041        1042        1093        1092
         4        1042        1043        1094        1093
         4        1043        1044        1095        1094
         4        1044        1045        1096        1095
         4        1045        1046        1097        1096
         4        1046        1047        1098        1097
         4        1047        1048        1099        1098
         4        1048        1049        1100        1099
         4        1049        1050        1101        1100
         4        1050        1051        1102        1101
         4        1051        1052        1103        1102
         4        1052        1053        1104        1103
         4        1053        1054        1105        1104
         4        1054        1055        1106        1105
         4        1055        1056        1107        1106
         4        1056        1057        1108        1107
         4        1057        1058        1109        1108
         4        1058        1059        1110        1109
         4        1059        1060        1111        1110
         4        1060        1061        1112        1111
         4        1061        1062        1113        1112
         4        1062        1063        1114        1113
         4        1063        1064        1115        1114
         4        1064        1065        1116        1115
         4        1065        1066        1117        1116
         4        1066        1067        1118        1117
         4        1067        1068        1119        1118
         4        1068        1069        1120        1119
         4        1069        1070        1121        1120
         4        1071        1072        1123        1122
         4        1072        1073        1124        1123
         4        1073        1074        1125        1124
         4        1074        1075        1126        1125
         4        1075        1076        1127        1126
         4        1076        1077        1128        1127
         4        1077        1078        1129        1128
         4        1078        1079        1130        1129
         4        1079        1080        1131        1130
         4        1080        1081        1132        1131
         4        1081        1082        1133        1132
         4        1082        1083        1134        1133
         4        1083        1084        1135        1134
         4        1084        1085        1136        1135
         4        1085        1086        1137        1136
         4        1086        1087        1138        1137
         4        1087        1088        1139        1138
         4        1088        1089        1140        1139
         4        1089        1090        1141        1140
         4        1090        1091        1142        1141
         4        1091        1092        1143        1142
         4        1092        1093        1144        1143
         4        1093        1094        1145        1144
         4        1094        1095        1146        1145
         4        1095        1096        1147        1146
         4        1096        1097        1148        1147
         4        1097        1098        1149        1148
         4        1098        1099        1150        1149
         4        1099        1100        1151        1150
         4        1100        1101        1152        1151
         4        1101        1102        1153        1152
         4        1102        1103        1154        1153
         4        1103        1104        1155        1154
         4        1104        1105        1156        1155
         4        1105        1106        1157        1156
         4        1106        1107        1158        1157
         4        1107        1108        1159        1158
         4        1108        1109        1160        1159
         4        1109        1110        1161        1160
         4        1110        1111        1162        1161
         4        1111        1112        1163        1162
         4        1112        1113        1164        1163
         4        1113        1114        1165        1164
         4        1114        1115        1166        1165
         4        1115        1116        1167        1166
         4        1116        1117        1168        1167
         4        1117        1118        1169        1168
         4        1118        1119        1170        1169
         4        1119        1120        1171        1170
         4        1120        1121        1172        1171
         4        1122        1123        1174        1173
         4        1123        1124        1175        1174
         4        1124        1125        1176        1175
         4        1125        1126        1177        1176
         4        1126        1127        1178        1177
         4        1127        1128        1179        1178
         4        1128        1129        1180        1179
         4        1129        1130        1181        1180
         4        1130        1131        1182        1181
         4        1131        1132        1183        1182
         4        1132        1133        1184        1183
         4        1133        1134        1185        1184
         4        1134        1135        1186        1185
         4        1135        1136        1187        1186
         4        1136        1137        1188        1187
         4        1137        1138        1189        1188
         4        1138        1139        1190        1189
         4        1139        1140        1191        1190
         4        1140        1141        1192        1191
         4        1141        1142        1193        1192
         4        1142        1143        1194        1193
         4        1143        1144        1195        1194
         4        1144        1145        1196        1195
         4        1145        1146        1197        1196
         4        1146        1147        1198        1197
         4        1147        1148        1199        1198
         4        1148        1149        1200        1199
         4        1149        1150        1201        1200
         4        1150        1151        1202        1201
         4        1151        1152        1203        1202
         4        1152        1153        1204        1203
         4        1153        1154        1205        1204
         4        1154        1155        1206        1205
         4        1155        1156        1207        1206
         4        1156        1157        1208        1207
         4        1157        1158        1209        1208
         4        1158        1159        1210        1209
         4        1159        1160        1211        1210
         4        1160        1161        1212        1211
         4        1161        1162        1213        1212
         4        1162        1163        1214        1213
         4        1163        1164        1215        1214
         4        1164        1165        1216        1215
         4        1165        1166        1217        1216
         4        1166        1167        1218        1217
         4        1167        1168        1219        1218
         4        1168        1169        1220        1219
         4        1169        1170        1221        1220
         4        1170        1171        1222        1221
         4        1171        1172        1223        1222
         4        1173        1174        1225        1224
         4        1174        1175        1226        1225
         4        1175        1176        1227        1226
         4        1176        1177        1228        1227
         4        1177        1178        1229        1228
         4        1178        1179        1230        1229
         4        1179        1180        1231        1230
         4        1180        1181        1232        1231
         4        1181        1182        1233        1232
         4        1182        1183        1234        1233
         4        1183        1184        1235        1234
         4        1184        1185        1236        1235
         4        1185        1186        1237        1236
         4        1186        1187        1238        1237
         4        1187        1188        1239        1238
         4        1188        1189        1240        1239
         4        1189        1190        1241        1240
         4        1190        1191        1242        1241
         4        1191        1192        1243        1242
         4        1192        1193        1244        1243
         4        1193        1194        1245        1244
         4        1194        1195        1246        1245
         4        1195        1196        1247        1246
         4        1196        1197        1248        1247
         4        1197        1198        1249        1248
         4        1198        1199        1250        1249
         4        1199        1200        1251        1250
         4        1200        1201        1252        1251
         4        1201        1202        1253        1252
         4        1202        1203        1254        1253
         4        1203        1204        1255        1254
         4        1204        1205        1256        1255
         4        1205        1206        1257        1256
         4        1206        1207        1258        1257
         4        1207        1208        1259        1258
         4        1208        1209        1260        1259
         4        1209        1210        1261        1260
         4        1210        1211        1262        1261
         4        1211        1212        1263        1262
         4        1212        1213        1264        1263
         4        1213        1214        1265        1264
         4        1214        1215        1266        1265
         4        1215        1216        1267        1266
         4        1216        1217        1268        1267
         4        1217        1218        1269        1268
         4        1218        1219        1270        1269
         4        1219        1220        1271        1270
         4        1220        1221        1272        1271
         4        1221        1222        1273        1272
         4        1222        1223        1274        1273
         4        1224        1225        1276        1275
         4        1225        1226        1277        1276
         4        1226        1227        1278        1277
         4        1227        1228        1279        1278
         4        1228        1229        1280        1279
         4        1229        1230        1281        1280
         4        1230        1231        1282        1281
         4        1231        1232        1283        1282
         4        1232        1233        1284        1283
         4        1233        1234        1285        1284
         4        1234        1235        1286        1285
         4        1235        1236        1287        1286
         4        1236        1237        1288        1287
         4        1237        1238        1289        1288
         4        1238        1239        1290        1289
         4        1239        1240        1291        1290
         4        1240        1241        1292        1291
         4        1241        1242        1293        1292
         4        1242        1243        1294        1293
         4        1243        1244        1295        1294
         4        1244        1245        1296        1295
         4        1245        1246        1297        1296
         4        1246        1247        1298        1297
         4        1247        1248        1299        1298
         4        1248        1249        1300        1299
         4        1249        1250        1301        1300
         4        1250        1251        1302        1301
         4        1251        1252        1303        1302
         4        1252        1253        1304        1303
         4        1253        1254        1305        1304
         4        1254        1255        1306        1305
         4        1255        1256        1307        1306
         4        1256        1257        1308        1307
         4        1257        1258        1309        1308
         4        1258        1259        1310        1309
         4        1259        1260        1311        1310
         4        1260        1261        1312        1311
         4        1261        1262        1313        1312
         4        1262        1263        1314        1313
         4        1263        1264        1315        1314
         4        1264        1265        1316        1315
         4        1265        1266        1317        1316
         4        1266        1267        1318        1317
         4        1267        1268        1319        1318
         4        1268        1269        1320        1319
         4        1269        1270        1321        1320
         4        1270        1271        1322        1321
         4        1271        1272        1323        1322
         4        1272        1273        1324        1323
         4        1273        1274        1325        1324
         4        1275        1276        1327        1326
         4        1276        1277        1328        1327
         4        1277        1278        1329        1328
         4        1278        1279        1330        1329
         4        1279        1280        1331        1330
         4        1280        1281        1332        1331
         4        1281        1282        1333        1332
         4        1282        1283        1334        1333
         4        1283        1284        1335        1334
         4        1284        1285        1336        1335
         4        1285        1286        1337        1336
         4        1286        1287        1338        1337
         4        1287        1288        1339        1338
         4        1288        1289        1340        1339
         4        1289        1290        1341        1340
         4        1290        1291        1342        1341
         4        1291        1292        1343        1342
         4        1292        1293        1344        1343
         4        1293        1294        1345        1344
         4        1294        1295        1346        1345
         4        1295        1296        1347        1346
         4        1296        1297        1348        1347
         4        1297        1298        1349        1348
         4        1298        1299        1350        1349
         4        1299        1300        1351        1350
         4        1300        1301        1352        1351
         4        1301        1302        1353        1352
         4        1302        1303        1354        1353
         4        1303        1304        1355        1354
         4        1304        1305        1356        1355
         4        1305        1306        1357        1356
         4        1306        1307        1358        1357
         4        1307        1308        1359        1358
         4        1308        1309        1360        1359
         4        1309        1310        1361        1360
         4        1310        1311        1362        1361
         4        1311        1312        1363        1362
         4        1312        1313        1364        1363
         4        1313        1314        1365        1364
         4        1314        1315        1366        1365
         4        1315        1316        1367        1366
         4        1316        1317        1368        1367
         4        1317        1318        1369        1368
         4        1318        1319        1370        1369
         4        1319        1320        1371        1370
         4        1320        1321        1372        1371
         4        1321        1322        1373        1372
         4        1322        1323        1374        1373
         4        1323        1324        1375        1374
         4        1324        1325        1376        1375
         4        1326        1327        1378        1377
         4        1327        1328        1379        1378
         4        1328        1329        1380        1379
         4        1329        1330        1381        1380
         4        1330        1331        1382        1381
         4        1331        1332        1383        1382
         4        1332        1333        1384        1383
         4        1333        1334        1385        1384
         4        1334        1335        1386        1385
         4        1335        1336        1387        1386
         4        1336        1337        1388        1387
         4        1337        1338        1389        1388
         4        1338        1339        1390        1389
         4        1339        1340        1391        1390
         4        1340        1341        1392        1391
         4        1341        1342        1393        1392
         4        1342        1343        1394        1393
         4        1343        1344        1395        1394
         4        1344        1345        1396        1395
         4        1345        1346        1397        1396
         4        1346        1347        1398        1397
         4        1347        1348        1399        1398
         4        1348        1349        1400        1399
         4        1349        1350        1401        1400
         4        1350        1351        1402        1401
         4        1351        1352        1403        1402
         4        1352        1353        1404        1403
         4        1353        1354        1405        1404
         4        1354        1355        1406        1405
         4        1355        1356        1407        1406
         4        1356        1357        1408        1407
         4        1357        1358        1409        1408
         4        1358        1359        1410        1409
         4        1359        1360        1411        1410
         4        1360        1361        1412        1411
         4        1361        1362        1413        1412
         4        1362        1363        1414        1413
         4        1363        1364        1415        1414
         4        1364        1365        1416        1415
         4        1365        1366        1417        1416
         4        1366        1367        1418        1417
         4        1367        1368        1419        1418
         4        1368        1369        1420        1419
         4        1369        1370        1421        1420
         4        1370        1371        1422        1421
         4        1371        1372        1423        1422
         4        1372        1373        1424        1423
         4        1373        1374        1425        1424
         4        1374        1375        1426        1425
         4        1375        1376        1427        1426
         4        1377        1378        1429        1428
         4        1378        1379        1430        1429
         4        1379        1380        1431        1430
         4        1380        1381        1432        1431
         4        1381        1382        1433        1432
         4        1382        1383        1434        1433
         4        1383        1384        1435        1434
         4        1384        1385        1436        1435
         4        1385        1386        1437        1436
         4        1386        1387        1438        1437
         4        1387        1388        1439        1438
         4        1388        1389        1440        1439
         4        1389        1390        1441        1440
         4        1390        1391        1442        1441
         4        1391        1392        1443        1442
         4        1392        1393        1444        1443
         4        1393        1394        1445        1444
         4        1394        1395        1446        1445
         4        1395        1396        1447        1446
         4        1396        1397        1448        1447
         4        1397        1398        1449        1448
         4        1398        1399        1450        1449
         4        1399        1400        1451        1450
         4        1400        1401        1452        1451
         4        1401        1402        1453        1452
         4        1402        1403        1454        1453
         4        1403        1404        1455        1454
         4        1404        1405        1456        1455
         4        1405        1406        1457        1456
         4        1406        1407        1458        1457
         4        1407        1408        1459        1458
         4        1408        1409        1460        1459
         4        1409        1410        1461        1460
         4        1410        1411        1462        1461
         4        1411        1412        1463        1462
         4        1412        1413        1464        1463
         4        1413        1414        1465        1464
         4        1414        1415        1466        1465
         4        1415        1416        1467        1466
         4        1416        1417        1468        1467
         4        1417        1418        1469        1468
         4        1418        1419        1470        1469
         4        1419        1420        1471        1470
         4        1420        1421        1472        1471
         4        1421        1422        1473        1472
         4        1422        1423        1474        1473
         4        1423        1424        1475        1474
         4        1424        1425        1476        1475
         4        1425        1426        1477        1476
         4        1426        1427        1478        1477
         4        1428        1429        1480        1479
         4        1429        1430        1481        1480
         4        1430        1431        1482        1481
         4        1431        1432        1483        1482
         4        1432        1433        1484        1483
         4        1433        1434        1485        1484
         4        1434        1435        1486        1485
         4        1435        1436        1487        1486
         4        1436        1437        1488        1487
         4        1437        1438        1489        1488
         4        1438        1439        1490        1489
         4        1439        1440        1491        1490
         4        1440        1441        1492        1491
         4        1441        1442        1493        1492
         4        1442        1443        1494        1493
         4        1443        1444        1495        1494
         4        1444        1445        1496        1495
         4        1445        1446        1497        1496
         4        1446        1447        1498        1497
         4        1447        1448        1499        1498
         4        1448        1449        1500        1499
         4        1449        1450        1501        1500
         4        1450        1451        1502        1501
         4        1451        1452        1503        1502
         4        1452        1453        1504        1503
         4        1453        1454        1505        1504
         4        1454        1455        1506        1505
         4        1455        1456        1507        1506
         4        1456        1457        1508        1507
         4        1457        1458        1509        1508
         4        1458        1459        1510        1509
         4        1459        1460        1511        1510
         4        1460        1461        1512        1511
         4        1461        1462        1513        1512
         4        1462        1463        1514        1513
         4        1463        1464        1515        1514
         4        1464        1465        1516        1515
         4        1465        1466        1517        1516
         4        1466        1467        1518        1517
         4        1467        1468        1519        1518
         4        1468        1469        1520        1519
         4        1469        1470        1521        1520
         4        1470        1471        1522        1521
         4        1471        1472        1523        1522
         4        1472        1473        1524        1523
         4        1473        1474        1525        1524
         4        1474        1475        1526        1525
         4        1475        1476        1527        1526
         4        1476        1477        1528        1527
         4        1477        1478        1529        1528
         4        1479        1480        1531        1530
         4        1480        1481        1532        1531
         4        1481        1482        1533        1532
         4        1482        1483        1534        1533
         4        1483        1484        1535        1534
         4        1484        1485        1536        1535
         4        1485        1486        1537        1536
         4        1486        1487        1538        1537
         4        1487        1488        1539        1538
         4        1488        1489        1540        1539
         4        1489        1490        1541        1540
         4        1490        1491        1542        1541
         4        1491        1492        1543        1542
         4        1492        1493        1544        1543
         4        1493        1494        1545        1544
         4        1494        1495        1546        1545
         4        1495        1496        1547        1546
         4        1496        1497        1548        1547
         4        1497        1498        1549        1548
         4        1498        1499        1550        1549
         4        1499        1500        1551        1550
         4        1500        1501        1552        1551
         4        1501        1502        1553        1552
         4        1502        1503        1554        1553
         4        1503        1504        1555        1554
         4        1504        1505        1556        1555
         4        1505        1506        1557        1556
         4        1506        1507        1558        1557
         4        1507        1508        1559        1558
         4        1508        1509        1560        1559
         4        1509        1510        1561        1560
         4        1510        1511        1562        1561
         4        1511        1512        1563        1562
         4        1512        1513        1564        1563
         4        1513        1514        1565        1564
         4        1514        1515        1566        1565
         4        1515        1516        1567        1566
         4        1516        1517        1568        1567
         4        1517        1518        1569        1568
         4        1518        1519        1570        1569
         4        1519        1520        1571        1570
         4        1520        1521        1572        1571
         4        1521        1522        1573        1572
         4        1522        1523        1574        1573
         4        1523        1524        1575        1574
         4        1524        1525        1576        1575
         4        1525        1526        1577        1576
         4        1526        1527        1578        1577
         4        1527        1528        1579        1578
         4        1528        1529        1580        1579
         4        1530        1531        1582        1581
         4        1531        1532        1583        1582
         4        1532        1533        1584        1583
         4        1533        1534        1585        1584
         4        1534        1535        1586        1585
         4        1535        1536        1587        1586
         4        1536        1537        1588        1587
         4        1537        1538        1589        1588
         4        1538        1539        1590        1589
         4        1539        1540        1591        1590
         4        1540        1541        1592        1591
         4        1541        1542        1593        1592
         4        1542        1543        1594        1593
         4        1543        1544        1595        1594
         4        1544        1545        1596        1595
         4        1545        1546        1597        1596
         4        1546        1547        1598        1597
         4        1547        1548        1599        1598
         4        1548        1549        1600        1599
         4        1549        1550        1601        1600
         4        1550        1551        1602        1601
         4        1551        1552        1603        1602
         4        1552        1553        1604        1603
         4        1553        1554        1605        1604
         4        1554        1555        1606        1605
         4        1555        1556        1607        1606
         4        1556        1557        1608        1607
         4        1557        1558        1609        1608
         4        1558        1559        1610        1609
         4        1559        1560        1611        1610
         4        1560        1561        1612        1611
         4        1561        1562        1613        1612
         4        1562        1563        1614        1613
         4        1563        1564        1615        1614
         4        1564        1565        1616        1615
         4        1565        1566        1617        1616
         4        1566        1567        1618        1617
         4        1567        1568        1619        1618
         4        1568        1569        1620        1619
         4        1569        1570        1621        1620
         4        1570        1571        1622        1621
         4        1571        1572        1623        1622
         4        1572        1573        1624        1623
         4        1573        1574        1625        1624
         4        1574        1575        1626        1625
         4        1575        1576        1627        1626
         4        1576        1577        1628        1627
         4        1577        1578        1629        1628
         4        1578        1579        1630        1629
         4        1579        1580        1631        1630
         4        1581        1582        1633        1632
         4        1582        1583        1634        1633
         4        1583        1584        1635        1634
         4        1584        1585        1636        1635
         4        1585        1586        1637        1636
         4        1586        1587        1638        1637
         4        1587        1588        1639        1638
         4        1588        1589        1640        1639
         4        1589        1590        1641        1640
         4        1590        1591        1642        1641
         4        1591        1592        1643        1642
         4        1592        1593        1644        1643
         4        1593        1594        1645        1644
         4        1594        1595        1646        1645
         4        1595        1596        1647        1646
         4        1596        1597        1648        1647
         4        1597        1598        1649        1648
         4        1598        1599        1650        1649
         4        1599        1600        1651        1650
         4        1600        1601        1652        1651
         4        1601        1602        1653        1652
         4        1602        1603        1654        1653
         4        1603        1604        1655        1654
         4        1604        1605        1656        1655
         4        1605        1606        1657        1656
         4        1606        1607        1658        1657
         4        1607        1608        1659        1658
         4        1608        1609        1660        1659
         4        1609        1610        1661        1660
         4        1610        1611        1662        1661
         4        1611        1612        1663        1662
         4        1612        1613        1664        1663
         4        1613        1614        1665        1664
         4        1614        1615        1666        1665
         4        1615        1616        1667        1666
         4        1616        1617        1668        1667
         4        1617        1618        1669        1668
         4        1618        1619        1670        1669
         4        1619        1620        1671        1670
         4        1620        1621        1672        1671
         4        1621        1622        1673        1672
         4        1622        1623        1674        1673
         4        1623        1624        1675        1674
         4        1624        1625        1676        1675
         4        1625        1626        1677        1676
         4        1626        1627        1678        1677
         4        1627        1628        1679        1678
         4        1628        1629        1680        1679
         4        1629        1630        1681        1680
         4        1630        1631        1682        1681
         4        1632        1633        1684        1683
         4        1633        1634        1685        1684
         4        1634        1635        1686        1685
         4        1635        1636        1687        1686
         4        1636        1637        1688        1687
         4        1637        1638        1689        1688
         4        1638        1639        1690        1689
         4        1639        1640        1691        1690
         4        1640        1641        1692        1691
         4        1641        1642        1693        1692
         4        1642        1643        1694        1693
         4        1643        1644        1695        1694
         4        1644        1645        1696        1695
         4        1645        1646        1697        1696
         4        1646        1647        1698        1697
         4        1647        1648        1699        1698
         4        1648        1649        1700        1699
         4        1649        1650        1701        1700
         4        1650        1651        1702        1701
         4        1651        1652        1703        1702
         4        1652        1653        1704        1703
         4        1653        1654        1705        1704
         4        1654        1655        1706        1705
         4        1655        1656        1707        1706
         4        1656        1657        1708        1707
         4        1657        1658        1709        1708
         4        1658        1659        1710        1709
         4        1659        1660        1711        1710
         4        1660        1661        1712        1711
         4        1661        1662        1713        1712
         4        1662        1663        1714        1713
         4        1663        1664        1715        1714
         4        1664        1665        1716        1715
         4        1665        1666        1717        1716
         4        1666        1667        1718        1717
         4        1667        1668        1719        1718
         4        1668        1669        1720        1719
         4        1669        1670        1721        1720
         4        1670        1671        1722        1721
         4        1671        1672        1723        1722
         4        1672        1673        1724        1723
         4        1673        1674        1725        1724
         4        1674        1675        1726        1725
         4        1675        1676        1727        1726
         4        1676        1677        1728        1727
         4        1677        1678        1729        1728
         4        1678        1679        1730        1729
         4        1679        1680        1731        1730
         4        1680        1681        1732        1731
         4        1681        1682        1733        1732
         4        1683        1684        1735        1734
         4        1684        1685        1736        1735
         4        1685        1686        1737        1736
         4        1686        1687        1738        1737
         4        1687        1688        1739        1738
         4        1688        1689        1740        1739
         4        1689        1690        1741        1740
         4        1690        1691        1742        1741
         4        1691        1692        1743        1742
         4        1692        1693        1744        1743
         4        1693        1694        1745        1744
         4        1694        1695        1746        1745
         4        1695        1696        1747        1746
         4        1696        1697        1748        1747
         4        1697        1698        1749        1748
         4        1698        1699        1750        1749
         4        1699        1700        1751        1750
         4        1700        1701        1752        1751
         4        1701        1702        1753        1752
         4        1702        1703        1754        1753
         4        1703        1704        1755        1754
         4        1704        1705        1756        1755
         4        1705        1706        1757        1756
         4        1706        1707        1758        1757
         4        1707        1708        1759        1758
         4        1708        1709        1760        1759
         4        1709        1710        1761        1760
         4        1710        1711        1762        1761
         4        1711        1712        1763        1762
         4        1712        1713        1764        1763
         4        1713        1714        1765        1764
         4        1714        1715        1766        1765
         4        1715        1716        1767        1766
         4        1716        1717        1768        1767
         4        1717        1718        1769        1768
         4        1718        1719        1770        1769
         4        1719        1720        1771        1770
         4        1720        1721        1772        1771
         4        1721        1722        1773        1772
         4        1722        1723        1774        1773
         4        1723        1724        1775        1774
         4        1724        1725        1776        1775
         4        1725        1726        1777        1776
         4        1726        1727        1778        1777
         4        1727        1728        1779        1778
         4        1728        1729        1780        1779
         4        1729        1730        1781        1780
         4        1730        1731        1782        1781
         4        1731        1732        1783        1782
         4        1732        1733        1784        1783
         4        1734        1735        1786        1785
         4        1735        1736        1787        1786
         4        1736        1737        1788        1787
         4        1737        1738        1789        1788
         4        1738        1739        1790        1789
         4        1739        1740        1791        1790
         4        1740        1741        1792        1791
         4        1741        1742        1793        1792
         4        1742        1743        1794        1793
         4        1743        1744        1795        1794
         4        1744        1745        1796        1795
         4        1745        1746        1797        1796
         4        1746        1747        1798        1797
         4        1747        1748        1799        1798
         4        1748        1749        1800        1799
         4        1749        1750        1801        1800
         4        1750        1751        1802        1801
         4        1751        1752        1803        1802
         4        1752        1753        1804        1803
         4        1753        1754        1805        1804
         4        1754        1755        1806        1805
         4        1755        1756        1807        1806
         4        1756        1757        1808        1807
         4        1757        1758        1809        1808
         4        1758        1759        1810        1809
         4        1759        1760        1811        1810
         4        1760        1761        1812        1811
         4        1761        1762        1813        1812
         4        1762        1763        1814        1813
         4        1763        1764        1815        1814
         4        1764        1765        1816        1815
         4        1765        1766        1817        1816
         4        1766        1767        1818        1817
         4        1767        1768        1819        1818
         4        1768        1769        1820        1819
         4        1769        1770        1821        1820
         4        1770        1771        1822        1821
         4        1771        1772        1823        1822
         4        1772        1773        1824        1823
         4        1773        1774        1825        1824
         4        1774        1775        1826        1825
         4        1775        1776        1827        1826
         4        1776        1777        1828        1827
         4        1777        1778        1829        1828
         4        1778        1779        1830        1829
         4        1779        1780        1831        1830
         4        1780        1781        1832        1831
         4        1781        1782        1833        1832
         4        1782        1783        1834        1833
         4        1783        1784        1835        1834
         4        1785        1786        1837        1836
         4        1786        1787        1838        1837
         4        1787        1788        1839        1838
         4        1788        1789        1840        1839
         4        1789        1790        1841        1840
         4        1790        1791        1842        1841
         4        1791        1792        1843        1842
         4        1792        1793        1844        1843
         4        1793        1794        1845        1844
         4        1794        1795        1846        1845
         4        1795        1796        1847        1846
         4        1796        1797        1848        1847
         4        1797        1798        1849        1848
         4        1798        1799        1850        1849
         4        1799        1800        1851        1850
         4        1800        1801        1852        1851
         4        1801        1802        1853        1852
         4        1802        1803        1854        1853
         4        1803        1804        1855        1854
         4        1804        1805        1856        1855
         4        1805        1806        1857        1856
         4        1806        1807        1858        1857
         4        1807        1808        1859        1858
         4        1808        1809        1860        1859
         4        1809        1810        1861        1860
         4        1810        1811        1862        1861
         4        1811        1812        1863        1862
         4        1812        1813        1864        1863
         4        1813        1814        1865        1864
         4        1814        1815        1866        1865
         4        1815        1816        1867        1866
         4        1816        1817        1868        1867
         4        1817        1818        1869        1868
         4        1818        1819        1870        1869
         4        1819        1820        1871        1870
         4        1820        1821        1872        1871
         4        1821        1822        1873        1872
         4        1822        1823        1874        1873
         4        1823        1824        1875        1874
         4        1824        1825        1876        1875
         4        1825        1826        1877        1876
         4        1826        1827        1878        1877
         4        1827        1828        1879        1878
         4        1828        1829        1880        1879
         4        1829        1830        1881        1880
         4        1830        1831        1882        1881
         4        1831        1832        1883        1882
         4        1832        1833        1884        1883
         4        1833        1834        1885        1884
         4        1834        1835        1886        1885
         4        1836        1837        1888        1887
         4        1837        1838        1889        1888
         4        1838        1839        1890        1889
         4        1839        1840        1891        1890
         4        1840        1841        1892        1891
         4        1841        1842        1893        1892
         4        1842        1843        1894        1893
         4        1843        1844        1895        1894
         4        1844        1845        1896        1895
         4        1845        1846        1897        1896
         4        1846        1847        1898        1897
         4        1847        1848        1899        1898
         4        1848        1849        1900        1899
         4        1849        1850        1901        1900
         4        1850        1851        1902        1901
         4        1851        1852        1903        1902
         4        1852        1853        1904        1903
         4        1853        1854        1905        1904
         4        1854        1855        1906        1905
         4        1855        1856        1907        1906
         4        1856        1857        1908        1907
         4        1857        1858        1909        1908
         4        1858        1859        1910        1909
         4        1859        1860        1911        1910
         4        1860        1861        1912        1911
         4        1861        1862        1913        1912
         4        1862        1863        1914        1913
         4        1863        1864        1915        1914
         4        1864        1865        1916        1915
         4        1865        1866        1917        1916
         4        1866        1867        1918        1917
         4        1867        1868        1919        1918
         4        1868        1869        1920        1919
         4        1869        1870        1921        1920
         4        1870        1871        1922        1921
         4        1871        1872        1923        1922
         4        1872        1873        1924        1923
         4        1873        1874        1925        1924
         4        1874        1875        1926        1925
         4        1875        1876        1927        1926
         4        1876        1877        1928        1927
         4        1877        1878        1929        1928
         4        1878        1879        1930        1929
         4        1879        1880        1931        1930
         4        1880        1881        1932        1931
         4        1881        1882        1933        1932
         4        1882        1883        1934        1933
         4        1883        1884        1935        1934
         4        1884        1885        1936        1935
         4        1885        1886        1937        1936
         4        1887        1888        1939        1938
         4        1888        1889        1940        1939
         4        1889        1890        1941        1940
         4        1890        1891        1942        1941
         4        1891        1892        1943        1942
         4        1892        1893        1944        1943
         4        1893        1894        1945        1944
         4        1894        1895        1946        1945
         4        1895        1896        1947        1946
         4        1896        1897        1948        1947
         4        1897        1898        1949        1948
         4        1898        1899        1950        1949
         4        1899        1900        1951        1950
         4        1900        1901        1952        1951
         4        1901        1902        1953        1952
         4        1902        1903        1954        1953
         4        1903        1904        1955        1954
         4        1904        1905        1956        1955
         4        1905        1906        1957        1956
         4        1906        1907        1958        1957
         4        1907        1908        1959        1958
         4        1908        1909        1960        1959
         4        1909        1910        1961        1960
         4        1910        1911        1962        1961
         4        1911        1912        1963        1962
         4        1912        1913        1964        1963
         4        1913        1914        1965        1964
         4        1914        1915        1966        1965
         4        1915        1916        1967        1966
         4        1916        1917        1968        1967
         4        1917        1918        1969        1968
         4        1918        1919        1970        1969
         4        1919        1920        1971        1970
         4        1920        1921        1972        1971
         4        1921        1922        1973        1972
         4        1922        1923        1974        1973
         4        1923        1924        1975        1974
         4        1924        1925        1976        1975
         4        1925        1926        1977        1976
         4        1926        1927        1978        1977
         4        1927        1928        1979        1978
         4        1928        1929        1980        1979
         4        1929        1930        1981        1980
         4        1930        1931        1982        1981
         4        1931        1932        1983        1982
         4        1932        1933        1984        1983
         4        1933        1934        1985        1984
         4        1934        1935        1986        1985
         4        1935        1936        1987        1986
         4        1936        1937        1988        1987
         4        1938        1939        1990        1989
         4        1939        1940        1991        1990
         4        1940        1941        1992        1991
         4        1941        1942        1993        1992
         4        1942        1943        1994        1993
         4        1943        1944        1995        1994
         4        1944        1945        1996        1995
         4        1945        1946        1997        1996
         4        1946        1947        1998        1997
         4        1947        1948        1999        1998
         4        1948        1949        2000        1999
         4        1949        1950        2001        2000
         4        1950        1951        2002        2001
         4        1951        1952        2003        2002
         4        1952        1953        2004        2003
         4        1953        1954        2005        2004
         4        1954        1955        2006        2005
         4        1955        1956        2007        2006
         4        1956        1957        2008        2007
         4        1957        1958        2009        2008
         4        1958        1959        2010        2009
         4        1959        1960        2011        2010
         4        1960        1961        2012        2011
         4        1961        1962        2013        2012
         4        1962        1963        2014        2013
         4        1963        1964        2015        2014
         4        1964        1965        2016        2015
         4        1965        1966        2017        2016
         4        1966        1967        2018        2017
         4        1967        1968        2019        2018
         4        1968        1969        2020        2019
         4        1969        1970        2021        2020
         4        1970        1971        2022        2021
         4        1971        1972        2023        2022
         4        1972        1973        2024        2023
         4        1973        1974        2025        2024
         4        1974        1975        2026        2025
         4        1975        1976        2027        2026
         4        1976        1977        2028        2027
         4        1977        1978        2029        2028
         4        1978        1979        2030        2029
         4        1979        1980        2031        2030
         4        1980        1981        2032        2031
         4        1981        1982        2033        2032
         4        1982        1983        2034        2033
         4        1983        1984        2035        2034
         4        1984        1985        2036        2035
         4        1985        1986        2037        2036
         4        1986        1987        2038        2037
         4        1987        1988        2039        2038
         4        1989        1990        2041        2040
         4        1990        1991        2042        2041
         4        1991        1992        2043        2042
         4        1992        1993        2044        2043
         4        1993        1994        2045        2044
         4        1994        1995        2046        2045
         4        1995        1996        2047        2046
         4        1996        1997        2048        2047
         4        1997        1998        2049        2048
         4        1998        1999        2050        2049
         4        1999        2000        2051        2050
         4        2000        2001        2052        2051
         4        2001        2002        2053        2052
         4        2002        2003        2054        2053
         4        2003        2004        2055        2054
         4        2004        2005        2056        2055
         4        2005        2006        2057        2056
         4        2006        2007        2058        2057
         4        2007        2008        2059        2058
         4        2008        2009        2060        2059
         4        2009        2010        2061        2060
         4        2010        2011        2062        2061
         4        2011        2012        2063        2062
         4        2012        2013        2064        2063
         4        2013        2014        2065        2064
         4        2014        2015        2066        2065
         4        2015        2016        2067        2066
         4        2016        2017        2068        2067
         4        2017        2018        2069        2068
         4        2018        2019        2070        2069
         4        2019        2020        2071        2070
         4        2020        2021        2072        2071
         4        2021        2022        2073        2072
         4        2022        2023        2074        2073
         4        2023        2024        2075        2074
         4        2024        2025        2076        2075
         4        2025        2026        2077        2076
         4        2026        2027        2078        2077
         4        2027        2028        2079        2078
         4        2028        2029        2080        2079
         4        2029        2030        2081        2080
         4        2030        2031        2082        2081
         4        2031        2032        2083        2082
         4        2032        2033        2084        2083
         4        2033        2034        2085        2084
         4        2034        2035        2086        2085
         4        2035        2036        2087        2086
         4        2036        2037        2088        2087
         4        2037        2038        2089        2088
         4        2038        2039        2090        2089
         4        2040        2041        2092        2091
         4        2041        2042        2093        2092
         4        2042        2043        2094        2093
         4        2043        2044        2095        2094
         4        2044        2045        2096        2095
         4        2045        2046        2097        2096
         4        2046        2047        2098        2097
         4        2047        2048        2099        2098
         4        2048        2049        2100        2099
         4        2049        2050        2101        2100
         4        2050        2051        2102        2101
         4        2051        2052        2103        2102
         4        2052        2053        2104        2103
         4        2053        2054        2105        2104
         4        2054        2055        2106        2105
         4        2055        2056        2107        2106
         4        2056        2057        2108        2107
         4        2057        2058        2109        2108
         4        2058        2059        2110        2109
         4        2059        2060        2111        2110
         4        2060        2061        2112        2111
         4        2061        2062        2113        2112
         4        2062        2063        2114        2113
         4        2063        2064        2115        2114
         4        2064        2065        2116        2115
         4        2065        2066        2117        2116
         4        2066        2067        2118        2117
         4        2067        2068        2119        2118
         4        2068        2069        2120        2119
         4        2069        2070        2121        2120
         4        2070        2071        2122        2121
         4        2071        2072        2123        2122
         4        2072        2073        2124        2123
         4        2073        2074        2125        2124
         4        2074        2075        2126        2125
         4        2075        2076        2127        2126
         4        2076        2077        2128        2127
         4        2077        2078        2129        2128
         4        2078        2079        2130        2129
         4        2079        2080        2131        2130
         4        2080        2081        2132        2131
         4        2081        2082        2133        2132
         4        2082        2083        2134        2133
         4        2083        2084        2135        2134
         4        2084        2085        2136        2135
         4        2085        2086        2137        2136
         4        2086        2087        2138        2137
         4        2087        2088        2139        2138
         4        2088        2089        2140        2139
         4        2089        2090        2141        2140
         4        2091        2092        2143        2142
         4        2092        2093        2144        2143
         4        2093        2094        2145        2144
         4        2094        2095        2146        2145
         4        2095        2096        2147        2146
         4        2096        2097        2148        2147
         4        2097        2098        2149        2148
         4        2098        2099        2150        2149
         4        2099        2100        2151        2150
         4        2100        2101        2152        2151
         4        2101        2102        2153        2152
         4        2102        2103        2154        2153
         4        2103        2104        2155        2154
         4        2104        2105        2156        2155
         4        2105        2106        2157        2156
         4        2106        2107        2158        2157
         4        2107        2108        2159        2158
         4        2108        2109        2160        2159
         4        2109        2110        2161        2160
         4        2110        2111        2162        2161
         4        2111        2112        2163        2162
         4        2112        2113        2164        2163
         4        2113        2114        2165        2164
         4        2114        2115        2166        2165
         4        2115        2116        2167        2166
         4        2116        2117        2168        2167
         4        2117        2118        2169        2168
         4        2118        2119        2170        2169
         4        2119        2120        2171        2170
         4        2120        2121        2172        2171
         4        2121        2122        2173        2172
         4        2122        2123        2174        2173
         4        2123        2124        2175        2174
         4        2124        2125        2176        2175
         4        2125        2126        2177        2176
         4        2126        2127        2178        2177
         4        2127        2128        2179        2178
         4        2128        2129        2180        2179
         4        2129        2130        2181        2180
         4        2130        2131        2182        2181
         4        2131        2132        2183        2182
         4        2132        2133        2184        2183
         4        2133        2134        2185        2184
         4        2134        2135        2186        2185
         4        2135        2136        2187        2186
         4        2136        2137        2188        2187
         4        2137        2138        2189        2188
         4        2138        2139        2190        2189
         4        2139        2140        2191        2190
         4        2140        2141        2192        2191
         4        2142        2143        2194        2193
         4        2143        2144        2195        2194
         4        2144        2145        2196        2195
         4        2145        2146        2197        2196
         4        2146        2147        2198        2197
         4        2147        2148        2199        2198
         4        2148        2149        2200        2199
         4        2149        2150        2201        2200
         4        2150        2151        2202        2201
         4        2151        2152        2203        2202
         4        2152        2153        2204        2203
         4        2153        2154        2205        2204
         4        2154        2155        2206        2205
         4        2155        2156        2207        2206
         4        2156        2157        2208        2207
         4        2157        2158        2209        2208
         4        2158        2159        2210        2209
         4        2159        2160        2211        2210
         4        2160        2161        2212        2211
         4        2161        2162        2213        2212
         4        2162        2163        2214        2213
         4        2163        2164        2215        2214
         4        2164        2165        2216        2215
         4        2165        2166        2217        2216
         4        2166        2167        2218        2217
         4        2167        2168        2219        2218
         4        2168        2169        2220        2219
         4        2169        2170        2221        2220
         4        2170        2171        2222        2221
         4        2171        2172        2223        2222
         4        2172        2173        2224        2223
         4        2173        2174        2225        2224
         4        2174        2175        2226        2225
         4        2175        2176        2227        2226
         4        2176        2177        2228        2227
         4        2177        2178        2229        2228
         4        2178        2179        2230        2229
         4        2179        2180        2231        2230
         4        2180        2181        2232        2231
         4        2181        2182        2233        2232
         4        2182        2183        2234        2233
         4        2183        2184        2235        2234
         4        2184        2185        2236        2235
         4        2185        2186        2237        2236
         4        2186        2187        2238        2237
         4        2187        2188        2239        2238
         4        2188        2189        2240        2239
         4        2189        2190        2241        2240
         4        2190        2191        2242        2241
         4        2191        2192        2243        2242
         4        2193        2194        2245        2244
         4        2194        2195        2246        2245
         4        2195        2196        2247        2246
         4        2196        2197        2248        2247
         4        2197        2198        2249        2248
         4        2198        2199        2250        2249
         4        2199        2200        2251        2250
         4        2200        2201        2252        2251
         4        2201        2202        2253        2252
         4        2202        2203        2254        2253
         4        2203        2204        2255        2254
         4        2204        2205        2256        2255
         4        2205        2206        2257        2256
         4        2206        2207        2258        2257
         4        2207        2208        2259        2258
         4        2208        2209        2260        2259
         4        2209        2210        2261        2260
         4        2210        2211        2262        2261
         4        2211        2212        2263        2262
         4        2212        2213        2264        2263
         4        2213        2214        2265        2264
         4        2214        2215        2266        2265
         4        2215        2216        2267        2266
         4        2216        2217        2268        2267
         4        2217        2218        2269        2268
         4        2218        2219        2270        2269
         4        2219        2220        2271        2270
         4        2220        2221        2272        2271
         4        2221        2222        2273        2272
         4        2222        2223        2274        2273
         4        2223        2224        2275        2274
         4        2224        2225        2276        2275
         4        2225        2226        2277        2276
         4        2226        2227        2278        2277
         4        2227        2228        2279        2278
         4        2228        2229        2280        2279
         4        2229        2230        2281        2280
         4        2230        2231        2282        2281
         4        2231        2232        2283        2282
         4        2232        2233        2284        2283
         4        2233        2234        2285        2284
         4        2234        2235        2286        2285
         4        2235        2236        2287        2286
         4        2236        2237        2288        2287
         4        2237        2238        2289        2288
         4        2238        2239        2290        2289
         4        2239        2240        2291        2290
         4        2240        2241        2292        2291
         4        2241        2242        2293        2292
         4        2242        2243        2294        2293
         4        2244        2245        2296        2295
         4        2245        2246        2297        2296
         4        2246        2247        2298        2297
         4        2247        2248        2299        2298
         4        2248        2249        2300        2299
         4        2249        2250        2301        2300
         4        2250        2251        2302        2301
         4        2251        2252        2303        2302
         4        2252        2253        2304        2303
         4        2253        2254        2305        2304
         4        2254        2255        2306        2305
         4        2255        2256        2307        2306
         4        2256        2257        2308        2307
         4        2257        2258        2309        2308
         4        2258        2259        2310        2309
         4        2259        2260        2311        2310
         4        2260        2261        2312        2311
         4        2261        2262        2313        2312
         4        2262        2263        2314        2313
         4        2263        2264        2315        2314
         4        2264        2265        2316        2315
         4        2265        2266        2317        2316
         4        2266        2267        2318        2317
         4        2267        2268        2319        2318
         4        2268        2269        2320        2319
         4        2269        2270        2321        2320
         4        2270        2271        2322        2321
         4        2271        2272        2323        2322
         4        2272        2273        2324        2323
         4        2273        2274        2325        2324
         4        2274        2275        2326        2325
         4        2275        2276        2327        2326
         4        2276        2277        2328        2327
         4        2277        2278        2329        2328
         4        2278        2279        2330        2329
         4        2279        2280        2331        2330
         4        2280        2281        2332        2331
         4        2281        2282        2333        2332
         4        2282        2283        2334        2333
         4        2283        2284        2335        2334
         4        2284        2285        2336        2335
         4        2285        2286        2337        2336
         4        2286        2287        2338        2337
         4        2287        2288        2339        2338
         4        2288        2289        2340        2339
         4        2289        2290        2341        2340
         4        2290        2291        2342        2341
         4        2291        2292        2343        2342
         4        2292        2293        2344        2343
         4        2293        2294        2345        2344
         4        2295        2296        2347        2346
         4        2296        2297        2348        2347
         4        2297        2298        2349        2348
         4        2298        2299        2350        2349
         4        2299        2300        2351        2350
         4        2300        2301        2352        2351
         4        2301        2302        2353        2352
         4        2302        2303        2354        2353
         4        2303        2304        2355        2354
         4        2304        2305        2356        2355
         4        2305        2306        2357        2356
         4        2306        2307        2358        2357
         4        2307        2308        2359        2358
         4        2308        2309        2360        2359
         4        2309        2310        2361        2360
         4        2310        2311        2362        2361
         4        2311        2312        2363        2362
         4        2312        2313        2364        2363
         4        2313        2314        2365        2364
         4        2314        2315        2366        2365
         4        2315        2316        2367        2366
         4        2316        2317        2368        2367
         4        2317        2318        2369        2368
         4        2318        2319        2370        2369
         4        2319        2320        2371        2370
         4        2320        2321        2372        2371
         4        2321        2322        2373        2372
         4        2322        2323        2374        2373
         4        2323        2324        2375        2374
         4        2324        2325        2376        2375
         4        2325        2326        2377        2376
         4        2326        2327        2378        2377
         4        2327        2328        2379        2378
         4        2328        2329        2380        2379
         4        2329        2330        2381        2380
         4        2330        2331        2382        2381
         4        2331        2332        2383        2382
         4        2332        2333        2384        2383
         4        2333        2334        2385        2384
         4        2334        2335        2386        2385
         4        2335        2336        2387        2386
         4        2336        2337        2388        2387
         4        2337        2338        2389        2388
         4        2338        2339        2390        2389
         4        2339        2340        2391        2390
         4        2340        2341        2392        2391
         4        2341        2342        2393        2392
         4        2342        2343        2394        2393
         4        2343        2344        2395        2394
         4        2344        2345        2396        2395
         4        2346        2347        2398        2397
         4        2347        2348        2399        2398
         4        2348        2349        2400        2399
         4        2349        2350        2401        2400
         4        2350        2351        2402        2401
         4        2351        2352        2403        2402
         4        2352        2353        2404        2403
         4        2353        2354        2405        2404
         4        2354        2355        2406        2405
         4        2355        2356        2407        2406
         4        2356        2357        2408        2407
         4        2357        2358        2409        2408
         4        2358        2359        2410        2409
         4        2359        2360        2411        2410
         4        2360        2361        2412        2411
         4        2361        2362        2413        2412
         4        2362        2363        2414        2413
         4        2363        2364        2415        2414
         4        2364        2365        2416        2415
         4        2365        2366        2417        2416
         4        2366        2367        2418        2417
         4        2367        2368        2419        2418
         4        2368        2369        2420        2419
         4        2369        2370        2421        2420
         4        2370        2371        2422        2421
         4        2371        2372        2423        2422
         4        2372        2373        2424        2423
         4        2373        2374        2425        2424
         4        2374        2375        2426        2425
         4        2375        2376        2427        2426
         4        2376        2377        2428        2427
         4        2377        2378        2429        2428
         4        2378        2379        2430        2429
         4        2379        2380        2431        2430
         4        2380        2381        2432        2431
         4        2381        2382        2433        2432
         4        2382        2383        2434        2433
         4        2383        2384        2435        2434
         4        2384        2385        2436        2435
         4        2385        2386        2437        2436
         4        2386        2387        2438        2437
         4        2387        2388        2439        2438
         4        2388        2389        2440        2439
         4        2389        2390        2441        2440
         4        2390        2391        2442        2441
         4        2391        2392        2443        2442
         4        2392        2393        2444        2443
         4        2393        2394        2445        2444
         4        2394        2395        2446        2445
         4        2395        2396        2447        2446
         4        2397        2398        2449        2448
         4        2398        2399        2450        2449
         4        2399        2400        2451        2450
         4        2400        2401        2452        2451
         4        2401        2402        2453        2452
         4        2402        2403        2454        2453
         4        2403        2404        2455        2454
         4        2404        2405        2456        2455
         4        2405        2406        2457        2456
         4        2406        2407        2458        2457
         4        2407        2408        2459        2458
         4        2408        2409        2460        2459
         4        2409        2410        2461        2460
         4        2410        2411        2462        2461
         4        2411        2412        2463        2462
         4        2412        2413        2464        2463
         4        2413        2414        2465        2464
         4        2414        2415        2466        2465
         4        2415        2416        2467        2466
         4        2416        2417        2468        2467
         4        2417        2418        2469        2468
         4        2418        2419        2470        2469
         4        2419        2420        2471        2470
         4        2420        2421        2472        2471
         4        2421        2422        2473        2472
         4        2422        2423        2474        2473
         4        2423        2424        2475        2474
         4        2424        2425        2476        2475
         4        2425        2426        2477        2476
         4        2426        2427        2478        2477
         4        2427        2428        2479        2478
         4        2428        2429        2480        2479
         4        2429        2430        2481        2480
         4        2430        2431        2482        2481
         4        2431        2432        2483        2482
         4        2432        2433        2484        2483
         4        2433        2434        2485        2484
         4        2434        2435        2486        2485
         4        2435        2436        2487        2486
         4        2436        2437        2488        2487
         4        2437        2438        2489        2488
         4        2438        2439        2490        2489
         4        2439        2440        2491        2490
         4        2440        2441        2492        2491
         4        2441        2442        2493        2492
         4        2442        2443        2494        2493
         4        2443        2444        2495        2494
         4        2444        2445        2496        2495
         4        2445        2446        2497        2496
         4        2446        2447        2498        2497
         4        2448        2449        2500        2499
         4        2449        2450        2501        2500
         4        2450        2451        2502        2501
         4        2451        2452        2503        2502
         4        2452        2453        2504        2503
         4        2453        2454        2505        2504
         4        2454        2455        2506        2505
         4        2455        2456        2507        2506
         4        2456        2457        2508        2507
         4        2457        2458        2509        2508
         4        2458        2459        2510        2509
         4        2459        2460        2511        2510
         4        2460        2461        2512        2511
         4        2461        2462        2513        2512
         4        2462        2463        2514        2513
         4        2463        2464        2515        2514
         4        2464        2465        2516        2515
         4        2465        2466        2517        2516
         4        2466        2467        2518        2517
         4        2467        2468        2519        2518
         4        2468        2469        2520        2519
         4        2469        2470        2521        2520
         4        2470        2471        2522        2521
         4        2471        2472        2523        2522
         4        2472        2473        2524        2523
         4        2473        2474        2525        2524
         4        2474        2475        2526        2525
         4        2475        2476        2527        2526
         4        2476        2477        2528        2527
         4        2477        2478        2529        2528
         4        2478        2479        2530        2529
         4        2479        2480        2531        2530
         4        2480        2481        2532        2531
         4        2481        2482        2533        2532
         4        2482        2483        2534        2533
         4        2483        2484        2535        2534
         4        2484        2485        2536        2535
         4        2485        2486        2537        2536
         4        2486        2487        2538        2537
         4        2487        2488        2539        2538
         4        2488        2489        2540        2539
         4        2489        2490        2541        2540
         4        2490        2491        2542        2541
         4        2491        2492        2543        2542
         4        2492        2493        2544        2543
         4        2493        2494        2545        2544
         4        2494        2495        2546        2545
         4        2495        2496        2547        2546
         4        2496        2497        2548        2547
         4        2497        2498        2549        2548
         4        2499        2500        2551        2550
         4        2500        2501        2552        2551
         4        2501        2502        2553        2552
         4        2502        2503        2554        2553
         4        2503        2504        2555        2554
         4        2504        2505        2556        2555
         4        2505        2506        2557        2556
         4        2506        2507        2558        2557
         4        2507        2508        2559        2558
         4        2508        2509        2560        2559
         4        2509        2510        2561        2560
         4        2510        2511        2562        2561
         4        2511        2512        2563        2562
         4        2512        2513        2564        2563
         4        2513        2514        2565        2564
         4        2514        2515        2566        2565
         4        2515        2516        2567        2566
         4        2516        2517        2568        2567
         4        2517        2518        2569        2568
         4        2518        2519        2570        2569
         4        2519        2520        2571        2570
         4        2520        2521        2572        2571
         4        2521        2522        2573        2572
         4        2522        2523        2574        2573
         4        2523        2524        2575        2574
         4        2524        2525        2576        2575
         4        2525        2526        2577        2576
         4        2526        2527        2578        2577
         4        2527        2528        2579        2578
         4        2528        2529        2580        2579
         4        2529        2530        2581        2580
         4        2530        2531        2582        2581
         4        2531        2532        2583        2582
         4        2532        2533        2584        2583
         4        2533        2534        2585        2584
         4        2534        2535        2586        2585
         4        2535        2536        2587        2586
         4        2536        2537        2588        2587
         4        2537        2538        2589        2588
         4        2538        2539        2590        2589
         4        2539        2540        2591        2590
         4        2540        2541        2592        2591
         4        2541        2542        2593        2592
         4        2542        2543        2594        2593
         4        2543        2544        2595        2594
         4        2544        2545        2596        2595
         4        2545        2546        2597        2596
         4        2546        2547        2598        2597
         4        2547        2548        2599        2598
         4        2548        2549        2600        2599
         4        2550        2551        2602        2601
         4        2551        2552        2603        2602
         4        2552        2553        2604        2603
         4        2553        2554        2605        2604
         4        2554        2555        2606        2605
         4        2555        2556        2607        2606
         4        2556        2557        2608        2607
         4        2557        2558        2609        2608
         4        2558        2559        2610        2609
         4        2559        2560        2611        2610
         4        2560        2561        2612        2611
         4        2561        2562        2613        2612
         4        2562        2563        2614        2613
         4        2563        2564        2615        2614
         4        2564        2565        2616        2615
         4        2565        2566        2617        2616
         4        2566        2567        2618        2617
         4        2567        2568        2619        2618
         4        2568        2569        2620        2619
         4        2569        2570        2621        2620
         4        2570        2571        2622        2621
         4        2571        2572        2623        2622
         4        2572        2573        2624        2623
         4        2573        2574        2625        2624
         4        2574        2575        2626        2625
         4        2575        2576        2627        2626
         4        2576        2577        2628        2627
         4        2577        2578        2629        2628
         4        2578        2579        2630        2629
         4        2579        2580        2631        2630
         4        2580        2581        2632        2631
         4        2581        2582        2633        2632
         4        2582        2583        2634        2633
         4        2583        2584        2635        2634
         4        2584        2585        2636        2635
         4        2585        2586        2637        2636
         4        2586        2587        2638        2637
         4        2587        2588        2639        2638
         4        2588        2589        2640        2639
         4        2589        2590        2641        2640
         4        2590        2591        2642        2641
         4        2591        2592        2643        2642
         4        2592        2593        2644        2643
         4        2593        2594        2645        2644
         4        2594        2595        2646        2645
         4        2595        2596        2647        2646
         4        2596        2597        2648        2647
         4        2597        2598        2649        2648
         4        2598        2599        2650        2649
         4        2599        2600        2651        2650
         4        2601        2602        2653        2652
         4        2602        2603        2654        2653
         4        2603        2604        2655        2654
         4        2604        2605        2656        2655
         4        2605        2606        2657        2656
         4        2606        2607        2658        2657
         4        2607        2608        2659        2658
         4        2608        2609        2660        2659
         4        2609        2610        2661        2660
         4        2610        2611        2662        2661
         4        2611        2612        2663        2662
         4        2612        2613        2664        2663
         4        2613        2614        2665        2664
         4        2614        2615        2666        2665
         4        2615        2616        2667        2666
         4        2616        2617        2668        2667
         4        2617        2618        2669        2668
         4        2618        2619        2670        2669
         4        2619        2620        2671        2670
         4        2620        2621        2672        2671
         4        2621        2622        2673        2672
         4        2622        2623        2674        2673
         4        2623        2624        2675        2674
         4        2624        2625        2676        2675
         4        2625        2626        2677        2676
         4        2626        2627        2678        2677
         4        2627        2628        2679        2678
         4        2628        2629        2680        2679
         4        2629        2630        2681        2680
         4        2630        2631        2682        2681
         4        2631        2632        2683        2682
         4        2632        2633        2684        2683
         4        2633        2634        2685        2684
         4        2634        2635        2686        2685
         4        2635        2636        2687        2686
         4        2636        2637        2688        2687
         4        2637        2638        2689        2688
         4        2638        2639        2690        2689
         4        2639        2640        2691        2690
         4        2640        2641        2692        2691
         4        2641        2642        2693        2692
         4        2642        2643        2694        2693
         4        2643        2644        2695        2694
         4        2644        2645        2696        2695
         4        2645        2646        2697        2696
         4        2646        2647        2698        2697
         4        2647        2648        2699        2698
         4        2648        2649        2700        2699
         4        2649        2650        2701        2700
         4        2650        2651        2702        2701
         4        2652        2653        2704        2703
         4        2653        2654        2705        2704
         4        2654        2655        2706        2705
         4        2655        2656        2707        2706
         4        2656        2657        2708        2707
         4        2657        2658        2709        2708
         4        2658        2659        2710        2709
         4        2659        2660        2711        2710
         4        2660        2661        2712        2711
         4        2661        2662        2713        2712
         4        2662        2663        2714        2713
         4        2663        2664        2715        2714
         4        2664        2665        2716        2715
         4        2665        2666        2717        2716
         4        2666        2667        2718        2717
         4        2667        2668        2719        2718
         4        2668        2669        2720        2719
         4        2669        2670        2721        2720
         4        2670        2671        2722        2721
         4        2671        2672        2723        2722
         4        2672        2673        2724        2723
         4        2673        2674        2725        2724
         4        2674        2675        2726        2725
         4        2675        2676        2727        2726
         4        2676        2677        2728        2727
         4        2677        2678        2729        2728
         4        2678        2679        2730        2729
         4        2679        2680        2731        2730
         4        2680        2681        2732        2731
         4        2681        2682        2733        2732
         4        2682        2683        2734        2733
         4        2683        2684        2735        2734
         4        2684        2685        2736        2735
         4        2685        2686        2737        2736
         4        2686        2687        2738        2737
         4        2687        2688        2739        2738
         4        2688        2689        2740        2739
         4        2689        2690        2741        2740
         4        2690        2691        2742        2741
         4        2691        2692        2743        2742
         4        2692        2693        2744        2743
         4        2693        2694        2745        2744
         4        2694        2695        2746        2745
         4        2695        2696        2747        2746
         4        2696        2697        2748        2747
         4        2697        2698        2749        2748
         4        2698        2699        2750        2749
         4        2699        2700        2751        2750
         4        2700        2701        2752        2751
         4        2701        2702        2753        2752
         4        2703        2704        2755        2754
         4        2704        2705        2756        2755
         4        2705        2706        2757        2756
         4        2706        2707        2758        2757
         4        2707        2708        2759        2758
         4        2708        2709        2760        2759
         4        2709        2710        2761        2760
         4        2710        2711        2762        2761
         4        2711        2712        2763        2762
         4        2712        2713        2764        2763
         4        2713        2714        2765        2764
         4        2714        2715        2766        2765
         4        2715        2716        2767        2766
         4        2716        2717        2768        2767
         4        2717        2718        2769        2768
         4        2718        2719        2770        2769
         4        2719        2720        2771        2770
         4        2720        2721        2772        2771
         4        2721        2722        2773        2772
         4        2722        2723        2774        2773
         4        2723        2724        2775        2774
         4        2724        2725        2776        2775
         4        2725        2726        2777        2776
         4        2726        2727        2778        2777
         4        2727        2728        2779        2778
         4        2728        2729        2780        2779
         4        2729        2730        2781        2780
         4        2730        2731        2782        2781
         4        2731        2732        2783        2782
         4        2732        2733        2784        2783
         4        2733        2734        2785        2784
         4        2734        2735        2786        2785
         4        2735        2736        2787        2786
         4        2736        2737        2788        2787
         4        2737        2738        2789        2788
         4        2738        2739        2790        2789
         4        2739        2740        2791        2790
         4        2740        2741        2792        2791
         4        2741        2742        2793        2792
         4        2742        2743        2794        2793
         4        2743        2744        2795        2794
         4        2744        2745        2796        2795
         4        2745        2746        2797        2796
         4        2746        2747        2798        2797
         4        2747        2748        2799        2798
         4        2748        2749        2800        2799
         4        2749        2750        2801        2800
         4        2750        2751        2802        2801
         4        2751        2752        2803        2802
         4        2752        2753        2804        2803
         4        2754        2755        2806        2805
         4        2755        2756        2807        2806
         4        2756        2757        2808        2807
         4        2757        2758        2809        2808
         4        2758        2759        2810        2809
         4        2759        2760        2811        2810
         4        2760        2761        2812        2811
         4        2761        2762        2813        2812
         4        2762        2763        2814        2813
         4        2763        2764        2815        2814
         4        2764        2765        2816        2815
         4        2765        2766        2817        2816
         4        2766        2767        2818        2817
         4        2767        2768        2819        2818
         4        2768        2769        2820        2819
         4        2769        2770        2821        2820
         4        2770        2771        2822        2821
         4        2771        2772        2823        2822
         4        2772        2773        2824        2823
         4        2773        2774        2825        2824
         4        2774        2775        2826        2825
         4        2775        2776        2827        2826
         4        2776        2777        2828        2827
         4        2777        2778        2829        2828
         4        2778        2779        2830        2829
         4        2779        2780        2831        2830
         4        2780        2781        2832        2831
         4        2781        2782        2833        2832
         4        2782        2783        2834        2833
         4        2783        2784        2835        2834
         4        2784        2785        2836        2835
         4        2785        2786        2837        2836
         4        2786        2787        2838        2837
         4        2787        2788        2839        2838
         4        2788        2789        2840        2839
         4        2789        2790        2841        2840
         4        2790        2791        2842        2841
         4        2791        2792        2843        2842
         4        2792        2793        2844        2843
         4        2793        2794        2845        2844
         4        2794        2795        2846        2845
         4        2795        2796        2847        2846
         4        2796        2797        2848        2847
         4        2797        2798        2849        2848
         4        2798        2799        2850        2849
         4        2799        2800        2851        2850
         4        2800        2801        2852        2851
         4        2801        2802        2853        2852
         4        2802        2803        2854        2853
         4        2803        2804        2855        2854
         4        2805        2806        2857        2856
         4        2806        2807        2858        2857
         4        2807        2808        2859        2858
         4        2808        2809        2860        2859
         4        2809        2810        2861        2860
         4        2810        2811        2862        2861
         4        2811        2812        2863        2862
         4        2812        2813        2864        2863
         4        2813        2814        2865        2864
         4        2814        2815        2866        2865
         4        2815        2816        2867        2866
         4        2816        2817        2868        2867
         4        2817        2818        2869        2868
         4        2818        2819        2870        2869
         4        2819        2820        2871        2870
         4        2820        2821        2872        2871
         4        2821        2822        2873        2872
         4        2822        2823        2874        2873
         4        2823        2824        2875        2874
         4        2824        2825        2876        2875
         4        2825        2826        2877        2876
         4        2826        2827        2878        2877
         4        2827        2828        2879        2878
         4        2828        2829        2880        2879
         4        2829        2830        2881        2880
         4        2830        2831        2882        2881
         4        2831        2832        2883        2882
         4        2832        2833        2884        2883
         4        2833        2834        2885        2884
         4        2834        2835        2886        2885
         4        2835        2836        2887        2886
         4        2836        2837        2888        2887
         4        2837        2838        2889        2888
         4        2838        2839        2890        2889
         4        2839        2840        2891        2890
         4        2840        2841        2892        2891
         4        2841        2842        2893        2892
         4        2842        2843        2894        2893
         4        2843        2844        2895        2894
         4        2844        2845        2896        2895
         4        2845        2846        2897        2896
         4        2846        2847        2898        2897
         4        2847        2848        2899        2898
         4        2848        2849        2900        2899
         4        2849        2850        2901        2900
         4        2850        2851        2902        2901
         4        2851        2852        2903        2902
         4        2852        2853        2904        2903
         4        2853        2854        2905        2904
         4        2854        2855        2906        2905
         4        2856        2857        2908        2907
         4        2857        2858        2909        2908
         4        2858        2859        2910        2909
         4        2859        2860        2911        2910
         4        2860        2861        2912        2911
         4        2861        2862        2913        2912
         4        2862        2863        2914        2913
         4        2863        2864        2915        2914
         4        2864        2865        2916        2915
         4        2865        2866        2917        2916
         4        2866        2867        2918        2917
         4        2867        2868        2919        2918
         4        2868        2869        2920        2919
         4        2869        2870        2921        2920
         4        2870        2871        2922        2921
         4        2871        2872        2923        2922
         4        2872        2873        2924        2923
         4        2873        2874        2925        2924
         4        2874        2875        2926        2925
         4        2875        2876        2927        2926
         4        2876        2877        2928        2927
         4        2877        2878        2929        2928
         4        2878        2879        2930        2929
         4        2879        2880        2931        2930
         4        2880        2881        2932        2931
         4        2881        2882        2933        2932
         4        2882        2883        2934        2933
         4        2883        2884        2935        2934
         4        2884        2885        2936        2935
         4        2885        2886        2937        2936
         4        2886        2887        2938        2937
         4        2887        2888        2939        2938
         4        2888        2889        2940        2939
         4        2889        2890        2941        2940
         4        2890        2891        2942        2941
         4        2891        2892        2943        2942
         4        2892        2893        2944        2943
         4        2893        2894        2945        2944
         4        2894        2895        2946        2945
         4        2895        2896        2947        2946
         4        2896        2897        2948        2947
         4        2897        2898        2949        2948
         4        2898        2899        2950        2949
         4        2899        2900        2951        2950
         4        2900        2901        2952        2951
         4        2901        2902        2953        2952
         4        2902        2903        2954        2953
         4        2903        2904        2955        2954
         4        2904        2905        2956        2955
         4        2905        2906        2957        2956
         4        2907        2908        2959        2958
         4        2908        2909        2960        2959
         4        2909        2910        2961        2960
         4        2910        2911        2962        2961
         4        2911        2912        2963        2962
         4        2912        2913        2964        2963
         4        2913        2914        2965        2964
         4        2914        2915        2966        2965
         4        2915        2916        2967        2966
         4        2916        2917        2968        2967
         4        2917        2918        2969        2968
         4        2918        2919        2970        2969
         4        2919        2920        2971        2970
         4        2920        2921        2972        2971
         4        2921        2922        2973        2972
         4        2922        2923        2974        2973
         4        2923        2924        2975        2974
         4        2924        2925        2976        2975
         4        2925        2926        2977        2976
         4        2926        2927        2978        2977
         4        2927        2928        2979        2978
         4        2928        2929        2980        2979
         4        2929        2930        2981        2980
         4        2930        2931        2982        2981
         4        2931        2932        2983        2982
         4        2932        2933        2984        2983
         4        2933        2934        2985        2984
         4        2934        2935        2986        2985
         4        2935        2936        2987        2986
         4        2936        2937        2988        2987
         4        2937        2938        2989        2988
         4        2938        2939        2990        2989
         4        2939        2940        2991        2990
         4        2940        2941        2992        2991
         4        2941        2942        2993        2992
         4        2942        2943        2994        2993
         4        2943        2944        2995        2994
         4        2944        2945        2996        2995
         4        2945        2946        2997        2996
         4        2946        2947        2998        2997
         4        2947        2948        2999        2998
         4        2948        2949        3000        2999
         4        2949        2950        3001        3000
         4        2950        2951        3002        3001
         4        2951        2952        3003        3002
         4        2952        2953        3004        3003
         4        2953        2954        3005        3004
         4        2954        2955        3006        3005
         4        2955        2956        3007        3006
         4        2956        2957        3008        3007
         4        2958        2959        3010        3009
         4        2959        2960        3011        3010
         4        2960        2961        3012        3011
         4        2961        2962        3013        3012
         4        2962        2963        3014        3013
         4        2963        2964        3015        3014
         4        2964        2965        3016        3015
         4        2965        2966        3017        3016
         4        2966        2967        3018        3017
         4        2967        2968        3019        3018
         4        2968        2969        3020        3019
         4        2969        2970        3021        3020
         4        2970        2971        3022        3021
         4        2971        2972        3023        3022
         4        2972        2973        3024        3023
         4        2973        2974        3025        3024
         4        2974        2975        3026        3025
         4        2975        2976        3027        3026
         4        2976        2977        3028        3027
         4        2977        2978        3029        3028
         4        2978        2979        3030        3029
         4        2979        2980        3031        3030
         4        2980        2981        3032        3031
         4        2981        2982        3033        3032
         4        2982        2983        3034        3033
         4        2983        2984        3035        3034
         4        2984        2985        3036        3035
         4        2985        2986        3037        3036
         4        2986        2987        3038        3037
         4        2987        2988        3039        3038
         4        2988        2989        3040        3039
         4        2989        2990        3041        3040
         4        2990        2991        3042        3041
         4        2991        2992        3043        3042
         4        2992        2993        3044        3043
         4        2993        2994        3045        3044
         4        2994        2995        3046        3045
         4        2995        2996        3047        3046
         4        2996        2997        3048        3047
         4        2997        2998        3049        3048
         4        2998        2999        3050        3049
         4        2999        3000        3051        3050
         4        3000        3001        3052        3051
         4        3001        3002        3053        3052
         4        3002        3003        3054        3053
         4        3003        3004        3055        3054
         4        3004        3005        3056        3055
         4        3005        3006        3057        3056
         4        3006        3007        3058        3057
         4        3007        3008        3059        3058
         4        3009        3010        3061        3060
         4        3010        3011        3062        3061
         4        3011        3012        3063        3062
         4        3012        3013        3064        3063
         4        3013        3014        3065        3064
         4        3014        3015        3066        3065
         4        3015        3016        3067        3066
         4        3016        3017        3068        3067
         4        3017        3018        3069        3068
         4        3018        3019        3070        3069
         4        3019        3020        3071        3070
         4        3020        3021        3072        3071
         4        3021        3022        3073        3072
         4        3022        3023        3074        3073
         4        3023        3024        3075        3074
         4        3024        3025        3076        3075
         4        3025        3026        3077        3076
         4        3026        3027        3078        3077
         4        3027        3028        3079        3078
         4        3028        3029        3080        3079
         4        3029        3030        3081        3080
         4        3030        3031        3082        3081
         4        3031        3032        3083        3082
         4        3032        3033        3084        3083
         4        3033        3034        3085        3084
         4        3034        3035        3086        3085
         4        3035        3036        3087        3086
         4        3036        3037        3088        3087
         4        3037        3038        3089        3088
         4        3038        3039        3090        3089
         4        3039        3040        3091        3090
         4        3040        3041        3092        3091
         4        3041        3042        3093        3092
         4        3042        3043        3094        3093
         4        3043        3044        3095        3094
         4        3044        3045        3096        3095
         4        3045        3046        3097        3096
         4        3046        3047        3098        3097
         4        3047        3048        3099        3098
         4        3048        3049        3100        3099
         4        3049        3050        3101        3100
         4        3050        3051        3102        3101
         4        3051        3052        3103        3102
         4        3052        3053        3104        3103
         4        3053        3054        3105        3104
         4        3054        3055        3106        3105
         4        3055        3056        3107        3106
         4        3056        3057        3108        3107
         4        3057        3058        3109        3108
         4        3058        3059        3110        3109
         4        3060        3061        3112        3111
         4        3061        3062        3113        3112
         4        3062        3063        3114        3113
         4        3063        3064        3115        3114
         4        3064        3065        3116        3115
         4        3065        3066        3117        3116
         4        3066        3067        3118        3117
         4        3067        3068        3119        3118
         4        3068        3069        3120        3119
         4        3069        3070        3121        3120
         4        3070        3071        3122        3121
         4        3071        3072        3123        3122
         4        3072        3073        3124        3123
         4        3073        3074        3125        3124
         4        3074        3075        3126        3125
         4        3075        3076        3127        3126
         4        3076        3077        3128        3127
         4        3077        3078        3129        3128
         4        3078        3079        3130        3129
         4        3079        3080        3131        3130
         4        3080        3081        3132        3131
         4        3081        3082        3133        3132
         4        3082        3083        3134        3133
         4        3083        3084        3135        3134
         4        3084        3085        3136        3135
         4        3085        3086        3137        3136
         4        3086        3087        3138        3137
         4        3087        3088        3139        3138
         4        3088        3089        3140        3139
         4        3089        3090        3141        3140
         4        3090        3091        3142        3141
         4        3091        3092        3143        3142
         4        3092        3093        3144        3143
         4        3093        3094        3145        3144
         4        3094        3095        3146        3145
         4        3095        3096        3147        3146
         4        3096        3097        3148        3147
         4        3097        3098        3149        3148
         4        3098        3099        3150        3149
         4        3099        3100        3151        3150
         4        3100        3101        3152        3151
         4        3101        3102        3153        3152
         4        3102        3103        3154        3153
         4        3103        3104        3155        3154
         4        3104        3105        3156        3155
         4        3105        3106        3157        3156
         4        3106        3107        3158        3157
         4        3107        3108        3159        3158
         4        3108        3109        3160        3159
         4        3109        3110        3161        3160
         4        3111        3112        3163        3162
         4        3112        3113        3164        3163
         4        3113        3114        3165        3164
         4        3114        3115        3166        3165
         4        3115        3116        3167        3166
         4        3116        3117        3168        3167
         4        3117        3118        3169        3168
         4        3118        3119        3170        3169
         4        3119        3120        3171        3170
         4        3120        3121        3172        3171
         4        3121        3122        3173        3172
         4        3122        3123        3174        3173
         4        3123        3124        3175        3174
         4        3124        3125        3176        3175
         4        3125        3126        3177        3176
         4        3126        3127        3178        3177
         4        3127        3128        3179        3178
         4        3128        3129        3180        3179
         4        3129        3130        3181        3180
         4        3130        3131        3182        3181
         4        3131        3132        3183        3182
         4        3132        3133        3184        3183
         4        3133        3134        3185        3184
         4        3134        3135        3186        3185
         4        3135        3136        3187        3186
         4        3136        3137        3188        3187
         4        3137        3138        3189        3188
         4        3138        3139        3190        3189
         4        3139        3140        3191        3190
         4        3140        3141        3192        3191
         4        3141        3142        3193        3192
         4        3142        3143        3194        3193
         4        3143        3144        3195        3194
         4        3144        3145        3196        3195
         4        3145        3146        3197        3196
         4        3146        3147        3198        3197
         4        3147        3148        3199        3198
         4        3148        3149        3200        3199
         4        3149        3150        3201        3200
         4        3150        3151        3202        3201
         4        3151        3152        3203        3202
         4        3152        3153        3204        3203
         4        3153        3154        3205        3204
         4        3154        3155        3206        3205
         4        3155        3156        3207        3206
         4        3156        3157        3208        3207
         4        3157        3158        3209        3208
         4        3158        3159        3210        3209
         4        3159        3160        3211        3210
         4        3160        3161        3212        3211
         4        3162        3163        3214        3213
         4        3163        3164        3215        3214
         4        3164        3165        3216        3215
         4        3165        3166        3217        3216
         4        3166        3167        3218        3217
         4        3167        3168        3219        3218
         4        3168        3169        3220        3219
         4        3169        3170        3221        3220
         4        3170        3171        3222        3221
         4        3171        3172        3223        3222
         4        3172        3173        3224        3223
         4        3173        3174        3225        3224
         4        3174        3175        3226        3225
         4        3175        3176        3227        3226
         4        3176        3177        3228        3227
         4        3177        3178        3229        3228
         4        3178        3179        3230        3229
         4        3179        3180        3231        3230
         4        3180        3181        3232        3231
         4        3181        3182        3233        3232
         4        3182        3183        3234        3233
         4        3183        3184        3235        3234
         4        3184        3185        3236        3235
         4        3185        3186        3237        3236
         4        3186        3187        3238        3237
         4        3187        3188        3239        3238
         4        3188        3189        3240        3239
         4        3189        3190        3241        3240
         4        3190        3191        3242        3241
         4        3191        3192        3243        3242
         4        3192        3193        3244        3243
         4        3193        3194        3245        3244
         4        3194        3195        3246        3245
         4        3195        3196        3247        3246
         4        3196        3197        3248        3247
         4        3197        3198        3249        3248
         4        3198        3199        3250        3249
         4        3199        3200        3251        3250
         4        3200        3201        3252        3251
         4        3201        3202        3253        3252
         4        3202        3203        3254        3253
         4        3203        3204        3255        3254
         4        3204        3205        3256        3255
         4        3205        3206        3257        3256
         4        3206        3207        3258        3257
         4        3207        3208        3259        3258
         4        3208        3209        3260        3259
         4        3209        3210        3261        3260
         4        3210        3211        3262        3261
         4        3211        3212        3263        3262
         4        3213        3214        3265        3264
         4        3214        3215        3266        3265
         4        3215        3216        3267        3266
         4        3216        3217        3268        3267
         4        3217        3218        3269        3268
         4        3218        3219        3270        3269
         4        3219        3220        3271        3270
         4        3220        3221        3272        3271
         4        3221        3222        3273        3272
         4        3222        3223        3274        3273
         4        3223        3224        3275        3274
         4        3224        3225        3276        3275
         4        3225        3226        3277        3276
         4        3226        3227        3278        3277
         4        3227        3228        3279        3278
         4        3228        3229        3280        3279
         4        3229        3230        3281        3280
         4        3230        3231        3282        3281
         4        3231        3232        3283        3282
         4        3232        3233        3284        3283
         4        3233        3234        3285        3284
         4        3234        3235        3286        3285
         4        3235        3236        3287        3286
         4        3236        3237        3288        3287
         4        3237        3238        3289        3288
         4        3238        3239        3290        3289
         4        3239        3240        3291        3290
         4        3240        3241        3292        3291
         4        3241        3242        3293        3292
         4        3242        3243        3294        3293
         4        3243        3244        3295        3294
         4        3244        3245        3296        3295
         4        3245        3246        3297        3296
         4        3246        3247        3298        3297
         4        3247        3248        3299        3298
         4        3248        3249        3300        3299
         4        3249        3250        3301        3300
         4        3250        3251        3302        3301
         4        3251        3252        3303        3302
         4        3252        3253        3304        3303
         4        3253        3254        3305        3304
         4        3254        3255        3306        3305
         4        3255        3256        3307        3306
         4        3256        3257        3308        3307
         4        3257        3258        3309        3308
         4        3258        3259        3310        3309
         4        3259        3260        3311        3310
         4        3260        3261        3312        3311
         4        3261        3262        3313        3312
         4        3262        3263        3314        3313
         4        3264        3265        3316        3315
         4        3265        3266        3317        3316
         4        3266        3267        3318        3317
         4        3267        3268        3319        3318
         4        3268        3269        3320        3319
         4        3269        3270        3321        3320
         4        3270        3271        3322        3321
         4        3271        3272        3323        3322
         4        3272        3273        3324        3323
         4        3273        3274        3325        3324
         4        3274        3275        3326        3325
         4        3275        3276        3327        3326
         4        3276        3277        3328        3327
         4        3277        3278        3329        3328
         4        3278        3279        3330        3329
         4        3279        3280        3331        3330
         4        3280        3281        3332        3331
         4        3281        3282        3333        3332
         4        3282        3283        3334        3333
         4        3283        3284        3335        3334
         4        3284        3285        3336        3335
         4        3285        3286        3337        3336
         4        3286        3287        3338        3337
         4        3287        3288        3339        3338
         4        3288        3289        3340        3339
         4        3289        3290        3341        3340
         4        3290        3291        3342        3341
         4        3291        3292        3343        3342
         4        3292        3293        3344        3343
         4        3293        3294        3345        3344
         4        3294        3295        3346        3345
         4        3295        3296        3347        3346
         4        3296        3297        3348        3347
         4        3297        3298        3349        3348
         4        3298        3299        3350        3349
         4        3299        3300        3351        3350
         4        3300        3301        3352        3351
         4        3301        3302        3353        3352
         4        3302        3303        3354        3353
         4        3303        3304        3355        3354
         4        3304        3305        3356        3355
         4        3305        3306        3357        3356
         4        3306        3307        3358        3357
         4        3307        3308        3359        3358
         4        3308        3309        3360        3359
         4        3309        3310        3361        3360
         4        3310        3311        3362        3361
         4        3311        3312        3363        3362
         4        3312        3313        3364        3363
         4        3313        3314        3365        3364
         4        3315        3316        3367        3366
         4        3316        3317        3368        3367
         4        3317        3318        3369        3368
         4        3318        3319        3370        3369
         4        3319        3320        3371        3370
         4        3320        3321        3372        3371
         4        3321        3322        3373        3372
         4        3322        3323        3374        3373
         4        3323        3324        3375        3374
         4        3324        3325        3376        3375
         4        3325        3326        3377        3376
         4        3326        3327        3378        3377
         4        3327        3328        3379        3378
         4        3328        3329        3380        3379
         4        3329        3330        3381        3380
         4        3330        3331        3382        3381
         4        3331        3332        3383        3382
         4        3332        3333        3384        3383
         4        3333        3334        3385        3384
         4        3334        3335        3386        3385
         4        3335        3336        3387        3386
         4        3336        3337        3388        3387
         4        3337        3338        3389        3388
         4        3338        3339        3390        3389
         4        3339        3340        3391        3390
         4        3340        3341        3392        3391
         4        3341        3342        3393        3392
         4        3342        3343        3394        3393
         4        3343        3344        3395        3394
         4        3344        3345        3396        3395
         4        3345        3346        3397        3396
         4        3346        3347        3398        3397
         4        3347        3348        3399        3398
         4        3348        3349        3400        3399
         4        3349        3350        3401        3400
         4        3350        3351        3402        3401
         4        3351        3352        3403        3402
         4        3352        3353        3404        3403
         4        3353        3354        3405        3404
         4        3354        3355        3406        3405
         4        3355        3356        3407        3406
         4        3356        3357        3408        3407
         4        3357        3358        3409        3408
         4        3358        3359        3410        3409
         4        3359        3360        3411        3410
         4        3360        3361        3412        3411
         4        3361        3362        3413        3412
         4        3362        3363        3414        3413
         4        3363        3364        3415        3414
         4        3364        3365        3416        3415
         4        3366        3367        3418        3417
         4        3367        3368        3419        3418
         4        3368        3369        3420        3419
         4        3369        3370        3421        3420
         4        3370        3371        3422        3421
         4        3371        3372        3423        3422
         4        3372        3373        3424        3423
         4        3373        3374        3425        3424
         4        3374        3375        3426        3425
         4        3375        3376        3427        3426
         4        3376        3377        3428        3427
         4        3377        3378        3429        3428
         4        3378        3379        3430        3429
         4        3379        3380        3431        3430
         4        3380        3381        3432        3431
         4        3381        3382        3433        3432
         4        3382        3383        3434        3433
         4        3383        3384        3435        3434
         4        3384        3385        3436        3435
         4        3385        3386        3437        3436
         4        3386        3387        3438        3437
         4        3387        3388        3439        3438
         4        3388        3389        3440        3439
         4        3389        3390        3441        3440
         4        3390        3391        3442        3441
         4        3391        3392        3443        3442
         4        3392        3393        3444        3443
         4        3393        3394        3445        3444
         4        3394        3395        3446        3445
         4        3395        3396        3447        3446
         4        3396        3397        3448        3447
         4        3397        3398        3449        3448
         4        3398        3399        3450        3449
         4        3399        3400        3451        3450
         4        3400        3401        3452        3451
         4        3401        3402        3453        3452
         4        3402        3403        3454        3453
         4        3403        3404        3455        3454
         4        3404        3405        3456        3455
         4        3405        3406        3457        3456
         4        3406        3407        3458        3457
         4        3407        3408        3459        3458
         4        3408        3409        3460        3459
         4        3409        3410        3461        3460
         4        3410        3411        3462        3461
         4        3411        3412        3463        3462
         4        3412        3413        3464        3463
         4        3413        3414        3465        3464
         4        3414        3415        3466        3465
         4        3415        3416        3467        3466
         4        3417        3418        3469        3468
         4        3418        3419        3470        3469
         4        3419        3420        3471        3470
         4        3420        3421        3472        3471
         4        3421        3422        3473        3472
         4        3422        3423        3474        3473
         4        3423        3424        3475        3474
         4        3424        3425        3476        3475
         4        3425        3426        3477        3476
         4        3426        3427        3478        3477
         4        3427        3428        3479        3478
         4        3428        3429        3480        3479
         4        3429        3430        3481        3480
         4        3430        3431        3482        3481
         4        3431        3432        3483        3482
         4        3432        3433        3484        3483
         4        3433        3434        3485        3484
         4        3434        3435        3486        3485
         4        3435        3436        3487        3486
         4        3436        3437        3488        3487
         4        3437        3438        3489        3488
         4        3438        3439        3490        3489
         4        3439        3440        3491        3490
         4        3440        3441        3492        3491
         4        3441        3442        3493        3492
         4        3442        3443        3494        3493
         4        3443        3444        3495        3494
         4        3444        3445        3496        3495
         4        3445        3446        3497        3496
         4        3446        3447        3498        3497
         4        3447        3448        3499        3498
         4        3448        3449        3500        3499
         4        3449        3450        3501        3500
         4        3450        3451        3502        3501
         4        3451        3452        3503        3502
         4        3452        3453        3504        3503
         4        3453        3454        3505        3504
         4        3454        3455        3506        3505
         4        3455        3456        3507        3506
         4        3456        3457        3508        3507
         4        3457        3458        3509        3508
         4        3458        3459        3510        3509
         4        3459        3460        3511        3510
         4        3460        3461        3512        3511
         4        3461        3462        3513        3512
         4        3462        3463        3514        3513
         4        3463        3464        3515        3514
         4        3464        3465        3516        3515
         4        3465        3466        3517        3516
         4        3466        3467        3518        3517
         4        3468        3469        3520        3519
         4        3469        3470        3521        3520
         4        3470        3471        3522        3521
         4        3471        3472        3523        3522
         4        3472        3473        3524        3523
         4        3473        3474        3525        3524
         4        3474        3475        3526        3525
         4        3475        3476        3527        3526
         4        3476        3477        3528        3527
         4        3477        3478        3529        3528
         4        3478        3479        3530        3529
         4        3479        3480        3531        3530
         4        3480        3481        3532        3531
         4        3481        3482        3533        3532
         4        3482        3483        3534        3533
         4        3483        3484        3535        3534
         4        3484        3485        3536        3535
         4        3485        3486        3537        3536
         4        3486        3487        3538        3537
         4        3487        3488        3539        3538
         4        3488        3489        3540        3539
         4        3489        3490        3541        3540
         4        3490        3491        3542        3541
         4        3491        3492        3543        3542
         4        3492        3493        3544        3543
         4        3493        3494        3545        3544
         4        3494        3495        3546        3545
         4        3495        3496        3547        3546
         4        3496        3497        3548        3547
         4        3497        3498        3549        3548
         4        3498        3499        3550        3549
         4        3499        3500        3551        3550
         4        3500        3501        3552        3551
         4        3501        3502        3553        3552
         4        3502        3503        3554        3553
         4        3503        3504        3555        3554
         4        3504        3505        3556        3555
         4        3505        3506        3557        3556
         4        3506        3507        3558        3557
         4        3507        3508        3559        3558
         4        3508        3509        3560        3559
         4        3509        3510        3561        3560
         4        3510        3511        3562        3561
         4        3511        3512        3563        3562
         4        3512        3513        3564        3563
         4        3513        3514        3565        3564
         4        3514        3515        3566        3565
         4        3515        3516        3567        3566
         4        3516        3517        3568        3567
         4        3517        3518        3569        3568
         4        3519        3520        3571        3570
         4        3520        3521        3572        3571
         4        3521        3522        3573        3572
         4        3522        3523        3574        3573
         4        3523        3524        3575        3574
         4        3524        3525        3576        3575
         4        3525        3526        3577        3576
         4        3526        3527        3578        3577
         4        3527        3528        3579        3578
         4        3528        3529        3580        3579
         4        3529        3530        3581        3580
         4        3530        3531        3582        3581
         4        3531        3532        3583        3582
         4        3532        3533        3584        3583
         4        3533        3534        3585        3584
         4        3534        3535        3586        3585
         4        3535        3536        3587        3586
         4        3536        3537        3588        3587
         4        3537        3538        3589        3588
         4        3538        3539        3590        3589
         4        3539        3540        3591        3590
         4        3540        3541        3592        3591
         4        3541        3542        3593        3592
         4        3542        3543        3594        3593
         4        3543        3544        3595        3594
         4        3544        3545        3596        3595
         4        3545        3546        3597        3596
         4        3546        3547        3598        3597
         4        3547        3548        3599        3598
         4        3548        3549        3600        3599
         4        3549        3550        3601        3600
         4        3550        3551        3602        3601
         4        3551        3552        3603        3602
         4        3552        3553        3604        3603
         4        3553        3554        3605        3604
         4        3554        3555        3606        3605
         4        3555        3556        3607        3606
         4        3556        3557        3608        3607
         4        3557        3558        3609        3608
         4        3558        3559        3610        3609
         4        3559        3560        3611        3610
         4        3560        3561        3612        3611
         4        3561        3562        3613        3612
         4        3562        3563        3614        3613
         4        3563        3564        3615        3614
         4        3564        3565        3616        3615
         4        3565        3566        3617        3616
         4        3566        3567        3618        3617
         4        3567        3568        3619        3618
         4        3568        3569        3620        3619
         4        3570        3571        3622        3621
         4        3571        3572        3623        3622
         4        3572        3573        3624        3623
         4        3573        3574        3625        3624
         4        3574        3575        3626        3625
         4        3575        3576        3627        3626
         4        3576        3577        3628        3627
         4        3577        3578        3629        3628
         4        3578        3579        3630        3629
         4        3579        3580        3631        3630
         4        3580        3581        3632        3631
         4        3581        3582        3633        3632
         4        3582        3583        3634        3633
         4        3583        3584        3635        3634
         4        3584        3585        3636        3635
         4        3585        3586        3637        3636
         4        3586        3587        3638        3637
         4        3587        3588        3639        3638
         4        3588        3589        3640        3639
         4        3589        3590        3641        3640
         4        3590        3591        3642        3641
         4        3591        3592        3643        3642
         4        3592        3593        3644        3643
         4        3593        3594        3645        3644
         4        3594        3595        3646        3645
         4        3595        3596        3647        3646
         4        3596        3597        3648        3647
         4        3597        3598        3649        3648
         4        3598        3599        3650        3649
         4        3599        3600        3651        3650
         4        3600        3601        3652        3651
         4        3601        3602        3653        3652
         4        3602        3603        3654        3653
         4        3603        3604        3655        3654
         4        3604        3605        3656        3655
         4        3605        3606        3657        3656
         4        3606        3607        3658        3657
         4        3607        3608        3659        3658
         4        3608        3609        3660        3659
         4        3609        3610        3661        3660
         4        3610        3611        3662        3661
         4        3611        3612        3663        3662
         4        3612        3613        3664        3663
         4        3613        3614        3665        3664
         4        3614        3615        3666        3665
         4        3615        3616        3667        3666
         4        3616        3617        3668        3667
         4        3617        3618        3669        3668
         4        3618        3619        3670        3669
         4        3619        3620        3671        3670
         4        3621        3622        3673        3672
         4        3622        3623        3674        3673
         4        3623        3624        3675        3674
         4        3624        3625        3676        3675
         4        3625        3626        3677        3676
         4        3626        3627        3678        3677
         4        3627        3628        3679        3678
         4        3628        3629        3680        3679
         4        3629        3630        3681        3680
         4        3630        3631        3682        3681
         4        3631        3632        3683        3682
         4        3632        3633        3684        3683
         4        3633        3634        3685        3684
         4        3634        3635        3686        3685
         4        3635        3636        3687        3686
         4        3636        3637        3688        3687
         4        3637        3638        3689        3688
         4        3638        3639        3690        3689
         4        3639        3640        3691        3690
         4        3640        3641        3692        3691
         4        3641        3642        3693        3692
         4        3642        3643        3694        3693
         4        3643        3644        3695        3694
         4        3644        3645        3696        3695
         4        3645        3646        3697        3696
         4        3646        3647        3698        3697
         4        3647        3648        3699        3698
         4        3648        3649        3700        3699
         4        3649        3650        3701        3700
         4        3650        3651        3702        3701
         4        3651        3652        3703        3702
         4        3652        3653        3704        3703
         4        3653        3654        3705        3704
         4        3654        3655        3706        3705
         4        3655        3656        3707        3706
         4        3656        3657        3708        3707
         4        3657        3658        3709        3708
         4        3658        3659        3710        3709
         4        3659        3660        3711        3710
         4        3660        3661        3712        3711
         4        3661        3662        3713        3712
         4        3662        3663        3714        3713
         4        3663        3664        3715        3714
         4        3664        3665        3716        3715
         4        3665        3666        3717        3716
         4        3666        3667        3718        3717
         4        3667        3668        3719        3718
         4        3668        3669        3720        3719
         4        3669        3670        3721        3720
         4        3670        3671        3722        3721
         4        3672        3673        3724        3723
         4        3673        3674        3725        3724
         4        3674        3675        3726        3725
         4        3675        3676        3727        3726
         4        3676        3677        3728        3727
         4        3677        3678        3729        3728
         4        3678        3679        3730        3729
         4        3679        3680        3731        3730
         4        3680        3681        3732        3731
         4        3681        3682        3733        3732
         4        3682        3683        3734        3733
         4        3683        3684        3735        3734
         4        3684        3685        3736        3735
         4        3685        3686        3737        3736
         4        3686        3687        3738        3737
         4        3687        3688        3739        3738
         4        3688        3689        3740        3739
         4        3689        3690        3741        3740
         4        3690        3691        3742        3741
         4        3691        3692        3743        3742
         4        3692        3693        3744        3743
         4        3693        3694        3745        3744
         4        3694        3695        3746        3745
         4        3695        3696        3747        3746
         4        3696        3697        3748        3747
         4        3697        3698        3749        3748
         4        3698        3699        3750        3749
         4        3699        3700        3751        3750
         4        3700        3701        3752        3751
         4        3701        3702        3753        3752
         4        3702        3703        3754        3753
         4        3703        3704        3755        3754
         4        3704        3705        3756        3755
         4        3705        3706        3757        3756
         4        3706        3707        3758        3757
         4        3707        3708        3759        3758
         4        3708        3709        3760        3759
         4        3709        3710        3761        3760
         4        3710        3711        3762        3761
         4        3711        3712        3763        3762
         4        3712        3713        3764        3763
         4        3713        3714        3765        3764
         4        3714        3715        3766        3765
         4        3715        3716        3767        3766
         4        3716        3717        3768        3767
         4        3717        3718        3769        3768
         4        3718        3719        3770        3769
         4        3719        3720        3771        3770
         4        3720        3721        3772        3771
         4        3721        3722        3773        3772
         4        3723        3724        3775        3774
         4        3724        3725        3776        3775
         4        3725        3726        3777        3776
         4        3726        3727        3778        3777
         4        3727        3728        3779        3778
         4        3728        3729        3780        3779
         4        3729        3730        3781        3780
         4        3730        3731        3782        3781
         4        3731        3732        3783        3782
         4        3732        3733        3784        3783
         4        3733        3734        3785        3784
         4        3734        3735        3786        3785
         4        3735        3736        3787        3786
         4        3736        3737        3788        3787
         4        3737        3738        3789        3788
         4        3738        3739        3790        3789
         4        3739        3740        3791        3790
         4        3740        3741        3792        3791
         4        3741        3742        3793        3792
         4        3742        3743        3794        3793
         4        3743        3744        3795        3794
         4        3744        3745        3796        3795
         4        3745        3746        3797        3796
         4        3746        3747        3798        3797
         4        3747        3748        3799        3798
         4        3748        3749        3800        3799
         4        3749        3750        3801        3800
         4        3750        3751        3802        3801
         4        3751        3752        3803        3802
         4        3752        3753        3804        3803
         4        3753        3754        3805        3804
         4        3754        3755        3806        3805
         4        3755        3756        3807        3806
         4        3756        3757        3808        3807
         4        3757        3758        3809        3808
         4        3758        3759        3810        3809
         4        3759        3760        3811        3810
         4        3760        3761        3812        3811
         4        3761        3762        3813        3812
         4        3762        3763        3814        3813
         4        3763        3764        3815        3814
         4        3764        3765        3816        3815
         4        3765        3766        3817        3816
         4        3766        3767        3818        3817
         4        3767        3768        3819        3818
         4        3768        3769        3820        3819
         4        3769        3770        3821        3820
         4        3770        3771        3822        3821
         4        3771        3772        3823        3822
         4        3772        3773        3824        3823
         4        3774        3775        3826        3825
         4        3775        3776        3827        3826
         4        3776        3777        3828        3827
         4        3777        3778        3829        3828
         4        3778        3779        3830        3829
         4        3779        3780        3831        3830
         4        3780        3781        3832        3831
         4        3781        3782        3833        3832
         4        3782        3783        3834        3833
         4        3783        3784        3835        3834
         4        3784        3785        3836        3835
         4        3785        3786        3837        3836
         4        3786        3787        3838        3837
         4        3787        3788        3839        3838
         4        3788        3789        3840        3839
         4        3789        3790        3841        3840
         4        3790        3791        3842        3841
         4        3791        3792        3843        3842
         4        3792        3793        3844        3843
         4        3793        3794        3845        3844
         4        3794        3795        3846        3845
         4        3795        3796        3847        3846
         4        3796        3797        3848        3847
         4        3797        3798        3849        3848
         4        3798        3799        3850        3849
         4        3799        3800        3851        3850
         4        3800        3801        3852        3851
         4        3801        3802        3853        3852
         4        3802        3803        3854        3853
         4        3803        3804        3855        3854
         4        3804        3805        3856        3855
         4        3805        3806        3857        3856
         4        3806        3807        3858        3857
         4        3807        3808        3859        3858
         4        3808        3809        3860        3859
         4        3809        3810        3861        3860
         4        3810        3811        3862        3861
         4        3811        3812        3863        3862
         4        3812        3813        3864        3863
         4        3813        3814        3865        3864
         4        3814        3815        3866        3865
         4        3815        3816        3867        3866
         4        3816        3817        3868        3867
         4        3817        3818        3869        3868
         4        3818        3819        3870        3869
         4        3819        3820        3871        3870
         4        3820        3821        3872        3871
         4        3821        3822        3873        3872
         4        3822        3823        3874        3873
         4        3823        3824        3875        3874
         4        3825        3826        3877        3876
         4        3826        3827        3878        3877
         4        3827        3828        3879        3878
         4        3828        3829        3880        3879
         4        3829        3830        3881        3880
         4        3830        3831        3882        3881
         4        3831        3832        3883        3882
         4        3832        3833        3884        3883
         4        3833        3834        3885        3884
         4        3834        3835        3886        3885
         4        3835        3836        3887        3886
         4        3836        3837        3888        3887
         4        3837        3838        3889        3888
         4        3838        3839        3890        3889
         4        3839        3840        3891        3890
         4        3840        3841        3892        3891
         4        3841        3842        3893        3892
         4        3842        3843        3894        3893
         4        3843        3844        3895        3894
         4        3844        3845        3896        3895
         4        3845        3846        3897        3896
         4        3846        3847        3898        3897
         4        3847        3848        3899        3898
         4        3848        3849        3900        3899
         4        3849        3850        3901        3900
         4        3850        3851        3902        3901
         4        3851        3852        3903        3902
         4        3852        3853        3904        3903
         4        3853        3854        3905        3904
         4        3854        3855        3906        3905
         4        3855        3856        3907        3906
         4        3856        3857        3908        3907
         4        3857        3858        3909        3908
         4        3858        3859        3910        3909
         4        3859        3860        3911        3910
         4        3860        3861        3912        3911
         4        3861        3862        3913        3912
         4        3862        3863        3914        3913
         4        3863        3864        3915        3914
         4        3864        3865        3916        3915
         4        3865        3866        3917        3916
         4        3866        3867        3918        3917
         4        3867        3868        3919        3918
         4        3868        3869        3920        3919
         4        3869        3870        3921        3920
         4        3870        3871        3922        3921
         4        3871        3872        3923        3922
         4        3872        3873        3924        3923
         4        3873        3874        3925        3924
         4        3874        3875        3926        3925
         4        3876        3877        3928        3927
         4        3877        3878        3929        3928
         4        3878        3879        3930        3929
         4        3879        3880        3931        3930
         4        3880        3881        3932        3931
         4        3881        3882        3933        3932
         4        3882        3883        3934        3933
         4        3883        3884        3935        3934
         4        3884        3885        3936        3935
         4        3885        3886        3937        3936
         4        3886        3887        3938        3937
         4        3887        3888        3939        3938
         4        3888        3889        3940        3939
         4        3889        3890        3941        3940
         4        3890        3891        3942        3941
         4        3891        3892        3943        3942
         4        3892        3893        3944        3943
         4        3893        3894        3945        3944
         4        3894        3895        3946        3945
         4        3895        3896        3947        3946
         4        3896        3897        3948        3947
         4        3897        3898        3949        3948
         4        3898        3899        3950        3949
         4        3899        3900        3951        3950
         4        3900        3901        3952        3951
         4        3901        3902        3953        3952
         4        3902        3903        3954        3953
         4        3903        3904        3955        3954
         4        3904        3905        3956        3955
         4        3905        3906        3957        3956
         4        3906        3907        3958        3957
         4        3907        3908        3959        3958
         4        3908        3909        3960        3959
         4        3909        3910        3961        3960
         4        3910        3911        3962        3961
         4        3911        3912        3963        3962
         4        3912        3913        3964        3963
         4        3913        3914        3965        3964
         4        3914        3915        3966        3965
         4        3915        3916        3967        3966
         4        3916        3917        3968        3967
         4        3917        3918        3969        3968
         4        3918        3919        3970        3969
         4        3919        3920        3971        3970
         4        3920        3921        3972        3971
         4        3921        3922        3973        3972
         4        3922        3923        3974        3973
         4        3923        3924        3975        3974
         4        3924        3925        3976        3975
         4        3925        3926        3977        3976
         4        3927        3928        3979        3978
         4        3928        3929        3980        3979
         4        3929        3930        3981        3980
         4        3930        3931        3982        3981
         4        3931        3932        3983        3982
         4        3932        3933        3984        3983
         4        3933        3934        3985        3984
         4        3934        3935        3986        3985
         4        3935        3936        3987        3986
         4        3936        3937        3988        3987
         4        3937        3938        3989        3988
         4        3938        3939        3990        3989
         4        3939        3940        3991        3990
         4        3940        3941        3992        3991
         4        3941        3942        3993        3992
         4        3942        3943        3994        3993
         4        3943        3944        3995        3994
         4        3944        3945        3996        3995
         4        3945        3946        3997        3996
         4        3946        3947        3998        3997
         4        3947        3948        3999        3998
         4        3948        3949        4000        3999
         4        3949        3950        4001        4000
         4        3950        3951        4002        4001
         4        3951        3952        4003        4002
         4        3952        3953        4004        4003
         4        3953        3954        4005        4004
         4        3954        3955        4006        4005
         4        3955        3956        4007        4006
         4        3956        3957        4008        4007
         4        3957        3958        4009        4008
         4        3958        3959        4010        4009
         4        3959        3960        4011        4010
         4        3960        3961        4012        4011
         4        3961        3962        4013        4012
         4        3962        3963        4014        4013
         4        3963        3964        4015        4014
         4        3964        3965        4016        4015
         4        3965        3966        4017        4016
         4        3966        3967        4018        4017
         4        3967        3968        4019        4018
         4        3968        3969        4020        4019
         4        3969        3970        4021        4020
         4        3970        3971        4022        4021
         4        3971        3972        4023        4022
         4        3972        3973        4024        4023
         4        3973        3974        4025        4024
         4        3974        3975        4026        4025
         4        3975        3976        4027        4026
         4        3976        3977        4028        4027
         4        3978        3979        4030        4029
         4        3979        3980        4031        4030
         4        3980        3981        4032        4031
         4        3981        3982        4033        4032
         4        3982        3983        4034        4033
         4        3983        3984        4035        4034
         4        3984        3985        4036        4035
         4        3985        3986        4037        4036
         4        3986        3987        4038        4037
         4        3987        3988        4039        4038
         4        3988        3989        4040        4039
         4        3989        3990        4041        4040
         4        3990        3991        4042        4041
         4        3991        3992        4043        4042
         4        3992        3993        4044        4043
         4        3993        3994        4045        4044
         4        3994        3995        4046        4045
         4        3995        3996        4047        4046
         4        3996        3997        4048        4047
         4        3997        3998        4049        4048
         4        3998        3999        4050        4049
         4        3999        4000        4051        4050
         4        4000        4001        4052        4051
         4        4001        4002        4053        4052
         4        4002        4003        4054        4053
         4        4003        4004        4055        4054
         4        4004        4005        4056        4055
         4        4005        4006        4057        4056
         4        4006        4007        4058        4057
         4        4007        4008        4059        4058
         4        4008        4009        4060        4059
         4        4009        4010        4061        4060
         4        4010        4011        4062        4061
         4        4011        4012        4063        4062
         4        4012        4013        4064        4063
         4        4013        4014        4065        4064
         4        4014        4015        4066        4065
         4        4015        4016        4067        4066
         4        4016        4017        4068        4067
         4        4017        4018        4069        4068
         4        4018        4019        4070        4069
         4        4019        4020        4071        4070
         4        4020        4021        4072        4071
         4        4021        4022        4073        4072
         4        4022        4023        4074        4073
         4        4023        4024        4075        4074
         4        4024        4025        4076        4075
         4        4025        4026        4077        4076
         4        4026        4027        4078        4077
         4        4027        4028        4079        4078
         4        4029        4030        4081        4080
         4        4030        4031        4082        4081
         4        4031        4032        4083        4082
         4        4032        4033        4084        4083
         4        4033        4034        4085        4084
         4        4034        4035        4086        4085
         4        4035        4036        4087        4086
         4        4036        4037        4088        4087
         4        4037        4038        4089        4088
         4        4038        4039        4090        4089
         4        4039        4040        4091        4090
         4        4040        4041        4092        4091
         4        4041        4042        4093        4092
         4        4042        4043        4094        4093
         4        4043        4044        4095        4094
         4        4044        4045        4096        4095
         4        4045        4046        4097        4096
         4        4046        4047        4098        4097
         4        4047        4048        4099        4098
         4        4048        4049        4100        4099
         4        4049        4050        4101        4100
         4        4050        4051        4102        4101
         4        4051        4052        4103        4102
         4        4052        4053        4104        4103
         4        4053        4054        4105        4104
         4        4054        4055        4106        4105
         4        4055        4056        4107        4106
         4        4056        4057        4108        4107
         4        4057        4058        4109        4108
         4        4058        4059        4110        4109
         4        4059        4060        4111        4110
         4        4060        4061        4112        4111
         4        4061        4062        4113        4112
         4        4062        4063        4114        4113
         4        4063        4064        4115        4114
         4        4064        4065        4116        4115
         4        4065        4066        4117        4116
         4        4066        4067        4118        4117
         4        4067        4068        4119        4118
         4        4068        4069        4120        4119
         4        4069        4070        4121        4120
         4        4070        4071        4122        4121
         4        4071        4072        4123        4122
         4        4072        4073        4124        4123
         4        4073        4074        4125        4124
         4        4074        4075        4126        4125
         4        4075        4076        4127        4126
         4        4076        4077        4128        4127
         4        4077        4078        4129        4128
         4        4078        4079        4130        4129
         4        4080        4081        4132        4131
         4        4081        4082        4133        4132
         4        4082        4083        4134        4133
         4        4083        4084        4135        4134
         4        4084        4085        4136        4135
         4        4085        4086        4137        4136
         4        4086        4087        4138        4137
         4        4087        4088        4139        4138
         4        4088        4089        4140        4139
         4        4089        4090        4141        4140
         4        4090        4091        4142        4141
         4        4091        4092        4143        4142
         4        4092        4093        4144        4143
         4        4093        4094        4145        4144
         4        4094        4095        4146        4145
         4        4095        4096        4147        4146
         4        4096        4097        4148        4147
         4        4097        4098        4149        4148
         4        4098        4099        4150        4149
         4        4099        4100        4151        4150
         4        4100        4101        4152        4151
         4        4101        4102        4153        4152
         4        4102        4103        4154        4153
         4        4103        4104        4155        4154
         4        4104        4105        4156        4155
         4        4105        4106        4157        4156
         4        4106        4107        4158        4157
         4        4107        4108        4159        4158
         4        4108        4109        4160        4159
         4        4109        4110        4161        4160
         4        4110        4111        4162        4161
         4        4111        4112        4163        4162
         4        4112        4113        4164        4163
         4        4113        4114        4165        4164
         4        4114        4115        4166        4165
         4        4115        4116        4167        4166
         4        4116        4117        4168        4167
         4        4117        4118        4169        4168
         4        4118        4119        4170        4169
         4        4119        4120        4171        4170
         4        4120        4121        4172        4171
         4        4121        4122        4173        4172
         4        4122        4123        4174        4173
         4        4123        4124        4175        4174
         4        4124        4125        4176        4175
         4        4125        4126        4177        4176
         4        4126        4127        4178        4177
         4        4127        4128        4179        4178
         4        4128        4129        4180        4179
         4        4129        4130        4181        4180
         4        4131        4132        4183        4182
         4        4132        4133        4184        4183
         4        4133        4134        4185        4184
         4        4134        4135        4186        4185
         4        4135        4136        4187        4186
         4        4136        4137        4188        4187
         4        4137        4138        4189        4188
         4        4138        4139        4190        4189
         4        4139        4140        4191        4190
         4        4140        4141        4192        4191
         4        4141        4142        4193        4192
         4        4142        4143        4194        4193
         4        4143        4144        4195        4194
         4        4144        4145        4196        4195
         4        4145        4146        4197        4196
         4        4146        4147        4198        4197
         4        4147        4148        4199        4198
         4        4148        4149        4200        4199
         4        4149        4150        4201        4200
         4        4150        4151        4202        4201
         4        4151        4152        4203        4202
         4        4152        4153        4204        4203
         4        4153        4154        4205        4204
         4        4154        4155        4206        4205
         4        4155        4156        4207        4206
         4        4156        4157        4208        4207
         4        4157        4158        4209        4208
         4        4158        4159        4210        4209
         4        4159        4160        4211        4210
         4        4160        4161        4212        4211
         4        4161        4162        4213        4212
         4        4162        4163        4214        4213
         4        4163        4164        4215        4214
         4        4164        4165        4216        4215
         4        4165        4166        4217        4216
         4        4166        4167        4218        4217
         4        4167        4168        4219        4218
         4        4168        4169        4220        4219
         4        4169        4170        4221        4220
         4        4170        4171        4222        4221
         4        4171        4172        4223        4222
         4        4172        4173        4224        4223
         4        4173        4174        4225        4224
         4        4174        4175        4226        4225
         4        4175        4176        4227        4226
         4        4176        4177        4228        4227
         4        4177        4178        4229        4228
         4        4178        4179        4230        4229
         4        4179        4180        4231        4230
         4        4180        4181        4232        4231
         4        4182        4183        4234        4233
         4        4183        4184        4235        4234
         4        4184        4185        4236        4235
         4        4185        4186        4237        4236
         4        4186        4187        4238        4237
         4        4187        4188        4239        4238
         4        4188        4189        4240        4239
         4        4189        4190        4241        4240
         4        4190        4191        4242        4241
         4        4191        4192        4243        4242
         4        4192        4193        4244        4243
         4        4193        4194        4245        4244
         4        4194        4195        4246        4245
         4        4195        4196        4247        4246
         4        4196        4197        4248        4247
         4        4197        4198        4249        4248
         4        4198        4199        4250        4249
         4        4199        4200        4251        4250
         4        4200        4201        4252        4251
         4        4201        4202        4253        4252
         4        4202        4203        4254        4253
         4        4203        4204        4255        4254
         4        4204        4205        4256        4255
         4        4205        4206        4257        4256
         4        4206        4207        4258        4257
         4        4207        4208        4259        4258
         4        4208        4209        4260        4259
         4        4209        4210        4261        4260
         4        4210        4211        4262        4261
         4        4211        4212        4263        4262
         4        4212        4213        4264        4263
         4        4213        4214        4265        4264
         4        4214        4215        4266        4265
         4        4215        4216        4267        4266
         4        4216        4217        4268        4267
         4        4217        4218        4269        4268
         4        4218        4219        4270        4269
         4        4219        4220        4271        4270
         4        4220        4221        4272        4271
         4        4221        4222        4273        4272
         4        4222        4223        4274        4273
         4        4223        4224        4275        4274
         4        4224        4225        4276        4275
         4        4225        4226        4277        4276
         4        4226        4227        4278        4277
         4        4227        4228        4279        4278
         4        4228        4229        4280        4279
         4        4229        4230        4281        4280
         4        4230        4231        4282        4281
         4        4231        4232        4283        4282
         4        4233        4234        4285        4284
         4        4234        4235        4286        4285
         4        4235        4236        4287        4286
         4        4236        4237        4288        4287
         4        4237        4238        4289        4288
         4        4238        4239        4290        4289
         4        4239        4240        4291        4290
         4        4240        4241        4292        4291
         4        4241        4242        4293        4292
         4        4242        4243        4294        4293
         4        4243        4244        4295        4294
         4        4244        4245        4296        4295
         4        4245        4246        4297        4296
         4        4246        4247        4298        4297
         4        4247        4248        4299        4298
         4        4248        4249        4300        4299
         4        4249        4250        4301        4300
         4        4250        4251        4302        4301
         4        4251        4252        4303        4302
         4        4252        4253        4304        4303
         4        4253        4254        4305        4304
         4        4254        4255        4306        4305
         4        4255        4256        4307        4306
         4        4256        4257        4308        4307
         4        4257        4258        4309        4308
         4        4258        4259        4310        4309
         4        4259        4260        4311        4310
         4        4260        4261        4312        4311
         4        4261        4262        4313        4312
         4        4262        4263        4314        4313
         4        4263        4264        4315        4314
         4        4264        4265        4316        4315
         4        4265        4266        4317        4316
         4        4266        4267        4318        4317
         4        4267        4268        4319        4318
         4        4268        4269        4320        4319
         4        4269        4270        4321        4320
         4        4270        4271        4322        4321
         4        4271        4272        4323        4322
         4        4272        4273        4324        4323
         4        4273        4274        4325        4324
         4        4274        4275        4326        4325
         4        4275        4276        4327        4326
         4        4276        4277        4328        4327
         4        4277        4278        4329        4328
         4        4278        4279        4330        4329
         4        4279        4280        4331        4330
         4        4280        4281        4332        4331
         4        4281        4282        4333        4332
         4        4282        4283        4334        4333
         4        4284        4285        4336        4335
         4        4285        4286        4337        4336
         4        4286        4287        4338        4337
         4        4287        4288        4339        4338
         4        4288        4289        4340        4339
         4        4289        4290        4341        4340
         4        4290        4291        4342        4341
         4        4291        4292        4343        4342
         4        4292        4293        4344        4343
         4        4293        4294        4345        4344
         4        4294        4295        4346        4345
         4        4295        4296        4347        4346
         4        4296        4297        4348        4347
         4        4297        4298        4349        4348
         4        4298        4299        4350        4349
         4        4299        4300        4351        4350
         4        4300        4301        4352        4351
         4        4301        4302        4353        4352
         4        4302        4303        4354        4353
         4        4303        4304        4355        4354
         4        4304        4305        4356        4355
         4        4305        4306        4357        4356
         4        4306        4307        4358        4357
         4        4307        4308        4359        4358
         4        4308        4309        4360        4359
         4        4309        4310        4361        4360
         4        4310        4311        4362        4361
         4        4311        4312        4363        4362
         4        4312        4313        4364        4363
         4        4313        4314        4365        4364
         4        4314        4315        4366        4365
         4        4315        4316        4367        4366
         4        4316        4317        4368        4367
         4        4317        4318        4369        4368
         4        4318        4319        4370        4369
         4        4319        4320        4371        4370
         4        4320        4321        4372        4371
         4        4321        4322        4373        4372
         4        4322        4323        4374        4373
         4        4323        4324        4375        4374
         4        4324        4325        4376        4375
         4        4325        4326        4377        4376
         4        4326        4327        4378        4377
         4        4327        4328        4379        4378
         4        4328        4329        4380        4379
         4        4329        4330        4381        4380
         4        4330        4331        4382        4381
         4        4331        4332        4383        4382
         4        4332        4333        4384        4383
         4        4333        4334        4385        4384
         4        4335        4336        4387        4386
         4        4336        4337        4388        4387
         4        4337        4338        4389        4388
         4        4338        4339        4390        4389
         4        4339        4340        4391        4390
         4        4340        4341        4392        4391
         4        4341        4342        4393        4392
         4        4342        4343        4394        4393
         4        4343        4344        4395        4394
         4        4344        4345        4396        4395
         4        4345        4346        4397        4396
         4        4346        4347        4398        4397
         4        4347        4348        4399        4398
         4        4348        4349        4400        4399
         4        4349        4350        4401        4400
         4        4350        4351        4402        4401
         4        4351        4352        4403        4402
         4        4352        4353        4404        4403
         4        4353        4354        4405        4404
         4        4354        4355        4406        4405
         4        4355        4356        4407        4406
         4        4356        4357        4408        4407
         4        4357        4358        4409        4408
         4        4358        4359        4410        4409
         4        4359        4360        4411        4410
         4        4360        4361        4412        4411
         4        4361        4362        4413        4412
         4        4362        4363        4414        4413
         4        4363        4364        4415        4414
         4        4364        4365        4416        4415
         4        4365        4366        4417        4416
         4        4366        4367        4418        4417
         4        4367        4368        4419        4418
         4        4368        4369        4420        4419
         4        4369        4370        4421        4420
         4        4370        4371        4422        4421
         4        4371        4372        4423        4422
         4        4372        4373        4424        4423
         4        4373        4374        4425        4424
         4        4374        4375        4426        4425
         4        4375        4376        4427        4426
         4        4376        4377        4428        4427
         4        4377        4378        4429        4428
         4        4378        4379        4430        4429
         4        4379        4380        4431        4430
         4        4380        4381        4432        4431
         4        4381        4382        4433        4432
         4        4382        4383        4434        4433
         4        4383        4384        4435        4434
         4        4384        4385        4436        4435
         4        4386        4387        4438        4437
         4        4387        4388        4439        4438
         4        4388        4389        4440        4439
         4        4389        4390        4441        4440
         4        4390        4391        4442        4441
         4        4391        4392        4443        4442
         4        4392        4393        4444        4443
         4        4393        4394        4445        4444
         4        4394        4395        4446        4445
         4        4395        4396        4447        4446
         4        4396        4397        4448        4447
         4        4397        4398        4449        4448
         4        4398        4399        4450        4449
         4        4399        4400        4451        4450
         4        4400        4401        4452        4451
         4        4401        4402        4453        4452
         4        4402        4403        4454        4453
         4        4403        4404        4455        4454
         4        4404        4405        4456        4455
         4        4405        4406        4457        4456
         4        4406        4407        4458        4457
         4        4407        4408        4459        4458
         4        4408        4409        4460        4459
         4        4409        4410        4461        4460
         4        4410        4411        4462        4461
         4        4411        4412        4463        4462
         4        4412        4413        4464        4463
         4        4413        4414        4465        4464
         4        4414        4415        4466        4465
         4        4415        4416        4467        4466
         4        4416        4417        4468        4467
         4        4417        4418        4469        4468
         4        4418        4419        4470        4469
         4        4419        4420        4471        4470
         4        4420        4421        4472        4471
         4        4421        4422        4473        4472
         4        4422        4423        4474        4473
         4        4423        4424        4475        4474
         4        4424        4425        4476        4475
         4        4425        4426        4477        4476
         4        4426        4427        4478        4477
         4        4427        4428        4479        4478
         4        4428        4429        4480        4479
         4        4429        4430        4481        4480
         4        4430        4431        4482        4481
         4        4431        4432        4483        4482
         4        4432        4433        4484        4483
         4        4433        4434        4485        4484
         4        4434        4435        4486        4485
         4        4435        4436        4487        4486
         4        4437        4438        4489        4488
         4        4438        4439        4490        4489
         4        4439        4440        4491        4490
         4        4440        4441        4492        4491
         4        4441        4442        4493        4492
         4        4442        4443        4494        4493
         4        4443        4444        4495        4494
         4        4444        4445        4496        4495
         4        4445        4446        4497        4496
         4        4446        4447        4498        4497
         4        4447        4448        4499        4498
         4        4448        4449        4500        4499
         4        4449        4450        4501        4500
         4        4450        4451        4502        4501
         4        4451        4452        4503        4502
         4        4452        4453        4504        4503
         4        4453        4454        4505        4504
         4        4454        4455        4506        4505
         4        4455        4456        4507        4506
         4        4456        4457        4508        4507
         4        4457        4458        4509        4508
         4        4458        4459        4510        4509
         4        4459        4460        4511        4510
         4        4460        4461        4512        4511
         4        4461        4462        4513        4512
         4        4462        4463        4514        4513
         4        4463        4464        4515        4514
         4        4464        4465        4516        4515
         4        4465        4466        4517        4516
         4        4466        4467        4518        4517
         4        4467        4468        4519        4518
         4        4468        4469        4520        4519
         4        4469        4470        4521        4520
         4        4470        4471        4522        4521
         4        4471        4472        4523        4522
         4        4472        4473        4524        4523
         4        4473        4474        4525        4524
         4        4474        4475        4526        4525
         4        4475        4476        4527        4526
         4        4476        4477        4528        4527
         4        4477        4478        4529        4528
         4        4478        4479        4530        4529
         4        4479        4480        4531        4530
         4        4480        4481        4532        4531
         4        4481        4482        4533        4532
         4        4482        4483        4534        4533
         4        4483        4484        4535        4534
         4        4484        4485        4536        4535
         4        4485        4486        4537        4536
         4        4486        4487        4538        4537
         4        4488        4489        4540        4539
         4        4489        4490        4541        4540
         4        4490        4491        4542        4541
         4        4491        4492        4543        4542
         4        4492        4493        4544        4543
         4        4493        4494        4545        4544
         4        4494        4495        4546        4545
         4        4495        4496        4547        4546
         4        4496        4497        4548        4547
         4        4497        4498        4549        4548
         4        4498        4499        4550        4549
         4        4499        4500        4551        4550
         4        4500        4501        4552        4551
         4        4501        4502        4553        4552
         4        4502        4503        4554        4553
         4        4503        4504        4555        4554
         4        4504        4505        4556        4555
         4        4505        4506        4557        4556
         4        4506        4507        4558        4557
         4        4507        4508        4559        4558
         4        4508        4509        4560        4559
         4        4509        4510        4561        4560
         4        4510        4511        4562        4561
         4        4511        4512        4563        4562
         4        4512        4513        4564        4563
         4        4513        4514        4565        4564
         4        4514        4515        4566        4565
         4        4515        4516        4567        4566
         4        4516        4517        4568        4567
         4        4517        4518        4569        4568
         4        4518        4519        4570        4569
         4        4519        4520        4571        4570
         4        4520        4521        4572        4571
         4        4521        4522        4573        4572
         4        4522        4523        4574        4573
         4        4523        4524        4575        4574
         4        4524        4525        4576        4575
         4        4525        4526        4577        4576
         4        4526        4527        4578        4577
         4        4527        4528        4579        4578
         4        4528        4529        4580        4579
         4        4529        4530        4581        4580
         4        4530        4531        4582        4581
         4        4531        4532        4583        4582
         4        4532        4533        4584        4583
         4        4533        4534        4585        4584
         4        4534        4535        4586        4585
         4        4535        4536        4587        4586
         4        4536        4537        4588        4587
         4        4537        4538        4589        4588
         4        4539        4540        4591        4590
         4        4540        4541        4592        4591
         4        4541        4542        4593        4592
         4        4542        4543        4594        4593
         4        4543        4544        4595        4594
         4        4544        4545        4596        4595
         4        4545        4546        4597        4596
         4        4546        4547        4598        4597
         4        4547        4548        4599        4598
         4        4548        4549        4600        4599
         4        4549        4550        4601        4600
         4        4550        4551        4602        4601
         4        4551        4552        4603        4602
         4        4552        4553        4604        4603
         4        4553        4554        4605        4604
         4        4554        4555        4606        4605
         4        4555        4556        4607        4606
         4        4556        4557        4608        4607
         4        4557        4558        4609        4608
         4        4558        4559        4610        4609
         4        4559        4560        4611        4610
         4        4560        4561        4612        4611
         4        4561        4562        4613        4612
         4        4562        4563        4614        4613
         4        4563        4564        4615        4614
         4        4564        4565        4616        4615
         4        4565        4566        4617        4616
         4        4566        4567        4618        4617
         4        4567        4568        4619        4618
         4        4568        4569        4620        4619
         4        4569        4570        4621        4620
         4        4570        4571        4622        4621
         4        4571        4572        4623        4622
         4        4572        4573        4624        4623
         4        4573        4574        4625        4624
         4        4574        4575        4626        4625
         4        4575        4576        4627        4626
         4        4576        4577        4628        4627
         4        4577        4578        4629        4628
         4        4578        4579        4630        4629
         4        4579        4580        4631        4630
         4        4580        4581        4632        4631
         4        4581        4582        4633        4632
         4        4582        4583        4634        4633
         4        4583        4584        4635        4634
         4        4584        4585        4636        4635
         4        4585        4586        4637        4636
         4        4586        4587        4638        4637
         4        4587        4588        4639        4638
         4        4588        4589        4640        4639
         4        4590        4591        4642        4641
         4        4591        4592        4643        4642
         4        4592        4593        4644        4643
         4        4593        4594        4645        4644
         4        4594        4595        4646        4645
         4        4595        4596        4647        4646
         4        4596        4597        4648        4647
         4        4597        4598        4649        4648
         4        4598        4599        4650        4649
         4        4599        4600        4651        4650
         4        4600        4601        4652        4651
         4        4601        4602        4653        4652
         4        4602        4603        4654        4653
         4        4603        4604        4655        4654
         4        4604        4605        4656        4655
         4        4605        4606        4657        4656
         4        4606        4607        4658        4657
         4        4607        4608        4659        4658
         4        4608        4609        4660        4659
         4        4609        4610        4661        4660
         4        4610        4611        4662        4661
         4        4611        4612        4663        4662
         4        4612        4613        4664        4663
         4        4613        4614        4665        4664
         4        4614        4615        4666        4665
         4        4615        4616        4667        4666
         4        4616        4617        4668        4667
         4        4617        4618        4669        4668
         4        4618        4619        4670        4669
         4        4619        4620        4671        4670
         4        4620        4621        4672        4671
         4        4621        4622        4673        4672
         4        4622        4623        4674        4673
         4        4623        4624        4675        4674
         4        4624        4625        4676        4675
         4        4625        4626        4677        4676
         4        4626        4627        4678        4677
         4        4627        4628        4679        4678
         4        4628        4629        4680        4679
         4        4629        4630        4681        4680
         4        4630        4631        4682        4681
         4        4631        4632        4683        4682
         4        4632        4633        4684        4683
         4        4633        4634        4685        4684
         4        4634        4635        4686        4685
         4        4635        4636        4687        4686
         4        4636        4637        4688        4687
         4        4637        4638        4689        4688
         4        4638        4639        4690        4689
         4        4639        4640        4691        4690
         4        4641        4642        4693        4692
         4        4642        4643        4694        4693
         4        4643        4644        4695        4694
         4        4644        4645        4696        4695
         4        4645        4646        4697        4696
         4        4646        4647        4698        4697
         4        4647        4648        4699        4698
         4        4648        4649        4700        4699
         4        4649        4650        4701        4700
         4        4650        4651        4702        4701
         4        4651        4652        4703        4702
         4        4652        4653        4704        4703
         4        4653        4654        4705        4704
         4        4654        4655        4706        4705
         4        4655        4656        4707        4706
         4        4656        4657        4708        4707
         4        4657        4658        4709        4708
         4        4658        4659        4710        4709
         4        4659        4660        4711        4710
         4        4660        4661        4712        4711
         4        4661        4662        4713        4712
         4        4662        4663        4714        4713
         4        4663        4664        4715        4714
         4        4664        4665        4716        4715
         4        4665        4666        4717        4716
         4        4666        4667        4718        4717
         4        4667        4668        4719        4718
         4        4668        4669        4720        4719
         4        4669        4670        4721        4720
         4        4670        4671        4722        4721
         4        4671        4672        4723        4722
         4        4672        4673        4724        4723
         4        4673        4674        4725        4724
         4        4674        4675        4726        4725
         4        4675        4676        4727        4726
         4        4676        4677        4728        4727
         4        4677        4678        4729        4728
         4        4678        4679        4730        4729
         4        4679        4680        4731        4730
         4        4680        4681        4732        4731
         4        4681        4682        4733        4732
         4        4682        4683        4734        4733
         4        4683        4684        4735        4734
         4        4684        4685        4736        4735
         4        4685        4686        4737        4736
         4        4686        4687        4738        4737
         4        4687        4688        4739        4738
         4        4688        4689        4740        4739
         4        4689        4690        4741        4740
         4        4690        4691        4742        4741
         4        4692        4693        4744        4743
         4        4693        4694        4745        4744
         4        4694        4695        4746        4745
         4        4695        4696        4747        4746
         4        4696        4697        4748        4747
         4        4697        4698        4749        4748
         4        4698        4699        4750        4749
         4        4699        4700        4751        4750
         4        4700        4701        4752        4751
         4        4701        4702        4753        4752
         4        4702        4703        4754        4753
         4        4703        4704        4755        4754
         4        4704        4705        4756        4755
         4        4705        4706        4757        4756
         4        4706        4707        4758        4757
         4        4707        4708        4759        4758
         4        4708        4709        4760        4759
         4        4709        4710        4761        4760
         4        4710        4711        4762        4761
         4        4711        4712        4763        4762
         4        4712        4713        4764        4763
         4        4713        4714        4765        4764
         4        4714        4715        4766        4765
         4        4715        4716        4767        4766
         4        4716        4717        4768        4767
         4        4717        4718        4769        4768
         4        4718        4719        4770        4769
         4        4719        4720        4771        4770
         4        4720        4721        4772        4771
         4        4721        4722        4773        4772
         4        4722        4723        4774        4773
         4        4723        4724        4775        4774
         4        4724        4725        4776        4775
         4        4725        4726        4777        4776
         4        4726        4727        4778        4777
         4        4727        4728        4779        4778
         4        4728        4729        4780        4779
         4        4729        4730        4781        4780
         4        4730        4731        4782        4781
         4        4731        4732        4783        4782
         4        4732        4733        4784        4783
         4        4733        4734        4785        4784
         4        4734        4735        4786        4785
         4        4735        4736        4787        4786
         4        4736        4737        4788        4787
         4        4737        4738        4789        4788
         4        4738        4739        4790        4789
         4        4739        4740        4791        4790
         4        4740        4741        4792        4791
         4        4741        4742        4793        4792
         4        4743        4744        4795        4794
         4        4744        4745        4796        4795
         4        4745        4746        4797        4796
         4        4746        4747        4798        4797
         4        4747        4748        4799        4798
         4        4748        4749        4800        4799
         4        4749        4750        4801        4800
         4        4750        4751        4802        4801
         4        4751        4752        4803        4802
         4        4752        4753        4804        4803
         4        4753        4754        4805        4804
         4        4754        4755        4806        4805
         4        4755        4756        4807        4806
         4        4756        4757        4808        4807
         4        4757        4758        4809        4808
         4        4758        4759        4810        4809
         4        4759        4760        4811        4810
         4        4760        4761        4812        4811
         4        4761        4762        4813        4812
         4        4762        4763        4814        4813
         4        4763        4764        4815        4814
         4        4764        4765        4816        4815
         4        4765        4766        4817        4816
         4        4766        4767        4818        4817
         4        4767        4768        4819        4818
         4        4768        4769        4820        4819
         4        4769        4770        4821        4820
         4        4770        4771        4822        4821
         4        4771        4772        4823        4822
         4        4772        4773        4824        4823
         4        4773        4774        4825        4824
         4        4774        4775        4826        4825
         4        4775        4776        4827        4826
         4        4776        4777        4828        4827
         4        4777        4778        4829        4828
         4        4778        4779        4830        4829
         4        4779        4780        4831        4830
         4        4780        4781        4832        4831
         4        4781        4782        4833        4832
         4        4782        4783        4834        4833
         4        4783        4784        4835        4834
         4        4784        4785        4836        4835
         4        4785        4786        4837        4836
         4        4786        4787        4838        4837
         4        4787        4788        4839        4838
         4        4788        4789        4840        4839
         4        4789        4790        4841        4840
         4        4790        4791        4842        4841
         4        4791        4792        4843        4842
         4        4792        4793        4844        4843
         4        4794        4795        4846        4845
         4        4795        4796        4847        4846
         4        4796        4797        4848        4847
         4        4797        4798        4849        4848
         4        4798        4799        4850        4849
         4        4799        4800        4851        4850
         4        4800        4801        4852        4851
         4        4801        4802        4853        4852
         4        4802        4803        4854        4853
         4        4803        4804        4855        4854
         4        4804        4805        4856        4855
         4        4805        4806        4857        4856
         4        4806        4807        4858        4857
         4        4807        4808        4859        4858
         4        4808        4809        4860        4859
         4        4809        4810        4861        4860
         4        4810        4811        4862        4861
         4        4811        4812        4863        4862
         4        4812        4813        4864        4863
         4        4813        4814        4865        4864
         4        4814        4815        4866        4865
         4        4815        4816        4867        4866
         4        4816        4817        4868        4867
         4        4817        4818        4869        4868
         4        4818        4819        4870        4869
         4        4819        4820        4871        4870
         4        4820        4821        4872        4871
         4        4821        4822        4873        4872
         4        4822        4823        4874        4873
         4        4823        4824        4875        4874
         4        4824        4825        4876        4875
         4        4825        4826        4877        4876
         4        4826        4827        4878        4877
         4        4827        4828        4879        4878
         4        4828        4829        4880        4879
         4        4829        4830        4881        4880
         4        4830        4831        4882        4881
         4        4831        4832        4883        4882
         4        4832        4833        4884        4883
         4        4833        4834        4885        4884
         4        4834        4835        4886        4885
         4        4835        4836        4887        4886
         4        4836        4837        4888        4887
         4        4837        4838        4889        4888
         4        4838        4839        4890        4889
         4        4839        4840        4891        4890
         4        4840        4841        4892        4891
         4        4841        4842        4893        4892
         4        4842        4843        4894        4893
         4        4843        4844        4895        4894
         4        4845        4846        4897        4896
         4        4846        4847        4898        4897
         4        4847        4848        4899        4898
         4        4848        4849        4900        4899
         4        4849        4850        4901        4900
         4        4850        4851        4902        4901
         4        4851        4852        4903        4902
         4        4852        4853        4904        4903
         4        4853        4854        4905        4904
         4        4854        4855        4906        4905
         4        4855        4856        4907        4906
         4        4856        4857        4908        4907
         4        4857        4858        4909        4908
         4        4858        4859        4910        4909
         4        4859        4860        4911        4910
         4        4860        4861        4912        4911
         4        4861        4862        4913        4912
         4        4862        4863        4914        4913
         4        4863        4864        4915        4914
         4        4864        4865        4916        4915
         4        4865        4866        4917        4916
         4        4866        4867        4918        4917
         4        4867        4868        4919        4918
         4        4868        4869        4920        4919
         4        4869        4870        4921        4920
         4        4870        4871        4922        4921
         4        4871        4872        4923        4922
         4        4872        4873        4924        4923
         4        4873        4874        4925        4924
         4        4874        4875        4926        4925
         4        4875        4876        4927        4926
         4        4876        4877        4928        4927
         4        4877        4878        4929        4928
         4        4878        4879        4930        4929
         4        4879        4880        4931        4930
         4        4880        4881        4932        4931
         4        4881        4882        4933        4932
         4        4882        4883        4934        4933
         4        4883        4884        4935        4934
         4        4884        4885        4936        4935
         4        4885        4886        4937        4936
         4        4886        4887        4938        4937
         4        4887        4888        4939        4938
         4        4888        4889        4940        4939
         4        4889        4890        4941        4940
         4        4890        4891        4942        4941
         4        4891        4892        4943        4942
         4        4892        4893        4944        4943
         4        4893        4894        4945        4944
         4        4894        4895        4946        4945
         4        4896        4897        4948        4947
         4        4897        4898        4949        4948
         4        4898        4899        4950        4949
         4        4899        4900        4951        4950
         4        4900        4901        4952        4951
         4        4901        4902        4953        4952
         4        4902        4903        4954        4953
         4        4903        4904        4955        4954
         4        4904        4905        4956        4955
         4        4905        4906        4957        4956
         4        4906        4907        4958        4957
         4        4907        4908        4959        4958
         4        4908        4909        4960        4959
         4        4909        4910        4961        4960
         4        4910        4911        4962        4961
         4        4911        4912        4963        4962
         4        4912        4913        4964        4963
         4        4913        4914        4965        4964
         4        4914        4915        4966        4965
         4        4915        4916        4967        4966
         4        4916        4917        4968        4967
         4        4917        4918        4969        4968
         4        4918        4919        4970        4969
         4        4919        4920        4971        4970
         4        4920        4921        4972        4971
         4        4921        4922        4973        4972
         4        4922        4923        4974        4973
         4        4923        4924        4975        4974
         4        4924        4925        4976        4975
         4        4925        4926        4977        4976
         4        4926        4927        4978        4977
         4        4927        4928        4979        4978
         4        4928        4929        4980        4979
         4        4929        4930        4981        4980
         4        4930        4931        4982        4981
         4        4931        4932        4983        4982
         4        4932        4933        4984        4983
         4        4933        4934        4985        4984
         4        4934        4935        4986        4985
         4        4935        4936        4987        4986
         4        4936        4937        4988        4987
         4        4937        4938        4989        4988
         4        4938        4939        4990        4989
         4        4939        4940        4991        4990
         4        4940        4941        4992        4991
         4        4941        4942        4993        4992
         4        4942        4943        4994        4993
         4        4943        4944        4995        4994
         4        4944        4945        4996        4995
         4        4945        4946        4997        4996
         4        4947        4948        4999        4998
         4        4948        4949        5000        4999
         4        4949        4950        5001        5000
         4        4950        4951        5002        5001
         4        4951        4952        5003        5002
         4        4952        4953        5004        5003
         4        4953        4954        5005        5004
         4        4954        4955        5006        5005
         4        4955        4956        5007        5006
         4        4956        4957        5008        5007
         4        4957        4958        5009        5008
         4        4958        4959        5010        5009
         4        4959        4960        5011        5010
         4        4960        4961        5012        5011
         4        4961        4962        5013        5012
         4        4962        4963        5014        5013
         4        4963        4964        5015        5014
         4        4964        4965        5016        5015
         4        4965        4966        5017        5016
         4        4966        4967        5018        5017
         4        4967        4968        5019        5018
         4        4968        4969        5020        5019
         4        4969        4970        5021        5020
         4        4970        4971        5022        5021
         4        4971        4972        5023        5022
         4        4972        4973        5024        5023
         4        4973        4974        5025        5024
         4        4974        4975        5026        5025
         4        4975        4976        5027        5026
         4        4976        4977        5028        5027
         4        4977        4978        5029        5028
         4        4978        4979        5030        5029
         4        4979        4980        5031        5030
         4        4980        4981        5032        5031
         4        4981        4982        5033        5032
         4        4982        4983        5034        5033
         4        4983        4984        5035        5034
         4        4984        4985        5036        5035
         4        4985        4986        5037        5036
         4        4986        4987        5038        5037
         4        4987        4988        5039        5038
         4        4988        4989        5040        5039
         4        4989        4990        5041        5040
         4        4990        4991        5042        5041
         4        4991        4992        5043        5042
         4        4992        4993        5044        5043
         4        4993        4994        5045        5044
         4        4994        4995        5046        5045
         4        4995        4996        5047        5046
         4        4996        4997        5048        5047
         4        4998        4999        5050        5049
         4        4999        5000        5051        5050
         4        5000        5001        5052        5051
         4        5001        5002        5053        5052
         4        5002        5003        5054        5053
         4        5003        5004        5055        5054
         4        5004        5005        5056        5055
         4        5005        5006        5057        5056
         4        5006        5007        5058        5057
         4        5007        5008        5059        5058
         4        5008        5009        5060        5059
         4        5009        5010        5061        5060
         4        5010        5011        5062        5061
         4        5011        5012        5063        5062
         4        5012        5013        5064        5063
         4        5013        5014        5065        5064
         4        5014        5015        5066        5065
         4        5015        5016        5067        5066
         4        5016        5017        5068        5067
         4        5017        5018        5069        5068
         4        5018        5019        5070        5069
         4        5019        5020        5071        5070
         4        5020        5021        5072        5071
         4        5021        5022        5073        5072
         4        5022        5023        5074        5073
         4        5023        5024        5075        5074
         4        5024        5025        5076        5075
         4        5025        5026        5077        5076
         4        5026        5027        5078        5077
         4        5027        5028        5079        5078
         4        5028        5029        5080        5079
         4        5029        5030        5081        5080
         4        5030        5031        5082        5081
         4        5031        5032        5083        5082
         4        5032        5033        5084        5083
         4        5033        5034        5085        5084
         4        5034        5035        5086        5085
         4        5035        5036        5087        5086
         4        5036        5037        5088        5087
         4        5037        5038        5089        5088
         4        5038        5039        5090        5089
         4        5039        5040        5091        5090
         4        5040        5041        5092        5091
         4        5041        5042        5093        5092
         4        5042        5043        5094        5093
         4        5043        5044        5095        5094
         4        5044        5045        5096        5095
         4        5045        5046        5097        5096
         4        5046        5047        5098        5097
         4        5047        5048        5099        5098
         4        5049        5050        5101        5100
         4        5050        5051        5102        5101
         4        5051        5052        5103        5102
         4        5052        5053        5104        5103
         4        5053        5054        5105        5104
         4        5054        5055        5106        5105
         4        5055        5056        5107        5106
         4        5056        5057        5108        5107
         4        5057        5058        5109        5108
         4        5058        5059        5110        5109
         4        5059        5060        5111        5110
         4        5060        5061        5112        5111
         4        5061        5062        5113        5112
         4        5062        5063        5114        5113
         4        5063        5064        5115        5114
         4        5064        5065        5116        5115
         4        5065        5066        5117        5116
         4        5066        5067        5118        5117
         4        5067        5068        5119        5118
         4        5068        5069        5120        5119
         4        5069        5070        5121        5120
         4        5070        5071        5122        5121
         4        5071        5072        5123        5122
         4        5072        5073        5124        5123
         4        5073        5074        5125        5124
         4        5074        5075        5126        5125
         4        5075        5076        5127        5126
         4        5076        5077        5128        5127
         4        5077        5078        5129        5128
         4        5078        5079        5130        5129
         4        5079        5080        5131        5130
         4        5080        5081        5132        5131
         4        5081        5082        5133        5132
         4        5082        5083        5134        5133
         4        5083        5084        5135        5134
         4        5084        5085        5136        5135
         4        5085        5086        5137        5136
         4        5086        5087        5138        5137
         4        5087        5088        5139        5138
         4        5088        5089        5140        5139
         4        5089        5090        5141        5140
         4        5090        5091        5142        5141
         4        5091        5092        5143        5142
         4        5092        5093        5144        5143
         4        5093        5094        5145        5144
         4        5094        5095        5146        5145
         4        5095        5096        5147        5146
         4        5096        5097        5148        5147
         4        5097        5098        5149        5148
         4        5098        5099        5150        5149
CELL_TYPES       5000
9
9
9
9
9
9
9
9
9
9
9
9
9
9
9
9
9
9
9
9
9
9
9
9
9
9
9
9
9
9
9
9
9
9
9
9
9
9
9
9
9
9
9
9
9
9
9
9
9
9
9
9
9
9
9
9
9
9
9
9
9
9
9
9
9
9
9
9
9
9
9
9
9
9
9
9
9
9
9
9
9
9
9
9
9
9
9
9
9
9
9
9
9
9
9
9
9
9
9
9
9
9
9
9
9
9
9
9
9
9
9
9
9
9
9
9
9
9
9
9
9
9
9
9
9
9
9
9
9
9
9
9
9
9
9
9
9
9
9
9
9
9
9
9
9
9
9
9
9
9
9
9
9
9
9
9
9
9
9
9
9
9
9
9
9
9
9
9
9
9
9
9
9
9
9
9
9
9
9
9
9
9
9
9
9
9
9
9
9
9
9
9
9
9
9
9
9
9
9
9
9
9
9
9
9
9
9
9
9
9
9
9
9
9
9
9
9
9
9
9
9
9
9
9
9
9
9
9
9
9
9
9
9
9
9
9
9
9
9
9
9
9
9
9
9
9
9
9
9
9
9
9
9
9
9
9
9
9
9
9
9
9
9
9
9
9
9
9
9
9
9
9
9
9
9
9
9
9
9
9
9
9
9
9
9
9
9
9
9
9
9
9
9
9
9
9
9
9
9
9
9
9
9
9
9
9
9
9
9
9
9
9
9
9
9
9
9
9
9
9
9
9
9
9
9
9
9
9
9
9
9
9
9
9
9
9
9
9
9
9
9
9
9
9
9
9
9
9
9
9
9
9
9
9
9
9
9
9
9
9
9
9
9
9
9
9
9
9
9
9
9
9
9
9
9
9
9
9
9
9
9
9
9
9
9
9
9
9
9
9
9
9
9
9
9
9
9
9
9
9
9
9
9
9
9
9
9
9
9
9
9
9
9
9
9
9
9
9
9
9
9
9
9
9
9
9
9
9
9
9
9
9
9
9
9
9
9
9
9
9
9
9
9
9
9
9
9
9
9
9
9
9
9
9
9
9
9
9
9
9
9
9
9
9
9
9
9
9
9
9
9
9
9
9
9
9
9
9
9
9
9
9
9
9
9
9
9
9
9
9
9
9
9
9
9
9
9
9
9
9
9
9
9
9
9
9
9
9
9
9
9
9
9
9
9
9
9
9
9
9
9
9
9
9
9
9
9
9
9
9
9
9
9
9
9
9
9
9
9
9
9
9
9
9
9
9
9
9
9
9
9
9
9
9
9
9
9
9
9
9
9
9
9
9
9
9
9
9
9
9
9
9
9
9
9
9
9
9
9
9
9
9
9
9
9
9
9
9
9
9
9
9
9
9
9
9
9
9
9
9
9
9
9
9
9
9
9
9
9
9
9
9
9
9
9
9
9
9
9
9
9
9
9
9
9
9
9
9
9
9
9
9
9
9
9
9
9
9
9
9
9
9
9
9
9
9
9
9
9
9
9
9
9
9
9
9
9
9
9
9
9
9
9
9
9
9
9
9
9
9
9
9
9
9
9
9
9
9
9
9
9
9
9
9
9
9
9
9
9
9
9
9
9
9
9
9
9
9
9
9
9
9
9
9
9
9
9
9
9
9
9
9
9
9
9
9
9
9
9
9
9
9
9
9
9
9
9
9
9
9
9
9
9
9
9
9
9
9
9
9
9
9
9
9
9
9
9
9
9
9
9
9
9
9
9
9
9
9
9
9
9
9
9
9
9
9
9
9
9
9
9
9
9
9
9
9
9
9
9
9
9
9
9
9
9
9
9
9
9
9
9
9
9
9
9
9
9
9
9
9
9
9
9
9
9
9
9
9
9
9
9
9
9
9
9
9
9
9
9
9
9
9
9
9
9
9
9
9
9
9
9
9
9
9
9
9
9
9
9
9
9
9
9
9
9
9
9
9
9
9
9
9
9
9
9
9
9
9
9
9
9
9
9
9
9
9
9
9
9
9
9
9
9
9
9
9
9
9
9
9
9
9
9
9
9
9
9
9
9
9
9
9
9
9
9
9
9
9
9
9
9
9
9
9
9
9
9
9
9
9
9
9
9
9
9
9
9
9
9
9
9
9
9
9
9
9
9
9
9
9
9
9
9
9
9
9
9
9
9
9
9
9
9
9
9
9
9
9
9
9
9
9
9
9
9
9
9
9
9
9
9
9
9
9
9
9
9
9
9
9
9
9
9
9
9
9
9
9
9
9
9
9
9
9
9
9
9
9
9
9
9
9
9
9
9
9
9
9
9
9
9
9
9
9
9
9
9
9
9
9
9
9
9
9
9
9
9
9
9
9
9
9
9
9
9
9
9
9
9
9
9
9
9
9
9
9
9
9
9
9
9
9
9
9
9
9
9
9
9
9
9
9
9
9
9
9
9
9
9
9
9
9
9
9
9
9
9
9
9
9
9
9
9
9
9
9
9
9
9
9
9
9
9
9
9
9
9
9
9
9
9
9
9
9
9
9
9
9
9
9
9
9
9
9
9
9
9
9
9
9
9
9
9
9
9
9
9
9
9
9
9
9
9
9
9
9
9
9
9
9
9
9
9
9
9
9
9
9
9
9
9
9
9
9
9
9
9
9
9
9
9
9
9
9
9
9
9
9
9
9
9
9
9
9
9
9
9
9
9
9
9
9
9
9
9
9
9
9
9
9
9
9
9
9
9
9
9
9
9
9
9
9
9
9
9
9
9
9
9
9
9
9
9
9
9
9
9
9
9
9
9
9
9
9
9
9
9
9
9
9
9
9
9
9
9
9
9
9
9
9
9
9
9
9
9
9
9
9
9
9
9
9
9
9
9
9
9
9
9
9
9
9
9
9
9
9
9
9
9
9
9
9
9
9
9
9
9
9
9
9
9
9
9
9
9
9
9
9
9
9
9
9
9
9
9
9
9
9
9
9
9
9
9
9
9
9
9
9
9
9
9
9
9
9
9
9
9
9
9
9
9
9
9
9
9
9
9
9
9
9
9
9
9
9
9
9
9
9
9
9
9
9
9
9
9
9
9
9
9
9
9
9
9
9
9
9
9
9
9
9
9
9
9
9
9
9
9
9
9
9
9
9
9
9
9
9
9
9
9
9
9
9
9
9
9
9
9
9
9
9
9
9
9
9
9
9
9
9
9
9
9
9
9
9
9
9
9
9
9
9
9
9
9
9
9
9
9
9
9
9
9
9
9
9
9
9
9
9
9
9
9
9
9
9
9
9
9
9
9
9
9
9
9
9
9
9
9
9
9
9
9
9
9
9
9
9
9
9
9
9
9
9
9
9
9
9
9
9
9
9
9
9
9
9
9
9
9
9
9
9
9
9
9
9
9
9
9
9
9
9
9
9
9
9
9
9
9
9
9
9
9
9
9
9
9
9
9
9
9
9
9
9
9
9
9
9
9
9
9
9
9
9
9
9
9
9
9
9
9
9
9
9
9
9
9
9
9
9
9
9
9
9
9
9
9
9
9
9
9
9
9
9
9
9
9
9
9
9
9
9
9
9
9
9
9
9
9
9
9
9
9
9
9
9
9
9
9
9
9
9
9
9
9
9
9
9
9
9
9
9
9
9
9
9
9
9
9
9
9
9
9
9
9
9
9
9
9
9
9
9
9
9
9
9
9
9
9
9
9
9
9
9
9
9
9
9
9
9
9
9
9
9
9
9
9
9
9
9
9
9
9
9
9
9
9
9
9
9
9
9
9
9
9
9
9
9
9
9
9
9
9
9
9
9
9
9
9
9
9
9
9
9
9
9
9
9
9
9
9
9
9
9
9
9
9
9
9
9
9
9
9
9
9
9
9
9
9
9
9
9
9
9
9
9
9
9
9
9
9
9
9
9
9
9
9
9
9
9
9
9
9
9
9
9
9
9
9
9
9
9
9
9
9
9
9
9
9
9
9
9
9
9
9
9
9
9
9
9
9
9
9
9
9
9
9
9
9
9
9
9
9
9
9
9
9
9
9
9
9
9
9
9
9
9
9
9
9
9
9
9
9
9
9
9
9
9
9
9
9
9
9
9
9
9
9
9
9
9
9
9
9
9
9
9
9
9
9
9
9
9
9
9
9
9
9
9
9
9
9
9
9
9
9
9
9
9
9
9
9
9
9
9
9
9
9
9
9
9
9
9
9
9
9
9
9
9
9
9
9
9
9
9
9
9
9
9
9
9
9
9
9
9
9
9
9
9
9
9
9
9
9
9
9
9
9
9
9
9
9
9
9
9
9
9
9
9
9
9
9
9
9
9
9
9
9
9
9
9
9
9
9
9
9
9
9
9
9
9
9
9
9
9
9
9
9
9
9
9
9
9
9
9
9
9
9
9
9
9
9
9
9
9
9
9
9
9
9
9
9
9
9
9
9
9
9
9
9
9
9
9
9
9
9
9
9
9
9
9
9
9
9
9
9
9
9
9
9
9
9
9
9
9
9
9
9
9
9
9
9
9
9
9
9
9
9
9
9
9
9
9
9
9
9
9
9
9
9
9
9
9
9
9
9
9
9
9
9
9
9
9
9
9
9
9
9
9
9
9
9
9
9
9
9
9
9
9
9
9
9
9
9
9
9
9
9
9
9
9
9
9
9
9
9
9
9
9
9
9
9
9
9
9
9
9
9
9
9
9
9
9
9
9
9
9
9
9
9
9
9
9
9
9
9
9
9
9
9
9
9
9
9
9
9
9
9
9
9
9
9
9
9
9
9
9
9
9
9
9
9
9
9
9
9
9
9
9
9
9
9
9
9
9
9
9
9
9
9
9
9
9
9
9
9
9
9
9
9
9
9
9
9
9
9
9
9
9
9
9
9
9
9
9
9
9
9
9
9
9
9
9
9
9
9
9
9
9
9
9
9
9
9
9
9
9
9
9
9
9
9
9
9
9
9
9
9
9
9
9
9
9
9
9
9
9
9
9
9
9
9
9
9
9
9
9
9
9
9
9
9
9
9
9
9
9
9
9
9
9
9
9
9
9
9
9
9
9
9
9
9
9
9
9
9
9
9
9
9
9
9
9
9
9
9
9
9
9
9
9
9
9
9
9
9
9
9
9
9
9
9
9
9
9
9
9
9
9
9
9
9
9
9
9
9
9
9
9
9
9
9
9
9
9
9
9
9
9
9
9
9
9
9
9
9
9
9
9
9
9
9
9
9
9
9
9
9
9
9
9
9
9
9
9
9
9
9
9
9
9
9
9
9
9
9
9
9
9
9
9
9
9
9
9
9
9
9
9
9
9
9
9
9
9
9
9
9
9
9
9
9
9
9
9
9
9
9
9
9
9
9
9
9
9
9
9
9
9
9
9
9
9
9
9
9
9
9
9
9
9
9
9
9
9
9
9
9
9
9
9
9
9
9
9
9
9
9
9
9
9
9
9
9
9
9
9
9
9
9
9
9
9
9
9
9
9
9
9
9
9
9
9
9
9
9
9
9
9
9
9
9
9
9
9
9
9
9
9
9
9
9
9
9
9
9
9
9
9
9
9
9
9
9
9
9
9
9
9
9
9
9
9
9
9
9
9
9
9
9
9
9
9
9
9
9
9
9
9
9
9
9
9
9
9
9
9
9
9
9
9
9
9
9
9
9
9
9
9
9
9
9
9
9
9
9
9
9
9
9
9
9
9
9
9
9
9
9
9
9
9
9
9
9
9
9
9
9
9
9
9
9
9
9
9
9
9
9
9
9
9
9
9
9
9
9
9
9
9
9
9
9
9
9
9
9
9
9
9
9
9
9
9
9
9
9
9
9
9
9
9
9
9
9
9
9
9
9
9
9
9
9
9
9
9
9
9
9
9
9
9
9
9
9
9
9
9
9
9
9
9
9
9
9
9
9
9
9
9
9
9
9
9
9
9
9
9
9
9
9
9
9
9
9
9
9
9
9
9
9
9
9
9
9
9
9
9
9
9
9
9
9
9
9
9
9
9
9
9
9
9
9
9
9
9
9
9
9
9
9
9
9
9
9
9
9
9
9
9
9
9
9
9
9
9
9
9
9
9
9
9
9
9
9
9
9
9
9
9
9
9
9
9
9
9
9
9
9
9
9
9
9
9
9
9
9
9
9
9
9
9
9
9
9
9
9
9
9
9
9
9
9
9
9
9
9
9
9
9
9
9
9
9
9
9
9
9
9
9
9
9
9
9
9
9
9
9
9
9
9
9
9
9
9
9
9
9
9
9
9
9
9
9
9
9
9
9
9
9
9
9
9
9
9
9
9
9
9
9
9
9
9
9
9
9
9
9
9
9
9
9
9
9
9
9
9
9
9
9
9
9
9
9
9
9
9
9
9
9
9
9
9
9
9
9
9
9
9
9
9
9
9
9
9
9
9
9
9
9
9
9
9
9
9
9
9
9
9
9
9
9
9
9
9
9
9
9
9
9
9
9
9
9
9
9
9
9
9
9
9
9
9
9
9
9
9
9
9
9
9
9
9
9
9
9
9
9
9
9
9
9
9
9
9
9
9
9
9
9
9
9
9
9
9
9
9
9
9
9
9
9
9
9
9
9
9
9
9
9
9
9
9
9
9
9
9
9
9
9
9
9
9
9
9
9
9
9
9
9
9
9
9
9
9
9
9
9
9
9
9
9
9
9
9
9
9
9
9
9
9
9
9
9
9
9
9
9
9
9
9
9
9
9
9
9
9
9
9
9
9
9
9
9
9
9
9
9
9
9
9
9
9
9
9
9
9
9
9
9
9
9
9
9
9
9
9
9
9
9
9
9
9
9
9
9
9
9
9
9
9
9
9
9
9
9
9
9
9
9
9
9
9
9
9
9
9
9
9
9
9
9
9
9
9
9
9
9
9
9
9
9
9
9
9
9
9
9
9
9
9
9
9
9
9
9
9
9
9
9
9
9
9
9
9
9
9
9
9
9
9
9
9
9
9
9
9
9
9
9
9
9
9
9
9
9
9
9
9
9
9
9
9
9
9
9
9
9
9
9
9
9
9
9
9
9
9
9
9
9
9
9
9
9
9
9
9
9
9
9
9
9
9
9
9
9
9
9
9
9
9
9
9
9
9
9
9
9
9
9
9
9
9
9
9
9
9
9
9
9
9
9
9
9
9
9
9
9
9
9
9
9
9
9
9
9
9
9
9
9
9
9
9
9
9
9
9
9
9
9
9
9
9
9
9
9
9
9
9
9
9
9
9
9
9
9
9
9
9
9
9
9
9
9
9
9
9
9
9
9
9
9
9
9
9
9
9
9
9
9
9
9
9
9
9
9
9
9
9
9
9
9
9
9
9
9
9
9
9
9
9
9
9
9
9
9
9
9
9
9
9
9
9
9
9
9
9
9
9
9
9
9
9
9
9
9
9
9
9
9
9
9
9
9
9
9
9
9
9
9
9
9
9
9
9
9
9
9
9
9
9
9
9
9
9
9
9
9
9
9
9
9
9
9
9
9
9
9
9
9
9
9
9
9
9
9
9
9
9
9
9
9
9
9
9
9
9
9
9
9
9
9
9
9
9
9
9
9
9
9
9
9
9
9
9
9
9
9
9
9
9
9
9
9
9
9
9
9
9
9
9
9
9
9
9
9
9
9
9
9
9
9
9
9
9
9
9
9
9
9
9
9
9
9
9
9
9
9
9
9
9
9
9
9
9
9
9
9
9
9
9
9
9
9
9
9
9
9
9
9
9
9
9
9
9
9
9
9
9
9
9
9
9
9
9
9
9
9
9
9
9
9
9
9
9
9
9
9
9
9
9
9
9
9
9
9
9
9
9
9
9
9
9
9
9
9
9
9
9
9
9
9
9
9
9
9
9
9
9
9
9
9
9
9
9
9
9
9
9
9
9
9
9
9
9
9
9
9
9
9
9
9
9
9
9
9
9
9
9
9
9
9
9
9
9
9
9
9
9
9
9
9
9
9
9
9
9
9
9
9
9
9
9
9
9
9
9
9
9
9
9
9
9
9
9
9
9
9
9
9
9
9
9
9
9
9
9
9
9
9
9
9
9
9
9
9
9
9
9
9
9
9
9
9
9
9
9
9
9
9
9
9
9
9
9
9
9
9
9
9
9
9
9
9
9
9
9
9
9
9
9
9
9
9
9
9
9
9
9
9
9
9
9
9
9
9
9
9
9
9
9
9
9
9
9
9
9
9
9
9
9
9
9
9
9
9
9
9
9
9
9
9
9
9
9
9
9
9
9
9
9
9
9
9
9
9
9
9
9
9
9
9
9
9
9
9
9
9
9
9
9
9
9
9
9
9
9
9
9
9
9
9
9
9
9
9
9
9
9
9
9
9
9
9
9
9
9
9
9
9
9
9
9
9
9
9
9
9
9
9
9
9
9
9
9
9
9
9
9
9
9
9
9
9
9
9
9
9
9
9
9
9
9
9
9
9
9
9
9
9
9
9
9
9
9
9
9
9
9
9
9
9
9
9
9
9
9
9
9
9
9
9
9
9
9
9
9
9
9
9
9
9
9
9
9
9
9
9
9
9
9
9
9
9
9
9
9
9
9
9
9
9
9
9
9
9
9
9
9
9
9
9
9
9
9
9
9
9
9
9
9
9
9
9
9
9
9
9
9
9
9
9
9
9
9
9
9
9
9
9
9
9
9
9
9
9
9
9
9
9
9
9
9
9
9
9
9
9
9
9
9
9
9
9
9
9
9
9
9
9
9
9
9
9
9
9
9
9
9
9
9
9
9
9
9
9
9
9
9
9
9
9
9
9
9
9
9
9
9
9
9
9
9
9
9
9
9
9
9
9
9
9
9
9
9
9
9
9
9
9
9
9
9
9
9
9
9
9
9
9
9
9
9
9
9
9
9
9
9
9
9
9
9
9
9
9
9
9
9
9
9
9
9
9
9
9
9
9
9
9
9
9
9
9
9
9
9
9
9
9
9
9
9
9
9
9
9
9
9
9
9
9
9
9
9
9
9
9
9
9
9
9
9
9
9
9
9
9
9
9
9
9
9
9
9
9
9
9
9
9
9
9
9
9
9
9
9
9
9
9
9
9
9
9
9
9
9
9
9
9
9
9
9
9
9
9
9
9
9
9
9
9
9
9
9
9
9
9
9
9
9
9
9
9
9
9
9
9
9
9
9
9
9
9
9
9
9
9
9
9
9
9
9
9
9
9
9
9
9
9
9
9
9
9
9
9
9
9
9
9
9
9
9
9
9
9
9
9
9
9
9
9
9
9
9
9
9
9
9
9
9
9
9
9
9
9
9
9
9
9
9
9
9
9
9
9
9
9
9
9
9
9
9
9
9
9
9
9
9
9
9
9
9
9
9
9
9
9
9
9
9
9
9
9
9
9
9
9
9
9
9
9
9
9
9
9
9
9
9
9
9
9
9
9
9
9
9
9
9
9
9
9
9
9
9
9
9
9
9
9
9
9
9
9
9
9
9
9
9
9
9
9
9
9
9
9
9
9
9
9
9
9
9
9
9
9
9
9
9
9
9
9
9
9
9
9
9
9
9
9
9
9
9
9
9
9
9
9
9
9
9
9
9
9
9
9
9
9
9
9
9
9
9
9
9
9
9
9
9
9
9
9
9
9
9
9
9
9
9
9
9
9
9
9
9
9
9
9
9
9
9
9
9
9
9
9
9
9
9
9
9
9
9
9
9
9
9
9
9
9
9
9
9
9
9
9
9
9
9
9
9
9
9
9
9
9
9
9
9
9
9
9
9
9
9
9
9
9
9
9
9
9
9
9
9
9
9
9
9
9
9
9
9
9
9
9
9
9
9
9
9
9
9
9
9
9
9
9
9
9
9
9
9
9
9
9
9
9
9
9
9
9
9
9
9
9
9
9
9
9
9
9
9
9
9
9
9
9
9
9
9
9
9
9
9
9
9
9
9
9
9
9
9
9
9
9
9
9
9
9
9
9
9
9
9
9
9
9
9
9
9
9
9
9
9
9
9
9
9
9
9
9
9
9
9
9
9
9
9
9
9
9
9
9
9
9
9
9
9
9
9
9
9
9
9
9
9
9
9
9
9
9
9
9
9
9
9
9
9
9
9
9
9
9
9
9
9
9
9
9
9
9
9
9
9
9
9
9
9
9
9
9
9
9
9
9
9
9
9
9
9
9
9
9
9
9
9
9
9
9
9
9
9
9
9
9
9
9
9
9
9
9
9
9
9
9
9
9
9
9
9
9
9
9
9
9
9
9
9
9
9
9
9
9
9
9
9
9
9
9
9
9
9
9
9
9
9
9
9
9
9
9
9
9
9
9
9
9
9
9
9
9
9
9
9
9
9
9
9
9
9
9
9
9
9
9
9
9
9
9
9
9
9
9
9
9
9
9
9
9
9
9
9
9
9
9
9
9
9
9
9
9
9
9
9
9
9
9
9
9
9
9
9
9
9
9
9
9
9
9
9
9
9
9
9
9
9
9
9
9
9
9
9
9
9
9
9
9
9
9
9
9
9
9
9
9
9
9
9
9
9
9
9
9
9
9
9
9
9
9
9
9
9
9
9
9
9
9
9
9
9
9
9
9
9
9
9
9
9
9
9
9
9
9
9
9
9
9
9
9
9
9
9
9
9
9
9
9
9
9
9
9
9
9
9
9
9
9
9
9
9
9
9
9
9
9
9
9
9
9
9
9
9
9
9
9
9
9
9
9
9
9
9
9
9
9
9
9
9
9
9
9
9
9
9
9
9
9
9
9
9
9
9
9
9
9
9
9
9
9
9
9
9
9
9
9
9
9
9
9
9
9
9
9
9
9
9
9
9
9
9
9
9
9
9
9
9
9
9
9
9
9
9
9
9
9
9
9
9
9
9
9
9
9
9
9
9
9
9
9
9
9
9
9
9
9
9
9
9
9
9
9
9
9
9
9
9
9
9
9
9
9
9
9
9
9
9
9
9
9
9
9
9
9
9
9
9
9
9
9
9
9
9
9
9
9
9
9
9
9
9
9
9
9
9
9
9
9
9
9
9
9
9
9
9
9
9
9
9
9
9
9
9
9
9
9
9
9
9
9
9
9
9
9
9
9
9
9
9
9
9
9
9
9
9
9
9
9
9
9
9
9
9
9
9
9
9
9
9
9
9
9
9
9
9
9
9
9
9
9
9
9
9
9
9
9
9
9
9
9
9
9
9
9
9
9
9
9
9
9
9
9
9
9
9
9
9
9
9
9
9
9
9
9
9
9
9
9
9
9
9
9
9
9
9
9
9
9
9
9
9
9
9
9
9
9
9
9
9
9
9
9
9
9
9
9
9
9
9
9
9
9
9
9
9
9
9
9
9
9
9
9
9
9
9
9
9
9
9
9
9
9
9
9
9
9
9
9
9
9
9
9
9
9
POINT_DATA      5151
SCALARS p double 
LOOKUP_TABLE default
   50000000.0000000     
   50000000.0000000     
   50000000.0000000     
   50000000.0000000     
   50000000.0000000     
   50000000.0000000     
   50000000.0000000     
   50000000.0000000     
   50000000.0000000     
   50000000.0000000     
   50000000.0000000     
   50000000.0000000     
   50000000.0000000     
   50000000.0000000     
   50000000.0000000     
   50000000.0000000     
   50000000.0000000     
   50000000.0000000     
   50000000.0000000     
   50000000.0000000     
   50000000.0000000     
   50000000.0000000     
   50000000.0000000     
   50000000.0000000     
   50000000.0000000     
   50000000.0000000     
   50000000.0000000     
   50000000.0000000     
   50000000.0000000     
   50000000.0000000     
   50000000.0000000     
   50000000.0000000     
   50000000.0000000     
   50000000.0000000     
   50000000.0000000     
   50000000.0000000     
   50000000.0000000     
   50000000.0000000     
   50000000.0000000     
   50000000.0000000     
   50000000.0000000     
   50000000.0000000     
   50000000.0000000     
   50000000.0000000     
   50000000.0000000     
   50000000.0000000     
   50000000.0000000     
   50000000.0000000     
   50000000.0000000     
   50000000.0000000     
   50000000.0000000     
   49999999.7988156     
   49999999.7988156     
   49999999.7988156     
   49999999.7988156     
   49999999.7988156     
   49999999.7988156     
   49999999.7988157     
   49999999.7988157     
   49999999.7988157     
   49999999.7988157     
   49999999.7988157     
   49999999.7988157     
   49999999.7988157     
   49999999.7988157     
   49999999.7988157     
   49999999.7988157     
   49999999.7988157     
   49999999.7988157     
   49999999.7988157     
   49999999.7988157     
   49999999.7988157     
   49999999.7988157     
   49999999.7988157     
   49999999.7988157     
   49999999.7988157     
   49999999.7988157     
   49999999.7988157     
   49999999.7988157     
   49999999.7988157     
   49999999.7988157     
   49999999.7988157     
   49999999.7988157     
   49999999.7988158     
   49999999.7988158     
   49999999.7988157     
   49999999.7988158     
   49999999.7988158     
   49999999.7988157     
   49999999.7988158     
   49999999.7988158     
   49999999.7988158     
   49999999.7988158     
   49999999.7988158     
   49999999.7988158     
   49999999.7988158     
   49999999.7988158     
   49999999.7988158     
   49999999.7988158     
   49999999.7988159     
   49999999.7988159     
   49999999.7988159     
   49999999.5892555     
   49999999.5892555     
   49999999.5892555     
   49999999.5892556     
   49999999.5892556     
   49999999.5892557     
   49999999.5892557     
   49999999.5892557     
   49999999.5892557     
   49999999.5892557     
   49999999.5892557     
   49999999.5892557     
   49999999.5892557     
   49999999.5892557     
   49999999.5892557     
   49999999.5892557     
   49999999.5892558     
   49999999.5892558     
   49999999.5892557     
   49999999.5892558     
   49999999.5892558     
   49999999.5892558     
   49999999.5892559     
   49999999.5892559     
   49999999.5892559     
   49999999.5892559     
   49999999.5892559     
   49999999.5892559     
   49999999.5892559     
   49999999.5892559     
   49999999.5892558     
   49999999.5892558     
   49999999.5892558     
   49999999.5892559     
   49999999.5892559     
   49999999.5892559     
   49999999.5892559     
   49999999.5892559     
   49999999.5892559     
   49999999.5892559     
   49999999.5892559     
   49999999.5892559     
   49999999.5892559     
   49999999.5892558     
   49999999.5892558     
   49999999.5892558     
   49999999.5892558     
   49999999.5892559     
   49999999.5892559     
   49999999.5892559     
   49999999.5892559     
   49999999.3626021     
   49999999.3626021     
   49999999.3626021     
   49999999.3626022     
   49999999.3626022     
   49999999.3626023     
   49999999.3626023     
   49999999.3626023     
   49999999.3626023     
   49999999.3626023     
   49999999.3626023     
   49999999.3626024     
   49999999.3626023     
   49999999.3626023     
   49999999.3626023     
   49999999.3626023     
   49999999.3626022     
   49999999.3626023     
   49999999.3626023     
   49999999.3626024     
   49999999.3626024     
   49999999.3626024     
   49999999.3626023     
   49999999.3626023     
   49999999.3626023     
   49999999.3626023     
   49999999.3626023     
   49999999.3626023     
   49999999.3626023     
   49999999.3626024     
   49999999.3626024     
   49999999.3626023     
   49999999.3626024     
   49999999.3626024     
   49999999.3626024     
   49999999.3626024     
   49999999.3626024     
   49999999.3626024     
   49999999.3626024     
   49999999.3626024     
   49999999.3626024     
   49999999.3626024     
   49999999.3626024     
   49999999.3626024     
   49999999.3626024     
   49999999.3626024     
   49999999.3626024     
   49999999.3626023     
   49999999.3626023     
   49999999.3626023     
   49999999.3626023     
   49999999.1094396     
   49999999.1094396     
   49999999.1094396     
   49999999.1094396     
   49999999.1094396     
   49999999.1094396     
   49999999.1094396     
   49999999.1094396     
   49999999.1094396     
   49999999.1094396     
   49999999.1094396     
   49999999.1094395     
   49999999.1094395     
   49999999.1094396     
   49999999.1094396     
   49999999.1094396     
   49999999.1094396     
   49999999.1094396     
   49999999.1094396     
   49999999.1094396     
   49999999.1094397     
   49999999.1094397     
   49999999.1094397     
   49999999.1094397     
   49999999.1094397     
   49999999.1094397     
   49999999.1094397     
   49999999.1094397     
   49999999.1094397     
   49999999.1094397     
   49999999.1094397     
   49999999.1094398     
   49999999.1094398     
   49999999.1094398     
   49999999.1094398     
   49999999.1094397     
   49999999.1094397     
   49999999.1094397     
   49999999.1094397     
   49999999.1094398     
   49999999.1094398     
   49999999.1094398     
   49999999.1094398     
   49999999.1094398     
   49999999.1094398     
   49999999.1094399     
   49999999.1094399     
   49999999.1094399     
   49999999.1094399     
   49999999.1094399     
   49999999.1094399     
   49999998.8192704     
   49999998.8192704     
   49999998.8192704     
   49999998.8192703     
   49999998.8192703     
   49999998.8192703     
   49999998.8192703     
   49999998.8192703     
   49999998.8192703     
   49999998.8192703     
   49999998.8192703     
   49999998.8192703     
   49999998.8192702     
   49999998.8192702     
   49999998.8192702     
   49999998.8192702     
   49999998.8192702     
   49999998.8192702     
   49999998.8192703     
   49999998.8192703     
   49999998.8192703     
   49999998.8192703     
   49999998.8192703     
   49999998.8192703     
   49999998.8192704     
   49999998.8192704     
   49999998.8192704     
   49999998.8192705     
   49999998.8192704     
   49999998.8192704     
   49999998.8192704     
   49999998.8192704     
   49999998.8192704     
   49999998.8192704     
   49999998.8192704     
   49999998.8192704     
   49999998.8192704     
   49999998.8192704     
   49999998.8192704     
   49999998.8192704     
   49999998.8192705     
   49999998.8192705     
   49999998.8192706     
   49999998.8192706     
   49999998.8192707     
   49999998.8192706     
   49999998.8192707     
   49999998.8192707     
   49999998.8192707     
   49999998.8192707     
   49999998.8192707     
   49999998.4800888     
   49999998.4800888     
   49999998.4800888     
   49999998.4800889     
   49999998.4800889     
   49999998.4800889     
   49999998.4800889     
   49999998.4800889     
   49999998.4800889     
   49999998.4800888     
   49999998.4800887     
   49999998.4800887     
   49999998.4800887     
   49999998.4800887     
   49999998.4800887     
   49999998.4800886     
   49999998.4800886     
   49999998.4800885     
   49999998.4800885     
   49999998.4800885     
   49999998.4800885     
   49999998.4800885     
   49999998.4800885     
   49999998.4800885     
   49999998.4800885     
   49999998.4800884     
   49999998.4800885     
   49999998.4800885     
   49999998.4800885     
   49999998.4800885     
   49999998.4800886     
   49999998.4800886     
   49999998.4800886     
   49999998.4800886     
   49999998.4800886     
   49999998.4800886     
   49999998.4800886     
   49999998.4800887     
   49999998.4800887     
   49999998.4800886     
   49999998.4800887     
   49999998.4800887     
   49999998.4800887     
   49999998.4800887     
   49999998.4800888     
   49999998.4800888     
   49999998.4800889     
   49999998.4800888     
   49999998.4800889     
   49999998.4800888     
   49999998.4800888     
   49999998.0778939     
   49999998.0778939     
   49999998.0778939     
   49999998.0778939     
   49999998.0778939     
   49999998.0778938     
   49999998.0778938     
   49999998.0778938     
   49999998.0778937     
   49999998.0778936     
   49999998.0778936     
   49999998.0778935     
   49999998.0778935     
   49999998.0778935     
   49999998.0778935     
   49999998.0778934     
   49999998.0778934     
   49999998.0778934     
   49999998.0778933     
   49999998.0778933     
   49999998.0778932     
   49999998.0778932     
   49999998.0778932     
   49999998.0778932     
   49999998.0778932     
   49999998.0778932     
   49999998.0778932     
   49999998.0778932     
   49999998.0778932     
   49999998.0778932     
   49999998.0778932     
   49999998.0778932     
   49999998.0778932     
   49999998.0778932     
   49999998.0778932     
   49999998.0778932     
   49999998.0778932     
   49999998.0778932     
   49999998.0778933     
   49999998.0778933     
   49999998.0778934     
   49999998.0778934     
   49999998.0778934     
   49999998.0778935     
   49999998.0778935     
   49999998.0778935     
   49999998.0778935     
   49999998.0778935     
   49999998.0778935     
   49999998.0778935     
   49999998.0778934     
   49999997.5961229     
   49999997.5961229     
   49999997.5961228     
   49999997.5961228     
   49999997.5961227     
   49999997.5961227     
   49999997.5961227     
   49999997.5961227     
   49999997.5961226     
   49999997.5961226     
   49999997.5961226     
   49999997.5961225     
   49999997.5961225     
   49999997.5961225     
   49999997.5961225     
   49999997.5961225     
   49999997.5961225     
   49999997.5961224     
   49999997.5961224     
   49999997.5961224     
   49999997.5961224     
   49999997.5961224     
   49999997.5961224     
   49999997.5961223     
   49999997.5961223     
   49999997.5961224     
   49999997.5961224     
   49999997.5961224     
   49999997.5961224     
   49999997.5961223     
   49999997.5961223     
   49999997.5961223     
   49999997.5961224     
   49999997.5961224     
   49999997.5961224     
   49999997.5961224     
   49999997.5961225     
   49999997.5961225     
   49999997.5961225     
   49999997.5961225     
   49999997.5961225     
   49999997.5961225     
   49999997.5961225     
   49999997.5961224     
   49999997.5961224     
   49999997.5961224     
   49999997.5961224     
   49999997.5961224     
   49999997.5961224     
   49999997.5961224     
   49999997.5961224     
   49999997.0149849     
   49999997.0149849     
   49999997.0149849     
   49999997.0149849     
   49999997.0149849     
   49999997.0149849     
   49999997.0149849     
   49999997.0149848     
   49999997.0149848     
   49999997.0149847     
   49999997.0149848     
   49999997.0149847     
   49999997.0149848     
   49999997.0149847     
   49999997.0149847     
   49999997.0149847     
   49999997.0149847     
   49999997.0149847     
   49999997.0149847     
   49999997.0149847     
   49999997.0149847     
   49999997.0149847     
   49999997.0149847     
   49999997.0149847     
   49999997.0149847     
   49999997.0149848     
   49999997.0149848     
   49999997.0149848     
   49999997.0149848     
   49999997.0149848     
   49999997.0149848     
   49999997.0149848     
   49999997.0149848     
   49999997.0149848     
   49999997.0149848     
   49999997.0149848     
   49999997.0149848     
   49999997.0149848     
   49999997.0149849     
   49999997.0149849     
   49999997.0149848     
   49999997.0149848     
   49999997.0149848     
   49999997.0149848     
   49999997.0149848     
   49999997.0149848     
   49999997.0149848     
   49999997.0149848     
   49999997.0149848     
   49999997.0149848     
   49999997.0149848     
   49999996.3106652     
   49999996.3106652     
   49999996.3106652     
   49999996.3106652     
   49999996.3106652     
   49999996.3106653     
   49999996.3106652     
   49999996.3106652     
   49999996.3106652     
   49999996.3106652     
   49999996.3106652     
   49999996.3106652     
   49999996.3106652     
   49999996.3106652     
   49999996.3106652     
   49999996.3106652     
   49999996.3106652     
   49999996.3106652     
   49999996.3106652     
   49999996.3106652     
   49999996.3106652     
   49999996.3106653     
   49999996.3106653     
   49999996.3106653     
   49999996.3106653     
   49999996.3106653     
   49999996.3106654     
   49999996.3106654     
   49999996.3106654     
   49999996.3106653     
   49999996.3106653     
   49999996.3106653     
   49999996.3106653     
   49999996.3106653     
   49999996.3106653     
   49999996.3106653     
   49999996.3106654     
   49999996.3106654     
   49999996.3106654     
   49999996.3106654     
   49999996.3106654     
   49999996.3106654     
   49999996.3106654     
   49999996.3106654     
   49999996.3106654     
   49999996.3106654     
   49999996.3106654     
   49999996.3106655     
   49999996.3106655     
   49999996.3106655     
   49999996.3106655     
   49999995.4543705     
   49999995.4543705     
   49999995.4543705     
   49999995.4543706     
   49999995.4543706     
   49999995.4543706     
   49999995.4543706     
   49999995.4543706     
   49999995.4543706     
   49999995.4543706     
   49999995.4543706     
   49999995.4543705     
   49999995.4543705     
   49999995.4543705     
   49999995.4543705     
   49999995.4543705     
   49999995.4543705     
   49999995.4543705     
   49999995.4543705     
   49999995.4543705     
   49999995.4543705     
   49999995.4543705     
   49999995.4543705     
   49999995.4543705     
   49999995.4543706     
   49999995.4543706     
   49999995.4543706     
   49999995.4543706     
   49999995.4543706     
   49999995.4543706     
   49999995.4543706     
   49999995.4543706     
   49999995.4543706     
   49999995.4543707     
   49999995.4543707     
   49999995.4543707     
   49999995.4543707     
   49999995.4543707     
   49999995.4543708     
   49999995.4543708     
   49999995.4543708     
   49999995.4543708     
   49999995.4543708     
   49999995.4543708     
   49999995.4543708     
   49999995.4543708     
   49999995.4543708     
   49999995.4543707     
   49999995.4543707     
   49999995.4543707     
   49999995.4543707     
   49999994.4111790     
   49999994.4111790     
   49999994.4111790     
   49999994.4111790     
   49999994.4111790     
   49999994.4111790     
   49999994.4111790     
   49999994.4111790     
   49999994.4111790     
   49999994.4111789     
   49999994.4111789     
   49999994.4111789     
   49999994.4111790     
   49999994.4111790     
   49999994.4111790     
   49999994.4111790     
   49999994.4111789     
   49999994.4111789     
   49999994.4111790     
   49999994.4111790     
   49999994.4111790     
   49999994.4111790     
   49999994.4111790     
   49999994.4111790     
   49999994.4111790     
   49999994.4111790     
   49999994.4111790     
   49999994.4111790     
   49999994.4111790     
   49999994.4111791     
   49999994.4111791     
   49999994.4111791     
   49999994.4111791     
   49999994.4111791     
   49999994.4111792     
   49999994.4111792     
   49999994.4111792     
   49999994.4111792     
   49999994.4111793     
   49999994.4111793     
   49999994.4111793     
   49999994.4111793     
   49999994.4111793     
   49999994.4111794     
   49999994.4111794     
   49999994.4111794     
   49999994.4111793     
   49999994.4111793     
   49999994.4111793     
   49999994.4111793     
   49999994.4111792     
   49999993.1386503     
   49999993.1386504     
   49999993.1386504     
   49999993.1386504     
   49999993.1386504     
   49999993.1386503     
   49999993.1386503     
   49999993.1386503     
   49999993.1386503     
   49999993.1386503     
   49999993.1386503     
   49999993.1386503     
   49999993.1386503     
   49999993.1386503     
   49999993.1386503     
   49999993.1386503     
   49999993.1386503     
   49999993.1386503     
   49999993.1386503     
   49999993.1386503     
   49999993.1386504     
   49999993.1386503     
   49999993.1386503     
   49999993.1386503     
   49999993.1386503     
   49999993.1386504     
   49999993.1386504     
   49999993.1386504     
   49999993.1386504     
   49999993.1386505     
   49999993.1386505     
   49999993.1386505     
   49999993.1386505     
   49999993.1386505     
   49999993.1386505     
   49999993.1386505     
   49999993.1386505     
   49999993.1386505     
   49999993.1386506     
   49999993.1386506     
   49999993.1386507     
   49999993.1386507     
   49999993.1386506     
   49999993.1386506     
   49999993.1386507     
   49999993.1386507     
   49999993.1386507     
   49999993.1386507     
   49999993.1386507     
   49999993.1386507     
   49999993.1386507     
   49999991.5851405     
   49999991.5851405     
   49999991.5851405     
   49999991.5851405     
   49999991.5851405     
   49999991.5851404     
   49999991.5851405     
   49999991.5851404     
   49999991.5851404     
   49999991.5851404     
   49999991.5851404     
   49999991.5851404     
   49999991.5851404     
   49999991.5851404     
   49999991.5851405     
   49999991.5851404     
   49999991.5851405     
   49999991.5851405     
   49999991.5851405     
   49999991.5851405     
   49999991.5851404     
   49999991.5851404     
   49999991.5851404     
   49999991.5851404     
   49999991.5851404     
   49999991.5851404     
   49999991.5851404     
   49999991.5851405     
   49999991.5851405     
   49999991.5851405     
   49999991.5851406     
   49999991.5851406     
   49999991.5851406     
   49999991.5851406     
   49999991.5851406     
   49999991.5851406     
   49999991.5851406     
   49999991.5851406     
   49999991.5851406     
   49999991.5851406     
   49999991.5851406     
   49999991.5851407     
   49999991.5851407     
   49999991.5851407     
   49999991.5851407     
   49999991.5851407     
   49999991.5851407     
   49999991.5851407     
   49999991.5851407     
   49999991.5851407     
   49999991.5851407     
   49999989.6877574     
   49999989.6877574     
   49999989.6877574     
   49999989.6877574     
   49999989.6877574     
   49999989.6877574     
   49999989.6877573     
   49999989.6877573     
   49999989.6877573     
   49999989.6877573     
   49999989.6877573     
   49999989.6877573     
   49999989.6877573     
   49999989.6877573     
   49999989.6877573     
   49999989.6877573     
   49999989.6877573     
   49999989.6877573     
   49999989.6877573     
   49999989.6877573     
   49999989.6877573     
   49999989.6877574     
   49999989.6877574     
   49999989.6877574     
   49999989.6877574     
   49999989.6877573     
   49999989.6877574     
   49999989.6877574     
   49999989.6877574     
   49999989.6877574     
   49999989.6877574     
   49999989.6877574     
   49999989.6877574     
   49999989.6877574     
   49999989.6877574     
   49999989.6877574     
   49999989.6877574     
   49999989.6877574     
   49999989.6877574     
   49999989.6877574     
   49999989.6877574     
   49999989.6877574     
   49999989.6877574     
   49999989.6877575     
   49999989.6877575     
   49999989.6877576     
   49999989.6877576     
   49999989.6877577     
   49999989.6877577     
   49999989.6877576     
   49999989.6877576     
   49999987.3698801     
   49999987.3698801     
   49999987.3698801     
   49999987.3698801     
   49999987.3698801     
   49999987.3698801     
   49999987.3698800     
   49999987.3698800     
   49999987.3698800     
   49999987.3698800     
   49999987.3698800     
   49999987.3698800     
   49999987.3698800     
   49999987.3698800     
   49999987.3698800     
   49999987.3698800     
   49999987.3698800     
   49999987.3698800     
   49999987.3698800     
   49999987.3698801     
   49999987.3698801     
   49999987.3698801     
   49999987.3698800     
   49999987.3698800     
   49999987.3698801     
   49999987.3698801     
   49999987.3698801     
   49999987.3698801     
   49999987.3698801     
   49999987.3698801     
   49999987.3698801     
   49999987.3698801     
   49999987.3698801     
   49999987.3698801     
   49999987.3698801     
   49999987.3698801     
   49999987.3698801     
   49999987.3698801     
   49999987.3698801     
   49999987.3698801     
   49999987.3698801     
   49999987.3698801     
   49999987.3698801     
   49999987.3698801     
   49999987.3698801     
   49999987.3698801     
   49999987.3698801     
   49999987.3698801     
   49999987.3698801     
   49999987.3698802     
   49999987.3698802     
   49999984.5381457     
   49999984.5381457     
   49999984.5381457     
   49999984.5381457     
   49999984.5381457     
   49999984.5381456     
   49999984.5381456     
   49999984.5381455     
   49999984.5381455     
   49999984.5381455     
   49999984.5381455     
   49999984.5381455     
   49999984.5381456     
   49999984.5381456     
   49999984.5381456     
   49999984.5381456     
   49999984.5381456     
   49999984.5381456     
   49999984.5381456     
   49999984.5381455     
   49999984.5381455     
   49999984.5381455     
   49999984.5381455     
   49999984.5381455     
   49999984.5381455     
   49999984.5381455     
   49999984.5381455     
   49999984.5381455     
   49999984.5381455     
   49999984.5381455     
   49999984.5381456     
   49999984.5381456     
   49999984.5381455     
   49999984.5381455     
   49999984.5381456     
   49999984.5381455     
   49999984.5381455     
   49999984.5381455     
   49999984.5381455     
   49999984.5381455     
   49999984.5381454     
   49999984.5381454     
   49999984.5381453     
   49999984.5381453     
   49999984.5381453     
   49999984.5381454     
   49999984.5381454     
   49999984.5381455     
   49999984.5381456     
   49999984.5381455     
   49999984.5381455     
   49999981.0787891     
   49999981.0787891     
   49999981.0787891     
   49999981.0787891     
   49999981.0787891     
   49999981.0787891     
   49999981.0787891     
   49999981.0787891     
   49999981.0787891     
   49999981.0787891     
   49999981.0787891     
   49999981.0787890     
   49999981.0787890     
   49999981.0787890     
   49999981.0787890     
   49999981.0787890     
   49999981.0787890     
   49999981.0787890     
   49999981.0787891     
   49999981.0787891     
   49999981.0787890     
   49999981.0787890     
   49999981.0787890     
   49999981.0787890     
   49999981.0787890     
   49999981.0787890     
   49999981.0787890     
   49999981.0787890     
   49999981.0787890     
   49999981.0787890     
   49999981.0787890     
   49999981.0787890     
   49999981.0787890     
   49999981.0787891     
   49999981.0787891     
   49999981.0787891     
   49999981.0787890     
   49999981.0787890     
   49999981.0787890     
   49999981.0787889     
   49999981.0787889     
   49999981.0787888     
   49999981.0787888     
   49999981.0787888     
   49999981.0787888     
   49999981.0787888     
   49999981.0787888     
   49999981.0787888     
   49999981.0787888     
   49999981.0787888     
   49999981.0787888     
   49999976.8531992     
   49999976.8531992     
   49999976.8531992     
   49999976.8531992     
   49999976.8531992     
   49999976.8531992     
   49999976.8531992     
   49999976.8531992     
   49999976.8531992     
   49999976.8531992     
   49999976.8531992     
   49999976.8531991     
   49999976.8531991     
   49999976.8531991     
   49999976.8531991     
   49999976.8531991     
   49999976.8531991     
   49999976.8531991     
   49999976.8531991     
   49999976.8531991     
   49999976.8531992     
   49999976.8531992     
   49999976.8531992     
   49999976.8531992     
   49999976.8531992     
   49999976.8531991     
   49999976.8531991     
   49999976.8531991     
   49999976.8531991     
   49999976.8531991     
   49999976.8531991     
   49999976.8531991     
   49999976.8531991     
   49999976.8531991     
   49999976.8531991     
   49999976.8531990     
   49999976.8531990     
   49999976.8531990     
   49999976.8531989     
   49999976.8531989     
   49999976.8531989     
   49999976.8531989     
   49999976.8531988     
   49999976.8531989     
   49999976.8531989     
   49999976.8531989     
   49999976.8531989     
   49999976.8531989     
   49999976.8531989     
   49999976.8531989     
   49999976.8531989     
   49999971.6925211     
   49999971.6925211     
   49999971.6925212     
   49999971.6925212     
   49999971.6925212     
   49999971.6925212     
   49999971.6925213     
   49999971.6925213     
   49999971.6925213     
   49999971.6925212     
   49999971.6925212     
   49999971.6925212     
   49999971.6925212     
   49999971.6925213     
   49999971.6925213     
   49999971.6925213     
   49999971.6925212     
   49999971.6925212     
   49999971.6925212     
   49999971.6925212     
   49999971.6925212     
   49999971.6925212     
   49999971.6925212     
   49999971.6925212     
   49999971.6925212     
   49999971.6925212     
   49999971.6925212     
   49999971.6925212     
   49999971.6925211     
   49999971.6925211     
   49999971.6925212     
   49999971.6925212     
   49999971.6925212     
   49999971.6925212     
   49999971.6925211     
   49999971.6925211     
   49999971.6925211     
   49999971.6925211     
   49999971.6925210     
   49999971.6925210     
   49999971.6925210     
   49999971.6925210     
   49999971.6925211     
   49999971.6925210     
   49999971.6925210     
   49999971.6925210     
   49999971.6925210     
   49999971.6925210     
   49999971.6925210     
   49999971.6925210     
   49999971.6925210     
   49999965.3911058     
   49999965.3911058     
   49999965.3911058     
   49999965.3911058     
   49999965.3911058     
   49999965.3911058     
   49999965.3911059     
   49999965.3911059     
   49999965.3911059     
   49999965.3911059     
   49999965.3911060     
   49999965.3911060     
   49999965.3911060     
   49999965.3911060     
   49999965.3911059     
   49999965.3911059     
   49999965.3911060     
   49999965.3911060     
   49999965.3911060     
   49999965.3911060     
   49999965.3911060     
   49999965.3911060     
   49999965.3911060     
   49999965.3911060     
   49999965.3911060     
   49999965.3911059     
   49999965.3911059     
   49999965.3911059     
   49999965.3911059     
   49999965.3911059     
   49999965.3911058     
   49999965.3911058     
   49999965.3911058     
   49999965.3911058     
   49999965.3911058     
   49999965.3911058     
   49999965.3911058     
   49999965.3911058     
   49999965.3911058     
   49999965.3911058     
   49999965.3911058     
   49999965.3911057     
   49999965.3911057     
   49999965.3911057     
   49999965.3911057     
   49999965.3911056     
   49999965.3911056     
   49999965.3911056     
   49999965.3911056     
   49999965.3911056     
   49999965.3911056     
   49999957.6985583     
   49999957.6985583     
   49999957.6985583     
   49999957.6985583     
   49999957.6985583     
   49999957.6985583     
   49999957.6985584     
   49999957.6985584     
   49999957.6985585     
   49999957.6985585     
   49999957.6985585     
   49999957.6985585     
   49999957.6985585     
   49999957.6985585     
   49999957.6985585     
   49999957.6985585     
   49999957.6985585     
   49999957.6985585     
   49999957.6985586     
   49999957.6985586     
   49999957.6985586     
   49999957.6985586     
   49999957.6985586     
   49999957.6985586     
   49999957.6985586     
   49999957.6985586     
   49999957.6985586     
   49999957.6985585     
   49999957.6985585     
   49999957.6985584     
   49999957.6985584     
   49999957.6985584     
   49999957.6985583     
   49999957.6985583     
   49999957.6985583     
   49999957.6985582     
   49999957.6985582     
   49999957.6985582     
   49999957.6985582     
   49999957.6985582     
   49999957.6985581     
   49999957.6985581     
   49999957.6985582     
   49999957.6985582     
   49999957.6985582     
   49999957.6985581     
   49999957.6985581     
   49999957.6985581     
   49999957.6985582     
   49999957.6985582     
   49999957.6985582     
   49999948.3100943     
   49999948.3100942     
   49999948.3100942     
   49999948.3100943     
   49999948.3100943     
   49999948.3100943     
   49999948.3100944     
   49999948.3100944     
   49999948.3100944     
   49999948.3100943     
   49999948.3100943     
   49999948.3100944     
   49999948.3100944     
   49999948.3100944     
   49999948.3100944     
   49999948.3100944     
   49999948.3100944     
   49999948.3100944     
   49999948.3100944     
   49999948.3100943     
   49999948.3100944     
   49999948.3100944     
   49999948.3100943     
   49999948.3100943     
   49999948.3100943     
   49999948.3100943     
   49999948.3100943     
   49999948.3100942     
   49999948.3100941     
   49999948.3100941     
   49999948.3100941     
   49999948.3100940     
   49999948.3100940     
   49999948.3100940     
   49999948.3100940     
   49999948.3100940     
   49999948.3100940     
   49999948.3100940     
   49999948.3100940     
   49999948.3100940     
   49999948.3100940     
   49999948.3100940     
   49999948.3100940     
   49999948.3100940     
   49999948.3100940     
   49999948.3100940     
   49999948.3100941     
   49999948.3100940     
   49999948.3100940     
   49999948.3100940     
   49999948.3100940     
   49999936.8548442     
   49999936.8548442     
   49999936.8548442     
   49999936.8548442     
   49999936.8548442     
   49999936.8548442     
   49999936.8548442     
   49999936.8548442     
   49999936.8548443     
   49999936.8548443     
   49999936.8548443     
   49999936.8548443     
   49999936.8548443     
   49999936.8548443     
   49999936.8548442     
   49999936.8548442     
   49999936.8548442     
   49999936.8548442     
   49999936.8548442     
   49999936.8548442     
   49999936.8548442     
   49999936.8548442     
   49999936.8548441     
   49999936.8548441     
   49999936.8548440     
   49999936.8548440     
   49999936.8548439     
   49999936.8548439     
   49999936.8548439     
   49999936.8548439     
   49999936.8548439     
   49999936.8548439     
   49999936.8548438     
   49999936.8548438     
   49999936.8548438     
   49999936.8548438     
   49999936.8548438     
   49999936.8548438     
   49999936.8548438     
   49999936.8548438     
   49999936.8548439     
   49999936.8548438     
   49999936.8548438     
   49999936.8548438     
   49999936.8548438     
   49999936.8548438     
   49999936.8548438     
   49999936.8548438     
   49999936.8548438     
   49999936.8548438     
   49999936.8548438     
   49999922.8816789     
   49999922.8816789     
   49999922.8816789     
   49999922.8816789     
   49999922.8816789     
   49999922.8816789     
   49999922.8816790     
   49999922.8816790     
   49999922.8816789     
   49999922.8816789     
   49999922.8816789     
   49999922.8816789     
   49999922.8816789     
   49999922.8816789     
   49999922.8816789     
   49999922.8816788     
   49999922.8816788     
   49999922.8816787     
   49999922.8816786     
   49999922.8816786     
   49999922.8816786     
   49999922.8816785     
   49999922.8816785     
   49999922.8816784     
   49999922.8816784     
   49999922.8816783     
   49999922.8816783     
   49999922.8816783     
   49999922.8816783     
   49999922.8816783     
   49999922.8816783     
   49999922.8816783     
   49999922.8816782     
   49999922.8816782     
   49999922.8816781     
   49999922.8816781     
   49999922.8816781     
   49999922.8816782     
   49999922.8816782     
   49999922.8816782     
   49999922.8816782     
   49999922.8816781     
   49999922.8816781     
   49999922.8816781     
   49999922.8816781     
   49999922.8816780     
   49999922.8816781     
   49999922.8816781     
   49999922.8816781     
   49999922.8816781     
   49999922.8816781     
   49999905.8420355     
   49999905.8420355     
   49999905.8420355     
   49999905.8420355     
   49999905.8420355     
   49999905.8420355     
   49999905.8420355     
   49999905.8420354     
   49999905.8420354     
   49999905.8420354     
   49999905.8420354     
   49999905.8420354     
   49999905.8420353     
   49999905.8420353     
   49999905.8420353     
   49999905.8420352     
   49999905.8420351     
   49999905.8420351     
   49999905.8420351     
   49999905.8420350     
   49999905.8420350     
   49999905.8420350     
   49999905.8420349     
   49999905.8420349     
   49999905.8420349     
   49999905.8420349     
   49999905.8420348     
   49999905.8420348     
   49999905.8420347     
   49999905.8420346     
   49999905.8420346     
   49999905.8420346     
   49999905.8420346     
   49999905.8420345     
   49999905.8420345     
   49999905.8420344     
   49999905.8420344     
   49999905.8420344     
   49999905.8420344     
   49999905.8420344     
   49999905.8420344     
   49999905.8420344     
   49999905.8420345     
   49999905.8420345     
   49999905.8420344     
   49999905.8420343     
   49999905.8420343     
   49999905.8420343     
   49999905.8420342     
   49999905.8420342     
   49999905.8420342     
   49999885.0691217     
   49999885.0691218     
   49999885.0691218     
   49999885.0691217     
   49999885.0691217     
   49999885.0691217     
   49999885.0691216     
   49999885.0691216     
   49999885.0691216     
   49999885.0691216     
   49999885.0691215     
   49999885.0691215     
   49999885.0691214     
   49999885.0691215     
   49999885.0691214     
   49999885.0691214     
   49999885.0691213     
   49999885.0691213     
   49999885.0691212     
   49999885.0691212     
   49999885.0691212     
   49999885.0691212     
   49999885.0691211     
   49999885.0691210     
   49999885.0691210     
   49999885.0691209     
   49999885.0691209     
   49999885.0691208     
   49999885.0691208     
   49999885.0691207     
   49999885.0691207     
   49999885.0691207     
   49999885.0691207     
   49999885.0691206     
   49999885.0691206     
   49999885.0691205     
   49999885.0691205     
   49999885.0691205     
   49999885.0691205     
   49999885.0691204     
   49999885.0691204     
   49999885.0691204     
   49999885.0691204     
   49999885.0691204     
   49999885.0691203     
   49999885.0691203     
   49999885.0691203     
   49999885.0691203     
   49999885.0691204     
   49999885.0691204     
   49999885.0691204     
   49999859.7527461     
   49999859.7527461     
   49999859.7527461     
   49999859.7527461     
   49999859.7527461     
   49999859.7527460     
   49999859.7527460     
   49999859.7527459     
   49999859.7527459     
   49999859.7527458     
   49999859.7527458     
   49999859.7527458     
   49999859.7527457     
   49999859.7527457     
   49999859.7527457     
   49999859.7527456     
   49999859.7527456     
   49999859.7527456     
   49999859.7527456     
   49999859.7527456     
   49999859.7527456     
   49999859.7527455     
   49999859.7527454     
   49999859.7527453     
   49999859.7527453     
   49999859.7527453     
   49999859.7527452     
   49999859.7527452     
   49999859.7527451     
   49999859.7527451     
   49999859.7527450     
   49999859.7527450     
   49999859.7527450     
   49999859.7527450     
   49999859.7527449     
   49999859.7527449     
   49999859.7527449     
   49999859.7527448     
   49999859.7527447     
   49999859.7527447     
   49999859.7527447     
   49999859.7527446     
   49999859.7527446     
   49999859.7527445     
   49999859.7527445     
   49999859.7527444     
   49999859.7527444     
   49999859.7527444     
   49999859.7527444     
   49999859.7527444     
   49999859.7527444     
   49999828.9088693     
   49999828.9088693     
   49999828.9088693     
   49999828.9088693     
   49999828.9088693     
   49999828.9088692     
   49999828.9088692     
   49999828.9088692     
   49999828.9088692     
   49999828.9088691     
   49999828.9088691     
   49999828.9088691     
   49999828.9088691     
   49999828.9088691     
   49999828.9088691     
   49999828.9088691     
   49999828.9088690     
   49999828.9088690     
   49999828.9088690     
   49999828.9088689     
   49999828.9088688     
   49999828.9088688     
   49999828.9088688     
   49999828.9088688     
   49999828.9088687     
   49999828.9088687     
   49999828.9088686     
   49999828.9088686     
   49999828.9088686     
   49999828.9088686     
   49999828.9088686     
   49999828.9088685     
   49999828.9088685     
   49999828.9088684     
   49999828.9088683     
   49999828.9088683     
   49999828.9088682     
   49999828.9088682     
   49999828.9088682     
   49999828.9088682     
   49999828.9088681     
   49999828.9088681     
   49999828.9088680     
   49999828.9088680     
   49999828.9088679     
   49999828.9088679     
   49999828.9088678     
   49999828.9088678     
   49999828.9088678     
   49999828.9088678     
   49999828.9088678     
   49999791.3427920     
   49999791.3427920     
   49999791.3427920     
   49999791.3427920     
   49999791.3427920     
   49999791.3427920     
   49999791.3427920     
   49999791.3427920     
   49999791.3427921     
   49999791.3427920     
   49999791.3427920     
   49999791.3427920     
   49999791.3427920     
   49999791.3427919     
   49999791.3427919     
   49999791.3427919     
   49999791.3427918     
   49999791.3427918     
   49999791.3427917     
   49999791.3427917     
   49999791.3427917     
   49999791.3427917     
   49999791.3427916     
   49999791.3427916     
   49999791.3427915     
   49999791.3427915     
   49999791.3427915     
   49999791.3427915     
   49999791.3427915     
   49999791.3427914     
   49999791.3427914     
   49999791.3427913     
   49999791.3427914     
   49999791.3427913     
   49999791.3427912     
   49999791.3427912     
   49999791.3427912     
   49999791.3427912     
   49999791.3427912     
   49999791.3427912     
   49999791.3427912     
   49999791.3427912     
   49999791.3427912     
   49999791.3427911     
   49999791.3427911     
   49999791.3427910     
   49999791.3427910     
   49999791.3427910     
   49999791.3427910     
   49999791.3427910     
   49999791.3427910     
   49999745.6046706     
   49999745.6046706     
   49999745.6046706     
   49999745.6046706     
   49999745.6046706     
   49999745.6046706     
   49999745.6046706     
   49999745.6046706     
   49999745.6046706     
   49999745.6046705     
   49999745.6046706     
   49999745.6046706     
   49999745.6046706     
   49999745.6046705     
   49999745.6046705     
   49999745.6046705     
   49999745.6046705     
   49999745.6046705     
   49999745.6046704     
   49999745.6046704     
   49999745.6046703     
   49999745.6046703     
   49999745.6046703     
   49999745.6046702     
   49999745.6046702     
   49999745.6046701     
   49999745.6046701     
   49999745.6046701     
   49999745.6046701     
   49999745.6046701     
   49999745.6046702     
   49999745.6046702     
   49999745.6046701     
   49999745.6046701     
   49999745.6046702     
   49999745.6046701     
   49999745.6046701     
   49999745.6046701     
   49999745.6046701     
   49999745.6046701     
   49999745.6046701     
   49999745.6046701     
   49999745.6046700     
   49999745.6046700     
   49999745.6046700     
   49999745.6046700     
   49999745.6046700     
   49999745.6046700     
   49999745.6046699     
   49999745.6046699     
   49999745.6046698     
   49999689.9357963     
   49999689.9357962     
   49999689.9357962     
   49999689.9357962     
   49999689.9357963     
   49999689.9357963     
   49999689.9357964     
   49999689.9357963     
   49999689.9357964     
   49999689.9357963     
   49999689.9357963     
   49999689.9357962     
   49999689.9357962     
   49999689.9357962     
   49999689.9357962     
   49999689.9357962     
   49999689.9357962     
   49999689.9357961     
   49999689.9357961     
   49999689.9357961     
   49999689.9357961     
   49999689.9357960     
   49999689.9357960     
   49999689.9357959     
   49999689.9357959     
   49999689.9357959     
   49999689.9357959     
   49999689.9357959     
   49999689.9357959     
   49999689.9357958     
   49999689.9357958     
   49999689.9357958     
   49999689.9357958     
   49999689.9357958     
   49999689.9357957     
   49999689.9357957     
   49999689.9357958     
   49999689.9357958     
   49999689.9357959     
   49999689.9357959     
   49999689.9357959     
   49999689.9357959     
   49999689.9357959     
   49999689.9357959     
   49999689.9357959     
   49999689.9357959     
   49999689.9357959     
   49999689.9357958     
   49999689.9357958     
   49999689.9357958     
   49999689.9357959     
   49999622.2037573     
   49999622.2037573     
   49999622.2037573     
   49999622.2037573     
   49999622.2037573     
   49999622.2037572     
   49999622.2037572     
   49999622.2037573     
   49999622.2037573     
   49999622.2037572     
   49999622.2037572     
   49999622.2037572     
   49999622.2037572     
   49999622.2037572     
   49999622.2037572     
   49999622.2037572     
   49999622.2037571     
   49999622.2037571     
   49999622.2037571     
   49999622.2037570     
   49999622.2037570     
   49999622.2037570     
   49999622.2037569     
   49999622.2037569     
   49999622.2037568     
   49999622.2037568     
   49999622.2037568     
   49999622.2037568     
   49999622.2037569     
   49999622.2037569     
   49999622.2037569     
   49999622.2037569     
   49999622.2037569     
   49999622.2037570     
   49999622.2037570     
   49999622.2037570     
   49999622.2037570     
   49999622.2037570     
   49999622.2037570     
   49999622.2037569     
   49999622.2037569     
   49999622.2037570     
   49999622.2037569     
   49999622.2037569     
   49999622.2037569     
   49999622.2037569     
   49999622.2037569     
   49999622.2037569     
   49999622.2037569     
   49999622.2037569     
   49999622.2037568     
   49999539.8242329     
   49999539.8242329     
   49999539.8242328     
   49999539.8242329     
   49999539.8242329     
   49999539.8242329     
   49999539.8242329     
   49999539.8242329     
   49999539.8242329     
   49999539.8242329     
   49999539.8242329     
   49999539.8242329     
   49999539.8242328     
   49999539.8242328     
   49999539.8242327     
   49999539.8242327     
   49999539.8242327     
   49999539.8242327     
   49999539.8242327     
   49999539.8242327     
   49999539.8242326     
   49999539.8242326     
   49999539.8242325     
   49999539.8242325     
   49999539.8242325     
   49999539.8242325     
   49999539.8242325     
   49999539.8242326     
   49999539.8242326     
   49999539.8242326     
   49999539.8242326     
   49999539.8242326     
   49999539.8242326     
   49999539.8242326     
   49999539.8242326     
   49999539.8242327     
   49999539.8242327     
   49999539.8242327     
   49999539.8242326     
   49999539.8242326     
   49999539.8242326     
   49999539.8242326     
   49999539.8242326     
   49999539.8242326     
   49999539.8242326     
   49999539.8242325     
   49999539.8242325     
   49999539.8242325     
   49999539.8242325     
   49999539.8242324     
   49999539.8242324     
   49999439.6667254     
   49999439.6667254     
   49999439.6667255     
   49999439.6667255     
   49999439.6667254     
   49999439.6667255     
   49999439.6667256     
   49999439.6667255     
   49999439.6667255     
   49999439.6667254     
   49999439.6667254     
   49999439.6667254     
   49999439.6667254     
   49999439.6667254     
   49999439.6667254     
   49999439.6667254     
   49999439.6667253     
   49999439.6667253     
   49999439.6667253     
   49999439.6667253     
   49999439.6667252     
   49999439.6667252     
   49999439.6667251     
   49999439.6667251     
   49999439.6667251     
   49999439.6667251     
   49999439.6667252     
   49999439.6667252     
   49999439.6667252     
   49999439.6667252     
   49999439.6667252     
   49999439.6667253     
   49999439.6667253     
   49999439.6667253     
   49999439.6667252     
   49999439.6667252     
   49999439.6667252     
   49999439.6667252     
   49999439.6667252     
   49999439.6667252     
   49999439.6667252     
   49999439.6667251     
   49999439.6667251     
   49999439.6667250     
   49999439.6667250     
   49999439.6667250     
   49999439.6667249     
   49999439.6667249     
   49999439.6667249     
   49999439.6667249     
   49999439.6667249     
   49999317.9410059     
   49999317.9410059     
   49999317.9410059     
   49999317.9410060     
   49999317.9410060     
   49999317.9410060     
   49999317.9410060     
   49999317.9410060     
   49999317.9410060     
   49999317.9410060     
   49999317.9410059     
   49999317.9410059     
   49999317.9410059     
   49999317.9410059     
   49999317.9410059     
   49999317.9410058     
   49999317.9410058     
   49999317.9410057     
   49999317.9410057     
   49999317.9410057     
   49999317.9410057     
   49999317.9410057     
   49999317.9410057     
   49999317.9410057     
   49999317.9410057     
   49999317.9410057     
   49999317.9410057     
   49999317.9410057     
   49999317.9410057     
   49999317.9410057     
   49999317.9410057     
   49999317.9410057     
   49999317.9410057     
   49999317.9410058     
   49999317.9410058     
   49999317.9410058     
   49999317.9410058     
   49999317.9410057     
   49999317.9410057     
   49999317.9410056     
   49999317.9410056     
   49999317.9410056     
   49999317.9410056     
   49999317.9410055     
   49999317.9410055     
   49999317.9410054     
   49999317.9410054     
   49999317.9410053     
   49999317.9410053     
   49999317.9410053     
   49999317.9410053     
   49999170.0604253     
   49999170.0604253     
   49999170.0604253     
   49999170.0604253     
   49999170.0604253     
   49999170.0604253     
   49999170.0604253     
   49999170.0604253     
   49999170.0604252     
   49999170.0604252     
   49999170.0604252     
   49999170.0604252     
   49999170.0604252     
   49999170.0604252     
   49999170.0604253     
   49999170.0604252     
   49999170.0604253     
   49999170.0604253     
   49999170.0604252     
   49999170.0604251     
   49999170.0604251     
   49999170.0604251     
   49999170.0604251     
   49999170.0604251     
   49999170.0604251     
   49999170.0604251     
   49999170.0604251     
   49999170.0604251     
   49999170.0604252     
   49999170.0604252     
   49999170.0604252     
   49999170.0604252     
   49999170.0604251     
   49999170.0604251     
   49999170.0604252     
   49999170.0604252     
   49999170.0604251     
   49999170.0604251     
   49999170.0604251     
   49999170.0604251     
   49999170.0604251     
   49999170.0604251     
   49999170.0604251     
   49999170.0604251     
   49999170.0604251     
   49999170.0604251     
   49999170.0604250     
   49999170.0604250     
   49999170.0604249     
   49999170.0604249     
   49999170.0604249     
   49998990.4774981     
   49998990.4774981     
   49998990.4774982     
   49998990.4774982     
   49998990.4774982     
   49998990.4774981     
   49998990.4774981     
   49998990.4774982     
   49998990.4774982     
   49998990.4774982     
   49998990.4774982     
   49998990.4774983     
   49998990.4774982     
   49998990.4774982     
   49998990.4774982     
   49998990.4774982     
   49998990.4774981     
   49998990.4774981     
   49998990.4774981     
   49998990.4774981     
   49998990.4774981     
   49998990.4774980     
   49998990.4774980     
   49998990.4774980     
   49998990.4774980     
   49998990.4774980     
   49998990.4774980     
   49998990.4774980     
   49998990.4774980     
   49998990.4774980     
   49998990.4774981     
   49998990.4774981     
   49998990.4774981     
   49998990.4774981     
   49998990.4774981     
   49998990.4774981     
   49998990.4774981     
   49998990.4774981     
   49998990.4774981     
   49998990.4774981     
   49998990.4774981     
   49998990.4774981     
   49998990.4774981     
   49998990.4774981     
   49998990.4774981     
   49998990.4774980     
   49998990.4774980     
   49998990.4774980     
   49998990.4774980     
   49998990.4774980     
   49998990.4774980     
   49998772.4862833     
   49998772.4862833     
   49998772.4862833     
   49998772.4862833     
   49998772.4862833     
   49998772.4862833     
   49998772.4862834     
   49998772.4862834     
   49998772.4862834     
   49998772.4862835     
   49998772.4862834     
   49998772.4862835     
   49998772.4862835     
   49998772.4862834     
   49998772.4862834     
   49998772.4862834     
   49998772.4862834     
   49998772.4862834     
   49998772.4862833     
   49998772.4862833     
   49998772.4862833     
   49998772.4862833     
   49998772.4862832     
   49998772.4862832     
   49998772.4862832     
   49998772.4862831     
   49998772.4862831     
   49998772.4862831     
   49998772.4862831     
   49998772.4862831     
   49998772.4862831     
   49998772.4862831     
   49998772.4862831     
   49998772.4862832     
   49998772.4862832     
   49998772.4862833     
   49998772.4862833     
   49998772.4862833     
   49998772.4862833     
   49998772.4862833     
   49998772.4862833     
   49998772.4862833     
   49998772.4862833     
   49998772.4862833     
   49998772.4862833     
   49998772.4862834     
   49998772.4862834     
   49998772.4862834     
   49998772.4862834     
   49998772.4862834     
   49998772.4862834     
   49998507.9850455     
   49998507.9850455     
   49998507.9850455     
   49998507.9850455     
   49998507.9850455     
   49998507.9850455     
   49998507.9850456     
   49998507.9850456     
   49998507.9850457     
   49998507.9850457     
   49998507.9850457     
   49998507.9850457     
   49998507.9850457     
   49998507.9850458     
   49998507.9850458     
   49998507.9850457     
   49998507.9850457     
   49998507.9850457     
   49998507.9850457     
   49998507.9850457     
   49998507.9850456     
   49998507.9850456     
   49998507.9850455     
   49998507.9850455     
   49998507.9850454     
   49998507.9850454     
   49998507.9850454     
   49998507.9850453     
   49998507.9850453     
   49998507.9850453     
   49998507.9850454     
   49998507.9850454     
   49998507.9850455     
   49998507.9850455     
   49998507.9850456     
   49998507.9850455     
   49998507.9850455     
   49998507.9850455     
   49998507.9850455     
   49998507.9850455     
   49998507.9850455     
   49998507.9850455     
   49998507.9850455     
   49998507.9850455     
   49998507.9850455     
   49998507.9850456     
   49998507.9850456     
   49998507.9850456     
   49998507.9850456     
   49998507.9850456     
   49998507.9850456     
   49998187.1914483     
   49998187.1914483     
   49998187.1914483     
   49998187.1914483     
   49998187.1914483     
   49998187.1914484     
   49998187.1914483     
   49998187.1914484     
   49998187.1914484     
   49998187.1914484     
   49998187.1914485     
   49998187.1914485     
   49998187.1914485     
   49998187.1914485     
   49998187.1914485     
   49998187.1914485     
   49998187.1914485     
   49998187.1914484     
   49998187.1914484     
   49998187.1914484     
   49998187.1914484     
   49998187.1914484     
   49998187.1914484     
   49998187.1914484     
   49998187.1914483     
   49998187.1914483     
   49998187.1914483     
   49998187.1914483     
   49998187.1914483     
   49998187.1914483     
   49998187.1914482     
   49998187.1914482     
   49998187.1914482     
   49998187.1914482     
   49998187.1914482     
   49998187.1914483     
   49998187.1914483     
   49998187.1914483     
   49998187.1914483     
   49998187.1914484     
   49998187.1914484     
   49998187.1914484     
   49998187.1914484     
   49998187.1914484     
   49998187.1914485     
   49998187.1914484     
   49998187.1914484     
   49998187.1914485     
   49998187.1914485     
   49998187.1914485     
   49998187.1914485     
   49997798.3010803     
   49997798.3010803     
   49997798.3010803     
   49997798.3010803     
   49997798.3010802     
   49997798.3010803     
   49997798.3010803     
   49997798.3010802     
   49997798.3010802     
   49997798.3010803     
   49997798.3010803     
   49997798.3010803     
   49997798.3010803     
   49997798.3010803     
   49997798.3010803     
   49997798.3010803     
   49997798.3010803     
   49997798.3010803     
   49997798.3010804     
   49997798.3010804     
   49997798.3010805     
   49997798.3010805     
   49997798.3010804     
   49997798.3010804     
   49997798.3010804     
   49997798.3010804     
   49997798.3010804     
   49997798.3010804     
   49997798.3010804     
   49997798.3010804     
   49997798.3010804     
   49997798.3010803     
   49997798.3010803     
   49997798.3010803     
   49997798.3010804     
   49997798.3010804     
   49997798.3010804     
   49997798.3010805     
   49997798.3010805     
   49997798.3010805     
   49997798.3010805     
   49997798.3010805     
   49997798.3010805     
   49997798.3010805     
   49997798.3010805     
   49997798.3010805     
   49997798.3010805     
   49997798.3010805     
   49997798.3010805     
   49997798.3010805     
   49997798.3010806     
   49997327.0784066     
   49997327.0784066     
   49997327.0784066     
   49997327.0784065     
   49997327.0784065     
   49997327.0784064     
   49997327.0784064     
   49997327.0784064     
   49997327.0784064     
   49997327.0784064     
   49997327.0784064     
   49997327.0784064     
   49997327.0784064     
   49997327.0784064     
   49997327.0784064     
   49997327.0784064     
   49997327.0784064     
   49997327.0784065     
   49997327.0784065     
   49997327.0784066     
   49997327.0784066     
   49997327.0784065     
   49997327.0784065     
   49997327.0784065     
   49997327.0784065     
   49997327.0784065     
   49997327.0784065     
   49997327.0784065     
   49997327.0784065     
   49997327.0784065     
   49997327.0784065     
   49997327.0784065     
   49997327.0784065     
   49997327.0784066     
   49997327.0784066     
   49997327.0784066     
   49997327.0784067     
   49997327.0784067     
   49997327.0784067     
   49997327.0784068     
   49997327.0784068     
   49997327.0784069     
   49997327.0784069     
   49997327.0784069     
   49997327.0784069     
   49997327.0784068     
   49997327.0784068     
   49997327.0784068     
   49997327.0784068     
   49997327.0784068     
   49997327.0784068     
   49996756.3672334     
   49996756.3672334     
   49996756.3672334     
   49996756.3672334     
   49996756.3672334     
   49996756.3672334     
   49996756.3672333     
   49996756.3672333     
   49996756.3672332     
   49996756.3672332     
   49996756.3672332     
   49996756.3672332     
   49996756.3672332     
   49996756.3672332     
   49996756.3672332     
   49996756.3672333     
   49996756.3672333     
   49996756.3672333     
   49996756.3672333     
   49996756.3672334     
   49996756.3672334     
   49996756.3672334     
   49996756.3672333     
   49996756.3672334     
   49996756.3672334     
   49996756.3672334     
   49996756.3672334     
   49996756.3672334     
   49996756.3672335     
   49996756.3672335     
   49996756.3672335     
   49996756.3672335     
   49996756.3672335     
   49996756.3672336     
   49996756.3672336     
   49996756.3672337     
   49996756.3672337     
   49996756.3672337     
   49996756.3672338     
   49996756.3672338     
   49996756.3672338     
   49996756.3672338     
   49996756.3672338     
   49996756.3672337     
   49996756.3672337     
   49996756.3672337     
   49996756.3672337     
   49996756.3672337     
   49996756.3672337     
   49996756.3672337     
   49996756.3672337     
   49996065.5054267     
   49996065.5054267     
   49996065.5054267     
   49996065.5054267     
   49996065.5054267     
   49996065.5054267     
   49996065.5054267     
   49996065.5054267     
   49996065.5054267     
   49996065.5054267     
   49996065.5054266     
   49996065.5054267     
   49996065.5054266     
   49996065.5054266     
   49996065.5054266     
   49996065.5054266     
   49996065.5054266     
   49996065.5054266     
   49996065.5054266     
   49996065.5054266     
   49996065.5054266     
   49996065.5054267     
   49996065.5054267     
   49996065.5054267     
   49996065.5054266     
   49996065.5054266     
   49996065.5054266     
   49996065.5054266     
   49996065.5054266     
   49996065.5054267     
   49996065.5054267     
   49996065.5054268     
   49996065.5054269     
   49996065.5054269     
   49996065.5054270     
   49996065.5054270     
   49996065.5054270     
   49996065.5054271     
   49996065.5054271     
   49996065.5054272     
   49996065.5054272     
   49996065.5054272     
   49996065.5054272     
   49996065.5054273     
   49996065.5054273     
   49996065.5054273     
   49996065.5054272     
   49996065.5054272     
   49996065.5054272     
   49996065.5054272     
   49996065.5054272     
   49995229.6258764     
   49995229.6258764     
   49995229.6258764     
   49995229.6258764     
   49995229.6258765     
   49995229.6258765     
   49995229.6258764     
   49995229.6258765     
   49995229.6258765     
   49995229.6258765     
   49995229.6258766     
   49995229.6258765     
   49995229.6258765     
   49995229.6258765     
   49995229.6258765     
   49995229.6258765     
   49995229.6258764     
   49995229.6258764     
   49995229.6258764     
   49995229.6258765     
   49995229.6258765     
   49995229.6258764     
   49995229.6258764     
   49995229.6258764     
   49995229.6258764     
   49995229.6258764     
   49995229.6258764     
   49995229.6258764     
   49995229.6258765     
   49995229.6258765     
   49995229.6258766     
   49995229.6258766     
   49995229.6258767     
   49995229.6258767     
   49995229.6258768     
   49995229.6258768     
   49995229.6258768     
   49995229.6258769     
   49995229.6258770     
   49995229.6258770     
   49995229.6258770     
   49995229.6258770     
   49995229.6258770     
   49995229.6258770     
   49995229.6258770     
   49995229.6258771     
   49995229.6258771     
   49995229.6258771     
   49995229.6258771     
   49995229.6258771     
   49995229.6258770     
   49994218.8225026     
   49994218.8225026     
   49994218.8225026     
   49994218.8225026     
   49994218.8225026     
   49994218.8225027     
   49994218.8225027     
   49994218.8225027     
   49994218.8225027     
   49994218.8225027     
   49994218.8225028     
   49994218.8225027     
   49994218.8225027     
   49994218.8225027     
   49994218.8225026     
   49994218.8225027     
   49994218.8225027     
   49994218.8225026     
   49994218.8225026     
   49994218.8225026     
   49994218.8225026     
   49994218.8225026     
   49994218.8225026     
   49994218.8225025     
   49994218.8225025     
   49994218.8225025     
   49994218.8225025     
   49994218.8225025     
   49994218.8225025     
   49994218.8225026     
   49994218.8225026     
   49994218.8225027     
   49994218.8225028     
   49994218.8225029     
   49994218.8225029     
   49994218.8225030     
   49994218.8225030     
   49994218.8225030     
   49994218.8225029     
   49994218.8225030     
   49994218.8225030     
   49994218.8225030     
   49994218.8225030     
   49994218.8225030     
   49994218.8225030     
   49994218.8225030     
   49994218.8225030     
   49994218.8225031     
   49994218.8225031     
   49994218.8225032     
   49994218.8225032     
   49992997.1563772     
   49992997.1563772     
   49992997.1563773     
   49992997.1563773     
   49992997.1563773     
   49992997.1563773     
   49992997.1563773     
   49992997.1563773     
   49992997.1563773     
   49992997.1563773     
   49992997.1563772     
   49992997.1563773     
   49992997.1563773     
   49992997.1563772     
   49992997.1563772     
   49992997.1563772     
   49992997.1563772     
   49992997.1563772     
   49992997.1563771     
   49992997.1563771     
   49992997.1563770     
   49992997.1563770     
   49992997.1563770     
   49992997.1563770     
   49992997.1563769     
   49992997.1563769     
   49992997.1563769     
   49992997.1563770     
   49992997.1563770     
   49992997.1563770     
   49992997.1563771     
   49992997.1563771     
   49992997.1563772     
   49992997.1563772     
   49992997.1563772     
   49992997.1563772     
   49992997.1563772     
   49992997.1563772     
   49992997.1563773     
   49992997.1563773     
   49992997.1563774     
   49992997.1563774     
   49992997.1563774     
   49992997.1563775     
   49992997.1563775     
   49992997.1563775     
   49992997.1563774     
   49992997.1563774     
   49992997.1563774     
   49992997.1563774     
   49992997.1563774     
   49991521.4727250     
   49991521.4727250     
   49991521.4727249     
   49991521.4727250     
   49991521.4727249     
   49991521.4727249     
   49991521.4727249     
   49991521.4727249     
   49991521.4727249     
   49991521.4727249     
   49991521.4727248     
   49991521.4727248     
   49991521.4727248     
   49991521.4727247     
   49991521.4727248     
   49991521.4727248     
   49991521.4727249     
   49991521.4727249     
   49991521.4727249     
   49991521.4727249     
   49991521.4727248     
   49991521.4727248     
   49991521.4727248     
   49991521.4727247     
   49991521.4727247     
   49991521.4727247     
   49991521.4727246     
   49991521.4727246     
   49991521.4727247     
   49991521.4727247     
   49991521.4727247     
   49991521.4727247     
   49991521.4727247     
   49991521.4727247     
   49991521.4727248     
   49991521.4727248     
   49991521.4727248     
   49991521.4727248     
   49991521.4727248     
   49991521.4727248     
   49991521.4727249     
   49991521.4727249     
   49991521.4727249     
   49991521.4727250     
   49991521.4727250     
   49991521.4727249     
   49991521.4727249     
   49991521.4727250     
   49991521.4727250     
   49991521.4727251     
   49991521.4727251     
   49989739.9945889     
   49989739.9945889     
   49989739.9945889     
   49989739.9945889     
   49989739.9945889     
   49989739.9945889     
   49989739.9945889     
   49989739.9945889     
   49989739.9945889     
   49989739.9945889     
   49989739.9945888     
   49989739.9945888     
   49989739.9945889     
   49989739.9945889     
   49989739.9945889     
   49989739.9945889     
   49989739.9945889     
   49989739.9945888     
   49989739.9945888     
   49989739.9945888     
   49989739.9945888     
   49989739.9945888     
   49989739.9945889     
   49989739.9945888     
   49989739.9945888     
   49989739.9945888     
   49989739.9945889     
   49989739.9945888     
   49989739.9945888     
   49989739.9945888     
   49989739.9945888     
   49989739.9945889     
   49989739.9945889     
   49989739.9945890     
   49989739.9945890     
   49989739.9945890     
   49989739.9945890     
   49989739.9945890     
   49989739.9945889     
   49989739.9945889     
   49989739.9945889     
   49989739.9945889     
   49989739.9945889     
   49989739.9945889     
   49989739.9945889     
   49989739.9945889     
   49989739.9945889     
   49989739.9945889     
   49989739.9945890     
   49989739.9945890     
   49989739.9945890     
   49987590.6532172     
   49987590.6532172     
   49987590.6532172     
   49987590.6532173     
   49987590.6532173     
   49987590.6532173     
   49987590.6532173     
   49987590.6532174     
   49987590.6532174     
   49987590.6532174     
   49987590.6532174     
   49987590.6532175     
   49987590.6532175     
   49987590.6532175     
   49987590.6532175     
   49987590.6532175     
   49987590.6532175     
   49987590.6532176     
   49987590.6532176     
   49987590.6532176     
   49987590.6532176     
   49987590.6532176     
   49987590.6532176     
   49987590.6532176     
   49987590.6532176     
   49987590.6532176     
   49987590.6532176     
   49987590.6532176     
   49987590.6532176     
   49987590.6532176     
   49987590.6532176     
   49987590.6532176     
   49987590.6532176     
   49987590.6532176     
   49987590.6532176     
   49987590.6532177     
   49987590.6532177     
   49987590.6532177     
   49987590.6532177     
   49987590.6532177     
   49987590.6532177     
   49987590.6532177     
   49987590.6532177     
   49987590.6532176     
   49987590.6532176     
   49987590.6532176     
   49987590.6532176     
   49987590.6532176     
   49987590.6532176     
   49987590.6532176     
   49987590.6532176     
   49984999.1086649     
   49984999.1086649     
   49984999.1086649     
   49984999.1086649     
   49984999.1086649     
   49984999.1086649     
   49984999.1086649     
   49984999.1086649     
   49984999.1086650     
   49984999.1086650     
   49984999.1086651     
   49984999.1086651     
   49984999.1086651     
   49984999.1086651     
   49984999.1086652     
   49984999.1086652     
   49984999.1086652     
   49984999.1086652     
   49984999.1086652     
   49984999.1086651     
   49984999.1086651     
   49984999.1086651     
   49984999.1086651     
   49984999.1086651     
   49984999.1086650     
   49984999.1086650     
   49984999.1086650     
   49984999.1086650     
   49984999.1086651     
   49984999.1086651     
   49984999.1086651     
   49984999.1086651     
   49984999.1086652     
   49984999.1086652     
   49984999.1086652     
   49984999.1086651     
   49984999.1086651     
   49984999.1086652     
   49984999.1086652     
   49984999.1086652     
   49984999.1086652     
   49984999.1086652     
   49984999.1086652     
   49984999.1086651     
   49984999.1086651     
   49984999.1086651     
   49984999.1086651     
   49984999.1086651     
   49984999.1086651     
   49984999.1086651     
   49984999.1086650     
   49981876.4066127     
   49981876.4066127     
   49981876.4066127     
   49981876.4066127     
   49981876.4066127     
   49981876.4066127     
   49981876.4066127     
   49981876.4066128     
   49981876.4066128     
   49981876.4066128     
   49981876.4066127     
   49981876.4066127     
   49981876.4066127     
   49981876.4066127     
   49981876.4066126     
   49981876.4066126     
   49981876.4066126     
   49981876.4066127     
   49981876.4066127     
   49981876.4066127     
   49981876.4066127     
   49981876.4066127     
   49981876.4066127     
   49981876.4066127     
   49981876.4066127     
   49981876.4066127     
   49981876.4066127     
   49981876.4066127     
   49981876.4066127     
   49981876.4066127     
   49981876.4066128     
   49981876.4066127     
   49981876.4066127     
   49981876.4066127     
   49981876.4066127     
   49981876.4066128     
   49981876.4066128     
   49981876.4066127     
   49981876.4066128     
   49981876.4066128     
   49981876.4066128     
   49981876.4066128     
   49981876.4066128     
   49981876.4066128     
   49981876.4066128     
   49981876.4066128     
   49981876.4066128     
   49981876.4066128     
   49981876.4066128     
   49981876.4066128     
   49981876.4066128     
   49978116.2089202     
   49978116.2089202     
   49978116.2089201     
   49978116.2089202     
   49978116.2089202     
   49978116.2089203     
   49978116.2089203     
   49978116.2089203     
   49978116.2089203     
   49978116.2089203     
   49978116.2089203     
   49978116.2089203     
   49978116.2089203     
   49978116.2089203     
   49978116.2089203     
   49978116.2089202     
   49978116.2089202     
   49978116.2089202     
   49978116.2089202     
   49978116.2089202     
   49978116.2089203     
   49978116.2089203     
   49978116.2089203     
   49978116.2089203     
   49978116.2089203     
   49978116.2089203     
   49978116.2089202     
   49978116.2089202     
   49978116.2089202     
   49978116.2089202     
   49978116.2089202     
   49978116.2089202     
   49978116.2089202     
   49978116.2089203     
   49978116.2089202     
   49978116.2089202     
   49978116.2089202     
   49978116.2089202     
   49978116.2089202     
   49978116.2089202     
   49978116.2089202     
   49978116.2089202     
   49978116.2089202     
   49978116.2089203     
   49978116.2089203     
   49978116.2089203     
   49978116.2089203     
   49978116.2089203     
   49978116.2089203     
   49978116.2089202     
   49978116.2089202     
   49973591.5258385     
   49973591.5258385     
   49973591.5258385     
   49973591.5258385     
   49973591.5258385     
   49973591.5258385     
   49973591.5258385     
   49973591.5258385     
   49973591.5258386     
   49973591.5258386     
   49973591.5258386     
   49973591.5258385     
   49973591.5258385     
   49973591.5258384     
   49973591.5258384     
   49973591.5258384     
   49973591.5258384     
   49973591.5258384     
   49973591.5258384     
   49973591.5258385     
   49973591.5258385     
   49973591.5258385     
   49973591.5258385     
   49973591.5258385     
   49973591.5258385     
   49973591.5258385     
   49973591.5258385     
   49973591.5258385     
   49973591.5258385     
   49973591.5258385     
   49973591.5258385     
   49973591.5258385     
   49973591.5258385     
   49973591.5258385     
   49973591.5258385     
   49973591.5258384     
   49973591.5258384     
   49973591.5258384     
   49973591.5258384     
   49973591.5258384     
   49973591.5258383     
   49973591.5258383     
   49973591.5258383     
   49973591.5258383     
   49973591.5258384     
   49973591.5258384     
   49973591.5258384     
   49973591.5258384     
   49973591.5258384     
   49973591.5258384     
   49973591.5258384     
   49968150.8670781     
   49968150.8670781     
   49968150.8670781     
   49968150.8670780     
   49968150.8670780     
   49968150.8670781     
   49968150.8670780     
   49968150.8670780     
   49968150.8670780     
   49968150.8670780     
   49968150.8670780     
   49968150.8670780     
   49968150.8670780     
   49968150.8670780     
   49968150.8670779     
   49968150.8670779     
   49968150.8670779     
   49968150.8670779     
   49968150.8670778     
   49968150.8670778     
   49968150.8670778     
   49968150.8670778     
   49968150.8670778     
   49968150.8670778     
   49968150.8670778     
   49968150.8670779     
   49968150.8670779     
   49968150.8670779     
   49968150.8670779     
   49968150.8670778     
   49968150.8670779     
   49968150.8670779     
   49968150.8670779     
   49968150.8670779     
   49968150.8670779     
   49968150.8670780     
   49968150.8670780     
   49968150.8670780     
   49968150.8670780     
   49968150.8670779     
   49968150.8670779     
   49968150.8670779     
   49968150.8670779     
   49968150.8670779     
   49968150.8670779     
   49968150.8670779     
   49968150.8670779     
   49968150.8670779     
   49968150.8670780     
   49968150.8670780     
   49968150.8670780     
   49961613.7169994     
   49961613.7169994     
   49961613.7169994     
   49961613.7169994     
   49961613.7169994     
   49961613.7169994     
   49961613.7169994     
   49961613.7169994     
   49961613.7169995     
   49961613.7169995     
   49961613.7169995     
   49961613.7169995     
   49961613.7169995     
   49961613.7169995     
   49961613.7169995     
   49961613.7169995     
   49961613.7169995     
   49961613.7169994     
   49961613.7169994     
   49961613.7169994     
   49961613.7169993     
   49961613.7169993     
   49961613.7169993     
   49961613.7169993     
   49961613.7169993     
   49961613.7169993     
   49961613.7169992     
   49961613.7169992     
   49961613.7169993     
   49961613.7169993     
   49961613.7169993     
   49961613.7169993     
   49961613.7169993     
   49961613.7169993     
   49961613.7169993     
   49961613.7169994     
   49961613.7169994     
   49961613.7169994     
   49961613.7169994     
   49961613.7169994     
   49961613.7169994     
   49961613.7169993     
   49961613.7169993     
   49961613.7169993     
   49961613.7169994     
   49961613.7169994     
   49961613.7169994     
   49961613.7169994     
   49961613.7169995     
   49961613.7169995     
   49961613.7169995     
   49953765.2260548     
   49953765.2260548     
   49953765.2260548     
   49953765.2260548     
   49953765.2260548     
   49953765.2260548     
   49953765.2260548     
   49953765.2260548     
   49953765.2260549     
   49953765.2260549     
   49953765.2260549     
   49953765.2260549     
   49953765.2260549     
   49953765.2260549     
   49953765.2260548     
   49953765.2260549     
   49953765.2260548     
   49953765.2260548     
   49953765.2260548     
   49953765.2260548     
   49953765.2260548     
   49953765.2260548     
   49953765.2260549     
   49953765.2260548     
   49953765.2260548     
   49953765.2260548     
   49953765.2260548     
   49953765.2260548     
   49953765.2260548     
   49953765.2260548     
   49953765.2260548     
   49953765.2260548     
   49953765.2260548     
   49953765.2260548     
   49953765.2260548     
   49953765.2260548     
   49953765.2260549     
   49953765.2260549     
   49953765.2260549     
   49953765.2260549     
   49953765.2260549     
   49953765.2260549     
   49953765.2260549     
   49953765.2260548     
   49953765.2260548     
   49953765.2260548     
   49953765.2260549     
   49953765.2260549     
   49953765.2260549     
   49953765.2260550     
   49953765.2260550     
   49944349.9963022     
   49944349.9963022     
   49944349.9963022     
   49944349.9963023     
   49944349.9963023     
   49944349.9963023     
   49944349.9963024     
   49944349.9963024     
   49944349.9963025     
   49944349.9963026     
   49944349.9963026     
   49944349.9963026     
   49944349.9963026     
   49944349.9963026     
   49944349.9963026     
   49944349.9963026     
   49944349.9963026     
   49944349.9963025     
   49944349.9963025     
   49944349.9963025     
   49944349.9963025     
   49944349.9963025     
   49944349.9963025     
   49944349.9963025     
   49944349.9963025     
   49944349.9963025     
   49944349.9963025     
   49944349.9963025     
   49944349.9963025     
   49944349.9963026     
   49944349.9963026     
   49944349.9963026     
   49944349.9963026     
   49944349.9963026     
   49944349.9963026     
   49944349.9963026     
   49944349.9963026     
   49944349.9963026     
   49944349.9963026     
   49944349.9963026     
   49944349.9963026     
   49944349.9963026     
   49944349.9963026     
   49944349.9963026     
   49944349.9963027     
   49944349.9963027     
   49944349.9963027     
   49944349.9963027     
   49944349.9963028     
   49944349.9963028     
   49944349.9963028     
   49933064.8234550     
   49933064.8234550     
   49933064.8234550     
   49933064.8234550     
   49933064.8234550     
   49933064.8234550     
   49933064.8234551     
   49933064.8234551     
   49933064.8234552     
   49933064.8234552     
   49933064.8234552     
   49933064.8234552     
   49933064.8234553     
   49933064.8234553     
   49933064.8234553     
   49933064.8234552     
   49933064.8234552     
   49933064.8234551     
   49933064.8234551     
   49933064.8234551     
   49933064.8234551     
   49933064.8234551     
   49933064.8234552     
   49933064.8234552     
   49933064.8234552     
   49933064.8234552     
   49933064.8234552     
   49933064.8234552     
   49933064.8234552     
   49933064.8234552     
   49933064.8234552     
   49933064.8234553     
   49933064.8234553     
   49933064.8234552     
   49933064.8234552     
   49933064.8234552     
   49933064.8234552     
   49933064.8234552     
   49933064.8234552     
   49933064.8234552     
   49933064.8234552     
   49933064.8234552     
   49933064.8234552     
   49933064.8234553     
   49933064.8234554     
   49933064.8234554     
   49933064.8234554     
   49933064.8234555     
   49933064.8234555     
   49933064.8234555     
   49933064.8234555     
   49919550.2416947     
   49919550.2416947     
   49919550.2416948     
   49919550.2416948     
   49919550.2416948     
   49919550.2416948     
   49919550.2416949     
   49919550.2416949     
   49919550.2416949     
   49919550.2416949     
   49919550.2416949     
   49919550.2416949     
   49919550.2416949     
   49919550.2416948     
   49919550.2416948     
   49919550.2416948     
   49919550.2416947     
   49919550.2416947     
   49919550.2416946     
   49919550.2416947     
   49919550.2416947     
   49919550.2416947     
   49919550.2416947     
   49919550.2416948     
   49919550.2416948     
   49919550.2416948     
   49919550.2416948     
   49919550.2416948     
   49919550.2416948     
   49919550.2416948     
   49919550.2416948     
   49919550.2416948     
   49919550.2416948     
   49919550.2416947     
   49919550.2416947     
   49919550.2416947     
   49919550.2416947     
   49919550.2416948     
   49919550.2416948     
   49919550.2416948     
   49919550.2416949     
   49919550.2416949     
   49919550.2416949     
   49919550.2416949     
   49919550.2416950     
   49919550.2416950     
   49919550.2416951     
   49919550.2416951     
   49919550.2416951     
   49919550.2416951     
   49919550.2416951     
   49903380.7007339     
   49903380.7007339     
   49903380.7007339     
   49903380.7007339     
   49903380.7007340     
   49903380.7007340     
   49903380.7007341     
   49903380.7007341     
   49903380.7007341     
   49903380.7007342     
   49903380.7007342     
   49903380.7007341     
   49903380.7007341     
   49903380.7007341     
   49903380.7007341     
   49903380.7007340     
   49903380.7007340     
   49903380.7007339     
   49903380.7007339     
   49903380.7007339     
   49903380.7007339     
   49903380.7007339     
   49903380.7007340     
   49903380.7007340     
   49903380.7007341     
   49903380.7007341     
   49903380.7007342     
   49903380.7007342     
   49903380.7007341     
   49903380.7007341     
   49903380.7007341     
   49903380.7007341     
   49903380.7007341     
   49903380.7007341     
   49903380.7007340     
   49903380.7007340     
   49903380.7007340     
   49903380.7007340     
   49903380.7007340     
   49903380.7007340     
   49903380.7007340     
   49903380.7007340     
   49903380.7007340     
   49903380.7007341     
   49903380.7007341     
   49903380.7007342     
   49903380.7007342     
   49903380.7007342     
   49903380.7007342     
   49903380.7007343     
   49903380.7007343     
   49884053.1878168     
   49884053.1878168     
   49884053.1878168     
   49884053.1878168     
   49884053.1878168     
   49884053.1878169     
   49884053.1878169     
   49884053.1878170     
   49884053.1878170     
   49884053.1878171     
   49884053.1878171     
   49884053.1878171     
   49884053.1878171     
   49884053.1878171     
   49884053.1878171     
   49884053.1878171     
   49884053.1878170     
   49884053.1878170     
   49884053.1878169     
   49884053.1878170     
   49884053.1878170     
   49884053.1878170     
   49884053.1878170     
   49884053.1878171     
   49884053.1878171     
   49884053.1878171     
   49884053.1878171     
   49884053.1878171     
   49884053.1878171     
   49884053.1878171     
   49884053.1878171     
   49884053.1878171     
   49884053.1878171     
   49884053.1878170     
   49884053.1878170     
   49884053.1878169     
   49884053.1878168     
   49884053.1878168     
   49884053.1878168     
   49884053.1878168     
   49884053.1878168     
   49884053.1878168     
   49884053.1878169     
   49884053.1878169     
   49884053.1878169     
   49884053.1878169     
   49884053.1878169     
   49884053.1878170     
   49884053.1878170     
   49884053.1878170     
   49884053.1878170     
   49860974.0912458     
   49860974.0912459     
   49860974.0912459     
   49860974.0912459     
   49860974.0912459     
   49860974.0912459     
   49860974.0912460     
   49860974.0912460     
   49860974.0912461     
   49860974.0912461     
   49860974.0912461     
   49860974.0912462     
   49860974.0912462     
   49860974.0912462     
   49860974.0912462     
   49860974.0912462     
   49860974.0912462     
   49860974.0912462     
   49860974.0912462     
   49860974.0912462     
   49860974.0912462     
   49860974.0912462     
   49860974.0912462     
   49860974.0912462     
   49860974.0912463     
   49860974.0912463     
   49860974.0912463     
   49860974.0912463     
   49860974.0912463     
   49860974.0912462     
   49860974.0912462     
   49860974.0912462     
   49860974.0912462     
   49860974.0912462     
   49860974.0912461     
   49860974.0912461     
   49860974.0912460     
   49860974.0912460     
   49860974.0912459     
   49860974.0912459     
   49860974.0912458     
   49860974.0912458     
   49860974.0912458     
   49860974.0912459     
   49860974.0912459     
   49860974.0912459     
   49860974.0912459     
   49860974.0912459     
   49860974.0912459     
   49860974.0912459     
   49860974.0912459     
   49833444.0875937     
   49833444.0875937     
   49833444.0875937     
   49833444.0875937     
   49833444.0875937     
   49833444.0875938     
   49833444.0875939     
   49833444.0875939     
   49833444.0875940     
   49833444.0875940     
   49833444.0875940     
   49833444.0875941     
   49833444.0875941     
   49833444.0875942     
   49833444.0875942     
   49833444.0875942     
   49833444.0875942     
   49833444.0875942     
   49833444.0875942     
   49833444.0875942     
   49833444.0875942     
   49833444.0875941     
   49833444.0875941     
   49833444.0875942     
   49833444.0875942     
   49833444.0875942     
   49833444.0875942     
   49833444.0875942     
   49833444.0875942     
   49833444.0875942     
   49833444.0875942     
   49833444.0875942     
   49833444.0875942     
   49833444.0875941     
   49833444.0875940     
   49833444.0875939     
   49833444.0875939     
   49833444.0875938     
   49833444.0875938     
   49833444.0875937     
   49833444.0875937     
   49833444.0875937     
   49833444.0875937     
   49833444.0875937     
   49833444.0875938     
   49833444.0875938     
   49833444.0875938     
   49833444.0875938     
   49833444.0875938     
   49833444.0875938     
   49833444.0875938     
   49800640.8233632     
   49800640.8233632     
   49800640.8233633     
   49800640.8233633     
   49800640.8233633     
   49800640.8233633     
   49800640.8233634     
   49800640.8233635     
   49800640.8233636     
   49800640.8233637     
   49800640.8233637     
   49800640.8233638     
   49800640.8233638     
   49800640.8233638     
   49800640.8233638     
   49800640.8233638     
   49800640.8233638     
   49800640.8233638     
   49800640.8233638     
   49800640.8233638     
   49800640.8233637     
   49800640.8233638     
   49800640.8233638     
   49800640.8233638     
   49800640.8233638     
   49800640.8233638     
   49800640.8233638     
   49800640.8233638     
   49800640.8233638     
   49800640.8233638     
   49800640.8233638     
   49800640.8233638     
   49800640.8233637     
   49800640.8233637     
   49800640.8233636     
   49800640.8233635     
   49800640.8233635     
   49800640.8233635     
   49800640.8233634     
   49800640.8233634     
   49800640.8233633     
   49800640.8233633     
   49800640.8233633     
   49800640.8233634     
   49800640.8233634     
   49800640.8233634     
   49800640.8233634     
   49800640.8233634     
   49800640.8233634     
   49800640.8233634     
   49800640.8233634     
   49761599.1552993     
   49761599.1552993     
   49761599.1552993     
   49761599.1552993     
   49761599.1552993     
   49761599.1552994     
   49761599.1552995     
   49761599.1552996     
   49761599.1552996     
   49761599.1552997     
   49761599.1552997     
   49761599.1552997     
   49761599.1552998     
   49761599.1552998     
   49761599.1552998     
   49761599.1552998     
   49761599.1552998     
   49761599.1552998     
   49761599.1552998     
   49761599.1552998     
   49761599.1552998     
   49761599.1552997     
   49761599.1552998     
   49761599.1552998     
   49761599.1552998     
   49761599.1552998     
   49761599.1552998     
   49761599.1552998     
   49761599.1552998     
   49761599.1552998     
   49761599.1552998     
   49761599.1552998     
   49761599.1552997     
   49761599.1552997     
   49761599.1552996     
   49761599.1552995     
   49761599.1552995     
   49761599.1552995     
   49761599.1552994     
   49761599.1552994     
   49761599.1552994     
   49761599.1552994     
   49761599.1552994     
   49761599.1552994     
   49761599.1552995     
   49761599.1552994     
   49761599.1552994     
   49761599.1552994     
   49761599.1552994     
   49761599.1552994     
   49761599.1552994     
   49715188.7141906     
   49715188.7141906     
   49715188.7141907     
   49715188.7141907     
   49715188.7141907     
   49715188.7141908     
   49715188.7141908     
   49715188.7141909     
   49715188.7141910     
   49715188.7141911     
   49715188.7141911     
   49715188.7141911     
   49715188.7141912     
   49715188.7141912     
   49715188.7141912     
   49715188.7141912     
   49715188.7141913     
   49715188.7141913     
   49715188.7141913     
   49715188.7141913     
   49715188.7141913     
   49715188.7141913     
   49715188.7141913     
   49715188.7141913     
   49715188.7141913     
   49715188.7141913     
   49715188.7141913     
   49715188.7141913     
   49715188.7141913     
   49715188.7141912     
   49715188.7141912     
   49715188.7141912     
   49715188.7141911     
   49715188.7141911     
   49715188.7141911     
   49715188.7141910     
   49715188.7141909     
   49715188.7141909     
   49715188.7141909     
   49715188.7141909     
   49715188.7141908     
   49715188.7141908     
   49715188.7141909     
   49715188.7141909     
   49715188.7141909     
   49715188.7141909     
   49715188.7141909     
   49715188.7141909     
   49715188.7141909     
   49715188.7141909     
   49715188.7141909     
   49660088.5678903     
   49660088.5678903     
   49660088.5678903     
   49660088.5678903     
   49660088.5678904     
   49660088.5678904     
   49660088.5678905     
   49660088.5678905     
   49660088.5678906     
   49660088.5678906     
   49660088.5678906     
   49660088.5678907     
   49660088.5678907     
   49660088.5678908     
   49660088.5678908     
   49660088.5678909     
   49660088.5678909     
   49660088.5678909     
   49660088.5678909     
   49660088.5678909     
   49660088.5678909     
   49660088.5678909     
   49660088.5678910     
   49660088.5678910     
   49660088.5678910     
   49660088.5678910     
   49660088.5678910     
   49660088.5678910     
   49660088.5678909     
   49660088.5678909     
   49660088.5678908     
   49660088.5678908     
   49660088.5678907     
   49660088.5678907     
   49660088.5678906     
   49660088.5678906     
   49660088.5678905     
   49660088.5678905     
   49660088.5678905     
   49660088.5678905     
   49660088.5678904     
   49660088.5678905     
   49660088.5678905     
   49660088.5678905     
   49660088.5678906     
   49660088.5678906     
   49660088.5678906     
   49660088.5678906     
   49660088.5678906     
   49660088.5678906     
   49660088.5678906     
   49594758.7842989     
   49594758.7842989     
   49594758.7842989     
   49594758.7842990     
   49594758.7842990     
   49594758.7842991     
   49594758.7842992     
   49594758.7842992     
   49594758.7842993     
   49594758.7842994     
   49594758.7842994     
   49594758.7842994     
   49594758.7842995     
   49594758.7842995     
   49594758.7842996     
   49594758.7842996     
   49594758.7842996     
   49594758.7842996     
   49594758.7842997     
   49594758.7842997     
   49594758.7842997     
   49594758.7842997     
   49594758.7842997     
   49594758.7842997     
   49594758.7842998     
   49594758.7842998     
   49594758.7842998     
   49594758.7842998     
   49594758.7842998     
   49594758.7842998     
   49594758.7842997     
   49594758.7842997     
   49594758.7842997     
   49594758.7842996     
   49594758.7842996     
   49594758.7842995     
   49594758.7842994     
   49594758.7842994     
   49594758.7842993     
   49594758.7842993     
   49594758.7842993     
   49594758.7842993     
   49594758.7842993     
   49594758.7842994     
   49594758.7842994     
   49594758.7842994     
   49594758.7842994     
   49594758.7842994     
   49594758.7842994     
   49594758.7842994     
   49594758.7842994     
   49517408.7391128     
   49517408.7391128     
   49517408.7391129     
   49517408.7391129     
   49517408.7391129     
   49517408.7391129     
   49517408.7391130     
   49517408.7391131     
   49517408.7391131     
   49517408.7391132     
   49517408.7391132     
   49517408.7391133     
   49517408.7391134     
   49517408.7391134     
   49517408.7391135     
   49517408.7391135     
   49517408.7391134     
   49517408.7391134     
   49517408.7391135     
   49517408.7391135     
   49517408.7391135     
   49517408.7391135     
   49517408.7391135     
   49517408.7391136     
   49517408.7391136     
   49517408.7391136     
   49517408.7391136     
   49517408.7391136     
   49517408.7391136     
   49517408.7391135     
   49517408.7391135     
   49517408.7391135     
   49517408.7391134     
   49517408.7391134     
   49517408.7391133     
   49517408.7391132     
   49517408.7391132     
   49517408.7391132     
   49517408.7391132     
   49517408.7391132     
   49517408.7391132     
   49517408.7391132     
   49517408.7391132     
   49517408.7391132     
   49517408.7391132     
   49517408.7391133     
   49517408.7391133     
   49517408.7391132     
   49517408.7391133     
   49517408.7391133     
   49517408.7391133     
   49425962.0822961     
   49425962.0822961     
   49425962.0822961     
   49425962.0822962     
   49425962.0822962     
   49425962.0822962     
   49425962.0822963     
   49425962.0822964     
   49425962.0822965     
   49425962.0822965     
   49425962.0822965     
   49425962.0822965     
   49425962.0822966     
   49425962.0822966     
   49425962.0822967     
   49425962.0822967     
   49425962.0822967     
   49425962.0822967     
   49425962.0822967     
   49425962.0822967     
   49425962.0822967     
   49425962.0822967     
   49425962.0822967     
   49425962.0822967     
   49425962.0822968     
   49425962.0822968     
   49425962.0822968     
   49425962.0822968     
   49425962.0822968     
   49425962.0822968     
   49425962.0822967     
   49425962.0822967     
   49425962.0822966     
   49425962.0822966     
   49425962.0822965     
   49425962.0822965     
   49425962.0822964     
   49425962.0822964     
   49425962.0822964     
   49425962.0822964     
   49425962.0822963     
   49425962.0822963     
   49425962.0822964     
   49425962.0822964     
   49425962.0822964     
   49425962.0822964     
   49425962.0822964     
   49425962.0822964     
   49425962.0822964     
   49425962.0822964     
   49425962.0822964     
   49318018.3789910     
   49318018.3789910     
   49318018.3789910     
   49318018.3789911     
   49318018.3789911     
   49318018.3789911     
   49318018.3789912     
   49318018.3789912     
   49318018.3789913     
   49318018.3789913     
   49318018.3789914     
   49318018.3789914     
   49318018.3789915     
   49318018.3789915     
   49318018.3789915     
   49318018.3789916     
   49318018.3789915     
   49318018.3789915     
   49318018.3789915     
   49318018.3789915     
   49318018.3789915     
   49318018.3789916     
   49318018.3789916     
   49318018.3789916     
   49318018.3789916     
   49318018.3789916     
   49318018.3789916     
   49318018.3789916     
   49318018.3789917     
   49318018.3789916     
   49318018.3789916     
   49318018.3789916     
   49318018.3789916     
   49318018.3789915     
   49318018.3789914     
   49318018.3789914     
   49318018.3789913     
   49318018.3789913     
   49318018.3789913     
   49318018.3789912     
   49318018.3789912     
   49318018.3789912     
   49318018.3789912     
   49318018.3789912     
   49318018.3789912     
   49318018.3789912     
   49318018.3789912     
   49318018.3789912     
   49318018.3789912     
   49318018.3789912     
   49318018.3789913     
   49190811.5839664     
   49190811.5839664     
   49190811.5839664     
   49190811.5839664     
   49190811.5839665     
   49190811.5839665     
   49190811.5839666     
   49190811.5839666     
   49190811.5839667     
   49190811.5839667     
   49190811.5839668     
   49190811.5839668     
   49190811.5839669     
   49190811.5839670     
   49190811.5839670     
   49190811.5839670     
   49190811.5839670     
   49190811.5839670     
   49190811.5839670     
   49190811.5839670     
   49190811.5839670     
   49190811.5839670     
   49190811.5839670     
   49190811.5839670     
   49190811.5839670     
   49190811.5839671     
   49190811.5839671     
   49190811.5839671     
   49190811.5839671     
   49190811.5839670     
   49190811.5839670     
   49190811.5839670     
   49190811.5839670     
   49190811.5839669     
   49190811.5839668     
   49190811.5839668     
   49190811.5839667     
   49190811.5839667     
   49190811.5839667     
   49190811.5839667     
   49190811.5839666     
   49190811.5839666     
   49190811.5839667     
   49190811.5839667     
   49190811.5839667     
   49190811.5839667     
   49190811.5839666     
   49190811.5839666     
   49190811.5839666     
   49190811.5839666     
   49190811.5839666     
   49041165.7045658     
   49041165.7045658     
   49041165.7045659     
   49041165.7045659     
   49041165.7045659     
   49041165.7045660     
   49041165.7045661     
   49041165.7045662     
   49041165.7045662     
   49041165.7045663     
   49041165.7045664     
   49041165.7045664     
   49041165.7045665     
   49041165.7045666     
   49041165.7045666     
   49041165.7045666     
   49041165.7045666     
   49041165.7045667     
   49041165.7045666     
   49041165.7045667     
   49041165.7045667     
   49041165.7045667     
   49041165.7045667     
   49041165.7045667     
   49041165.7045667     
   49041165.7045668     
   49041165.7045668     
   49041165.7045668     
   49041165.7045667     
   49041165.7045667     
   49041165.7045666     
   49041165.7045666     
   49041165.7045666     
   49041165.7045665     
   49041165.7045665     
   49041165.7045664     
   49041165.7045664     
   49041165.7045664     
   49041165.7045664     
   49041165.7045663     
   49041165.7045663     
   49041165.7045662     
   49041165.7045663     
   49041165.7045663     
   49041165.7045663     
   49041165.7045663     
   49041165.7045663     
   49041165.7045662     
   49041165.7045663     
   49041165.7045663     
   49041165.7045663     
   48865448.2681702     
   48865448.2681702     
   48865448.2681702     
   48865448.2681702     
   48865448.2681702     
   48865448.2681703     
   48865448.2681704     
   48865448.2681704     
   48865448.2681705     
   48865448.2681706     
   48865448.2681706     
   48865448.2681707     
   48865448.2681708     
   48865448.2681708     
   48865448.2681709     
   48865448.2681709     
   48865448.2681709     
   48865448.2681709     
   48865448.2681709     
   48865448.2681710     
   48865448.2681710     
   48865448.2681710     
   48865448.2681710     
   48865448.2681710     
   48865448.2681711     
   48865448.2681711     
   48865448.2681711     
   48865448.2681711     
   48865448.2681711     
   48865448.2681710     
   48865448.2681710     
   48865448.2681710     
   48865448.2681709     
   48865448.2681709     
   48865448.2681708     
   48865448.2681708     
   48865448.2681707     
   48865448.2681707     
   48865448.2681706     
   48865448.2681706     
   48865448.2681706     
   48865448.2681706     
   48865448.2681706     
   48865448.2681706     
   48865448.2681706     
   48865448.2681707     
   48865448.2681707     
   48865448.2681706     
   48865448.2681706     
   48865448.2681706     
   48865448.2681706     
   48659522.5511229     
   48659522.5511229     
   48659522.5511229     
   48659522.5511229     
   48659522.5511229     
   48659522.5511230     
   48659522.5511231     
   48659522.5511232     
   48659522.5511233     
   48659522.5511234     
   48659522.5511234     
   48659522.5511235     
   48659522.5511235     
   48659522.5511236     
   48659522.5511236     
   48659522.5511236     
   48659522.5511237     
   48659522.5511237     
   48659522.5511237     
   48659522.5511237     
   48659522.5511237     
   48659522.5511238     
   48659522.5511238     
   48659522.5511238     
   48659522.5511238     
   48659522.5511238     
   48659522.5511238     
   48659522.5511238     
   48659522.5511238     
   48659522.5511238     
   48659522.5511237     
   48659522.5511237     
   48659522.5511236     
   48659522.5511236     
   48659522.5511235     
   48659522.5511234     
   48659522.5511234     
   48659522.5511233     
   48659522.5511233     
   48659522.5511233     
   48659522.5511233     
   48659522.5511232     
   48659522.5511233     
   48659522.5511233     
   48659522.5511233     
   48659522.5511234     
   48659522.5511234     
   48659522.5511234     
   48659522.5511234     
   48659522.5511234     
   48659522.5511234     
   48418699.9634283     
   48418699.9634284     
   48418699.9634284     
   48418699.9634284     
   48418699.9634285     
   48418699.9634285     
   48418699.9634286     
   48418699.9634287     
   48418699.9634288     
   48418699.9634289     
   48418699.9634289     
   48418699.9634289     
   48418699.9634290     
   48418699.9634291     
   48418699.9634291     
   48418699.9634291     
   48418699.9634292     
   48418699.9634292     
   48418699.9634292     
   48418699.9634292     
   48418699.9634292     
   48418699.9634293     
   48418699.9634293     
   48418699.9634293     
   48418699.9634293     
   48418699.9634293     
   48418699.9634293     
   48418699.9634293     
   48418699.9634293     
   48418699.9634292     
   48418699.9634292     
   48418699.9634291     
   48418699.9634291     
   48418699.9634290     
   48418699.9634290     
   48418699.9634289     
   48418699.9634289     
   48418699.9634289     
   48418699.9634289     
   48418699.9634289     
   48418699.9634288     
   48418699.9634288     
   48418699.9634288     
   48418699.9634288     
   48418699.9634289     
   48418699.9634289     
   48418699.9634289     
   48418699.9634289     
   48418699.9634289     
   48418699.9634289     
   48418699.9634289     
   48137694.5353517     
   48137694.5353517     
   48137694.5353517     
   48137694.5353517     
   48137694.5353518     
   48137694.5353518     
   48137694.5353519     
   48137694.5353520     
   48137694.5353521     
   48137694.5353522     
   48137694.5353522     
   48137694.5353523     
   48137694.5353523     
   48137694.5353524     
   48137694.5353525     
   48137694.5353525     
   48137694.5353525     
   48137694.5353525     
   48137694.5353525     
   48137694.5353525     
   48137694.5353526     
   48137694.5353526     
   48137694.5353526     
   48137694.5353526     
   48137694.5353526     
   48137694.5353526     
   48137694.5353526     
   48137694.5353526     
   48137694.5353526     
   48137694.5353525     
   48137694.5353525     
   48137694.5353524     
   48137694.5353524     
   48137694.5353524     
   48137694.5353523     
   48137694.5353522     
   48137694.5353522     
   48137694.5353522     
   48137694.5353521     
   48137694.5353521     
   48137694.5353521     
   48137694.5353521     
   48137694.5353521     
   48137694.5353521     
   48137694.5353521     
   48137694.5353521     
   48137694.5353521     
   48137694.5353521     
   48137694.5353521     
   48137694.5353521     
   48137694.5353520     
   47810582.1372042     
   47810582.1372042     
   47810582.1372042     
   47810582.1372043     
   47810582.1372043     
   47810582.1372044     
   47810582.1372044     
   47810582.1372045     
   47810582.1372046     
   47810582.1372047     
   47810582.1372048     
   47810582.1372048     
   47810582.1372049     
   47810582.1372050     
   47810582.1372050     
   47810582.1372051     
   47810582.1372050     
   47810582.1372051     
   47810582.1372051     
   47810582.1372051     
   47810582.1372050     
   47810582.1372050     
   47810582.1372050     
   47810582.1372050     
   47810582.1372051     
   47810582.1372051     
   47810582.1372051     
   47810582.1372051     
   47810582.1372051     
   47810582.1372050     
   47810582.1372050     
   47810582.1372049     
   47810582.1372049     
   47810582.1372048     
   47810582.1372048     
   47810582.1372047     
   47810582.1372047     
   47810582.1372046     
   47810582.1372046     
   47810582.1372045     
   47810582.1372045     
   47810582.1372045     
   47810582.1372045     
   47810582.1372045     
   47810582.1372045     
   47810582.1372045     
   47810582.1372045     
   47810582.1372045     
   47810582.1372044     
   47810582.1372044     
   47810582.1372044     
   47430767.9004342     
   47430767.9004342     
   47430767.9004342     
   47430767.9004342     
   47430767.9004342     
   47430767.9004343     
   47430767.9004344     
   47430767.9004345     
   47430767.9004345     
   47430767.9004346     
   47430767.9004346     
   47430767.9004347     
   47430767.9004347     
   47430767.9004348     
   47430767.9004348     
   47430767.9004348     
   47430767.9004348     
   47430767.9004348     
   47430767.9004348     
   47430767.9004349     
   47430767.9004349     
   47430767.9004349     
   47430767.9004349     
   47430767.9004349     
   47430767.9004349     
   47430767.9004349     
   47430767.9004350     
   47430767.9004350     
   47430767.9004349     
   47430767.9004349     
   47430767.9004349     
   47430767.9004348     
   47430767.9004348     
   47430767.9004347     
   47430767.9004346     
   47430767.9004346     
   47430767.9004345     
   47430767.9004344     
   47430767.9004344     
   47430767.9004343     
   47430767.9004343     
   47430767.9004343     
   47430767.9004343     
   47430767.9004343     
   47430767.9004343     
   47430767.9004343     
   47430767.9004343     
   47430767.9004343     
   47430767.9004343     
   47430767.9004343     
   47430767.9004343     
   46990966.3124516     
   46990966.3124516     
   46990966.3124517     
   46990966.3124517     
   46990966.3124517     
   46990966.3124517     
   46990966.3124518     
   46990966.3124518     
   46990966.3124519     
   46990966.3124519     
   46990966.3124519     
   46990966.3124520     
   46990966.3124520     
   46990966.3124521     
   46990966.3124521     
   46990966.3124522     
   46990966.3124522     
   46990966.3124522     
   46990966.3124522     
   46990966.3124522     
   46990966.3124522     
   46990966.3124522     
   46990966.3124522     
   46990966.3124523     
   46990966.3124523     
   46990966.3124523     
   46990966.3124523     
   46990966.3124523     
   46990966.3124522     
   46990966.3124522     
   46990966.3124521     
   46990966.3124521     
   46990966.3124520     
   46990966.3124520     
   46990966.3124519     
   46990966.3124518     
   46990966.3124518     
   46990966.3124517     
   46990966.3124517     
   46990966.3124517     
   46990966.3124516     
   46990966.3124516     
   46990966.3124517     
   46990966.3124517     
   46990966.3124518     
   46990966.3124518     
   46990966.3124518     
   46990966.3124518     
   46990966.3124518     
   46990966.3124518     
   46990966.3124518     
   46483199.6393046     
   46483199.6393046     
   46483199.6393046     
   46483199.6393046     
   46483199.6393047     
   46483199.6393047     
   46483199.6393048     
   46483199.6393048     
   46483199.6393049     
   46483199.6393049     
   46483199.6393050     
   46483199.6393050     
   46483199.6393050     
   46483199.6393050     
   46483199.6393051     
   46483199.6393051     
   46483199.6393051     
   46483199.6393051     
   46483199.6393051     
   46483199.6393052     
   46483199.6393052     
   46483199.6393052     
   46483199.6393052     
   46483199.6393052     
   46483199.6393051     
   46483199.6393051     
   46483199.6393051     
   46483199.6393051     
   46483199.6393050     
   46483199.6393050     
   46483199.6393049     
   46483199.6393049     
   46483199.6393049     
   46483199.6393048     
   46483199.6393047     
   46483199.6393047     
   46483199.6393046     
   46483199.6393046     
   46483199.6393045     
   46483199.6393045     
   46483199.6393045     
   46483199.6393045     
   46483199.6393045     
   46483199.6393046     
   46483199.6393046     
   46483199.6393047     
   46483199.6393047     
   46483199.6393047     
   46483199.6393047     
   46483199.6393047     
   46483199.6393047     
   45898821.6884088     
   45898821.6884089     
   45898821.6884089     
   45898821.6884089     
   45898821.6884089     
   45898821.6884089     
   45898821.6884090     
   45898821.6884091     
   45898821.6884091     
   45898821.6884091     
   45898821.6884092     
   45898821.6884092     
   45898821.6884092     
   45898821.6884093     
   45898821.6884093     
   45898821.6884093     
   45898821.6884093     
   45898821.6884093     
   45898821.6884093     
   45898821.6884093     
   45898821.6884093     
   45898821.6884092     
   45898821.6884092     
   45898821.6884092     
   45898821.6884092     
   45898821.6884092     
   45898821.6884092     
   45898821.6884092     
   45898821.6884091     
   45898821.6884091     
   45898821.6884090     
   45898821.6884090     
   45898821.6884089     
   45898821.6884089     
   45898821.6884088     
   45898821.6884087     
   45898821.6884087     
   45898821.6884087     
   45898821.6884087     
   45898821.6884086     
   45898821.6884086     
   45898821.6884087     
   45898821.6884087     
   45898821.6884087     
   45898821.6884088     
   45898821.6884088     
   45898821.6884088     
   45898821.6884088     
   45898821.6884088     
   45898821.6884088     
   45898821.6884088     
   45228575.4387831     
   45228575.4387832     
   45228575.4387832     
   45228575.4387832     
   45228575.4387832     
   45228575.4387833     
   45228575.4387834     
   45228575.4387834     
   45228575.4387835     
   45228575.4387835     
   45228575.4387835     
   45228575.4387835     
   45228575.4387835     
   45228575.4387836     
   45228575.4387836     
   45228575.4387836     
   45228575.4387836     
   45228575.4387836     
   45228575.4387835     
   45228575.4387835     
   45228575.4387835     
   45228575.4387835     
   45228575.4387835     
   45228575.4387835     
   45228575.4387835     
   45228575.4387835     
   45228575.4387835     
   45228575.4387835     
   45228575.4387835     
   45228575.4387834     
   45228575.4387834     
   45228575.4387834     
   45228575.4387833     
   45228575.4387833     
   45228575.4387832     
   45228575.4387832     
   45228575.4387831     
   45228575.4387831     
   45228575.4387831     
   45228575.4387831     
   45228575.4387830     
   45228575.4387830     
   45228575.4387830     
   45228575.4387830     
   45228575.4387830     
   45228575.4387830     
   45228575.4387831     
   45228575.4387831     
   45228575.4387832     
   45228575.4387831     
   45228575.4387831     
   44462694.6904092     
   44462694.6904092     
   44462694.6904092     
   44462694.6904093     
   44462694.6904093     
   44462694.6904094     
   44462694.6904095     
   44462694.6904095     
   44462694.6904096     
   44462694.6904097     
   44462694.6904097     
   44462694.6904097     
   44462694.6904097     
   44462694.6904097     
   44462694.6904097     
   44462694.6904097     
   44462694.6904097     
   44462694.6904097     
   44462694.6904097     
   44462694.6904096     
   44462694.6904097     
   44462694.6904097     
   44462694.6904097     
   44462694.6904096     
   44462694.6904096     
   44462694.6904096     
   44462694.6904096     
   44462694.6904096     
   44462694.6904096     
   44462694.6904096     
   44462694.6904096     
   44462694.6904096     
   44462694.6904096     
   44462694.6904095     
   44462694.6904095     
   44462694.6904094     
   44462694.6904094     
   44462694.6904094     
   44462694.6904094     
   44462694.6904093     
   44462694.6904093     
   44462694.6904093     
   44462694.6904093     
   44462694.6904093     
   44462694.6904093     
   44462694.6904093     
   44462694.6904093     
   44462694.6904093     
   44462694.6904093     
   44462694.6904093     
   44462694.6904093     
   43591061.5247789     
   43591061.5247790     
   43591061.5247790     
   43591061.5247790     
   43591061.5247790     
   43591061.5247791     
   43591061.5247792     
   43591061.5247793     
   43591061.5247793     
   43591061.5247794     
   43591061.5247794     
   43591061.5247794     
   43591061.5247794     
   43591061.5247794     
   43591061.5247795     
   43591061.5247795     
   43591061.5247795     
   43591061.5247795     
   43591061.5247794     
   43591061.5247794     
   43591061.5247794     
   43591061.5247794     
   43591061.5247793     
   43591061.5247793     
   43591061.5247793     
   43591061.5247793     
   43591061.5247793     
   43591061.5247793     
   43591061.5247793     
   43591061.5247793     
   43591061.5247793     
   43591061.5247792     
   43591061.5247793     
   43591061.5247792     
   43591061.5247792     
   43591061.5247791     
   43591061.5247790     
   43591061.5247790     
   43591061.5247790     
   43591061.5247790     
   43591061.5247789     
   43591061.5247790     
   43591061.5247790     
   43591061.5247790     
   43591061.5247790     
   43591061.5247790     
   43591061.5247790     
   43591061.5247791     
   43591061.5247791     
   43591061.5247791     
   43591061.5247791     
   42603432.8666234     
   42603432.8666234     
   42603432.8666234     
   42603432.8666234     
   42603432.8666235     
   42603432.8666235     
   42603432.8666236     
   42603432.8666237     
   42603432.8666237     
   42603432.8666237     
   42603432.8666237     
   42603432.8666238     
   42603432.8666237     
   42603432.8666238     
   42603432.8666238     
   42603432.8666238     
   42603432.8666238     
   42603432.8666238     
   42603432.8666237     
   42603432.8666237     
   42603432.8666237     
   42603432.8666237     
   42603432.8666236     
   42603432.8666236     
   42603432.8666237     
   42603432.8666237     
   42603432.8666237     
   42603432.8666236     
   42603432.8666236     
   42603432.8666236     
   42603432.8666236     
   42603432.8666235     
   42603432.8666235     
   42603432.8666235     
   42603432.8666235     
   42603432.8666234     
   42603432.8666234     
   42603432.8666234     
   42603432.8666233     
   42603432.8666233     
   42603432.8666233     
   42603432.8666234     
   42603432.8666234     
   42603432.8666234     
   42603432.8666234     
   42603432.8666234     
   42603432.8666234     
   42603432.8666234     
   42603432.8666235     
   42603432.8666234     
   42603432.8666234     
   41489750.5367261     
   41489750.5367261     
   41489750.5367262     
   41489750.5367262     
   41489750.5367262     
   41489750.5367263     
   41489750.5367263     
   41489750.5367263     
   41489750.5367264     
   41489750.5367264     
   41489750.5367264     
   41489750.5367264     
   41489750.5367265     
   41489750.5367265     
   41489750.5367265     
   41489750.5367264     
   41489750.5367264     
   41489750.5367264     
   41489750.5367264     
   41489750.5367263     
   41489750.5367263     
   41489750.5367263     
   41489750.5367263     
   41489750.5367263     
   41489750.5367263     
   41489750.5367263     
   41489750.5367264     
   41489750.5367264     
   41489750.5367263     
   41489750.5367263     
   41489750.5367263     
   41489750.5367263     
   41489750.5367262     
   41489750.5367262     
   41489750.5367261     
   41489750.5367261     
   41489750.5367260     
   41489750.5367260     
   41489750.5367260     
   41489750.5367259     
   41489750.5367259     
   41489750.5367259     
   41489750.5367260     
   41489750.5367260     
   41489750.5367260     
   41489750.5367261     
   41489750.5367261     
   41489750.5367261     
   41489750.5367261     
   41489750.5367261     
   41489750.5367261     
   40240549.4929135     
   40240549.4929135     
   40240549.4929135     
   40240549.4929136     
   40240549.4929136     
   40240549.4929136     
   40240549.4929137     
   40240549.4929137     
   40240549.4929137     
   40240549.4929137     
   40240549.4929137     
   40240549.4929137     
   40240549.4929137     
   40240549.4929138     
   40240549.4929138     
   40240549.4929138     
   40240549.4929138     
   40240549.4929138     
   40240549.4929138     
   40240549.4929138     
   40240549.4929138     
   40240549.4929138     
   40240549.4929138     
   40240549.4929138     
   40240549.4929138     
   40240549.4929138     
   40240549.4929138     
   40240549.4929137     
   40240549.4929137     
   40240549.4929137     
   40240549.4929137     
   40240549.4929136     
   40240549.4929136     
   40240549.4929136     
   40240549.4929135     
   40240549.4929134     
   40240549.4929134     
   40240549.4929134     
   40240549.4929134     
   40240549.4929134     
   40240549.4929133     
   40240549.4929133     
   40240549.4929133     
   40240549.4929134     
   40240549.4929134     
   40240549.4929134     
   40240549.4929134     
   40240549.4929134     
   40240549.4929134     
   40240549.4929134     
   40240549.4929135     
   38847477.8782225     
   38847477.8782225     
   38847477.8782225     
   38847477.8782225     
   38847477.8782225     
   38847477.8782226     
   38847477.8782226     
   38847477.8782226     
   38847477.8782227     
   38847477.8782227     
   38847477.8782227     
   38847477.8782228     
   38847477.8782228     
   38847477.8782228     
   38847477.8782229     
   38847477.8782229     
   38847477.8782229     
   38847477.8782228     
   38847477.8782228     
   38847477.8782228     
   38847477.8782228     
   38847477.8782227     
   38847477.8782227     
   38847477.8782227     
   38847477.8782228     
   38847477.8782227     
   38847477.8782227     
   38847477.8782227     
   38847477.8782227     
   38847477.8782226     
   38847477.8782226     
   38847477.8782226     
   38847477.8782226     
   38847477.8782225     
   38847477.8782225     
   38847477.8782224     
   38847477.8782224     
   38847477.8782223     
   38847477.8782223     
   38847477.8782223     
   38847477.8782223     
   38847477.8782223     
   38847477.8782223     
   38847477.8782224     
   38847477.8782224     
   38847477.8782224     
   38847477.8782224     
   38847477.8782224     
   38847477.8782224     
   38847477.8782224     
   38847477.8782224     
   37303939.1608265     
   37303939.1608265     
   37303939.1608265     
   37303939.1608265     
   37303939.1608265     
   37303939.1608266     
   37303939.1608266     
   37303939.1608266     
   37303939.1608267     
   37303939.1608267     
   37303939.1608267     
   37303939.1608268     
   37303939.1608268     
   37303939.1608268     
   37303939.1608268     
   37303939.1608269     
   37303939.1608269     
   37303939.1608269     
   37303939.1608268     
   37303939.1608268     
   37303939.1608268     
   37303939.1608268     
   37303939.1608268     
   37303939.1608267     
   37303939.1608267     
   37303939.1608266     
   37303939.1608266     
   37303939.1608266     
   37303939.1608266     
   37303939.1608266     
   37303939.1608266     
   37303939.1608265     
   37303939.1608265     
   37303939.1608265     
   37303939.1608264     
   37303939.1608264     
   37303939.1608263     
   37303939.1608263     
   37303939.1608262     
   37303939.1608262     
   37303939.1608262     
   37303939.1608262     
   37303939.1608262     
   37303939.1608262     
   37303939.1608263     
   37303939.1608263     
   37303939.1608263     
   37303939.1608263     
   37303939.1608263     
   37303939.1608263     
   37303939.1608263     
   35605859.7999413     
   35605859.7999413     
   35605859.7999413     
   35605859.7999413     
   35605859.7999413     
   35605859.7999413     
   35605859.7999414     
   35605859.7999414     
   35605859.7999414     
   35605859.7999415     
   35605859.7999415     
   35605859.7999415     
   35605859.7999416     
   35605859.7999416     
   35605859.7999416     
   35605859.7999416     
   35605859.7999416     
   35605859.7999416     
   35605859.7999416     
   35605859.7999416     
   35605859.7999415     
   35605859.7999415     
   35605859.7999415     
   35605859.7999415     
   35605859.7999415     
   35605859.7999415     
   35605859.7999415     
   35605859.7999414     
   35605859.7999414     
   35605859.7999413     
   35605859.7999413     
   35605859.7999412     
   35605859.7999412     
   35605859.7999412     
   35605859.7999412     
   35605859.7999411     
   35605859.7999411     
   35605859.7999410     
   35605859.7999410     
   35605859.7999410     
   35605859.7999410     
   35605859.7999410     
   35605859.7999410     
   35605859.7999410     
   35605859.7999410     
   35605859.7999410     
   35605859.7999410     
   35605859.7999410     
   35605859.7999410     
   35605859.7999410     
   35605859.7999410     
   33752573.7077378     
   33752573.7077378     
   33752573.7077378     
   33752573.7077378     
   33752573.7077378     
   33752573.7077378     
   33752573.7077378     
   33752573.7077379     
   33752573.7077380     
   33752573.7077379     
   33752573.7077380     
   33752573.7077380     
   33752573.7077380     
   33752573.7077380     
   33752573.7077380     
   33752573.7077380     
   33752573.7077380     
   33752573.7077380     
   33752573.7077379     
   33752573.7077379     
   33752573.7077379     
   33752573.7077379     
   33752573.7077379     
   33752573.7077379     
   33752573.7077379     
   33752573.7077378     
   33752573.7077378     
   33752573.7077378     
   33752573.7077378     
   33752573.7077377     
   33752573.7077378     
   33752573.7077377     
   33752573.7077377     
   33752573.7077376     
   33752573.7077376     
   33752573.7077375     
   33752573.7077375     
   33752573.7077374     
   33752573.7077374     
   33752573.7077374     
   33752573.7077374     
   33752573.7077373     
   33752573.7077373     
   33752573.7077374     
   33752573.7077374     
   33752573.7077374     
   33752573.7077374     
   33752573.7077374     
   33752573.7077374     
   33752573.7077374     
   33752573.7077374     
   31747794.7603447     
   31747794.7603447     
   31747794.7603447     
   31747794.7603447     
   31747794.7603447     
   31747794.7603447     
   31747794.7603447     
   31747794.7603448     
   31747794.7603448     
   31747794.7603448     
   31747794.7603448     
   31747794.7603448     
   31747794.7603448     
   31747794.7603448     
   31747794.7603449     
   31747794.7603449     
   31747794.7603448     
   31747794.7603448     
   31747794.7603447     
   31747794.7603447     
   31747794.7603447     
   31747794.7603447     
   31747794.7603447     
   31747794.7603447     
   31747794.7603447     
   31747794.7603447     
   31747794.7603447     
   31747794.7603447     
   31747794.7603447     
   31747794.7603447     
   31747794.7603446     
   31747794.7603446     
   31747794.7603446     
   31747794.7603445     
   31747794.7603444     
   31747794.7603443     
   31747794.7603443     
   31747794.7603442     
   31747794.7603442     
   31747794.7603442     
   31747794.7603442     
   31747794.7603442     
   31747794.7603442     
   31747794.7603442     
   31747794.7603442     
   31747794.7603442     
   31747794.7603442     
   31747794.7603442     
   31747794.7603442     
   31747794.7603442     
   31747794.7603442     
   29600617.1878682     
   29600617.1878682     
   29600617.1878683     
   29600617.1878682     
   29600617.1878683     
   29600617.1878683     
   29600617.1878684     
   29600617.1878684     
   29600617.1878684     
   29600617.1878684     
   29600617.1878684     
   29600617.1878684     
   29600617.1878685     
   29600617.1878685     
   29600617.1878685     
   29600617.1878685     
   29600617.1878684     
   29600617.1878684     
   29600617.1878684     
   29600617.1878684     
   29600617.1878683     
   29600617.1878684     
   29600617.1878684     
   29600617.1878683     
   29600617.1878684     
   29600617.1878683     
   29600617.1878683     
   29600617.1878683     
   29600617.1878683     
   29600617.1878682     
   29600617.1878682     
   29600617.1878682     
   29600617.1878682     
   29600617.1878681     
   29600617.1878680     
   29600617.1878680     
   29600617.1878680     
   29600617.1878679     
   29600617.1878679     
   29600617.1878679     
   29600617.1878678     
   29600617.1878678     
   29600617.1878679     
   29600617.1878678     
   29600617.1878679     
   29600617.1878679     
   29600617.1878679     
   29600617.1878679     
   29600617.1878679     
   29600617.1878679     
   29600617.1878679     
   27326435.9081632     
   27326435.9081633     
   27326435.9081632     
   27326435.9081633     
   27326435.9081632     
   27326435.9081633     
   27326435.9081633     
   27326435.9081634     
   27326435.9081633     
   27326435.9081634     
   27326435.9081634     
   27326435.9081634     
   27326435.9081634     
   27326435.9081635     
   27326435.9081635     
   27326435.9081635     
   27326435.9081635     
   27326435.9081635     
   27326435.9081634     
   27326435.9081634     
   27326435.9081634     
   27326435.9081634     
   27326435.9081634     
   27326435.9081633     
   27326435.9081633     
   27326435.9081633     
   27326435.9081634     
   27326435.9081633     
   27326435.9081633     
   27326435.9081633     
   27326435.9081632     
   27326435.9081633     
   27326435.9081632     
   27326435.9081632     
   27326435.9081631     
   27326435.9081631     
   27326435.9081630     
   27326435.9081630     
   27326435.9081630     
   27326435.9081630     
   27326435.9081629     
   27326435.9081630     
   27326435.9081629     
   27326435.9081629     
   27326435.9081629     
   27326435.9081629     
   27326435.9081629     
   27326435.9081629     
   27326435.9081629     
   27326435.9081629     
   27326435.9081629     
   24947607.9505814     
   24947607.9505814     
   24947607.9505814     
   24947607.9505814     
   24947607.9505814     
   24947607.9505814     
   24947607.9505814     
   24947607.9505815     
   24947607.9505815     
   24947607.9505815     
   24947607.9505815     
   24947607.9505815     
   24947607.9505815     
   24947607.9505815     
   24947607.9505816     
   24947607.9505815     
   24947607.9505815     
   24947607.9505815     
   24947607.9505815     
   24947607.9505815     
   24947607.9505815     
   24947607.9505815     
   24947607.9505815     
   24947607.9505815     
   24947607.9505815     
   24947607.9505815     
   24947607.9505815     
   24947607.9505815     
   24947607.9505815     
   24947607.9505814     
   24947607.9505814     
   24947607.9505814     
   24947607.9505814     
   24947607.9505813     
   24947607.9505813     
   24947607.9505813     
   24947607.9505812     
   24947607.9505812     
   24947607.9505812     
   24947607.9505812     
   24947607.9505811     
   24947607.9505812     
   24947607.9505811     
   24947607.9505811     
   24947607.9505811     
   24947607.9505811     
   24947607.9505812     
   24947607.9505812     
   24947607.9505812     
   24947607.9505812     
   24947607.9505812     
   22493572.6981604     
   22493572.6981604     
   22493572.6981604     
   22493572.6981604     
   22493572.6981604     
   22493572.6981604     
   22493572.6981604     
   22493572.6981604     
   22493572.6981605     
   22493572.6981605     
   22493572.6981605     
   22493572.6981605     
   22493572.6981605     
   22493572.6981605     
   22493572.6981605     
   22493572.6981605     
   22493572.6981605     
   22493572.6981605     
   22493572.6981605     
   22493572.6981605     
   22493572.6981605     
   22493572.6981605     
   22493572.6981605     
   22493572.6981605     
   22493572.6981605     
   22493572.6981605     
   22493572.6981605     
   22493572.6981605     
   22493572.6981605     
   22493572.6981605     
   22493572.6981605     
   22493572.6981605     
   22493572.6981605     
   22493572.6981605     
   22493572.6981604     
   22493572.6981604     
   22493572.6981604     
   22493572.6981603     
   22493572.6981603     
   22493572.6981603     
   22493572.6981603     
   22493572.6981603     
   22493572.6981603     
   22493572.6981603     
   22493572.6981603     
   22493572.6981603     
   22493572.6981603     
   22493572.6981603     
   22493572.6981603     
   22493572.6981603     
   22493572.6981603     
   20000000.0000000     
   20000000.0000000     
   20000000.0000000     
   20000000.0000000     
   20000000.0000000     
   20000000.0000000     
   20000000.0000000     
   20000000.0000000     
   20000000.0000000     
   20000000.0000000     
   20000000.0000000     
   20000000.0000000     
   20000000.0000000     
   20000000.0000000     
   20000000.0000000     
   20000000.0000000     
   20000000.0000000     
   20000000.0000000     
   20000000.0000000     
   20000000.0000000     
   20000000.0000000     
   20000000.0000000     
   20000000.0000000     
   20000000.0000000     
   20000000.0000000     
   20000000.0000000     
   20000000.0000000     
   20000000.0000000     
   20000000.0000000     
   20000000.0000000     
   20000000.0000000     
   20000000.0000000     
   20000000.0000000     
   20000000.0000000     
   20000000.0000000     
   20000000.0000000     
   20000000.0000000     
   20000000.0000000     
   20000000.0000000     
   20000000.0000000     
   20000000.0000000     
   20000000.0000000     
   20000000.0000000     
   20000000.0000000     
   20000000.0000000     
   20000000.0000000     
   20000000.0000000     
   20000000.0000000     
   20000000.0000000     
   20000000.0000000     
   20000000.0000000     
VECTORS u double 
    0.00000E+00         0.15996E-05         0.00000E+00
    0.00000E+00         0.15996E-05         0.00000E+00
    0.00000E+00         0.15995E-05         0.00000E+00
    0.00000E+00         0.15992E-05         0.00000E+00
    0.00000E+00         0.15987E-05         0.00000E+00
    0.00000E+00         0.15978E-05         0.00000E+00
    0.00000E+00         0.15966E-05         0.00000E+00
    0.00000E+00         0.15948E-05         0.00000E+00
    0.00000E+00         0.15925E-05         0.00000E+00
    0.00000E+00         0.15895E-05         0.00000E+00
    0.00000E+00         0.15858E-05         0.00000E+00
    0.00000E+00         0.15812E-05         0.00000E+00
    0.00000E+00         0.15757E-05         0.00000E+00
    0.00000E+00         0.15693E-05         0.00000E+00
    0.00000E+00         0.15617E-05         0.00000E+00
    0.00000E+00         0.15530E-05         0.00000E+00
    0.00000E+00         0.15431E-05         0.00000E+00
    0.00000E+00         0.15318E-05         0.00000E+00
    0.00000E+00         0.15192E-05         0.00000E+00
    0.00000E+00         0.15050E-05         0.00000E+00
    0.00000E+00         0.14894E-05         0.00000E+00
    0.00000E+00         0.14721E-05         0.00000E+00
    0.00000E+00         0.14532E-05         0.00000E+00
    0.00000E+00         0.14324E-05         0.00000E+00
    0.00000E+00         0.14099E-05         0.00000E+00
    0.00000E+00         0.13854E-05         0.00000E+00
    0.00000E+00         0.13590E-05         0.00000E+00
    0.00000E+00         0.13306E-05         0.00000E+00
    0.00000E+00         0.13000E-05         0.00000E+00
    0.00000E+00         0.12673E-05         0.00000E+00
    0.00000E+00         0.12324E-05         0.00000E+00
    0.00000E+00         0.11952E-05         0.00000E+00
    0.00000E+00         0.11557E-05         0.00000E+00
    0.00000E+00         0.11139E-05         0.00000E+00
    0.00000E+00         0.10696E-05         0.00000E+00
    0.00000E+00         0.10228E-05         0.00000E+00
    0.00000E+00         0.97350E-06         0.00000E+00
    0.00000E+00         0.92164E-06         0.00000E+00
    0.00000E+00         0.86719E-06         0.00000E+00
    0.00000E+00         0.81010E-06         0.00000E+00
    0.00000E+00         0.75033E-06         0.00000E+00
    0.00000E+00         0.68786E-06         0.00000E+00
    0.00000E+00         0.62265E-06         0.00000E+00
    0.00000E+00         0.55468E-06         0.00000E+00
    0.00000E+00         0.48393E-06         0.00000E+00
    0.00000E+00         0.41037E-06         0.00000E+00
    0.00000E+00         0.33399E-06         0.00000E+00
    0.00000E+00         0.25477E-06         0.00000E+00
    0.00000E+00         0.17271E-06         0.00000E+00
    0.00000E+00         0.87785E-07         0.00000E+00
    0.00000E+00         0.00000E+00         0.00000E+00
    0.72825E-06         0.16107E-05         0.00000E+00
    0.73229E-06         0.16107E-05         0.00000E+00
    0.73551E-06         0.16106E-05         0.00000E+00
    0.73790E-06         0.16103E-05         0.00000E+00
    0.73947E-06         0.16098E-05         0.00000E+00
    0.74019E-06         0.16090E-05         0.00000E+00
    0.74008E-06         0.16077E-05         0.00000E+00
    0.73913E-06         0.16060E-05         0.00000E+00
    0.73734E-06         0.16036E-05         0.00000E+00
    0.73471E-06         0.16006E-05         0.00000E+00
    0.73124E-06         0.15969E-05         0.00000E+00
    0.72694E-06         0.15923E-05         0.00000E+00
    0.72180E-06         0.15867E-05         0.00000E+00
    0.71583E-06         0.15802E-05         0.00000E+00
    0.70903E-06         0.15726E-05         0.00000E+00
    0.70141E-06         0.15639E-05         0.00000E+00
    0.69297E-06         0.15539E-05         0.00000E+00
    0.68372E-06         0.15425E-05         0.00000E+00
    0.67367E-06         0.15298E-05         0.00000E+00
    0.66281E-06         0.15156E-05         0.00000E+00
    0.65117E-06         0.14998E-05         0.00000E+00
    0.63875E-06         0.14824E-05         0.00000E+00
    0.62555E-06         0.14633E-05         0.00000E+00
    0.61159E-06         0.14425E-05         0.00000E+00
    0.59688E-06         0.14198E-05         0.00000E+00
    0.58143E-06         0.13951E-05         0.00000E+00
    0.56526E-06         0.13685E-05         0.00000E+00
    0.54836E-06         0.13399E-05         0.00000E+00
    0.53077E-06         0.13091E-05         0.00000E+00
    0.51249E-06         0.12762E-05         0.00000E+00
    0.49353E-06         0.12411E-05         0.00000E+00
    0.47392E-06         0.12036E-05         0.00000E+00
    0.45366E-06         0.11639E-05         0.00000E+00
    0.43278E-06         0.11217E-05         0.00000E+00
    0.41128E-06         0.10771E-05         0.00000E+00
    0.38920E-06         0.10300E-05         0.00000E+00
    0.36654E-06         0.98033E-06         0.00000E+00
    0.34332E-06         0.92812E-06         0.00000E+00
    0.31956E-06         0.87328E-06         0.00000E+00
    0.29529E-06         0.81578E-06         0.00000E+00
    0.27052E-06         0.75560E-06         0.00000E+00
    0.24526E-06         0.69268E-06         0.00000E+00
    0.21956E-06         0.62702E-06         0.00000E+00
    0.19341E-06         0.55857E-06         0.00000E+00
    0.16685E-06         0.48732E-06         0.00000E+00
    0.13989E-06         0.41325E-06         0.00000E+00
    0.11257E-06         0.33633E-06         0.00000E+00
    0.84894E-07         0.25656E-06         0.00000E+00
    0.56892E-07         0.17392E-06         0.00000E+00
    0.28587E-07         0.88400E-07         0.00000E+00
    0.00000E+00         0.00000E+00         0.00000E+00
    0.14667E-05         0.16442E-05         0.00000E+00
    0.14748E-05         0.16442E-05         0.00000E+00
    0.14813E-05         0.16442E-05         0.00000E+00
    0.14862E-05         0.16439E-05         0.00000E+00
    0.14893E-05         0.16434E-05         0.00000E+00
    0.14908E-05         0.16426E-05         0.00000E+00
    0.14906E-05         0.16413E-05         0.00000E+00
    0.14886E-05         0.16395E-05         0.00000E+00
    0.14850E-05         0.16372E-05         0.00000E+00
    0.14797E-05         0.16341E-05         0.00000E+00
    0.14728E-05         0.16303E-05         0.00000E+00
    0.14641E-05         0.16256E-05         0.00000E+00
    0.14537E-05         0.16200E-05         0.00000E+00
    0.14417E-05         0.16133E-05         0.00000E+00
    0.14280E-05         0.16056E-05         0.00000E+00
    0.14127E-05         0.15966E-05         0.00000E+00
    0.13957E-05         0.15864E-05         0.00000E+00
    0.13770E-05         0.15749E-05         0.00000E+00
    0.13568E-05         0.15619E-05         0.00000E+00
    0.13349E-05         0.15474E-05         0.00000E+00
    0.13115E-05         0.15313E-05         0.00000E+00
    0.12864E-05         0.15135E-05         0.00000E+00
    0.12599E-05         0.14941E-05         0.00000E+00
    0.12318E-05         0.14728E-05         0.00000E+00
    0.12021E-05         0.14496E-05         0.00000E+00
    0.11710E-05         0.14244E-05         0.00000E+00
    0.11384E-05         0.13973E-05         0.00000E+00
    0.11044E-05         0.13680E-05         0.00000E+00
    0.10690E-05         0.13366E-05         0.00000E+00
    0.10321E-05         0.13030E-05         0.00000E+00
    0.99396E-06         0.12671E-05         0.00000E+00
    0.95446E-06         0.12289E-05         0.00000E+00
    0.91366E-06         0.11883E-05         0.00000E+00
    0.87160E-06         0.11453E-05         0.00000E+00
    0.82830E-06         0.10997E-05         0.00000E+00
    0.78382E-06         0.10516E-05         0.00000E+00
    0.73818E-06         0.10009E-05         0.00000E+00
    0.69142E-06         0.94762E-06         0.00000E+00
    0.64357E-06         0.89163E-06         0.00000E+00
    0.59468E-06         0.83293E-06         0.00000E+00
    0.54479E-06         0.77148E-06         0.00000E+00
    0.49393E-06         0.70724E-06         0.00000E+00
    0.44215E-06         0.64020E-06         0.00000E+00
    0.38949E-06         0.57031E-06         0.00000E+00
    0.33600E-06         0.49756E-06         0.00000E+00
    0.28171E-06         0.42193E-06         0.00000E+00
    0.22668E-06         0.34340E-06         0.00000E+00
    0.17094E-06         0.26195E-06         0.00000E+00
    0.11456E-06         0.17757E-06         0.00000E+00
    0.57558E-07         0.90256E-07         0.00000E+00
    0.00000E+00         0.00000E+00         0.00000E+00
    0.22258E-05         0.17008E-05         0.00000E+00
    0.22382E-05         0.17008E-05         0.00000E+00
    0.22481E-05         0.17007E-05         0.00000E+00
    0.22554E-05         0.17005E-05         0.00000E+00
    0.22602E-05         0.17000E-05         0.00000E+00
    0.22624E-05         0.16992E-05         0.00000E+00
    0.22621E-05         0.16979E-05         0.00000E+00
    0.22592E-05         0.16961E-05         0.00000E+00
    0.22537E-05         0.16936E-05         0.00000E+00
    0.22457E-05         0.16905E-05         0.00000E+00
    0.22351E-05         0.16865E-05         0.00000E+00
    0.22219E-05         0.16817E-05         0.00000E+00
    0.22062E-05         0.16759E-05         0.00000E+00
    0.21879E-05         0.16690E-05         0.00000E+00
    0.21672E-05         0.16610E-05         0.00000E+00
    0.21439E-05         0.16518E-05         0.00000E+00
    0.21181E-05         0.16412E-05         0.00000E+00
    0.20898E-05         0.16293E-05         0.00000E+00
    0.20590E-05         0.16159E-05         0.00000E+00
    0.20258E-05         0.16009E-05         0.00000E+00
    0.19903E-05         0.15842E-05         0.00000E+00
    0.19523E-05         0.15659E-05         0.00000E+00
    0.19119E-05         0.15457E-05         0.00000E+00
    0.18693E-05         0.15237E-05         0.00000E+00
    0.18243E-05         0.14997E-05         0.00000E+00
    0.17771E-05         0.14737E-05         0.00000E+00
    0.17276E-05         0.14456E-05         0.00000E+00
    0.16760E-05         0.14154E-05         0.00000E+00
    0.16222E-05         0.13829E-05         0.00000E+00
    0.15663E-05         0.13481E-05         0.00000E+00
    0.15084E-05         0.13110E-05         0.00000E+00
    0.14484E-05         0.12715E-05         0.00000E+00
    0.13865E-05         0.12294E-05         0.00000E+00
    0.13227E-05         0.11849E-05         0.00000E+00
    0.12570E-05         0.11378E-05         0.00000E+00
    0.11895E-05         0.10880E-05         0.00000E+00
    0.11202E-05         0.10356E-05         0.00000E+00
    0.10492E-05         0.98043E-06         0.00000E+00
    0.97661E-06         0.92251E-06         0.00000E+00
    0.90242E-06         0.86177E-06         0.00000E+00
    0.82670E-06         0.79819E-06         0.00000E+00
    0.74952E-06         0.73173E-06         0.00000E+00
    0.67094E-06         0.66237E-06         0.00000E+00
    0.59103E-06         0.59006E-06         0.00000E+00
    0.50985E-06         0.51480E-06         0.00000E+00
    0.42747E-06         0.43654E-06         0.00000E+00
    0.34396E-06         0.35529E-06         0.00000E+00
    0.25939E-06         0.27102E-06         0.00000E+00
    0.17382E-06         0.18372E-06         0.00000E+00
    0.87336E-07         0.93382E-07         0.00000E+00
    0.00000E+00         0.00000E+00         0.00000E+00
    0.30163E-05         0.17811E-05         0.00000E+00
    0.30331E-05         0.17812E-05         0.00000E+00
    0.30465E-05         0.17811E-05         0.00000E+00
    0.30565E-05         0.17809E-05         0.00000E+00
    0.30630E-05         0.17804E-05         0.00000E+00
    0.30660E-05         0.17796E-05         0.00000E+00
    0.30655E-05         0.17782E-05         0.00000E+00
    0.30616E-05         0.17763E-05         0.00000E+00
    0.30542E-05         0.17738E-05         0.00000E+00
    0.30433E-05         0.17705E-05         0.00000E+00
    0.30289E-05         0.17664E-05         0.00000E+00
    0.30111E-05         0.17614E-05         0.00000E+00
    0.29898E-05         0.17553E-05         0.00000E+00
    0.29650E-05         0.17481E-05         0.00000E+00
    0.29369E-05         0.17398E-05         0.00000E+00
    0.29053E-05         0.17301E-05         0.00000E+00
    0.28703E-05         0.17191E-05         0.00000E+00
    0.28320E-05         0.17066E-05         0.00000E+00
    0.27903E-05         0.16925E-05         0.00000E+00
    0.27453E-05         0.16768E-05         0.00000E+00
    0.26971E-05         0.16594E-05         0.00000E+00
    0.26456E-05         0.16402E-05         0.00000E+00
    0.25909E-05         0.16191E-05         0.00000E+00
    0.25331E-05         0.15960E-05         0.00000E+00
    0.24722E-05         0.15709E-05         0.00000E+00
    0.24082E-05         0.15437E-05         0.00000E+00
    0.23412E-05         0.15143E-05         0.00000E+00
    0.22712E-05         0.14826E-05         0.00000E+00
    0.21983E-05         0.14486E-05         0.00000E+00
    0.21226E-05         0.14121E-05         0.00000E+00
    0.20440E-05         0.13733E-05         0.00000E+00
    0.19628E-05         0.13318E-05         0.00000E+00
    0.18789E-05         0.12878E-05         0.00000E+00
    0.17924E-05         0.12412E-05         0.00000E+00
    0.17033E-05         0.11918E-05         0.00000E+00
    0.16118E-05         0.11397E-05         0.00000E+00
    0.15180E-05         0.10848E-05         0.00000E+00
    0.14218E-05         0.10270E-05         0.00000E+00
    0.13234E-05         0.96634E-06         0.00000E+00
    0.12228E-05         0.90272E-06         0.00000E+00
    0.11202E-05         0.83612E-06         0.00000E+00
    0.10157E-05         0.76651E-06         0.00000E+00
    0.90917E-06         0.69384E-06         0.00000E+00
    0.80088E-06         0.61811E-06         0.00000E+00
    0.69088E-06         0.53926E-06         0.00000E+00
    0.57925E-06         0.45729E-06         0.00000E+00
    0.46608E-06         0.37218E-06         0.00000E+00
    0.35148E-06         0.28390E-06         0.00000E+00
    0.23553E-06         0.19245E-06         0.00000E+00
    0.11834E-06         0.97821E-07         0.00000E+00
    0.00000E+00         0.00000E+00         0.00000E+00
    0.38495E-05         0.18864E-05         0.00000E+00
    0.38710E-05         0.18865E-05         0.00000E+00
    0.38881E-05         0.18865E-05         0.00000E+00
    0.39008E-05         0.18863E-05         0.00000E+00
    0.39090E-05         0.18858E-05         0.00000E+00
    0.39129E-05         0.18849E-05         0.00000E+00
    0.39123E-05         0.18835E-05         0.00000E+00
    0.39073E-05         0.18815E-05         0.00000E+00
    0.38978E-05         0.18788E-05         0.00000E+00
    0.38839E-05         0.18754E-05         0.00000E+00
    0.38656E-05         0.18710E-05         0.00000E+00
    0.38428E-05         0.18657E-05         0.00000E+00
    0.38156E-05         0.18593E-05         0.00000E+00
    0.37840E-05         0.18517E-05         0.00000E+00
    0.37481E-05         0.18429E-05         0.00000E+00
    0.37077E-05         0.18327E-05         0.00000E+00
    0.36631E-05         0.18210E-05         0.00000E+00
    0.36142E-05         0.18078E-05         0.00000E+00
    0.35610E-05         0.17929E-05         0.00000E+00
    0.35036E-05         0.17763E-05         0.00000E+00
    0.34420E-05         0.17578E-05         0.00000E+00
    0.33763E-05         0.17375E-05         0.00000E+00
    0.33065E-05         0.17151E-05         0.00000E+00
    0.32327E-05         0.16907E-05         0.00000E+00
    0.31549E-05         0.16641E-05         0.00000E+00
    0.30732E-05         0.16353E-05         0.00000E+00
    0.29877E-05         0.16041E-05         0.00000E+00
    0.28984E-05         0.15706E-05         0.00000E+00
    0.28054E-05         0.15346E-05         0.00000E+00
    0.27087E-05         0.14960E-05         0.00000E+00
    0.26085E-05         0.14548E-05         0.00000E+00
    0.25048E-05         0.14109E-05         0.00000E+00
    0.23977E-05         0.13643E-05         0.00000E+00
    0.22873E-05         0.13149E-05         0.00000E+00
    0.21737E-05         0.12626E-05         0.00000E+00
    0.20569E-05         0.12074E-05         0.00000E+00
    0.19371E-05         0.11492E-05         0.00000E+00
    0.18144E-05         0.10880E-05         0.00000E+00
    0.16888E-05         0.10237E-05         0.00000E+00
    0.15605E-05         0.95635E-06         0.00000E+00
    0.14296E-05         0.88580E-06         0.00000E+00
    0.12961E-05         0.81205E-06         0.00000E+00
    0.11602E-05         0.73507E-06         0.00000E+00
    0.10220E-05         0.65483E-06         0.00000E+00
    0.88163E-06         0.57130E-06         0.00000E+00
    0.73918E-06         0.48447E-06         0.00000E+00
    0.59477E-06         0.39429E-06         0.00000E+00
    0.44852E-06         0.30077E-06         0.00000E+00
    0.30056E-06         0.20389E-06         0.00000E+00
    0.15101E-06         0.10363E-06         0.00000E+00
    0.00000E+00         0.00000E+00         0.00000E+00
    0.47372E-05         0.20182E-05         0.00000E+00
    0.47636E-05         0.20183E-05         0.00000E+00
    0.47846E-05         0.20183E-05         0.00000E+00
    0.48002E-05         0.20181E-05         0.00000E+00
    0.48104E-05         0.20175E-05         0.00000E+00
    0.48151E-05         0.20166E-05         0.00000E+00
    0.48144E-05         0.20151E-05         0.00000E+00
    0.48082E-05         0.20130E-05         0.00000E+00
    0.47965E-05         0.20102E-05         0.00000E+00
    0.47794E-05         0.20065E-05         0.00000E+00
    0.47568E-05         0.20019E-05         0.00000E+00
    0.47288E-05         0.19962E-05         0.00000E+00
    0.46953E-05         0.19894E-05         0.00000E+00
    0.46564E-05         0.19813E-05         0.00000E+00
    0.46122E-05         0.19718E-05         0.00000E+00
    0.45626E-05         0.19609E-05         0.00000E+00
    0.45076E-05         0.19484E-05         0.00000E+00
    0.44474E-05         0.19343E-05         0.00000E+00
    0.43819E-05         0.19184E-05         0.00000E+00
    0.43113E-05         0.19006E-05         0.00000E+00
    0.42355E-05         0.18809E-05         0.00000E+00
    0.41546E-05         0.18592E-05         0.00000E+00
    0.40688E-05         0.18353E-05         0.00000E+00
    0.39779E-05         0.18091E-05         0.00000E+00
    0.38822E-05         0.17807E-05         0.00000E+00
    0.37817E-05         0.17499E-05         0.00000E+00
    0.36764E-05         0.17165E-05         0.00000E+00
    0.35665E-05         0.16806E-05         0.00000E+00
    0.34520E-05         0.16421E-05         0.00000E+00
    0.33331E-05         0.16008E-05         0.00000E+00
    0.32097E-05         0.15568E-05         0.00000E+00
    0.30821E-05         0.15098E-05         0.00000E+00
    0.29504E-05         0.14599E-05         0.00000E+00
    0.28145E-05         0.14071E-05         0.00000E+00
    0.26747E-05         0.13511E-05         0.00000E+00
    0.25310E-05         0.12921E-05         0.00000E+00
    0.23836E-05         0.12298E-05         0.00000E+00
    0.22326E-05         0.11643E-05         0.00000E+00
    0.20780E-05         0.10955E-05         0.00000E+00
    0.19201E-05         0.10234E-05         0.00000E+00
    0.17590E-05         0.94791E-06         0.00000E+00
    0.15948E-05         0.86899E-06         0.00000E+00
    0.14276E-05         0.78661E-06         0.00000E+00
    0.12575E-05         0.70075E-06         0.00000E+00
    0.10848E-05         0.61137E-06         0.00000E+00
    0.90952E-06         0.51844E-06         0.00000E+00
    0.73183E-06         0.42195E-06         0.00000E+00
    0.55188E-06         0.32187E-06         0.00000E+00
    0.36982E-06         0.21819E-06         0.00000E+00
    0.18581E-06         0.11090E-06         0.00000E+00
    0.00000E+00         0.00000E+00         0.00000E+00
    0.56919E-05         0.21781E-05         0.00000E+00
    0.57236E-05         0.21782E-05         0.00000E+00
    0.57488E-05         0.21783E-05         0.00000E+00
    0.57676E-05         0.21781E-05         0.00000E+00
    0.57798E-05         0.21775E-05         0.00000E+00
    0.57855E-05         0.21765E-05         0.00000E+00
    0.57846E-05         0.21750E-05         0.00000E+00
    0.57771E-05         0.21727E-05         0.00000E+00
    0.57631E-05         0.21697E-05         0.00000E+00
    0.57425E-05         0.21657E-05         0.00000E+00
    0.57153E-05         0.21608E-05         0.00000E+00
    0.56816E-05         0.21547E-05         0.00000E+00
    0.56414E-05         0.21473E-05         0.00000E+00
    0.55947E-05         0.21386E-05         0.00000E+00
    0.55415E-05         0.21284E-05         0.00000E+00
    0.54818E-05         0.21166E-05         0.00000E+00
    0.54158E-05         0.21032E-05         0.00000E+00
    0.53434E-05         0.20879E-05         0.00000E+00
    0.52648E-05         0.20708E-05         0.00000E+00
    0.51799E-05         0.20516E-05         0.00000E+00
    0.50888E-05         0.20304E-05         0.00000E+00
    0.49916E-05         0.20069E-05         0.00000E+00
    0.48884E-05         0.19811E-05         0.00000E+00
    0.47793E-05         0.19529E-05         0.00000E+00
    0.46642E-05         0.19222E-05         0.00000E+00
    0.45434E-05         0.18889E-05         0.00000E+00
    0.44170E-05         0.18530E-05         0.00000E+00
    0.42849E-05         0.18142E-05         0.00000E+00
    0.41473E-05         0.17726E-05         0.00000E+00
    0.40044E-05         0.17281E-05         0.00000E+00
    0.38562E-05         0.16805E-05         0.00000E+00
    0.37029E-05         0.16299E-05         0.00000E+00
    0.35446E-05         0.15760E-05         0.00000E+00
    0.33814E-05         0.15190E-05         0.00000E+00
    0.32134E-05         0.14586E-05         0.00000E+00
    0.30407E-05         0.13948E-05         0.00000E+00
    0.28636E-05         0.13276E-05         0.00000E+00
    0.26822E-05         0.12569E-05         0.00000E+00
    0.24965E-05         0.11827E-05         0.00000E+00
    0.23068E-05         0.11048E-05         0.00000E+00
    0.21133E-05         0.10233E-05         0.00000E+00
    0.19160E-05         0.93812E-06         0.00000E+00
    0.17151E-05         0.84920E-06         0.00000E+00
    0.15108E-05         0.75650E-06         0.00000E+00
    0.13033E-05         0.66001E-06         0.00000E+00
    0.10927E-05         0.55969E-06         0.00000E+00
    0.87920E-06         0.45552E-06         0.00000E+00
    0.66301E-06         0.34748E-06         0.00000E+00
    0.44429E-06         0.23555E-06         0.00000E+00
    0.22323E-06         0.11973E-06         0.00000E+00
    0.00000E+00         0.00000E+00         0.00000E+00
    0.67272E-05         0.23685E-05         0.00000E+00
    0.67646E-05         0.23686E-05         0.00000E+00
    0.67945E-05         0.23687E-05         0.00000E+00
    0.68166E-05         0.23685E-05         0.00000E+00
    0.68310E-05         0.23679E-05         0.00000E+00
    0.68377E-05         0.23669E-05         0.00000E+00
    0.68366E-05         0.23652E-05         0.00000E+00
    0.68277E-05         0.23628E-05         0.00000E+00
    0.68111E-05         0.23595E-05         0.00000E+00
    0.67867E-05         0.23552E-05         0.00000E+00
    0.67546E-05         0.23499E-05         0.00000E+00
    0.67147E-05         0.23432E-05         0.00000E+00
    0.66672E-05         0.23353E-05         0.00000E+00
    0.66119E-05         0.23258E-05         0.00000E+00
    0.65490E-05         0.23148E-05         0.00000E+00
    0.64785E-05         0.23020E-05         0.00000E+00
    0.64004E-05         0.22874E-05         0.00000E+00
    0.63149E-05         0.22708E-05         0.00000E+00
    0.62219E-05         0.22522E-05         0.00000E+00
    0.61215E-05         0.22313E-05         0.00000E+00
    0.60139E-05         0.22082E-05         0.00000E+00
    0.58990E-05         0.21827E-05         0.00000E+00
    0.57770E-05         0.21547E-05         0.00000E+00
    0.56480E-05         0.21240E-05         0.00000E+00
    0.55121E-05         0.20907E-05         0.00000E+00
    0.53693E-05         0.20545E-05         0.00000E+00
    0.52198E-05         0.20154E-05         0.00000E+00
    0.50637E-05         0.19732E-05         0.00000E+00
    0.49011E-05         0.19280E-05         0.00000E+00
    0.47322E-05         0.18796E-05         0.00000E+00
    0.45571E-05         0.18279E-05         0.00000E+00
    0.43759E-05         0.17728E-05         0.00000E+00
    0.41888E-05         0.17142E-05         0.00000E+00
    0.39959E-05         0.16521E-05         0.00000E+00
    0.37973E-05         0.15865E-05         0.00000E+00
    0.35933E-05         0.15171E-05         0.00000E+00
    0.33840E-05         0.14440E-05         0.00000E+00
    0.31696E-05         0.13671E-05         0.00000E+00
    0.29502E-05         0.12864E-05         0.00000E+00
    0.27260E-05         0.12017E-05         0.00000E+00
    0.24973E-05         0.11131E-05         0.00000E+00
    0.22641E-05         0.10204E-05         0.00000E+00
    0.20267E-05         0.92368E-06         0.00000E+00
    0.17853E-05         0.82286E-06         0.00000E+00
    0.15401E-05         0.71791E-06         0.00000E+00
    0.12912E-05         0.60879E-06         0.00000E+00
    0.10389E-05         0.49548E-06         0.00000E+00
    0.78348E-06         0.37796E-06         0.00000E+00
    0.52502E-06         0.25622E-06         0.00000E+00
    0.26379E-06         0.13023E-06         0.00000E+00
    0.00000E+00         0.00000E+00         0.00000E+00
    0.78577E-05         0.25918E-05         0.00000E+00
    0.79014E-05         0.25921E-05         0.00000E+00
    0.79362E-05         0.25922E-05         0.00000E+00
    0.79620E-05         0.25920E-05         0.00000E+00
    0.79788E-05         0.25914E-05         0.00000E+00
    0.79866E-05         0.25903E-05         0.00000E+00
    0.79853E-05         0.25885E-05         0.00000E+00
    0.79749E-05         0.25858E-05         0.00000E+00
    0.79554E-05         0.25823E-05         0.00000E+00
    0.79269E-05         0.25776E-05         0.00000E+00
    0.78893E-05         0.25718E-05         0.00000E+00
    0.78427E-05         0.25646E-05         0.00000E+00
    0.77871E-05         0.25558E-05         0.00000E+00
    0.77226E-05         0.25455E-05         0.00000E+00
    0.76490E-05         0.25334E-05         0.00000E+00
    0.75667E-05         0.25195E-05         0.00000E+00
    0.74754E-05         0.25035E-05         0.00000E+00
    0.73755E-05         0.24854E-05         0.00000E+00
    0.72668E-05         0.24650E-05         0.00000E+00
    0.71496E-05         0.24423E-05         0.00000E+00
    0.70238E-05         0.24170E-05         0.00000E+00
    0.68896E-05         0.23891E-05         0.00000E+00
    0.67471E-05         0.23584E-05         0.00000E+00
    0.65964E-05         0.23249E-05         0.00000E+00
    0.64376E-05         0.22884E-05         0.00000E+00
    0.62708E-05         0.22488E-05         0.00000E+00
    0.60962E-05         0.22060E-05         0.00000E+00
    0.59139E-05         0.21599E-05         0.00000E+00
    0.57240E-05         0.21104E-05         0.00000E+00
    0.55267E-05         0.20573E-05         0.00000E+00
    0.53222E-05         0.20007E-05         0.00000E+00
    0.51106E-05         0.19404E-05         0.00000E+00
    0.48920E-05         0.18764E-05         0.00000E+00
    0.46667E-05         0.18084E-05         0.00000E+00
    0.44348E-05         0.17366E-05         0.00000E+00
    0.41965E-05         0.16606E-05         0.00000E+00
    0.39521E-05         0.15806E-05         0.00000E+00
    0.37017E-05         0.14965E-05         0.00000E+00
    0.34454E-05         0.14081E-05         0.00000E+00
    0.31836E-05         0.13154E-05         0.00000E+00
    0.29164E-05         0.12184E-05         0.00000E+00
    0.26441E-05         0.11170E-05         0.00000E+00
    0.23669E-05         0.10111E-05         0.00000E+00
    0.20849E-05         0.90073E-06         0.00000E+00
    0.17986E-05         0.78585E-06         0.00000E+00
    0.15079E-05         0.66641E-06         0.00000E+00
    0.12133E-05         0.54238E-06         0.00000E+00
    0.91497E-06         0.41374E-06         0.00000E+00
    0.61313E-06         0.28047E-06         0.00000E+00
    0.30806E-06         0.14256E-06         0.00000E+00
    0.00000E+00         0.00000E+00         0.00000E+00
    0.90995E-05         0.28513E-05         0.00000E+00
    0.91501E-05         0.28516E-05         0.00000E+00
    0.91903E-05         0.28517E-05         0.00000E+00
    0.92201E-05         0.28515E-05         0.00000E+00
    0.92395E-05         0.28509E-05         0.00000E+00
    0.92484E-05         0.28497E-05         0.00000E+00
    0.92469E-05         0.28478E-05         0.00000E+00
    0.92348E-05         0.28449E-05         0.00000E+00
    0.92122E-05         0.28410E-05         0.00000E+00
    0.91791E-05         0.28360E-05         0.00000E+00
    0.91356E-05         0.28295E-05         0.00000E+00
    0.90815E-05         0.28216E-05         0.00000E+00
    0.90171E-05         0.28121E-05         0.00000E+00
    0.89423E-05         0.28007E-05         0.00000E+00
    0.88571E-05         0.27875E-05         0.00000E+00
    0.87616E-05         0.27721E-05         0.00000E+00
    0.86560E-05         0.27546E-05         0.00000E+00
    0.85402E-05         0.27347E-05         0.00000E+00
    0.84143E-05         0.27123E-05         0.00000E+00
    0.82785E-05         0.26872E-05         0.00000E+00
    0.81328E-05         0.26594E-05         0.00000E+00
    0.79774E-05         0.26288E-05         0.00000E+00
    0.78124E-05         0.25950E-05         0.00000E+00
    0.76379E-05         0.25582E-05         0.00000E+00
    0.74539E-05         0.25180E-05         0.00000E+00
    0.72608E-05         0.24744E-05         0.00000E+00
    0.70586E-05         0.24274E-05         0.00000E+00
    0.68475E-05         0.23766E-05         0.00000E+00
    0.66276E-05         0.23222E-05         0.00000E+00
    0.63991E-05         0.22639E-05         0.00000E+00
    0.61623E-05         0.22016E-05         0.00000E+00
    0.59172E-05         0.21352E-05         0.00000E+00
    0.56641E-05         0.20648E-05         0.00000E+00
    0.54032E-05         0.19900E-05         0.00000E+00
    0.51347E-05         0.19109E-05         0.00000E+00
    0.48588E-05         0.18274E-05         0.00000E+00
    0.45758E-05         0.17394E-05         0.00000E+00
    0.42858E-05         0.16468E-05         0.00000E+00
    0.39891E-05         0.15495E-05         0.00000E+00
    0.36860E-05         0.14475E-05         0.00000E+00
    0.33767E-05         0.13407E-05         0.00000E+00
    0.30614E-05         0.12291E-05         0.00000E+00
    0.27404E-05         0.11126E-05         0.00000E+00
    0.24139E-05         0.99120E-06         0.00000E+00
    0.20823E-05         0.86478E-06         0.00000E+00
    0.17459E-05         0.73334E-06         0.00000E+00
    0.14048E-05         0.59686E-06         0.00000E+00
    0.10593E-05         0.45530E-06         0.00000E+00
    0.70988E-06         0.30864E-06         0.00000E+00
    0.35666E-06         0.15688E-06         0.00000E+00
    0.00000E+00         0.00000E+00         0.00000E+00
    0.10470E-04         0.31503E-05         0.00000E+00
    0.10528E-04         0.31507E-05         0.00000E+00
    0.10574E-04         0.31509E-05         0.00000E+00
    0.10609E-04         0.31507E-05         0.00000E+00
    0.10631E-04         0.31501E-05         0.00000E+00
    0.10641E-04         0.31488E-05         0.00000E+00
    0.10639E-04         0.31467E-05         0.00000E+00
    0.10625E-04         0.31436E-05         0.00000E+00
    0.10599E-04         0.31393E-05         0.00000E+00
    0.10561E-04         0.31337E-05         0.00000E+00
    0.10511E-04         0.31267E-05         0.00000E+00
    0.10449E-04         0.31180E-05         0.00000E+00
    0.10374E-04         0.31074E-05         0.00000E+00
    0.10288E-04         0.30949E-05         0.00000E+00
    0.10190E-04         0.30803E-05         0.00000E+00
    0.10080E-04         0.30634E-05         0.00000E+00
    0.99586E-05         0.30440E-05         0.00000E+00
    0.98253E-05         0.30221E-05         0.00000E+00
    0.96805E-05         0.29973E-05         0.00000E+00
    0.95242E-05         0.29697E-05         0.00000E+00
    0.93566E-05         0.29390E-05         0.00000E+00
    0.91777E-05         0.29051E-05         0.00000E+00
    0.89878E-05         0.28678E-05         0.00000E+00
    0.87869E-05         0.28271E-05         0.00000E+00
    0.85753E-05         0.27827E-05         0.00000E+00
    0.83531E-05         0.27346E-05         0.00000E+00
    0.81204E-05         0.26826E-05         0.00000E+00
    0.78775E-05         0.26266E-05         0.00000E+00
    0.76245E-05         0.25664E-05         0.00000E+00
    0.73616E-05         0.25020E-05         0.00000E+00
    0.70891E-05         0.24331E-05         0.00000E+00
    0.68071E-05         0.23598E-05         0.00000E+00
    0.65160E-05         0.22819E-05         0.00000E+00
    0.62158E-05         0.21993E-05         0.00000E+00
    0.59069E-05         0.21119E-05         0.00000E+00
    0.55895E-05         0.20196E-05         0.00000E+00
    0.52639E-05         0.19224E-05         0.00000E+00
    0.49303E-05         0.18200E-05         0.00000E+00
    0.45890E-05         0.17125E-05         0.00000E+00
    0.42403E-05         0.15998E-05         0.00000E+00
    0.38844E-05         0.14818E-05         0.00000E+00
    0.35217E-05         0.13585E-05         0.00000E+00
    0.31524E-05         0.12297E-05         0.00000E+00
    0.27769E-05         0.10955E-05         0.00000E+00
    0.23954E-05         0.95578E-06         0.00000E+00
    0.20083E-05         0.81052E-06         0.00000E+00
    0.16160E-05         0.65967E-06         0.00000E+00
    0.12186E-05         0.50322E-06         0.00000E+00
    0.81660E-06         0.34113E-06         0.00000E+00
    0.41029E-06         0.17339E-06         0.00000E+00
    0.00000E+00         0.00000E+00         0.00000E+00
    0.11989E-04         0.34930E-05         0.00000E+00
    0.12056E-04         0.34935E-05         0.00000E+00
    0.12108E-04         0.34937E-05         0.00000E+00
    0.12147E-04         0.34936E-05         0.00000E+00
    0.12173E-04         0.34930E-05         0.00000E+00
    0.12184E-04         0.34916E-05         0.00000E+00
    0.12182E-04         0.34893E-05         0.00000E+00
    0.12166E-04         0.34859E-05         0.00000E+00
    0.12136E-04         0.34812E-05         0.00000E+00
    0.12092E-04         0.34750E-05         0.00000E+00
    0.12035E-04         0.34672E-05         0.00000E+00
    0.11963E-04         0.34576E-05         0.00000E+00
    0.11878E-04         0.34460E-05         0.00000E+00
    0.11779E-04         0.34322E-05         0.00000E+00
    0.11667E-04         0.34160E-05         0.00000E+00
    0.11541E-04         0.33972E-05         0.00000E+00
    0.11402E-04         0.33758E-05         0.00000E+00
    0.11249E-04         0.33515E-05         0.00000E+00
    0.11083E-04         0.33241E-05         0.00000E+00
    0.10904E-04         0.32934E-05         0.00000E+00
    0.10712E-04         0.32594E-05         0.00000E+00
    0.10507E-04         0.32218E-05         0.00000E+00
    0.10290E-04         0.31806E-05         0.00000E+00
    0.10060E-04         0.31354E-05         0.00000E+00
    0.98175E-05         0.30862E-05         0.00000E+00
    0.95630E-05         0.30329E-05         0.00000E+00
    0.92966E-05         0.29752E-05         0.00000E+00
    0.90184E-05         0.29131E-05         0.00000E+00
    0.87287E-05         0.28463E-05         0.00000E+00
    0.84277E-05         0.27749E-05         0.00000E+00
    0.81157E-05         0.26986E-05         0.00000E+00
    0.77929E-05         0.26173E-05         0.00000E+00
    0.74595E-05         0.25309E-05         0.00000E+00
    0.71158E-05         0.24393E-05         0.00000E+00
    0.67622E-05         0.23424E-05         0.00000E+00
    0.63988E-05         0.22400E-05         0.00000E+00
    0.60260E-05         0.21321E-05         0.00000E+00
    0.56441E-05         0.20186E-05         0.00000E+00
    0.52534E-05         0.18994E-05         0.00000E+00
    0.48541E-05         0.17744E-05         0.00000E+00
    0.44467E-05         0.16435E-05         0.00000E+00
    0.40315E-05         0.15067E-05         0.00000E+00
    0.36087E-05         0.13639E-05         0.00000E+00
    0.31789E-05         0.12151E-05         0.00000E+00
    0.27422E-05         0.10601E-05         0.00000E+00
    0.22991E-05         0.89899E-06         0.00000E+00
    0.18499E-05         0.73168E-06         0.00000E+00
    0.13950E-05         0.55815E-06         0.00000E+00
    0.93480E-06         0.37837E-06         0.00000E+00
    0.46967E-06         0.19232E-06         0.00000E+00
    0.00000E+00         0.00000E+00         0.00000E+00
    0.13678E-04         0.38840E-05         0.00000E+00
    0.13753E-04         0.38846E-05         0.00000E+00
    0.13813E-04         0.38849E-05         0.00000E+00
    0.13858E-04         0.38848E-05         0.00000E+00
    0.13887E-04         0.38841E-05         0.00000E+00
    0.13900E-04         0.38827E-05         0.00000E+00
    0.13897E-04         0.38801E-05         0.00000E+00
    0.13878E-04         0.38764E-05         0.00000E+00
    0.13844E-04         0.38713E-05         0.00000E+00
    0.13794E-04         0.38645E-05         0.00000E+00
    0.13728E-04         0.38559E-05         0.00000E+00
    0.13647E-04         0.38452E-05         0.00000E+00
    0.13550E-04         0.38323E-05         0.00000E+00
    0.13437E-04         0.38170E-05         0.00000E+00
    0.13308E-04         0.37990E-05         0.00000E+00
    0.13165E-04         0.37782E-05         0.00000E+00
    0.13006E-04         0.37544E-05         0.00000E+00
    0.12831E-04         0.37274E-05         0.00000E+00
    0.12642E-04         0.36969E-05         0.00000E+00
    0.12438E-04         0.36629E-05         0.00000E+00
    0.12219E-04         0.36251E-05         0.00000E+00
    0.11985E-04         0.35833E-05         0.00000E+00
    0.11737E-04         0.35374E-05         0.00000E+00
    0.11474E-04         0.34872E-05         0.00000E+00
    0.11198E-04         0.34326E-05         0.00000E+00
    0.10908E-04         0.33732E-05         0.00000E+00
    0.10604E-04         0.33091E-05         0.00000E+00
    0.10286E-04         0.32400E-05         0.00000E+00
    0.99558E-05         0.31659E-05         0.00000E+00
    0.96124E-05         0.30864E-05         0.00000E+00
    0.92565E-05         0.30015E-05         0.00000E+00
    0.88882E-05         0.29111E-05         0.00000E+00
    0.85079E-05         0.28151E-05         0.00000E+00
    0.81159E-05         0.27132E-05         0.00000E+00
    0.77126E-05         0.26054E-05         0.00000E+00
    0.72981E-05         0.24915E-05         0.00000E+00
    0.68729E-05         0.23715E-05         0.00000E+00
    0.64372E-05         0.22453E-05         0.00000E+00
    0.59916E-05         0.21127E-05         0.00000E+00
    0.55362E-05         0.19737E-05         0.00000E+00
    0.50715E-05         0.18281E-05         0.00000E+00
    0.45979E-05         0.16760E-05         0.00000E+00
    0.41158E-05         0.15171E-05         0.00000E+00
    0.36255E-05         0.13516E-05         0.00000E+00
    0.31274E-05         0.11792E-05         0.00000E+00
    0.26221E-05         0.99997E-06         0.00000E+00
    0.21098E-05         0.81387E-06         0.00000E+00
    0.15910E-05         0.62085E-06         0.00000E+00
    0.10661E-05         0.42087E-06         0.00000E+00
    0.53565E-06         0.21393E-06         0.00000E+00
    0.00000E+00         0.00000E+00         0.00000E+00
    0.15560E-04         0.43286E-05         0.00000E+00
    0.15646E-04         0.43292E-05         0.00000E+00
    0.15714E-04         0.43297E-05         0.00000E+00
    0.15764E-04         0.43296E-05         0.00000E+00
    0.15797E-04         0.43290E-05         0.00000E+00
    0.15811E-04         0.43274E-05         0.00000E+00
    0.15808E-04         0.43246E-05         0.00000E+00
    0.15787E-04         0.43205E-05         0.00000E+00
    0.15748E-04         0.43148E-05         0.00000E+00
    0.15691E-04         0.43073E-05         0.00000E+00
    0.15616E-04         0.42978E-05         0.00000E+00
    0.15523E-04         0.42859E-05         0.00000E+00
    0.15412E-04         0.42716E-05         0.00000E+00
    0.15284E-04         0.42546E-05         0.00000E+00
    0.15138E-04         0.42346E-05         0.00000E+00
    0.14974E-04         0.42115E-05         0.00000E+00
    0.14793E-04         0.41850E-05         0.00000E+00
    0.14595E-04         0.41549E-05         0.00000E+00
    0.14379E-04         0.41210E-05         0.00000E+00
    0.14147E-04         0.40831E-05         0.00000E+00
    0.13897E-04         0.40410E-05         0.00000E+00
    0.13631E-04         0.39945E-05         0.00000E+00
    0.13349E-04         0.39433E-05         0.00000E+00
    0.13050E-04         0.38874E-05         0.00000E+00
    0.12736E-04         0.38265E-05         0.00000E+00
    0.12406E-04         0.37604E-05         0.00000E+00
    0.12060E-04         0.36889E-05         0.00000E+00
    0.11699E-04         0.36120E-05         0.00000E+00
    0.11323E-04         0.35293E-05         0.00000E+00
    0.10932E-04         0.34407E-05         0.00000E+00
    0.10527E-04         0.33461E-05         0.00000E+00
    0.10109E-04         0.32454E-05         0.00000E+00
    0.96760E-05         0.31383E-05         0.00000E+00
    0.92301E-05         0.30247E-05         0.00000E+00
    0.87713E-05         0.29045E-05         0.00000E+00
    0.82999E-05         0.27776E-05         0.00000E+00
    0.78162E-05         0.26439E-05         0.00000E+00
    0.73208E-05         0.25032E-05         0.00000E+00
    0.68139E-05         0.23553E-05         0.00000E+00
    0.62960E-05         0.22003E-05         0.00000E+00
    0.57676E-05         0.20381E-05         0.00000E+00
    0.52290E-05         0.18685E-05         0.00000E+00
    0.46806E-05         0.16914E-05         0.00000E+00
    0.41230E-05         0.15068E-05         0.00000E+00
    0.35566E-05         0.13146E-05         0.00000E+00
    0.29819E-05         0.11148E-05         0.00000E+00
    0.23993E-05         0.90736E-06         0.00000E+00
    0.18093E-05         0.69217E-06         0.00000E+00
    0.12124E-05         0.46922E-06         0.00000E+00
    0.60915E-06         0.23850E-06         0.00000E+00
    0.00000E+00         0.00000E+00         0.00000E+00
    0.17662E-04         0.48326E-05         0.00000E+00
    0.17760E-04         0.48334E-05         0.00000E+00
    0.17837E-04         0.48340E-05         0.00000E+00
    0.17894E-04         0.48341E-05         0.00000E+00
    0.17930E-04         0.48334E-05         0.00000E+00
    0.17947E-04         0.48316E-05         0.00000E+00
    0.17943E-04         0.48287E-05         0.00000E+00
    0.17918E-04         0.48242E-05         0.00000E+00
    0.17874E-04         0.48179E-05         0.00000E+00
    0.17809E-04         0.48096E-05         0.00000E+00
    0.17723E-04         0.47990E-05         0.00000E+00
    0.17618E-04         0.47858E-05         0.00000E+00
    0.17492E-04         0.47699E-05         0.00000E+00
    0.17346E-04         0.47509E-05         0.00000E+00
    0.17180E-04         0.47287E-05         0.00000E+00
    0.16994E-04         0.47029E-05         0.00000E+00
    0.16789E-04         0.46734E-05         0.00000E+00
    0.16563E-04         0.46398E-05         0.00000E+00
    0.16319E-04         0.46020E-05         0.00000E+00
    0.16055E-04         0.45597E-05         0.00000E+00
    0.15772E-04         0.45128E-05         0.00000E+00
    0.15470E-04         0.44608E-05         0.00000E+00
    0.15149E-04         0.44038E-05         0.00000E+00
    0.14810E-04         0.43414E-05         0.00000E+00
    0.14453E-04         0.42734E-05         0.00000E+00
    0.14078E-04         0.41996E-05         0.00000E+00
    0.13685E-04         0.41198E-05         0.00000E+00
    0.13276E-04         0.40338E-05         0.00000E+00
    0.12849E-04         0.39415E-05         0.00000E+00
    0.12406E-04         0.38426E-05         0.00000E+00
    0.11946E-04         0.37370E-05         0.00000E+00
    0.11471E-04         0.36245E-05         0.00000E+00
    0.10980E-04         0.35049E-05         0.00000E+00
    0.10474E-04         0.33781E-05         0.00000E+00
    0.99532E-05         0.32439E-05         0.00000E+00
    0.94182E-05         0.31022E-05         0.00000E+00
    0.88693E-05         0.29528E-05         0.00000E+00
    0.83071E-05         0.27957E-05         0.00000E+00
    0.77319E-05         0.26306E-05         0.00000E+00
    0.71442E-05         0.24575E-05         0.00000E+00
    0.65445E-05         0.22763E-05         0.00000E+00
    0.59333E-05         0.20868E-05         0.00000E+00
    0.53111E-05         0.18891E-05         0.00000E+00
    0.46784E-05         0.16829E-05         0.00000E+00
    0.40357E-05         0.14683E-05         0.00000E+00
    0.33835E-05         0.12452E-05         0.00000E+00
    0.27224E-05         0.10134E-05         0.00000E+00
    0.20530E-05         0.77308E-06         0.00000E+00
    0.13757E-05         0.52408E-06         0.00000E+00
    0.69119E-06         0.26639E-06         0.00000E+00
    0.00000E+00         0.00000E+00         0.00000E+00
    0.20015E-04         0.54029E-05         0.00000E+00
    0.20125E-04         0.54039E-05         0.00000E+00
    0.20212E-04         0.54046E-05         0.00000E+00
    0.20276E-04         0.54048E-05         0.00000E+00
    0.20317E-04         0.54041E-05         0.00000E+00
    0.20335E-04         0.54023E-05         0.00000E+00
    0.20331E-04         0.53990E-05         0.00000E+00
    0.20303E-04         0.53941E-05         0.00000E+00
    0.20252E-04         0.53871E-05         0.00000E+00
    0.20178E-04         0.53779E-05         0.00000E+00
    0.20081E-04         0.53662E-05         0.00000E+00
    0.19961E-04         0.53515E-05         0.00000E+00
    0.19818E-04         0.53338E-05         0.00000E+00
    0.19653E-04         0.53127E-05         0.00000E+00
    0.19465E-04         0.52879E-05         0.00000E+00
    0.19254E-04         0.52591E-05         0.00000E+00
    0.19021E-04         0.52261E-05         0.00000E+00
    0.18765E-04         0.51887E-05         0.00000E+00
    0.18488E-04         0.51464E-05         0.00000E+00
    0.18188E-04         0.50992E-05         0.00000E+00
    0.17868E-04         0.50467E-05         0.00000E+00
    0.17525E-04         0.49887E-05         0.00000E+00
    0.17162E-04         0.49250E-05         0.00000E+00
    0.16778E-04         0.48552E-05         0.00000E+00
    0.16373E-04         0.47792E-05         0.00000E+00
    0.15948E-04         0.46967E-05         0.00000E+00
    0.15503E-04         0.46075E-05         0.00000E+00
    0.15039E-04         0.45114E-05         0.00000E+00
    0.14556E-04         0.44082E-05         0.00000E+00
    0.14053E-04         0.42976E-05         0.00000E+00
    0.13533E-04         0.41795E-05         0.00000E+00
    0.12994E-04         0.40537E-05         0.00000E+00
    0.12438E-04         0.39200E-05         0.00000E+00
    0.11865E-04         0.37782E-05         0.00000E+00
    0.11275E-04         0.36281E-05         0.00000E+00
    0.10669E-04         0.34696E-05         0.00000E+00
    0.10047E-04         0.33026E-05         0.00000E+00
    0.94099E-05         0.31268E-05         0.00000E+00
    0.87583E-05         0.29422E-05         0.00000E+00
    0.80925E-05         0.27486E-05         0.00000E+00
    0.74132E-05         0.25459E-05         0.00000E+00
    0.67209E-05         0.23341E-05         0.00000E+00
    0.60160E-05         0.21129E-05         0.00000E+00
    0.52993E-05         0.18823E-05         0.00000E+00
    0.45713E-05         0.16423E-05         0.00000E+00
    0.38325E-05         0.13927E-05         0.00000E+00
    0.30837E-05         0.11335E-05         0.00000E+00
    0.23254E-05         0.86469E-06         0.00000E+00
    0.15583E-05         0.58618E-06         0.00000E+00
    0.78291E-06         0.29796E-06         0.00000E+00
    0.00000E+00         0.00000E+00         0.00000E+00
    0.22650E-04         0.60470E-05         0.00000E+00
    0.22774E-04         0.60482E-05         0.00000E+00
    0.22872E-04         0.60492E-05         0.00000E+00
    0.22945E-04         0.60495E-05         0.00000E+00
    0.22991E-04         0.60488E-05         0.00000E+00
    0.23011E-04         0.60469E-05         0.00000E+00
    0.23006E-04         0.60433E-05         0.00000E+00
    0.22974E-04         0.60379E-05         0.00000E+00
    0.22916E-04         0.60302E-05         0.00000E+00
    0.22832E-04         0.60200E-05         0.00000E+00
    0.22722E-04         0.60069E-05         0.00000E+00
    0.22586E-04         0.59907E-05         0.00000E+00
    0.22424E-04         0.59709E-05         0.00000E+00
    0.22236E-04         0.59473E-05         0.00000E+00
    0.22023E-04         0.59196E-05         0.00000E+00
    0.21784E-04         0.58875E-05         0.00000E+00
    0.21520E-04         0.58507E-05         0.00000E+00
    0.21231E-04         0.58088E-05         0.00000E+00
    0.20917E-04         0.57616E-05         0.00000E+00
    0.20578E-04         0.57088E-05         0.00000E+00
    0.20215E-04         0.56501E-05         0.00000E+00
    0.19827E-04         0.55852E-05         0.00000E+00
    0.19416E-04         0.55139E-05         0.00000E+00
    0.18981E-04         0.54358E-05         0.00000E+00
    0.18523E-04         0.53508E-05         0.00000E+00
    0.18042E-04         0.52584E-05         0.00000E+00
    0.17539E-04         0.51586E-05         0.00000E+00
    0.17014E-04         0.50511E-05         0.00000E+00
    0.16466E-04         0.49356E-05         0.00000E+00
    0.15898E-04         0.48118E-05         0.00000E+00
    0.15309E-04         0.46796E-05         0.00000E+00
    0.14700E-04         0.45388E-05         0.00000E+00
    0.14070E-04         0.43891E-05         0.00000E+00
    0.13422E-04         0.42303E-05         0.00000E+00
    0.12754E-04         0.40623E-05         0.00000E+00
    0.12069E-04         0.38849E-05         0.00000E+00
    0.11365E-04         0.36979E-05         0.00000E+00
    0.10645E-04         0.35011E-05         0.00000E+00
    0.99073E-05         0.32944E-05         0.00000E+00
    0.91542E-05         0.30776E-05         0.00000E+00
    0.83857E-05         0.28507E-05         0.00000E+00
    0.76025E-05         0.26135E-05         0.00000E+00
    0.68052E-05         0.23658E-05         0.00000E+00
    0.59944E-05         0.21077E-05         0.00000E+00
    0.51709E-05         0.18389E-05         0.00000E+00
    0.43352E-05         0.15594E-05         0.00000E+00
    0.34882E-05         0.12692E-05         0.00000E+00
    0.26304E-05         0.96823E-06         0.00000E+00
    0.17626E-05         0.65637E-06         0.00000E+00
    0.88559E-06         0.33364E-06         0.00000E+00
    0.00000E+00         0.00000E+00         0.00000E+00
    0.25606E-04         0.67734E-05         0.00000E+00
    0.25746E-04         0.67750E-05         0.00000E+00
    0.25856E-04         0.67761E-05         0.00000E+00
    0.25937E-04         0.67766E-05         0.00000E+00
    0.25989E-04         0.67760E-05         0.00000E+00
    0.26012E-04         0.67740E-05         0.00000E+00
    0.26005E-04         0.67701E-05         0.00000E+00
    0.25969E-04         0.67642E-05         0.00000E+00
    0.25903E-04         0.67557E-05         0.00000E+00
    0.25808E-04         0.67444E-05         0.00000E+00
    0.25683E-04         0.67298E-05         0.00000E+00
    0.25529E-04         0.67117E-05         0.00000E+00
    0.25345E-04         0.66897E-05         0.00000E+00
    0.25133E-04         0.66634E-05         0.00000E+00
    0.24892E-04         0.66324E-05         0.00000E+00
    0.24621E-04         0.65965E-05         0.00000E+00
    0.24323E-04         0.65554E-05         0.00000E+00
    0.23995E-04         0.65085E-05         0.00000E+00
    0.23640E-04         0.64557E-05         0.00000E+00
    0.23257E-04         0.63966E-05         0.00000E+00
    0.22846E-04         0.63309E-05         0.00000E+00
    0.22408E-04         0.62583E-05         0.00000E+00
    0.21943E-04         0.61784E-05         0.00000E+00
    0.21451E-04         0.60910E-05         0.00000E+00
    0.20933E-04         0.59958E-05         0.00000E+00
    0.20390E-04         0.58924E-05         0.00000E+00
    0.19821E-04         0.57806E-05         0.00000E+00
    0.19227E-04         0.56601E-05         0.00000E+00
    0.18608E-04         0.55307E-05         0.00000E+00
    0.17966E-04         0.53921E-05         0.00000E+00
    0.17300E-04         0.52440E-05         0.00000E+00
    0.16611E-04         0.50862E-05         0.00000E+00
    0.15900E-04         0.49185E-05         0.00000E+00
    0.15167E-04         0.47406E-05         0.00000E+00
    0.14412E-04         0.45524E-05         0.00000E+00
    0.13637E-04         0.43536E-05         0.00000E+00
    0.12842E-04         0.41440E-05         0.00000E+00
    0.12028E-04         0.39235E-05         0.00000E+00
    0.11195E-04         0.36919E-05         0.00000E+00
    0.10344E-04         0.34490E-05         0.00000E+00
    0.94756E-05         0.31947E-05         0.00000E+00
    0.85905E-05         0.29289E-05         0.00000E+00
    0.76895E-05         0.26513E-05         0.00000E+00
    0.67734E-05         0.23620E-05         0.00000E+00
    0.58428E-05         0.20608E-05         0.00000E+00
    0.48985E-05         0.17477E-05         0.00000E+00
    0.39414E-05         0.14224E-05         0.00000E+00
    0.29722E-05         0.10851E-05         0.00000E+00
    0.19916E-05         0.73560E-06         0.00000E+00
    0.10006E-05         0.37391E-06         0.00000E+00
    0.00000E+00         0.00000E+00         0.00000E+00
    0.28924E-04         0.75917E-05         0.00000E+00
    0.29081E-04         0.75936E-05         0.00000E+00
    0.29205E-04         0.75951E-05         0.00000E+00
    0.29297E-04         0.75958E-05         0.00000E+00
    0.29355E-04         0.75953E-05         0.00000E+00
    0.29380E-04         0.75931E-05         0.00000E+00
    0.29371E-04         0.75890E-05         0.00000E+00
    0.29330E-04         0.75825E-05         0.00000E+00
    0.29255E-04         0.75731E-05         0.00000E+00
    0.29147E-04         0.75606E-05         0.00000E+00
    0.29005E-04         0.75444E-05         0.00000E+00
    0.28831E-04         0.75242E-05         0.00000E+00
    0.28624E-04         0.74997E-05         0.00000E+00
    0.28383E-04         0.74703E-05         0.00000E+00
    0.28110E-04         0.74357E-05         0.00000E+00
    0.27805E-04         0.73956E-05         0.00000E+00
    0.27467E-04         0.73495E-05         0.00000E+00
    0.27097E-04         0.72971E-05         0.00000E+00
    0.26695E-04         0.72380E-05         0.00000E+00
    0.26262E-04         0.71719E-05         0.00000E+00
    0.25798E-04         0.70983E-05         0.00000E+00
    0.25303E-04         0.70170E-05         0.00000E+00
    0.24777E-04         0.69275E-05         0.00000E+00
    0.24222E-04         0.68296E-05         0.00000E+00
    0.23637E-04         0.67228E-05         0.00000E+00
    0.23023E-04         0.66070E-05         0.00000E+00
    0.22380E-04         0.64817E-05         0.00000E+00
    0.21709E-04         0.63467E-05         0.00000E+00
    0.21011E-04         0.62016E-05         0.00000E+00
    0.20285E-04         0.60462E-05         0.00000E+00
    0.19533E-04         0.58802E-05         0.00000E+00
    0.18755E-04         0.57033E-05         0.00000E+00
    0.17952E-04         0.55153E-05         0.00000E+00
    0.17124E-04         0.53158E-05         0.00000E+00
    0.16272E-04         0.51048E-05         0.00000E+00
    0.15397E-04         0.48819E-05         0.00000E+00
    0.14499E-04         0.46469E-05         0.00000E+00
    0.13580E-04         0.43997E-05         0.00000E+00
    0.12639E-04         0.41400E-05         0.00000E+00
    0.11678E-04         0.38676E-05         0.00000E+00
    0.10698E-04         0.35825E-05         0.00000E+00
    0.96985E-05         0.32844E-05         0.00000E+00
    0.86813E-05         0.29732E-05         0.00000E+00
    0.76469E-05         0.26488E-05         0.00000E+00
    0.65963E-05         0.23110E-05         0.00000E+00
    0.55302E-05         0.19598E-05         0.00000E+00
    0.44497E-05         0.15951E-05         0.00000E+00
    0.33554E-05         0.12169E-05         0.00000E+00
    0.22485E-05         0.82493E-06         0.00000E+00
    0.11297E-05         0.41932E-06         0.00000E+00
    0.00000E+00         0.00000E+00         0.00000E+00
    0.32650E-04         0.85126E-05         0.00000E+00
    0.32827E-04         0.85149E-05         0.00000E+00
    0.32967E-04         0.85168E-05         0.00000E+00
    0.33069E-04         0.85177E-05         0.00000E+00
    0.33134E-04         0.85173E-05         0.00000E+00
    0.33162E-04         0.85152E-05         0.00000E+00
    0.33152E-04         0.85107E-05         0.00000E+00
    0.33104E-04         0.85036E-05         0.00000E+00
    0.33019E-04         0.84933E-05         0.00000E+00
    0.32896E-04         0.84794E-05         0.00000E+00
    0.32736E-04         0.84614E-05         0.00000E+00
    0.32539E-04         0.84389E-05         0.00000E+00
    0.32304E-04         0.84115E-05         0.00000E+00
    0.32032E-04         0.83787E-05         0.00000E+00
    0.31724E-04         0.83401E-05         0.00000E+00
    0.31378E-04         0.82953E-05         0.00000E+00
    0.30997E-04         0.82437E-05         0.00000E+00
    0.30579E-04         0.81851E-05         0.00000E+00
    0.30125E-04         0.81189E-05         0.00000E+00
    0.29636E-04         0.80448E-05         0.00000E+00
    0.29111E-04         0.79624E-05         0.00000E+00
    0.28552E-04         0.78712E-05         0.00000E+00
    0.27959E-04         0.77710E-05         0.00000E+00
    0.27332E-04         0.76612E-05         0.00000E+00
    0.26672E-04         0.75416E-05         0.00000E+00
    0.25978E-04         0.74117E-05         0.00000E+00
    0.25253E-04         0.72712E-05         0.00000E+00
    0.24495E-04         0.71198E-05         0.00000E+00
    0.23707E-04         0.69571E-05         0.00000E+00
    0.22888E-04         0.67829E-05         0.00000E+00
    0.22039E-04         0.65967E-05         0.00000E+00
    0.21161E-04         0.63983E-05         0.00000E+00
    0.20255E-04         0.61874E-05         0.00000E+00
    0.19320E-04         0.59637E-05         0.00000E+00
    0.18359E-04         0.57270E-05         0.00000E+00
    0.17372E-04         0.54769E-05         0.00000E+00
    0.16359E-04         0.52134E-05         0.00000E+00
    0.15321E-04         0.49360E-05         0.00000E+00
    0.14260E-04         0.46447E-05         0.00000E+00
    0.13176E-04         0.43392E-05         0.00000E+00
    0.12069E-04         0.40193E-05         0.00000E+00
    0.10942E-04         0.36849E-05         0.00000E+00
    0.97942E-05         0.33357E-05         0.00000E+00
    0.86272E-05         0.29718E-05         0.00000E+00
    0.74418E-05         0.25929E-05         0.00000E+00
    0.62391E-05         0.21989E-05         0.00000E+00
    0.50200E-05         0.17897E-05         0.00000E+00
    0.37855E-05         0.13653E-05         0.00000E+00
    0.25366E-05         0.92555E-06         0.00000E+00
    0.12745E-05         0.47047E-06         0.00000E+00
    0.00000E+00         0.00000E+00         0.00000E+00
    0.36838E-04         0.95479E-05         0.00000E+00
    0.37037E-04         0.95508E-05         0.00000E+00
    0.37193E-04         0.95531E-05         0.00000E+00
    0.37308E-04         0.95544E-05         0.00000E+00
    0.37381E-04         0.95542E-05         0.00000E+00
    0.37411E-04         0.95520E-05         0.00000E+00
    0.37399E-04         0.95473E-05         0.00000E+00
    0.37344E-04         0.95395E-05         0.00000E+00
    0.37248E-04         0.95281E-05         0.00000E+00
    0.37109E-04         0.95127E-05         0.00000E+00
    0.36927E-04         0.94928E-05         0.00000E+00
    0.36704E-04         0.94678E-05         0.00000E+00
    0.36438E-04         0.94372E-05         0.00000E+00
    0.36131E-04         0.94006E-05         0.00000E+00
    0.35782E-04         0.93575E-05         0.00000E+00
    0.35392E-04         0.93073E-05         0.00000E+00
    0.34961E-04         0.92497E-05         0.00000E+00
    0.34489E-04         0.91840E-05         0.00000E+00
    0.33977E-04         0.91099E-05         0.00000E+00
    0.33425E-04         0.90269E-05         0.00000E+00
    0.32833E-04         0.89346E-05         0.00000E+00
    0.32202E-04         0.88324E-05         0.00000E+00
    0.31532E-04         0.87200E-05         0.00000E+00
    0.30825E-04         0.85969E-05         0.00000E+00
    0.30079E-04         0.84628E-05         0.00000E+00
    0.29297E-04         0.83171E-05         0.00000E+00
    0.28478E-04         0.81596E-05         0.00000E+00
    0.27624E-04         0.79898E-05         0.00000E+00
    0.26734E-04         0.78073E-05         0.00000E+00
    0.25811E-04         0.76118E-05         0.00000E+00
    0.24853E-04         0.74029E-05         0.00000E+00
    0.23863E-04         0.71803E-05         0.00000E+00
    0.22840E-04         0.69437E-05         0.00000E+00
    0.21787E-04         0.66928E-05         0.00000E+00
    0.20703E-04         0.64271E-05         0.00000E+00
    0.19589E-04         0.61466E-05         0.00000E+00
    0.18447E-04         0.58508E-05         0.00000E+00
    0.17276E-04         0.55396E-05         0.00000E+00
    0.16080E-04         0.52127E-05         0.00000E+00
    0.14857E-04         0.48699E-05         0.00000E+00
    0.13609E-04         0.45109E-05         0.00000E+00
    0.12338E-04         0.41356E-05         0.00000E+00
    0.11044E-04         0.37438E-05         0.00000E+00
    0.97277E-05         0.33353E-05         0.00000E+00
    0.83911E-05         0.29100E-05         0.00000E+00
    0.70349E-05         0.24679E-05         0.00000E+00
    0.56603E-05         0.20086E-05         0.00000E+00
    0.42683E-05         0.15323E-05         0.00000E+00
    0.28601E-05         0.10388E-05         0.00000E+00
    0.14370E-05         0.52803E-06         0.00000E+00
    0.00000E+00         0.00000E+00         0.00000E+00
    0.41546E-04         0.10711E-04         0.00000E+00
    0.41769E-04         0.10715E-04         0.00000E+00
    0.41945E-04         0.10717E-04         0.00000E+00
    0.42073E-04         0.10719E-04         0.00000E+00
    0.42154E-04         0.10719E-04         0.00000E+00
    0.42187E-04         0.10717E-04         0.00000E+00
    0.42173E-04         0.10712E-04         0.00000E+00
    0.42110E-04         0.10704E-04         0.00000E+00
    0.42000E-04         0.10691E-04         0.00000E+00
    0.41843E-04         0.10674E-04         0.00000E+00
    0.41637E-04         0.10652E-04         0.00000E+00
    0.41385E-04         0.10624E-04         0.00000E+00
    0.41084E-04         0.10590E-04         0.00000E+00
    0.40737E-04         0.10549E-04         0.00000E+00
    0.40343E-04         0.10501E-04         0.00000E+00
    0.39903E-04         0.10445E-04         0.00000E+00
    0.39416E-04         0.10380E-04         0.00000E+00
    0.38883E-04         0.10307E-04         0.00000E+00
    0.38305E-04         0.10224E-04         0.00000E+00
    0.37682E-04         0.10131E-04         0.00000E+00
    0.37014E-04         0.10028E-04         0.00000E+00
    0.36302E-04         0.99130E-05         0.00000E+00
    0.35547E-04         0.97870E-05         0.00000E+00
    0.34748E-04         0.96490E-05         0.00000E+00
    0.33907E-04         0.94986E-05         0.00000E+00
    0.33025E-04         0.93352E-05         0.00000E+00
    0.32102E-04         0.91585E-05         0.00000E+00
    0.31138E-04         0.89680E-05         0.00000E+00
    0.30135E-04         0.87633E-05         0.00000E+00
    0.29094E-04         0.85439E-05         0.00000E+00
    0.28014E-04         0.83096E-05         0.00000E+00
    0.26897E-04         0.80598E-05         0.00000E+00
    0.25745E-04         0.77943E-05         0.00000E+00
    0.24557E-04         0.75126E-05         0.00000E+00
    0.23334E-04         0.72145E-05         0.00000E+00
    0.22079E-04         0.68997E-05         0.00000E+00
    0.20791E-04         0.65677E-05         0.00000E+00
    0.19472E-04         0.62184E-05         0.00000E+00
    0.18123E-04         0.58515E-05         0.00000E+00
    0.16745E-04         0.54667E-05         0.00000E+00
    0.15339E-04         0.50637E-05         0.00000E+00
    0.13905E-04         0.46425E-05         0.00000E+00
    0.12447E-04         0.42027E-05         0.00000E+00
    0.10964E-04         0.37442E-05         0.00000E+00
    0.94570E-05         0.32668E-05         0.00000E+00
    0.79285E-05         0.27704E-05         0.00000E+00
    0.63792E-05         0.22549E-05         0.00000E+00
    0.48104E-05         0.17202E-05         0.00000E+00
    0.32234E-05         0.11662E-05         0.00000E+00
    0.16195E-05         0.59278E-06         0.00000E+00
    0.00000E+00         0.00000E+00         0.00000E+00
    0.46841E-04         0.12017E-04         0.00000E+00
    0.47091E-04         0.12021E-04         0.00000E+00
    0.47288E-04         0.12025E-04         0.00000E+00
    0.47431E-04         0.12027E-04         0.00000E+00
    0.47521E-04         0.12028E-04         0.00000E+00
    0.47557E-04         0.12025E-04         0.00000E+00
    0.47540E-04         0.12020E-04         0.00000E+00
    0.47468E-04         0.12011E-04         0.00000E+00
    0.47343E-04         0.11997E-04         0.00000E+00
    0.47164E-04         0.11978E-04         0.00000E+00
    0.46932E-04         0.11954E-04         0.00000E+00
    0.46646E-04         0.11923E-04         0.00000E+00
    0.46307E-04         0.11885E-04         0.00000E+00
    0.45914E-04         0.11840E-04         0.00000E+00
    0.45469E-04         0.11786E-04         0.00000E+00
    0.44972E-04         0.11723E-04         0.00000E+00
    0.44422E-04         0.11651E-04         0.00000E+00
    0.43821E-04         0.11569E-04         0.00000E+00
    0.43169E-04         0.11476E-04         0.00000E+00
    0.42466E-04         0.11371E-04         0.00000E+00
    0.41712E-04         0.11255E-04         0.00000E+00
    0.40909E-04         0.11127E-04         0.00000E+00
    0.40057E-04         0.10986E-04         0.00000E+00
    0.39157E-04         0.10831E-04         0.00000E+00
    0.38209E-04         0.10662E-04         0.00000E+00
    0.37214E-04         0.10479E-04         0.00000E+00
    0.36173E-04         0.10281E-04         0.00000E+00
    0.35087E-04         0.10067E-04         0.00000E+00
    0.33956E-04         0.98375E-05         0.00000E+00
    0.32782E-04         0.95914E-05         0.00000E+00
    0.31565E-04         0.93284E-05         0.00000E+00
    0.30306E-04         0.90481E-05         0.00000E+00
    0.29007E-04         0.87501E-05         0.00000E+00
    0.27668E-04         0.84340E-05         0.00000E+00
    0.26291E-04         0.80994E-05         0.00000E+00
    0.24876E-04         0.77460E-05         0.00000E+00
    0.23425E-04         0.73734E-05         0.00000E+00
    0.21939E-04         0.69813E-05         0.00000E+00
    0.20418E-04         0.65694E-05         0.00000E+00
    0.18865E-04         0.61374E-05         0.00000E+00
    0.17281E-04         0.56851E-05         0.00000E+00
    0.15666E-04         0.52122E-05         0.00000E+00
    0.14023E-04         0.47184E-05         0.00000E+00
    0.12352E-04         0.42037E-05         0.00000E+00
    0.10654E-04         0.36678E-05         0.00000E+00
    0.89323E-05         0.31105E-05         0.00000E+00
    0.71868E-05         0.25317E-05         0.00000E+00
    0.54194E-05         0.19314E-05         0.00000E+00
    0.36315E-05         0.13093E-05         0.00000E+00
    0.18245E-05         0.66557E-06         0.00000E+00
    0.00000E+00         0.00000E+00         0.00000E+00
    0.52797E-04         0.13482E-04         0.00000E+00
    0.53077E-04         0.13487E-04         0.00000E+00
    0.53297E-04         0.13491E-04         0.00000E+00
    0.53457E-04         0.13495E-04         0.00000E+00
    0.53557E-04         0.13495E-04         0.00000E+00
    0.53596E-04         0.13493E-04         0.00000E+00
    0.53575E-04         0.13488E-04         0.00000E+00
    0.53493E-04         0.13478E-04         0.00000E+00
    0.53351E-04         0.13463E-04         0.00000E+00
    0.53148E-04         0.13442E-04         0.00000E+00
    0.52885E-04         0.13415E-04         0.00000E+00
    0.52561E-04         0.13381E-04         0.00000E+00
    0.52178E-04         0.13339E-04         0.00000E+00
    0.51735E-04         0.13288E-04         0.00000E+00
    0.51232E-04         0.13228E-04         0.00000E+00
    0.50671E-04         0.13158E-04         0.00000E+00
    0.50050E-04         0.13077E-04         0.00000E+00
    0.49372E-04         0.12985E-04         0.00000E+00
    0.48636E-04         0.12881E-04         0.00000E+00
    0.47843E-04         0.12764E-04         0.00000E+00
    0.46993E-04         0.12634E-04         0.00000E+00
    0.46087E-04         0.12490E-04         0.00000E+00
    0.45127E-04         0.12332E-04         0.00000E+00
    0.44112E-04         0.12159E-04         0.00000E+00
    0.43043E-04         0.11969E-04         0.00000E+00
    0.41922E-04         0.11764E-04         0.00000E+00
    0.40748E-04         0.11542E-04         0.00000E+00
    0.39524E-04         0.11302E-04         0.00000E+00
    0.38250E-04         0.11044E-04         0.00000E+00
    0.36926E-04         0.10768E-04         0.00000E+00
    0.35555E-04         0.10473E-04         0.00000E+00
    0.34137E-04         0.10158E-04         0.00000E+00
    0.32673E-04         0.98237E-05         0.00000E+00
    0.31165E-04         0.94689E-05         0.00000E+00
    0.29613E-04         0.90934E-05         0.00000E+00
    0.28019E-04         0.86967E-05         0.00000E+00
    0.26384E-04         0.82784E-05         0.00000E+00
    0.24710E-04         0.78383E-05         0.00000E+00
    0.22997E-04         0.73759E-05         0.00000E+00
    0.21248E-04         0.68909E-05         0.00000E+00
    0.19463E-04         0.63831E-05         0.00000E+00
    0.17644E-04         0.58521E-05         0.00000E+00
    0.15793E-04         0.52978E-05         0.00000E+00
    0.13911E-04         0.47199E-05         0.00000E+00
    0.11999E-04         0.41182E-05         0.00000E+00
    0.10060E-04         0.34925E-05         0.00000E+00
    0.80940E-05         0.28427E-05         0.00000E+00
    0.61034E-05         0.21686E-05         0.00000E+00
    0.40898E-05         0.14702E-05         0.00000E+00
    0.20548E-05         0.74733E-06         0.00000E+00
    0.00000E+00         0.00000E+00         0.00000E+00
    0.59497E-04         0.15124E-04         0.00000E+00
    0.59811E-04         0.15130E-04         0.00000E+00
    0.60057E-04         0.15136E-04         0.00000E+00
    0.60236E-04         0.15140E-04         0.00000E+00
    0.60346E-04         0.15142E-04         0.00000E+00
    0.60389E-04         0.15140E-04         0.00000E+00
    0.60363E-04         0.15134E-04         0.00000E+00
    0.60269E-04         0.15124E-04         0.00000E+00
    0.60107E-04         0.15107E-04         0.00000E+00
    0.59877E-04         0.15085E-04         0.00000E+00
    0.59579E-04         0.15054E-04         0.00000E+00
    0.59213E-04         0.15016E-04         0.00000E+00
    0.58780E-04         0.14969E-04         0.00000E+00
    0.58279E-04         0.14913E-04         0.00000E+00
    0.57711E-04         0.14846E-04         0.00000E+00
    0.57077E-04         0.14767E-04         0.00000E+00
    0.56377E-04         0.14677E-04         0.00000E+00
    0.55612E-04         0.14574E-04         0.00000E+00
    0.54781E-04         0.14458E-04         0.00000E+00
    0.53887E-04         0.14327E-04         0.00000E+00
    0.52929E-04         0.14182E-04         0.00000E+00
    0.51908E-04         0.14020E-04         0.00000E+00
    0.50825E-04         0.13843E-04         0.00000E+00
    0.49681E-04         0.13648E-04         0.00000E+00
    0.48476E-04         0.13436E-04         0.00000E+00
    0.47212E-04         0.13206E-04         0.00000E+00
    0.45890E-04         0.12956E-04         0.00000E+00
    0.44511E-04         0.12687E-04         0.00000E+00
    0.43075E-04         0.12398E-04         0.00000E+00
    0.41584E-04         0.12088E-04         0.00000E+00
    0.40039E-04         0.11757E-04         0.00000E+00
    0.38442E-04         0.11404E-04         0.00000E+00
    0.36793E-04         0.11029E-04         0.00000E+00
    0.35093E-04         0.10631E-04         0.00000E+00
    0.33346E-04         0.10209E-04         0.00000E+00
    0.31550E-04         0.97639E-05         0.00000E+00
    0.29709E-04         0.92944E-05         0.00000E+00
    0.27823E-04         0.88003E-05         0.00000E+00
    0.25895E-04         0.82812E-05         0.00000E+00
    0.23925E-04         0.77368E-05         0.00000E+00
    0.21915E-04         0.71667E-05         0.00000E+00
    0.19867E-04         0.65707E-05         0.00000E+00
    0.17782E-04         0.59483E-05         0.00000E+00
    0.15663E-04         0.52995E-05         0.00000E+00
    0.13511E-04         0.46239E-05         0.00000E+00
    0.11327E-04         0.39214E-05         0.00000E+00
    0.91132E-05         0.31918E-05         0.00000E+00
    0.68719E-05         0.24350E-05         0.00000E+00
    0.46047E-05         0.16508E-05         0.00000E+00
    0.23135E-05         0.83914E-06         0.00000E+00
    0.00000E+00         0.00000E+00         0.00000E+00
    0.67036E-04         0.16964E-04         0.00000E+00
    0.67387E-04         0.16972E-04         0.00000E+00
    0.67662E-04         0.16979E-04         0.00000E+00
    0.67861E-04         0.16984E-04         0.00000E+00
    0.67984E-04         0.16986E-04         0.00000E+00
    0.68030E-04         0.16985E-04         0.00000E+00
    0.67999E-04         0.16979E-04         0.00000E+00
    0.67891E-04         0.16968E-04         0.00000E+00
    0.67706E-04         0.16950E-04         0.00000E+00
    0.67445E-04         0.16925E-04         0.00000E+00
    0.67107E-04         0.16892E-04         0.00000E+00
    0.66693E-04         0.16850E-04         0.00000E+00
    0.66203E-04         0.16798E-04         0.00000E+00
    0.65637E-04         0.16735E-04         0.00000E+00
    0.64997E-04         0.16660E-04         0.00000E+00
    0.64281E-04         0.16573E-04         0.00000E+00
    0.63491E-04         0.16472E-04         0.00000E+00
    0.62627E-04         0.16357E-04         0.00000E+00
    0.61691E-04         0.16226E-04         0.00000E+00
    0.60682E-04         0.16080E-04         0.00000E+00
    0.59602E-04         0.15917E-04         0.00000E+00
    0.58451E-04         0.15736E-04         0.00000E+00
    0.57230E-04         0.15538E-04         0.00000E+00
    0.55940E-04         0.15320E-04         0.00000E+00
    0.54583E-04         0.15082E-04         0.00000E+00
    0.53159E-04         0.14823E-04         0.00000E+00
    0.51669E-04         0.14544E-04         0.00000E+00
    0.50115E-04         0.14242E-04         0.00000E+00
    0.48498E-04         0.13917E-04         0.00000E+00
    0.46818E-04         0.13570E-04         0.00000E+00
    0.45078E-04         0.13198E-04         0.00000E+00
    0.43279E-04         0.12802E-04         0.00000E+00
    0.41422E-04         0.12381E-04         0.00000E+00
    0.39508E-04         0.11934E-04         0.00000E+00
    0.37540E-04         0.11461E-04         0.00000E+00
    0.35518E-04         0.10961E-04         0.00000E+00
    0.33445E-04         0.10434E-04         0.00000E+00
    0.31322E-04         0.98797E-05         0.00000E+00
    0.29150E-04         0.92971E-05         0.00000E+00
    0.26932E-04         0.86860E-05         0.00000E+00
    0.24670E-04         0.80460E-05         0.00000E+00
    0.22364E-04         0.73769E-05         0.00000E+00
    0.20017E-04         0.66783E-05         0.00000E+00
    0.17631E-04         0.59499E-05         0.00000E+00
    0.15208E-04         0.51915E-05         0.00000E+00
    0.12750E-04         0.44028E-05         0.00000E+00
    0.10258E-04         0.35837E-05         0.00000E+00
    0.77353E-05         0.27339E-05         0.00000E+00
    0.51832E-05         0.18535E-05         0.00000E+00
    0.26041E-05         0.94218E-06         0.00000E+00
    0.00000E+00         0.00000E+00         0.00000E+00
    0.75519E-04         0.19024E-04         0.00000E+00
    0.75912E-04         0.19034E-04         0.00000E+00
    0.76219E-04         0.19042E-04         0.00000E+00
    0.76441E-04         0.19049E-04         0.00000E+00
    0.76576E-04         0.19052E-04         0.00000E+00
    0.76625E-04         0.19052E-04         0.00000E+00
    0.76587E-04         0.19046E-04         0.00000E+00
    0.76464E-04         0.19034E-04         0.00000E+00
    0.76253E-04         0.19015E-04         0.00000E+00
    0.75957E-04         0.18988E-04         0.00000E+00
    0.75574E-04         0.18951E-04         0.00000E+00
    0.75105E-04         0.18904E-04         0.00000E+00
    0.74551E-04         0.18846E-04         0.00000E+00
    0.73912E-04         0.18776E-04         0.00000E+00
    0.73188E-04         0.18693E-04         0.00000E+00
    0.72380E-04         0.18595E-04         0.00000E+00
    0.71489E-04         0.18483E-04         0.00000E+00
    0.70515E-04         0.18354E-04         0.00000E+00
    0.69459E-04         0.18208E-04         0.00000E+00
    0.68321E-04         0.18045E-04         0.00000E+00
    0.67103E-04         0.17862E-04         0.00000E+00
    0.65806E-04         0.17660E-04         0.00000E+00
    0.64430E-04         0.17437E-04         0.00000E+00
    0.62977E-04         0.17193E-04         0.00000E+00
    0.61447E-04         0.16926E-04         0.00000E+00
    0.59843E-04         0.16637E-04         0.00000E+00
    0.58164E-04         0.16323E-04         0.00000E+00
    0.56414E-04         0.15985E-04         0.00000E+00
    0.54592E-04         0.15621E-04         0.00000E+00
    0.52701E-04         0.15231E-04         0.00000E+00
    0.50741E-04         0.14814E-04         0.00000E+00
    0.48715E-04         0.14370E-04         0.00000E+00
    0.46624E-04         0.13897E-04         0.00000E+00
    0.44469E-04         0.13396E-04         0.00000E+00
    0.42253E-04         0.12865E-04         0.00000E+00
    0.39977E-04         0.12304E-04         0.00000E+00
    0.37643E-04         0.11713E-04         0.00000E+00
    0.35253E-04         0.11090E-04         0.00000E+00
    0.32808E-04         0.10436E-04         0.00000E+00
    0.30312E-04         0.97505E-05         0.00000E+00
    0.27765E-04         0.90322E-05         0.00000E+00
    0.25169E-04         0.82812E-05         0.00000E+00
    0.22528E-04         0.74970E-05         0.00000E+00
    0.19843E-04         0.66794E-05         0.00000E+00
    0.17116E-04         0.58280E-05         0.00000E+00
    0.14349E-04         0.49427E-05         0.00000E+00
    0.11544E-04         0.40231E-05         0.00000E+00
    0.87052E-05         0.30692E-05         0.00000E+00
    0.58331E-05         0.20808E-05         0.00000E+00
    0.29306E-05         0.10578E-05         0.00000E+00
    0.00000E+00         0.00000E+00         0.00000E+00
    0.85065E-04         0.21329E-04         0.00000E+00
    0.85504E-04         0.21341E-04         0.00000E+00
    0.85847E-04         0.21352E-04         0.00000E+00
    0.86093E-04         0.21360E-04         0.00000E+00
    0.86243E-04         0.21365E-04         0.00000E+00
    0.86294E-04         0.21365E-04         0.00000E+00
    0.86249E-04         0.21359E-04         0.00000E+00
    0.86107E-04         0.21347E-04         0.00000E+00
    0.85867E-04         0.21326E-04         0.00000E+00
    0.85530E-04         0.21297E-04         0.00000E+00
    0.85096E-04         0.21256E-04         0.00000E+00
    0.84566E-04         0.21205E-04         0.00000E+00
    0.83939E-04         0.21141E-04         0.00000E+00
    0.83217E-04         0.21063E-04         0.00000E+00
    0.82400E-04         0.20970E-04         0.00000E+00
    0.81488E-04         0.20861E-04         0.00000E+00
    0.80482E-04         0.20736E-04         0.00000E+00
    0.79383E-04         0.20592E-04         0.00000E+00
    0.78191E-04         0.20429E-04         0.00000E+00
    0.76909E-04         0.20246E-04         0.00000E+00
    0.75536E-04         0.20042E-04         0.00000E+00
    0.74073E-04         0.19815E-04         0.00000E+00
    0.72523E-04         0.19566E-04         0.00000E+00
    0.70885E-04         0.19292E-04         0.00000E+00
    0.69162E-04         0.18993E-04         0.00000E+00
    0.67355E-04         0.18669E-04         0.00000E+00
    0.65464E-04         0.18317E-04         0.00000E+00
    0.63493E-04         0.17938E-04         0.00000E+00
    0.61441E-04         0.17530E-04         0.00000E+00
    0.59311E-04         0.17092E-04         0.00000E+00
    0.57104E-04         0.16625E-04         0.00000E+00
    0.54823E-04         0.16127E-04         0.00000E+00
    0.52469E-04         0.15596E-04         0.00000E+00
    0.50043E-04         0.15034E-04         0.00000E+00
    0.47549E-04         0.14438E-04         0.00000E+00
    0.44987E-04         0.13809E-04         0.00000E+00
    0.42360E-04         0.13146E-04         0.00000E+00
    0.39669E-04         0.12447E-04         0.00000E+00
    0.36918E-04         0.11714E-04         0.00000E+00
    0.34108E-04         0.10944E-04         0.00000E+00
    0.31242E-04         0.10138E-04         0.00000E+00
    0.28321E-04         0.92949E-05         0.00000E+00
    0.25349E-04         0.84148E-05         0.00000E+00
    0.22327E-04         0.74971E-05         0.00000E+00
    0.19258E-04         0.65416E-05         0.00000E+00
    0.16145E-04         0.55479E-05         0.00000E+00
    0.12989E-04         0.45159E-05         0.00000E+00
    0.97947E-05         0.34452E-05         0.00000E+00
    0.65631E-05         0.23357E-05         0.00000E+00
    0.32973E-05         0.11873E-05         0.00000E+00
    0.00000E+00         0.00000E+00         0.00000E+00
    0.95808E-04         0.23907E-04         0.00000E+00
    0.96299E-04         0.23921E-04         0.00000E+00
    0.96681E-04         0.23934E-04         0.00000E+00
    0.96954E-04         0.23945E-04         0.00000E+00
    0.97118E-04         0.23951E-04         0.00000E+00
    0.97173E-04         0.23952E-04         0.00000E+00
    0.97118E-04         0.23947E-04         0.00000E+00
    0.96953E-04         0.23934E-04         0.00000E+00
    0.96680E-04         0.23912E-04         0.00000E+00
    0.96297E-04         0.23880E-04         0.00000E+00
    0.95805E-04         0.23836E-04         0.00000E+00
    0.95205E-04         0.23779E-04         0.00000E+00
    0.94496E-04         0.23708E-04         0.00000E+00
    0.93680E-04         0.23622E-04         0.00000E+00
    0.92757E-04         0.23518E-04         0.00000E+00
    0.91727E-04         0.23397E-04         0.00000E+00
    0.90592E-04         0.23257E-04         0.00000E+00
    0.89352E-04         0.23097E-04         0.00000E+00
    0.88009E-04         0.22915E-04         0.00000E+00
    0.86562E-04         0.22710E-04         0.00000E+00
    0.85015E-04         0.22482E-04         0.00000E+00
    0.83367E-04         0.22228E-04         0.00000E+00
    0.81619E-04         0.21949E-04         0.00000E+00
    0.79774E-04         0.21643E-04         0.00000E+00
    0.77833E-04         0.21308E-04         0.00000E+00
    0.75797E-04         0.20944E-04         0.00000E+00
    0.73668E-04         0.20550E-04         0.00000E+00
    0.71448E-04         0.20125E-04         0.00000E+00
    0.69137E-04         0.19668E-04         0.00000E+00
    0.66739E-04         0.19177E-04         0.00000E+00
    0.64255E-04         0.18653E-04         0.00000E+00
    0.61687E-04         0.18094E-04         0.00000E+00
    0.59036E-04         0.17500E-04         0.00000E+00
    0.56306E-04         0.16869E-04         0.00000E+00
    0.53498E-04         0.16201E-04         0.00000E+00
    0.50615E-04         0.15495E-04         0.00000E+00
    0.47658E-04         0.14751E-04         0.00000E+00
    0.44631E-04         0.13967E-04         0.00000E+00
    0.41535E-04         0.13144E-04         0.00000E+00
    0.38373E-04         0.12281E-04         0.00000E+00
    0.35148E-04         0.11376E-04         0.00000E+00
    0.31862E-04         0.10431E-04         0.00000E+00
    0.28517E-04         0.94431E-05         0.00000E+00
    0.25118E-04         0.84134E-05         0.00000E+00
    0.21665E-04         0.73412E-05         0.00000E+00
    0.18162E-04         0.62261E-05         0.00000E+00
    0.14613E-04         0.50679E-05         0.00000E+00
    0.11018E-04         0.38664E-05         0.00000E+00
    0.73831E-05         0.26213E-05         0.00000E+00
    0.37092E-05         0.13325E-05         0.00000E+00
    0.00000E+00         0.00000E+00         0.00000E+00
    0.10790E-03         0.26786E-04         0.00000E+00
    0.10845E-03         0.26804E-04         0.00000E+00
    0.10887E-03         0.26820E-04         0.00000E+00
    0.10917E-03         0.26833E-04         0.00000E+00
    0.10935E-03         0.26842E-04         0.00000E+00
    0.10941E-03         0.26845E-04         0.00000E+00
    0.10934E-03         0.26840E-04         0.00000E+00
    0.10915E-03         0.26827E-04         0.00000E+00
    0.10884E-03         0.26804E-04         0.00000E+00
    0.10841E-03         0.26769E-04         0.00000E+00
    0.10785E-03         0.26721E-04         0.00000E+00
    0.10717E-03         0.26658E-04         0.00000E+00
    0.10637E-03         0.26580E-04         0.00000E+00
    0.10544E-03         0.26484E-04         0.00000E+00
    0.10440E-03         0.26369E-04         0.00000E+00
    0.10324E-03         0.26235E-04         0.00000E+00
    0.10196E-03         0.26078E-04         0.00000E+00
    0.10056E-03         0.25899E-04         0.00000E+00
    0.99044E-04         0.25696E-04         0.00000E+00
    0.97414E-04         0.25468E-04         0.00000E+00
    0.95669E-04         0.25212E-04         0.00000E+00
    0.93812E-04         0.24929E-04         0.00000E+00
    0.91843E-04         0.24616E-04         0.00000E+00
    0.89764E-04         0.24273E-04         0.00000E+00
    0.87577E-04         0.23898E-04         0.00000E+00
    0.85284E-04         0.23491E-04         0.00000E+00
    0.82887E-04         0.23050E-04         0.00000E+00
    0.80386E-04         0.22573E-04         0.00000E+00
    0.77785E-04         0.22061E-04         0.00000E+00
    0.75085E-04         0.21511E-04         0.00000E+00
    0.72289E-04         0.20924E-04         0.00000E+00
    0.69398E-04         0.20297E-04         0.00000E+00
    0.66415E-04         0.19631E-04         0.00000E+00
    0.63342E-04         0.18924E-04         0.00000E+00
    0.60182E-04         0.18175E-04         0.00000E+00
    0.56937E-04         0.17383E-04         0.00000E+00
    0.53611E-04         0.16548E-04         0.00000E+00
    0.50204E-04         0.15670E-04         0.00000E+00
    0.46721E-04         0.14746E-04         0.00000E+00
    0.43164E-04         0.13778E-04         0.00000E+00
    0.39535E-04         0.12763E-04         0.00000E+00
    0.35838E-04         0.11702E-04         0.00000E+00
    0.32076E-04         0.10595E-04         0.00000E+00
    0.28252E-04         0.94395E-05         0.00000E+00
    0.24368E-04         0.82366E-05         0.00000E+00
    0.20428E-04         0.69857E-05         0.00000E+00
    0.16435E-04         0.56862E-05         0.00000E+00
    0.12393E-04         0.43382E-05         0.00000E+00
    0.83039E-05         0.29412E-05         0.00000E+00
    0.41718E-05         0.14952E-05         0.00000E+00
    0.00000E+00         0.00000E+00         0.00000E+00
    0.12150E-03         0.30001E-04         0.00000E+00
    0.12211E-03         0.30023E-04         0.00000E+00
    0.12259E-03         0.30042E-04         0.00000E+00
    0.12292E-03         0.30059E-04         0.00000E+00
    0.12312E-03         0.30070E-04         0.00000E+00
    0.12318E-03         0.30075E-04         0.00000E+00
    0.12310E-03         0.30072E-04         0.00000E+00
    0.12288E-03         0.30059E-04         0.00000E+00
    0.12252E-03         0.30034E-04         0.00000E+00
    0.12202E-03         0.29997E-04         0.00000E+00
    0.12139E-03         0.29944E-04         0.00000E+00
    0.12062E-03         0.29876E-04         0.00000E+00
    0.11971E-03         0.29789E-04         0.00000E+00
    0.11867E-03         0.29683E-04         0.00000E+00
    0.11749E-03         0.29556E-04         0.00000E+00
    0.11618E-03         0.29406E-04         0.00000E+00
    0.11474E-03         0.29232E-04         0.00000E+00
    0.11316E-03         0.29033E-04         0.00000E+00
    0.11145E-03         0.28806E-04         0.00000E+00
    0.10961E-03         0.28551E-04         0.00000E+00
    0.10764E-03         0.28265E-04         0.00000E+00
    0.10555E-03         0.27949E-04         0.00000E+00
    0.10333E-03         0.27599E-04         0.00000E+00
    0.10099E-03         0.27215E-04         0.00000E+00
    0.98527E-04         0.26796E-04         0.00000E+00
    0.95944E-04         0.26340E-04         0.00000E+00
    0.93244E-04         0.25846E-04         0.00000E+00
    0.90429E-04         0.25312E-04         0.00000E+00
    0.87500E-04         0.24738E-04         0.00000E+00
    0.84461E-04         0.24123E-04         0.00000E+00
    0.81313E-04         0.23464E-04         0.00000E+00
    0.78060E-04         0.22762E-04         0.00000E+00
    0.74703E-04         0.22015E-04         0.00000E+00
    0.71245E-04         0.21222E-04         0.00000E+00
    0.67689E-04         0.20383E-04         0.00000E+00
    0.64039E-04         0.19495E-04         0.00000E+00
    0.60296E-04         0.18560E-04         0.00000E+00
    0.56464E-04         0.17574E-04         0.00000E+00
    0.52545E-04         0.16539E-04         0.00000E+00
    0.48544E-04         0.15453E-04         0.00000E+00
    0.44462E-04         0.14315E-04         0.00000E+00
    0.40304E-04         0.13126E-04         0.00000E+00
    0.36073E-04         0.11883E-04         0.00000E+00
    0.31771E-04         0.10588E-04         0.00000E+00
    0.27403E-04         0.92389E-05         0.00000E+00
    0.22972E-04         0.78358E-05         0.00000E+00
    0.18482E-04         0.63783E-05         0.00000E+00
    0.13936E-04         0.48662E-05         0.00000E+00
    0.93379E-05         0.32992E-05         0.00000E+00
    0.46913E-05         0.16772E-05         0.00000E+00
    0.00000E+00         0.00000E+00         0.00000E+00
    0.13681E-03         0.33588E-04         0.00000E+00
    0.13749E-03         0.33614E-04         0.00000E+00
    0.13802E-03         0.33638E-04         0.00000E+00
    0.13839E-03         0.33658E-04         0.00000E+00
    0.13860E-03         0.33673E-04         0.00000E+00
    0.13866E-03         0.33681E-04         0.00000E+00
    0.13856E-03         0.33679E-04         0.00000E+00
    0.13831E-03         0.33667E-04         0.00000E+00
    0.13790E-03         0.33641E-04         0.00000E+00
    0.13734E-03         0.33601E-04         0.00000E+00
    0.13662E-03         0.33544E-04         0.00000E+00
    0.13575E-03         0.33469E-04         0.00000E+00
    0.13472E-03         0.33373E-04         0.00000E+00
    0.13354E-03         0.33256E-04         0.00000E+00
    0.13221E-03         0.33115E-04         0.00000E+00
    0.13073E-03         0.32949E-04         0.00000E+00
    0.12910E-03         0.32756E-04         0.00000E+00
    0.12732E-03         0.32533E-04         0.00000E+00
    0.12539E-03         0.32281E-04         0.00000E+00
    0.12332E-03         0.31996E-04         0.00000E+00
    0.12110E-03         0.31677E-04         0.00000E+00
    0.11874E-03         0.31324E-04         0.00000E+00
    0.11624E-03         0.30933E-04         0.00000E+00
    0.11360E-03         0.30504E-04         0.00000E+00
    0.11083E-03         0.30035E-04         0.00000E+00
    0.10792E-03         0.29524E-04         0.00000E+00
    0.10488E-03         0.28971E-04         0.00000E+00
    0.10171E-03         0.28374E-04         0.00000E+00
    0.98414E-04         0.27731E-04         0.00000E+00
    0.94993E-04         0.27042E-04         0.00000E+00
    0.91450E-04         0.26305E-04         0.00000E+00
    0.87789E-04         0.25518E-04         0.00000E+00
    0.84011E-04         0.24681E-04         0.00000E+00
    0.80121E-04         0.23793E-04         0.00000E+00
    0.76120E-04         0.22852E-04         0.00000E+00
    0.72013E-04         0.21858E-04         0.00000E+00
    0.67803E-04         0.20809E-04         0.00000E+00
    0.63492E-04         0.19705E-04         0.00000E+00
    0.59085E-04         0.18544E-04         0.00000E+00
    0.54584E-04         0.17327E-04         0.00000E+00
    0.49994E-04         0.16051E-04         0.00000E+00
    0.45318E-04         0.14718E-04         0.00000E+00
    0.40560E-04         0.13325E-04         0.00000E+00
    0.35723E-04         0.11873E-04         0.00000E+00
    0.30811E-04         0.10360E-04         0.00000E+00
    0.25829E-04         0.87867E-05         0.00000E+00
    0.20780E-04         0.71525E-05         0.00000E+00
    0.15669E-04         0.54569E-05         0.00000E+00
    0.10499E-04         0.36998E-05         0.00000E+00
    0.52744E-05         0.18809E-05         0.00000E+00
    0.00000E+00         0.00000E+00         0.00000E+00
    0.15404E-03         0.37584E-04         0.00000E+00
    0.15480E-03         0.37616E-04         0.00000E+00
    0.15538E-03         0.37646E-04         0.00000E+00
    0.15579E-03         0.37671E-04         0.00000E+00
    0.15602E-03         0.37691E-04         0.00000E+00
    0.15608E-03         0.37702E-04         0.00000E+00
    0.15596E-03         0.37702E-04         0.00000E+00
    0.15567E-03         0.37691E-04         0.00000E+00
    0.15520E-03         0.37664E-04         0.00000E+00
    0.15456E-03         0.37621E-04         0.00000E+00
    0.15374E-03         0.37560E-04         0.00000E+00
    0.15275E-03         0.37478E-04         0.00000E+00
    0.15159E-03         0.37373E-04         0.00000E+00
    0.15026E-03         0.37244E-04         0.00000E+00
    0.14875E-03         0.37088E-04         0.00000E+00
    0.14708E-03         0.36904E-04         0.00000E+00
    0.14524E-03         0.36689E-04         0.00000E+00
    0.14323E-03         0.36442E-04         0.00000E+00
    0.14105E-03         0.36160E-04         0.00000E+00
    0.13872E-03         0.35843E-04         0.00000E+00
    0.13622E-03         0.35488E-04         0.00000E+00
    0.13356E-03         0.35092E-04         0.00000E+00
    0.13074E-03         0.34656E-04         0.00000E+00
    0.12777E-03         0.34176E-04         0.00000E+00
    0.12465E-03         0.33652E-04         0.00000E+00
    0.12137E-03         0.33081E-04         0.00000E+00
    0.11795E-03         0.32463E-04         0.00000E+00
    0.11438E-03         0.31794E-04         0.00000E+00
    0.11067E-03         0.31075E-04         0.00000E+00
    0.10682E-03         0.30304E-04         0.00000E+00
    0.10283E-03         0.29478E-04         0.00000E+00
    0.98713E-04         0.28597E-04         0.00000E+00
    0.94463E-04         0.27660E-04         0.00000E+00
    0.90087E-04         0.26665E-04         0.00000E+00
    0.85587E-04         0.25611E-04         0.00000E+00
    0.80967E-04         0.24497E-04         0.00000E+00
    0.76231E-04         0.23322E-04         0.00000E+00
    0.71383E-04         0.22085E-04         0.00000E+00
    0.66427E-04         0.20785E-04         0.00000E+00
    0.61366E-04         0.19421E-04         0.00000E+00
    0.56204E-04         0.17992E-04         0.00000E+00
    0.50946E-04         0.16497E-04         0.00000E+00
    0.45596E-04         0.14936E-04         0.00000E+00
    0.40158E-04         0.13308E-04         0.00000E+00
    0.34636E-04         0.11613E-04         0.00000E+00
    0.29035E-04         0.98498E-05         0.00000E+00
    0.23359E-04         0.80180E-05         0.00000E+00
    0.17613E-04         0.61174E-05         0.00000E+00
    0.11802E-04         0.41476E-05         0.00000E+00
    0.59289E-05         0.21086E-05         0.00000E+00
    0.00000E+00         0.00000E+00         0.00000E+00
    0.17342E-03         0.42034E-04         0.00000E+00
    0.17427E-03         0.42073E-04         0.00000E+00
    0.17491E-03         0.42109E-04         0.00000E+00
    0.17536E-03         0.42141E-04         0.00000E+00
    0.17561E-03         0.42166E-04         0.00000E+00
    0.17566E-03         0.42181E-04         0.00000E+00
    0.17552E-03         0.42185E-04         0.00000E+00
    0.17518E-03         0.42175E-04         0.00000E+00
    0.17465E-03         0.42148E-04         0.00000E+00
    0.17392E-03         0.42103E-04         0.00000E+00
    0.17299E-03         0.42037E-04         0.00000E+00
    0.17187E-03         0.41948E-04         0.00000E+00
    0.17055E-03         0.41833E-04         0.00000E+00
    0.16904E-03         0.41691E-04         0.00000E+00
    0.16734E-03         0.41519E-04         0.00000E+00
    0.16545E-03         0.41315E-04         0.00000E+00
    0.16337E-03         0.41076E-04         0.00000E+00
    0.16111E-03         0.40802E-04         0.00000E+00
    0.15865E-03         0.40489E-04         0.00000E+00
    0.15602E-03         0.40135E-04         0.00000E+00
    0.15320E-03         0.39739E-04         0.00000E+00
    0.15021E-03         0.39298E-04         0.00000E+00
    0.14703E-03         0.38811E-04         0.00000E+00
    0.14369E-03         0.38275E-04         0.00000E+00
    0.14017E-03         0.37690E-04         0.00000E+00
    0.13648E-03         0.37052E-04         0.00000E+00
    0.13263E-03         0.36360E-04         0.00000E+00
    0.12861E-03         0.35613E-04         0.00000E+00
    0.12443E-03         0.34808E-04         0.00000E+00
    0.12010E-03         0.33945E-04         0.00000E+00
    0.11561E-03         0.33021E-04         0.00000E+00
    0.11098E-03         0.32036E-04         0.00000E+00
    0.10620E-03         0.30986E-04         0.00000E+00
    0.10127E-03         0.29873E-04         0.00000E+00
    0.96213E-04         0.28693E-04         0.00000E+00
    0.91018E-04         0.27446E-04         0.00000E+00
    0.85692E-04         0.26130E-04         0.00000E+00
    0.80241E-04         0.24744E-04         0.00000E+00
    0.74668E-04         0.23288E-04         0.00000E+00
    0.68977E-04         0.21760E-04         0.00000E+00
    0.63174E-04         0.20159E-04         0.00000E+00
    0.57263E-04         0.18485E-04         0.00000E+00
    0.51249E-04         0.16736E-04         0.00000E+00
    0.45136E-04         0.14913E-04         0.00000E+00
    0.38929E-04         0.13013E-04         0.00000E+00
    0.32633E-04         0.11037E-04         0.00000E+00
    0.26254E-04         0.89849E-05         0.00000E+00
    0.19795E-04         0.68552E-05         0.00000E+00
    0.13264E-04         0.46480E-05         0.00000E+00
    0.66633E-05         0.23630E-05         0.00000E+00
    0.00000E+00         0.00000E+00         0.00000E+00
    0.19523E-03         0.46983E-04         0.00000E+00
    0.19617E-03         0.47030E-04         0.00000E+00
    0.19688E-03         0.47075E-04         0.00000E+00
    0.19737E-03         0.47114E-04         0.00000E+00
    0.19764E-03         0.47146E-04         0.00000E+00
    0.19769E-03         0.47167E-04         0.00000E+00
    0.19752E-03         0.47175E-04         0.00000E+00
    0.19713E-03         0.47167E-04         0.00000E+00
    0.19651E-03         0.47141E-04         0.00000E+00
    0.19568E-03         0.47094E-04         0.00000E+00
    0.19463E-03         0.47023E-04         0.00000E+00
    0.19335E-03         0.46927E-04         0.00000E+00
    0.19186E-03         0.46801E-04         0.00000E+00
    0.19015E-03         0.46645E-04         0.00000E+00
    0.18823E-03         0.46456E-04         0.00000E+00
    0.18610E-03         0.46230E-04         0.00000E+00
    0.18375E-03         0.45966E-04         0.00000E+00
    0.18119E-03         0.45661E-04         0.00000E+00
    0.17842E-03         0.45313E-04         0.00000E+00
    0.17545E-03         0.44920E-04         0.00000E+00
    0.17228E-03         0.44478E-04         0.00000E+00
    0.16890E-03         0.43987E-04         0.00000E+00
    0.16533E-03         0.43444E-04         0.00000E+00
    0.16156E-03         0.42846E-04         0.00000E+00
    0.15759E-03         0.42192E-04         0.00000E+00
    0.15344E-03         0.41480E-04         0.00000E+00
    0.14910E-03         0.40707E-04         0.00000E+00
    0.14458E-03         0.39872E-04         0.00000E+00
    0.13988E-03         0.38972E-04         0.00000E+00
    0.13501E-03         0.38007E-04         0.00000E+00
    0.12996E-03         0.36974E-04         0.00000E+00
    0.12475E-03         0.35871E-04         0.00000E+00
    0.11937E-03         0.34698E-04         0.00000E+00
    0.11383E-03         0.33452E-04         0.00000E+00
    0.10814E-03         0.32131E-04         0.00000E+00
    0.10230E-03         0.30735E-04         0.00000E+00
    0.96309E-04         0.29263E-04         0.00000E+00
    0.90180E-04         0.27712E-04         0.00000E+00
    0.83914E-04         0.26081E-04         0.00000E+00
    0.77518E-04         0.24371E-04         0.00000E+00
    0.70995E-04         0.22578E-04         0.00000E+00
    0.64351E-04         0.20704E-04         0.00000E+00
    0.57591E-04         0.18745E-04         0.00000E+00
    0.50720E-04         0.16703E-04         0.00000E+00
    0.43745E-04         0.14576E-04         0.00000E+00
    0.36670E-04         0.12363E-04         0.00000E+00
    0.29501E-04         0.10064E-04         0.00000E+00
    0.22243E-04         0.76790E-05         0.00000E+00
    0.14904E-04         0.52066E-05         0.00000E+00
    0.74872E-05         0.26470E-05         0.00000E+00
    0.00000E+00         0.00000E+00         0.00000E+00
    0.21977E-03         0.52480E-04         0.00000E+00
    0.22080E-03         0.52538E-04         0.00000E+00
    0.22159E-03         0.52593E-04         0.00000E+00
    0.22213E-03         0.52641E-04         0.00000E+00
    0.22242E-03         0.52681E-04         0.00000E+00
    0.22246E-03         0.52709E-04         0.00000E+00
    0.22225E-03         0.52723E-04         0.00000E+00
    0.22180E-03         0.52718E-04         0.00000E+00
    0.22109E-03         0.52693E-04         0.00000E+00
    0.22014E-03         0.52645E-04         0.00000E+00
    0.21894E-03         0.52570E-04         0.00000E+00
    0.21750E-03         0.52466E-04         0.00000E+00
    0.21581E-03         0.52330E-04         0.00000E+00
    0.21387E-03         0.52159E-04         0.00000E+00
    0.21170E-03         0.51951E-04         0.00000E+00
    0.20929E-03         0.51702E-04         0.00000E+00
    0.20664E-03         0.51410E-04         0.00000E+00
    0.20375E-03         0.51072E-04         0.00000E+00
    0.20063E-03         0.50686E-04         0.00000E+00
    0.19728E-03         0.50248E-04         0.00000E+00
    0.19370E-03         0.49757E-04         0.00000E+00
    0.18989E-03         0.49210E-04         0.00000E+00
    0.18586E-03         0.48605E-04         0.00000E+00
    0.18162E-03         0.47939E-04         0.00000E+00
    0.17716E-03         0.47209E-04         0.00000E+00
    0.17248E-03         0.46414E-04         0.00000E+00
    0.16760E-03         0.45551E-04         0.00000E+00
    0.16251E-03         0.44618E-04         0.00000E+00
    0.15722E-03         0.43614E-04         0.00000E+00
    0.15174E-03         0.42535E-04         0.00000E+00
    0.14606E-03         0.41380E-04         0.00000E+00
    0.14019E-03         0.40147E-04         0.00000E+00
    0.13415E-03         0.38835E-04         0.00000E+00
    0.12792E-03         0.37442E-04         0.00000E+00
    0.12152E-03         0.35965E-04         0.00000E+00
    0.11495E-03         0.34403E-04         0.00000E+00
    0.10822E-03         0.32756E-04         0.00000E+00
    0.10133E-03         0.31020E-04         0.00000E+00
    0.94288E-04         0.29196E-04         0.00000E+00
    0.87098E-04         0.27282E-04         0.00000E+00
    0.79767E-04         0.25276E-04         0.00000E+00
    0.72301E-04         0.23178E-04         0.00000E+00
    0.64704E-04         0.20986E-04         0.00000E+00
    0.56984E-04         0.18700E-04         0.00000E+00
    0.49146E-04         0.16319E-04         0.00000E+00
    0.41197E-04         0.13842E-04         0.00000E+00
    0.33142E-04         0.11269E-04         0.00000E+00
    0.24989E-04         0.85979E-05         0.00000E+00
    0.16743E-04         0.58298E-05         0.00000E+00
    0.84111E-05         0.29639E-05         0.00000E+00
    0.00000E+00         0.00000E+00         0.00000E+00
    0.24737E-03         0.58580E-04         0.00000E+00
    0.24852E-03         0.58650E-04         0.00000E+00
    0.24938E-03         0.58717E-04         0.00000E+00
    0.24997E-03         0.58777E-04         0.00000E+00
    0.25028E-03         0.58827E-04         0.00000E+00
    0.25030E-03         0.58864E-04         0.00000E+00
    0.25005E-03         0.58884E-04         0.00000E+00
    0.24952E-03         0.58885E-04         0.00000E+00
    0.24871E-03         0.58862E-04         0.00000E+00
    0.24763E-03         0.58814E-04         0.00000E+00
    0.24626E-03         0.58735E-04         0.00000E+00
    0.24462E-03         0.58624E-04         0.00000E+00
    0.24271E-03         0.58476E-04         0.00000E+00
    0.24052E-03         0.58290E-04         0.00000E+00
    0.23806E-03         0.58061E-04         0.00000E+00
    0.23533E-03         0.57787E-04         0.00000E+00
    0.23234E-03         0.57464E-04         0.00000E+00
    0.22908E-03         0.57091E-04         0.00000E+00
    0.22556E-03         0.56662E-04         0.00000E+00
    0.22178E-03         0.56177E-04         0.00000E+00
    0.21774E-03         0.55631E-04         0.00000E+00
    0.21346E-03         0.55023E-04         0.00000E+00
    0.20892E-03         0.54349E-04         0.00000E+00
    0.20414E-03         0.53607E-04         0.00000E+00
    0.19911E-03         0.52793E-04         0.00000E+00
    0.19385E-03         0.51907E-04         0.00000E+00
    0.18835E-03         0.50944E-04         0.00000E+00
    0.18263E-03         0.49903E-04         0.00000E+00
    0.17668E-03         0.48781E-04         0.00000E+00
    0.17051E-03         0.47577E-04         0.00000E+00
    0.16412E-03         0.46287E-04         0.00000E+00
    0.15753E-03         0.44910E-04         0.00000E+00
    0.15072E-03         0.43443E-04         0.00000E+00
    0.14372E-03         0.41886E-04         0.00000E+00
    0.13653E-03         0.40235E-04         0.00000E+00
    0.12915E-03         0.38489E-04         0.00000E+00
    0.12158E-03         0.36647E-04         0.00000E+00
    0.11383E-03         0.34707E-04         0.00000E+00
    0.10592E-03         0.32667E-04         0.00000E+00
    0.97842E-04         0.30526E-04         0.00000E+00
    0.89604E-04         0.28282E-04         0.00000E+00
    0.81215E-04         0.25935E-04         0.00000E+00
    0.72681E-04         0.23484E-04         0.00000E+00
    0.64007E-04         0.20926E-04         0.00000E+00
    0.55203E-04         0.18262E-04         0.00000E+00
    0.46273E-04         0.15490E-04         0.00000E+00
    0.37225E-04         0.12611E-04         0.00000E+00
    0.28067E-04         0.96222E-05         0.00000E+00
    0.18805E-04         0.65245E-05         0.00000E+00
    0.94469E-05         0.33172E-05         0.00000E+00
    0.00000E+00         0.00000E+00         0.00000E+00
    0.27842E-03         0.65337E-04         0.00000E+00
    0.27968E-03         0.65423E-04         0.00000E+00
    0.28063E-03         0.65504E-04         0.00000E+00
    0.28127E-03         0.65578E-04         0.00000E+00
    0.28159E-03         0.65641E-04         0.00000E+00
    0.28160E-03         0.65689E-04         0.00000E+00
    0.28130E-03         0.65719E-04         0.00000E+00
    0.28068E-03         0.65726E-04         0.00000E+00
    0.27975E-03         0.65707E-04         0.00000E+00
    0.27851E-03         0.65659E-04         0.00000E+00
    0.27696E-03         0.65578E-04         0.00000E+00
    0.27509E-03         0.65459E-04         0.00000E+00
    0.27292E-03         0.65300E-04         0.00000E+00
    0.27044E-03         0.65097E-04         0.00000E+00
    0.26766E-03         0.64847E-04         0.00000E+00
    0.26458E-03         0.64546E-04         0.00000E+00
    0.26120E-03         0.64191E-04         0.00000E+00
    0.25752E-03         0.63778E-04         0.00000E+00
    0.25355E-03         0.63304E-04         0.00000E+00
    0.24928E-03         0.62766E-04         0.00000E+00
    0.24474E-03         0.62160E-04         0.00000E+00
    0.23990E-03         0.61484E-04         0.00000E+00
    0.23479E-03         0.60734E-04         0.00000E+00
    0.22941E-03         0.59908E-04         0.00000E+00
    0.22375E-03         0.59003E-04         0.00000E+00
    0.21782E-03         0.58015E-04         0.00000E+00
    0.21164E-03         0.56942E-04         0.00000E+00
    0.20520E-03         0.55781E-04         0.00000E+00
    0.19850E-03         0.54530E-04         0.00000E+00
    0.19156E-03         0.53185E-04         0.00000E+00
    0.18438E-03         0.51746E-04         0.00000E+00
    0.17696E-03         0.50208E-04         0.00000E+00
    0.16932E-03         0.48571E-04         0.00000E+00
    0.16145E-03         0.46831E-04         0.00000E+00
    0.15336E-03         0.44987E-04         0.00000E+00
    0.14506E-03         0.43037E-04         0.00000E+00
    0.13656E-03         0.40978E-04         0.00000E+00
    0.12785E-03         0.38810E-04         0.00000E+00
    0.11896E-03         0.36530E-04         0.00000E+00
    0.10989E-03         0.34137E-04         0.00000E+00
    0.10063E-03         0.31629E-04         0.00000E+00
    0.91208E-04         0.29005E-04         0.00000E+00
    0.81621E-04         0.26264E-04         0.00000E+00
    0.71880E-04         0.23404E-04         0.00000E+00
    0.61991E-04         0.20425E-04         0.00000E+00
    0.51962E-04         0.17326E-04         0.00000E+00
    0.41801E-04         0.14105E-04         0.00000E+00
    0.31516E-04         0.10763E-04         0.00000E+00
    0.21116E-04         0.72982E-05         0.00000E+00
    0.10608E-04         0.37107E-05         0.00000E+00
    0.00000E+00         0.00000E+00         0.00000E+00
    0.31333E-03         0.72812E-04         0.00000E+00
    0.31473E-03         0.72916E-04         0.00000E+00
    0.31577E-03         0.73016E-04         0.00000E+00
    0.31646E-03         0.73107E-04         0.00000E+00
    0.31680E-03         0.73186E-04         0.00000E+00
    0.31678E-03         0.73248E-04         0.00000E+00
    0.31642E-03         0.73289E-04         0.00000E+00
    0.31570E-03         0.73305E-04         0.00000E+00
    0.31462E-03         0.73292E-04         0.00000E+00
    0.31320E-03         0.73246E-04         0.00000E+00
    0.31143E-03         0.73162E-04         0.00000E+00
    0.30932E-03         0.73037E-04         0.00000E+00
    0.30685E-03         0.72867E-04         0.00000E+00
    0.30405E-03         0.72647E-04         0.00000E+00
    0.30090E-03         0.72375E-04         0.00000E+00
    0.29741E-03         0.72045E-04         0.00000E+00
    0.29359E-03         0.71654E-04         0.00000E+00
    0.28944E-03         0.71199E-04         0.00000E+00
    0.28496E-03         0.70675E-04         0.00000E+00
    0.28015E-03         0.70079E-04         0.00000E+00
    0.27502E-03         0.69408E-04         0.00000E+00
    0.26958E-03         0.68658E-04         0.00000E+00
    0.26382E-03         0.67825E-04         0.00000E+00
    0.25775E-03         0.66907E-04         0.00000E+00
    0.25138E-03         0.65899E-04         0.00000E+00
    0.24471E-03         0.64800E-04         0.00000E+00
    0.23775E-03         0.63605E-04         0.00000E+00
    0.23050E-03         0.62311E-04         0.00000E+00
    0.22297E-03         0.60917E-04         0.00000E+00
    0.21517E-03         0.59418E-04         0.00000E+00
    0.20709E-03         0.57812E-04         0.00000E+00
    0.19875E-03         0.56097E-04         0.00000E+00
    0.19016E-03         0.54270E-04         0.00000E+00
    0.18131E-03         0.52328E-04         0.00000E+00
    0.17222E-03         0.50270E-04         0.00000E+00
    0.16290E-03         0.48092E-04         0.00000E+00
    0.15334E-03         0.45794E-04         0.00000E+00
    0.14357E-03         0.43372E-04         0.00000E+00
    0.13358E-03         0.40826E-04         0.00000E+00
    0.12338E-03         0.38152E-04         0.00000E+00
    0.11299E-03         0.35351E-04         0.00000E+00
    0.10240E-03         0.32419E-04         0.00000E+00
    0.91639E-04         0.29356E-04         0.00000E+00
    0.80700E-04         0.26161E-04         0.00000E+00
    0.69596E-04         0.22831E-04         0.00000E+00
    0.58336E-04         0.19368E-04         0.00000E+00
    0.46928E-04         0.15768E-04         0.00000E+00
    0.35381E-04         0.12032E-04         0.00000E+00
    0.23705E-04         0.81590E-05         0.00000E+00
    0.11908E-04         0.41484E-05         0.00000E+00
    0.00000E+00         0.00000E+00         0.00000E+00
    0.35259E-03         0.81067E-04         0.00000E+00
    0.35413E-03         0.81193E-04         0.00000E+00
    0.35527E-03         0.81315E-04         0.00000E+00
    0.35601E-03         0.81427E-04         0.00000E+00
    0.35636E-03         0.81525E-04         0.00000E+00
    0.35631E-03         0.81605E-04         0.00000E+00
    0.35587E-03         0.81660E-04         0.00000E+00
    0.35503E-03         0.81688E-04         0.00000E+00
    0.35379E-03         0.81683E-04         0.00000E+00
    0.35217E-03         0.81641E-04         0.00000E+00
    0.35015E-03         0.81557E-04         0.00000E+00
    0.34774E-03         0.81426E-04         0.00000E+00
    0.34495E-03         0.81245E-04         0.00000E+00
    0.34177E-03         0.81008E-04         0.00000E+00
    0.33820E-03         0.80712E-04         0.00000E+00
    0.33426E-03         0.80352E-04         0.00000E+00
    0.32994E-03         0.79923E-04         0.00000E+00
    0.32526E-03         0.79422E-04         0.00000E+00
    0.32020E-03         0.78845E-04         0.00000E+00
    0.31478E-03         0.78187E-04         0.00000E+00
    0.30899E-03         0.77444E-04         0.00000E+00
    0.30286E-03         0.76612E-04         0.00000E+00
    0.29637E-03         0.75689E-04         0.00000E+00
    0.28954E-03         0.74669E-04         0.00000E+00
    0.28237E-03         0.73550E-04         0.00000E+00
    0.27486E-03         0.72327E-04         0.00000E+00
    0.26703E-03         0.70997E-04         0.00000E+00
    0.25888E-03         0.69558E-04         0.00000E+00
    0.25041E-03         0.68004E-04         0.00000E+00
    0.24163E-03         0.66335E-04         0.00000E+00
    0.23255E-03         0.64546E-04         0.00000E+00
    0.22317E-03         0.62634E-04         0.00000E+00
    0.21351E-03         0.60597E-04         0.00000E+00
    0.20357E-03         0.58431E-04         0.00000E+00
    0.19336E-03         0.56135E-04         0.00000E+00
    0.18288E-03         0.53706E-04         0.00000E+00
    0.17215E-03         0.51141E-04         0.00000E+00
    0.16117E-03         0.48439E-04         0.00000E+00
    0.14995E-03         0.45597E-04         0.00000E+00
    0.13850E-03         0.42613E-04         0.00000E+00
    0.12683E-03         0.39485E-04         0.00000E+00
    0.11495E-03         0.36212E-04         0.00000E+00
    0.10286E-03         0.32792E-04         0.00000E+00
    0.90579E-04         0.29223E-04         0.00000E+00
    0.78114E-04         0.25505E-04         0.00000E+00
    0.65474E-04         0.21636E-04         0.00000E+00
    0.52669E-04         0.17616E-04         0.00000E+00
    0.39709E-04         0.13442E-04         0.00000E+00
    0.26604E-04         0.91157E-05         0.00000E+00
    0.13364E-04         0.46350E-05         0.00000E+00
    0.00000E+00         0.00000E+00         0.00000E+00
    0.39674E-03         0.90165E-04         0.00000E+00
    0.39842E-03         0.90319E-04         0.00000E+00
    0.39967E-03         0.90467E-04         0.00000E+00
    0.40046E-03         0.90605E-04         0.00000E+00
    0.40081E-03         0.90727E-04         0.00000E+00
    0.40072E-03         0.90828E-04         0.00000E+00
    0.40019E-03         0.90902E-04         0.00000E+00
    0.39920E-03         0.90945E-04         0.00000E+00
    0.39778E-03         0.90951E-04         0.00000E+00
    0.39592E-03         0.90916E-04         0.00000E+00
    0.39362E-03         0.90833E-04         0.00000E+00
    0.39088E-03         0.90699E-04         0.00000E+00
    0.38770E-03         0.90507E-04         0.00000E+00
    0.38410E-03         0.90254E-04         0.00000E+00
    0.38006E-03         0.89933E-04         0.00000E+00
    0.37561E-03         0.89541E-04         0.00000E+00
    0.37073E-03         0.89072E-04         0.00000E+00
    0.36543E-03         0.88522E-04         0.00000E+00
    0.35972E-03         0.87887E-04         0.00000E+00
    0.35361E-03         0.87161E-04         0.00000E+00
    0.34709E-03         0.86340E-04         0.00000E+00
    0.34017E-03         0.85420E-04         0.00000E+00
    0.33287E-03         0.84397E-04         0.00000E+00
    0.32517E-03         0.83266E-04         0.00000E+00
    0.31710E-03         0.82024E-04         0.00000E+00
    0.30865E-03         0.80666E-04         0.00000E+00
    0.29984E-03         0.79188E-04         0.00000E+00
    0.29067E-03         0.77588E-04         0.00000E+00
    0.28115E-03         0.75860E-04         0.00000E+00
    0.27128E-03         0.74002E-04         0.00000E+00
    0.26107E-03         0.72010E-04         0.00000E+00
    0.25053E-03         0.69881E-04         0.00000E+00
    0.23968E-03         0.67611E-04         0.00000E+00
    0.22851E-03         0.65199E-04         0.00000E+00
    0.21703E-03         0.62640E-04         0.00000E+00
    0.20527E-03         0.59932E-04         0.00000E+00
    0.19321E-03         0.57073E-04         0.00000E+00
    0.18088E-03         0.54059E-04         0.00000E+00
    0.16828E-03         0.50889E-04         0.00000E+00
    0.15543E-03         0.47561E-04         0.00000E+00
    0.14233E-03         0.44072E-04         0.00000E+00
    0.12899E-03         0.40420E-04         0.00000E+00
    0.11542E-03         0.36604E-04         0.00000E+00
    0.10164E-03         0.32622E-04         0.00000E+00
    0.87649E-04         0.28473E-04         0.00000E+00
    0.73464E-04         0.24155E-04         0.00000E+00
    0.59096E-04         0.19667E-04         0.00000E+00
    0.44553E-04         0.15008E-04         0.00000E+00
    0.29849E-04         0.10178E-04         0.00000E+00
    0.14994E-04         0.51752E-05         0.00000E+00
    0.00000E+00         0.00000E+00         0.00000E+00
    0.44636E-03         0.10017E-03         0.00000E+00
    0.44821E-03         0.10036E-03         0.00000E+00
    0.44956E-03         0.10054E-03         0.00000E+00
    0.45041E-03         0.10071E-03         0.00000E+00
    0.45075E-03         0.10086E-03         0.00000E+00
    0.45060E-03         0.10099E-03         0.00000E+00
    0.44996E-03         0.10109E-03         0.00000E+00
    0.44881E-03         0.10115E-03         0.00000E+00
    0.44717E-03         0.10117E-03         0.00000E+00
    0.44503E-03         0.10114E-03         0.00000E+00
    0.44240E-03         0.10107E-03         0.00000E+00
    0.43928E-03         0.10093E-03         0.00000E+00
    0.43568E-03         0.10073E-03         0.00000E+00
    0.43159E-03         0.10046E-03         0.00000E+00
    0.42702E-03         0.10011E-03         0.00000E+00
    0.42198E-03         0.99688E-04         0.00000E+00
    0.41647E-03         0.99177E-04         0.00000E+00
    0.41048E-03         0.98576E-04         0.00000E+00
    0.40404E-03         0.97878E-04         0.00000E+00
    0.39714E-03         0.97079E-04         0.00000E+00
    0.38979E-03         0.96174E-04         0.00000E+00
    0.38200E-03         0.95158E-04         0.00000E+00
    0.37377E-03         0.94026E-04         0.00000E+00
    0.36511E-03         0.92774E-04         0.00000E+00
    0.35602E-03         0.91397E-04         0.00000E+00
    0.34652E-03         0.89891E-04         0.00000E+00
    0.33660E-03         0.88251E-04         0.00000E+00
    0.32629E-03         0.86473E-04         0.00000E+00
    0.31558E-03         0.84553E-04         0.00000E+00
    0.30448E-03         0.82487E-04         0.00000E+00
    0.29301E-03         0.80272E-04         0.00000E+00
    0.28117E-03         0.77904E-04         0.00000E+00
    0.26897E-03         0.75378E-04         0.00000E+00
    0.25643E-03         0.72692E-04         0.00000E+00
    0.24354E-03         0.69843E-04         0.00000E+00
    0.23032E-03         0.66828E-04         0.00000E+00
    0.21679E-03         0.63643E-04         0.00000E+00
    0.20295E-03         0.60285E-04         0.00000E+00
    0.18881E-03         0.56753E-04         0.00000E+00
    0.17438E-03         0.53043E-04         0.00000E+00
    0.15967E-03         0.49154E-04         0.00000E+00
    0.14470E-03         0.45083E-04         0.00000E+00
    0.12948E-03         0.40829E-04         0.00000E+00
    0.11401E-03         0.36389E-04         0.00000E+00
    0.98319E-04         0.31762E-04         0.00000E+00
    0.82405E-04         0.26946E-04         0.00000E+00
    0.66286E-04         0.21940E-04         0.00000E+00
    0.49974E-04         0.16744E-04         0.00000E+00
    0.33480E-04         0.11355E-04         0.00000E+00
    0.16818E-04         0.57742E-05         0.00000E+00
    0.00000E+00         0.00000E+00         0.00000E+00
    0.50214E-03         0.11115E-03         0.00000E+00
    0.50415E-03         0.11138E-03         0.00000E+00
    0.50561E-03         0.11160E-03         0.00000E+00
    0.50651E-03         0.11181E-03         0.00000E+00
    0.50684E-03         0.11199E-03         0.00000E+00
    0.50662E-03         0.11215E-03         0.00000E+00
    0.50584E-03         0.11228E-03         0.00000E+00
    0.50449E-03         0.11237E-03         0.00000E+00
    0.50260E-03         0.11241E-03         0.00000E+00
    0.50015E-03         0.11240E-03         0.00000E+00
    0.49714E-03         0.11233E-03         0.00000E+00
    0.49359E-03         0.11219E-03         0.00000E+00
    0.48949E-03         0.11199E-03         0.00000E+00
    0.48486E-03         0.11170E-03         0.00000E+00
    0.47968E-03         0.11133E-03         0.00000E+00
    0.47398E-03         0.11087E-03         0.00000E+00
    0.46774E-03         0.11032E-03         0.00000E+00
    0.46099E-03         0.10966E-03         0.00000E+00
    0.45372E-03         0.10890E-03         0.00000E+00
    0.44593E-03         0.10802E-03         0.00000E+00
    0.43765E-03         0.10702E-03         0.00000E+00
    0.42887E-03         0.10590E-03         0.00000E+00
    0.41959E-03         0.10465E-03         0.00000E+00
    0.40984E-03         0.10327E-03         0.00000E+00
    0.39961E-03         0.10175E-03         0.00000E+00
    0.38892E-03         0.10008E-03         0.00000E+00
    0.37777E-03         0.98261E-04         0.00000E+00
    0.36617E-03         0.96289E-04         0.00000E+00
    0.35413E-03         0.94158E-04         0.00000E+00
    0.34165E-03         0.91864E-04         0.00000E+00
    0.32876E-03         0.89404E-04         0.00000E+00
    0.31546E-03         0.86771E-04         0.00000E+00
    0.30176E-03         0.83964E-04         0.00000E+00
    0.28767E-03         0.80977E-04         0.00000E+00
    0.27320E-03         0.77808E-04         0.00000E+00
    0.25836E-03         0.74453E-04         0.00000E+00
    0.24317E-03         0.70908E-04         0.00000E+00
    0.22763E-03         0.67171E-04         0.00000E+00
    0.21176E-03         0.63239E-04         0.00000E+00
    0.19557E-03         0.59109E-04         0.00000E+00
    0.17907E-03         0.54778E-04         0.00000E+00
    0.16228E-03         0.50243E-04         0.00000E+00
    0.14520E-03         0.45504E-04         0.00000E+00
    0.12785E-03         0.40558E-04         0.00000E+00
    0.11025E-03         0.35402E-04         0.00000E+00
    0.92404E-04         0.30036E-04         0.00000E+00
    0.74327E-04         0.24457E-04         0.00000E+00
    0.56035E-04         0.18665E-04         0.00000E+00
    0.37540E-04         0.12659E-04         0.00000E+00
    0.18857E-04         0.64374E-05         0.00000E+00
    0.00000E+00         0.00000E+00         0.00000E+00
    0.56481E-03         0.12317E-03         0.00000E+00
    0.56701E-03         0.12345E-03         0.00000E+00
    0.56858E-03         0.12372E-03         0.00000E+00
    0.56952E-03         0.12397E-03         0.00000E+00
    0.56983E-03         0.12420E-03         0.00000E+00
    0.56951E-03         0.12440E-03         0.00000E+00
    0.56856E-03         0.12456E-03         0.00000E+00
    0.56699E-03         0.12468E-03         0.00000E+00
    0.56479E-03         0.12475E-03         0.00000E+00
    0.56198E-03         0.12476E-03         0.00000E+00
    0.55855E-03         0.12470E-03         0.00000E+00
    0.55450E-03         0.12457E-03         0.00000E+00
    0.54984E-03         0.12436E-03         0.00000E+00
    0.54458E-03         0.12406E-03         0.00000E+00
    0.53872E-03         0.12367E-03         0.00000E+00
    0.53226E-03         0.12318E-03         0.00000E+00
    0.52521E-03         0.12258E-03         0.00000E+00
    0.51758E-03         0.12186E-03         0.00000E+00
    0.50937E-03         0.12103E-03         0.00000E+00
    0.50059E-03         0.12007E-03         0.00000E+00
    0.49125E-03         0.11897E-03         0.00000E+00
    0.48135E-03         0.11774E-03         0.00000E+00
    0.47091E-03         0.11636E-03         0.00000E+00
    0.45993E-03         0.11484E-03         0.00000E+00
    0.44842E-03         0.11315E-03         0.00000E+00
    0.43639E-03         0.11131E-03         0.00000E+00
    0.42384E-03         0.10930E-03         0.00000E+00
    0.41080E-03         0.10711E-03         0.00000E+00
    0.39727E-03         0.10475E-03         0.00000E+00
    0.38325E-03         0.10221E-03         0.00000E+00
    0.36877E-03         0.99478E-04         0.00000E+00
    0.35383E-03         0.96556E-04         0.00000E+00
    0.33844E-03         0.93439E-04         0.00000E+00
    0.32262E-03         0.90121E-04         0.00000E+00
    0.30638E-03         0.86600E-04         0.00000E+00
    0.28972E-03         0.82871E-04         0.00000E+00
    0.27267E-03         0.78931E-04         0.00000E+00
    0.25524E-03         0.74776E-04         0.00000E+00
    0.23743E-03         0.70402E-04         0.00000E+00
    0.21927E-03         0.65808E-04         0.00000E+00
    0.20076E-03         0.60989E-04         0.00000E+00
    0.18193E-03         0.55944E-04         0.00000E+00
    0.16278E-03         0.50670E-04         0.00000E+00
    0.14333E-03         0.45164E-04         0.00000E+00
    0.12359E-03         0.39425E-04         0.00000E+00
    0.10358E-03         0.33450E-04         0.00000E+00
    0.83315E-04         0.27239E-04         0.00000E+00
    0.62809E-04         0.20789E-04         0.00000E+00
    0.42077E-04         0.14100E-04         0.00000E+00
    0.21136E-04         0.71707E-05         0.00000E+00
    0.00000E+00         0.00000E+00         0.00000E+00
    0.63523E-03         0.13629E-03         0.00000E+00
    0.63762E-03         0.13662E-03         0.00000E+00
    0.63929E-03         0.13695E-03         0.00000E+00
    0.64026E-03         0.13726E-03         0.00000E+00
    0.64053E-03         0.13754E-03         0.00000E+00
    0.64009E-03         0.13779E-03         0.00000E+00
    0.63895E-03         0.13800E-03         0.00000E+00
    0.63710E-03         0.13816E-03         0.00000E+00
    0.63456E-03         0.13826E-03         0.00000E+00
    0.63133E-03         0.13829E-03         0.00000E+00
    0.62740E-03         0.13826E-03         0.00000E+00
    0.62279E-03         0.13813E-03         0.00000E+00
    0.61749E-03         0.13792E-03         0.00000E+00
    0.61152E-03         0.13762E-03         0.00000E+00
    0.60487E-03         0.13720E-03         0.00000E+00
    0.59756E-03         0.13668E-03         0.00000E+00
    0.58959E-03         0.13603E-03         0.00000E+00
    0.58097E-03         0.13526E-03         0.00000E+00
    0.57170E-03         0.13435E-03         0.00000E+00
    0.56180E-03         0.13330E-03         0.00000E+00
    0.55126E-03         0.13210E-03         0.00000E+00
    0.54011E-03         0.13075E-03         0.00000E+00
    0.52835E-03         0.12924E-03         0.00000E+00
    0.51599E-03         0.12756E-03         0.00000E+00
    0.50303E-03         0.12570E-03         0.00000E+00
    0.48950E-03         0.12366E-03         0.00000E+00
    0.47539E-03         0.12144E-03         0.00000E+00
    0.46073E-03         0.11903E-03         0.00000E+00
    0.44552E-03         0.11641E-03         0.00000E+00
    0.42977E-03         0.11360E-03         0.00000E+00
    0.41351E-03         0.11057E-03         0.00000E+00
    0.39673E-03         0.10733E-03         0.00000E+00
    0.37945E-03         0.10388E-03         0.00000E+00
    0.36169E-03         0.10019E-03         0.00000E+00
    0.34346E-03         0.96287E-04         0.00000E+00
    0.32478E-03         0.92148E-04         0.00000E+00
    0.30565E-03         0.87772E-04         0.00000E+00
    0.28609E-03         0.83157E-04         0.00000E+00
    0.26612E-03         0.78299E-04         0.00000E+00
    0.24575E-03         0.73194E-04         0.00000E+00
    0.22500E-03         0.67839E-04         0.00000E+00
    0.20389E-03         0.62231E-04         0.00000E+00
    0.18242E-03         0.56367E-04         0.00000E+00
    0.16061E-03         0.50245E-04         0.00000E+00
    0.13849E-03         0.43863E-04         0.00000E+00
    0.11606E-03         0.37218E-04         0.00000E+00
    0.93354E-04         0.30309E-04         0.00000E+00
    0.70375E-04         0.23133E-04         0.00000E+00
    0.47145E-04         0.15691E-04         0.00000E+00
    0.23681E-04         0.79801E-05         0.00000E+00
    0.00000E+00         0.00000E+00         0.00000E+00
    0.71433E-03         0.15055E-03         0.00000E+00
    0.71690E-03         0.15095E-03         0.00000E+00
    0.71868E-03         0.15135E-03         0.00000E+00
    0.71967E-03         0.15173E-03         0.00000E+00
    0.71987E-03         0.15208E-03         0.00000E+00
    0.71928E-03         0.15239E-03         0.00000E+00
    0.71790E-03         0.15265E-03         0.00000E+00
    0.71574E-03         0.15286E-03         0.00000E+00
    0.71280E-03         0.15301E-03         0.00000E+00
    0.70908E-03         0.15308E-03         0.00000E+00
    0.70458E-03         0.15306E-03         0.00000E+00
    0.69932E-03         0.15296E-03         0.00000E+00
    0.69329E-03         0.15276E-03         0.00000E+00
    0.68651E-03         0.15244E-03         0.00000E+00
    0.67897E-03         0.15201E-03         0.00000E+00
    0.67069E-03         0.15146E-03         0.00000E+00
    0.66168E-03         0.15076E-03         0.00000E+00
    0.65193E-03         0.14993E-03         0.00000E+00
    0.64147E-03         0.14895E-03         0.00000E+00
    0.63030E-03         0.14781E-03         0.00000E+00
    0.61842E-03         0.14650E-03         0.00000E+00
    0.60586E-03         0.14502E-03         0.00000E+00
    0.59261E-03         0.14336E-03         0.00000E+00
    0.57869E-03         0.14151E-03         0.00000E+00
    0.56412E-03         0.13947E-03         0.00000E+00
    0.54889E-03         0.13723E-03         0.00000E+00
    0.53304E-03         0.13477E-03         0.00000E+00
    0.51655E-03         0.13211E-03         0.00000E+00
    0.49946E-03         0.12922E-03         0.00000E+00
    0.48178E-03         0.12611E-03         0.00000E+00
    0.46351E-03         0.12276E-03         0.00000E+00
    0.44467E-03         0.11917E-03         0.00000E+00
    0.42528E-03         0.11535E-03         0.00000E+00
    0.40535E-03         0.11127E-03         0.00000E+00
    0.38490E-03         0.10694E-03         0.00000E+00
    0.36394E-03         0.10235E-03         0.00000E+00
    0.34248E-03         0.97497E-04         0.00000E+00
    0.32055E-03         0.92378E-04         0.00000E+00
    0.29816E-03         0.86987E-04         0.00000E+00
    0.27533E-03         0.81321E-04         0.00000E+00
    0.25207E-03         0.75377E-04         0.00000E+00
    0.22840E-03         0.69150E-04         0.00000E+00
    0.20434E-03         0.62639E-04         0.00000E+00
    0.17991E-03         0.55839E-04         0.00000E+00
    0.15513E-03         0.48750E-04         0.00000E+00
    0.13000E-03         0.41367E-04         0.00000E+00
    0.10456E-03         0.33690E-04         0.00000E+00
    0.78822E-04         0.25716E-04         0.00000E+00
    0.52802E-04         0.17443E-04         0.00000E+00
    0.26522E-04         0.88719E-05         0.00000E+00
    0.00000E+00         0.00000E+00         0.00000E+00
    0.80315E-03         0.16600E-03         0.00000E+00
    0.80591E-03         0.16649E-03         0.00000E+00
    0.80779E-03         0.16697E-03         0.00000E+00
    0.80878E-03         0.16743E-03         0.00000E+00
    0.80889E-03         0.16786E-03         0.00000E+00
    0.80811E-03         0.16825E-03         0.00000E+00
    0.80645E-03         0.16858E-03         0.00000E+00
    0.80391E-03         0.16886E-03         0.00000E+00
    0.80049E-03         0.16905E-03         0.00000E+00
    0.79621E-03         0.16917E-03         0.00000E+00
    0.79106E-03         0.16919E-03         0.00000E+00
    0.78505E-03         0.16912E-03         0.00000E+00
    0.77819E-03         0.16893E-03         0.00000E+00
    0.77048E-03         0.16861E-03         0.00000E+00
    0.76194E-03         0.16817E-03         0.00000E+00
    0.75256E-03         0.16758E-03         0.00000E+00
    0.74236E-03         0.16685E-03         0.00000E+00
    0.73135E-03         0.16596E-03         0.00000E+00
    0.71954E-03         0.16490E-03         0.00000E+00
    0.70693E-03         0.16366E-03         0.00000E+00
    0.69354E-03         0.16224E-03         0.00000E+00
    0.67938E-03         0.16062E-03         0.00000E+00
    0.66447E-03         0.15881E-03         0.00000E+00
    0.64880E-03         0.15678E-03         0.00000E+00
    0.63240E-03         0.15454E-03         0.00000E+00
    0.61528E-03         0.15207E-03         0.00000E+00
    0.59746E-03         0.14938E-03         0.00000E+00
    0.57893E-03         0.14644E-03         0.00000E+00
    0.55974E-03         0.14325E-03         0.00000E+00
    0.53987E-03         0.13982E-03         0.00000E+00
    0.51936E-03         0.13612E-03         0.00000E+00
    0.49822E-03         0.13216E-03         0.00000E+00
    0.47646E-03         0.12793E-03         0.00000E+00
    0.45410E-03         0.12342E-03         0.00000E+00
    0.43116E-03         0.11862E-03         0.00000E+00
    0.40766E-03         0.11354E-03         0.00000E+00
    0.38360E-03         0.10817E-03         0.00000E+00
    0.35902E-03         0.10250E-03         0.00000E+00
    0.33392E-03         0.96525E-04         0.00000E+00
    0.30834E-03         0.90245E-04         0.00000E+00
    0.28227E-03         0.83655E-04         0.00000E+00
    0.25576E-03         0.76750E-04         0.00000E+00
    0.22881E-03         0.69528E-04         0.00000E+00
    0.20144E-03         0.61986E-04         0.00000E+00
    0.17369E-03         0.54119E-04         0.00000E+00
    0.14555E-03         0.45927E-04         0.00000E+00
    0.11706E-03         0.37406E-04         0.00000E+00
    0.88244E-04         0.28554E-04         0.00000E+00
    0.59113E-04         0.19370E-04         0.00000E+00
    0.29691E-04         0.98525E-05         0.00000E+00
    0.00000E+00         0.00000E+00         0.00000E+00
    0.90286E-03         0.18267E-03         0.00000E+00
    0.90582E-03         0.18327E-03         0.00000E+00
    0.90778E-03         0.18385E-03         0.00000E+00
    0.90875E-03         0.18441E-03         0.00000E+00
    0.90872E-03         0.18494E-03         0.00000E+00
    0.90771E-03         0.18541E-03         0.00000E+00
    0.90570E-03         0.18583E-03         0.00000E+00
    0.90272E-03         0.18618E-03         0.00000E+00
    0.89876E-03         0.18645E-03         0.00000E+00
    0.89382E-03         0.18663E-03         0.00000E+00
    0.88792E-03         0.18670E-03         0.00000E+00
    0.88106E-03         0.18666E-03         0.00000E+00
    0.87324E-03         0.18649E-03         0.00000E+00
    0.86448E-03         0.18619E-03         0.00000E+00
    0.85479E-03         0.18574E-03         0.00000E+00
    0.84416E-03         0.18513E-03         0.00000E+00
    0.83262E-03         0.18436E-03         0.00000E+00
    0.82018E-03         0.18341E-03         0.00000E+00
    0.80684E-03         0.18227E-03         0.00000E+00
    0.79262E-03         0.18094E-03         0.00000E+00
    0.77752E-03         0.17940E-03         0.00000E+00
    0.76157E-03         0.17764E-03         0.00000E+00
    0.74477E-03         0.17566E-03         0.00000E+00
    0.72714E-03         0.17345E-03         0.00000E+00
    0.70869E-03         0.17099E-03         0.00000E+00
    0.68944E-03         0.16829E-03         0.00000E+00
    0.66941E-03         0.16532E-03         0.00000E+00
    0.64860E-03         0.16209E-03         0.00000E+00
    0.62704E-03         0.15859E-03         0.00000E+00
    0.60474E-03         0.15480E-03         0.00000E+00
    0.58172E-03         0.15073E-03         0.00000E+00
    0.55799E-03         0.14636E-03         0.00000E+00
    0.53358E-03         0.14169E-03         0.00000E+00
    0.50851E-03         0.13671E-03         0.00000E+00
    0.48279E-03         0.13141E-03         0.00000E+00
    0.45643E-03         0.12580E-03         0.00000E+00
    0.42948E-03         0.11985E-03         0.00000E+00
    0.40193E-03         0.11358E-03         0.00000E+00
    0.37381E-03         0.10697E-03         0.00000E+00
    0.34515E-03         0.10002E-03         0.00000E+00
    0.31596E-03         0.92724E-04         0.00000E+00
    0.28627E-03         0.85078E-04         0.00000E+00
    0.25609E-03         0.77079E-04         0.00000E+00
    0.22545E-03         0.68723E-04         0.00000E+00
    0.19438E-03         0.60006E-04         0.00000E+00
    0.16289E-03         0.50926E-04         0.00000E+00
    0.13100E-03         0.41481E-04         0.00000E+00
    0.98747E-04         0.31667E-04         0.00000E+00
    0.66146E-04         0.21484E-04         0.00000E+00
    0.33223E-04         0.10928E-04         0.00000E+00
    0.00000E+00         0.00000E+00         0.00000E+00
    0.10148E-02         0.20056E-03         0.00000E+00
    0.10179E-02         0.20128E-03         0.00000E+00
    0.10199E-02         0.20199E-03         0.00000E+00
    0.10208E-02         0.20267E-03         0.00000E+00
    0.10206E-02         0.20332E-03         0.00000E+00
    0.10193E-02         0.20391E-03         0.00000E+00
    0.10169E-02         0.20443E-03         0.00000E+00
    0.10134E-02         0.20488E-03         0.00000E+00
    0.10088E-02         0.20523E-03         0.00000E+00
    0.10031E-02         0.20549E-03         0.00000E+00
    0.99635E-03         0.20562E-03         0.00000E+00
    0.98851E-03         0.20563E-03         0.00000E+00
    0.97960E-03         0.20550E-03         0.00000E+00
    0.96964E-03         0.20522E-03         0.00000E+00
    0.95864E-03         0.20477E-03         0.00000E+00
    0.94660E-03         0.20415E-03         0.00000E+00
    0.93355E-03         0.20334E-03         0.00000E+00
    0.91948E-03         0.20234E-03         0.00000E+00
    0.90441E-03         0.20113E-03         0.00000E+00
    0.88837E-03         0.19970E-03         0.00000E+00
    0.87135E-03         0.19803E-03         0.00000E+00
    0.85337E-03         0.19613E-03         0.00000E+00
    0.83446E-03         0.19398E-03         0.00000E+00
    0.81462E-03         0.19157E-03         0.00000E+00
    0.79387E-03         0.18889E-03         0.00000E+00
    0.77223E-03         0.18593E-03         0.00000E+00
    0.74972E-03         0.18268E-03         0.00000E+00
    0.72634E-03         0.17914E-03         0.00000E+00
    0.70213E-03         0.17529E-03         0.00000E+00
    0.67710E-03         0.17113E-03         0.00000E+00
    0.65127E-03         0.16665E-03         0.00000E+00
    0.62466E-03         0.16184E-03         0.00000E+00
    0.59729E-03         0.15669E-03         0.00000E+00
    0.56918E-03         0.15120E-03         0.00000E+00
    0.54035E-03         0.14536E-03         0.00000E+00
    0.51082E-03         0.13917E-03         0.00000E+00
    0.48061E-03         0.13261E-03         0.00000E+00
    0.44976E-03         0.12568E-03         0.00000E+00
    0.41827E-03         0.11838E-03         0.00000E+00
    0.38618E-03         0.11070E-03         0.00000E+00
    0.35350E-03         0.10263E-03         0.00000E+00
    0.32026E-03         0.94179E-04         0.00000E+00
    0.28649E-03         0.85332E-04         0.00000E+00
    0.25220E-03         0.76088E-04         0.00000E+00
    0.21743E-03         0.66443E-04         0.00000E+00
    0.18220E-03         0.56394E-04         0.00000E+00
    0.14653E-03         0.45939E-04         0.00000E+00
    0.11045E-03         0.35073E-04         0.00000E+00
    0.73981E-04         0.23796E-04         0.00000E+00
    0.37157E-04         0.12106E-04         0.00000E+00
    0.00000E+00         0.00000E+00         0.00000E+00
    0.11403E-02         0.21965E-03         0.00000E+00
    0.11436E-02         0.22053E-03         0.00000E+00
    0.11457E-02         0.22139E-03         0.00000E+00
    0.11465E-02         0.22221E-03         0.00000E+00
    0.11461E-02         0.22300E-03         0.00000E+00
    0.11444E-02         0.22373E-03         0.00000E+00
    0.11415E-02         0.22438E-03         0.00000E+00
    0.11374E-02         0.22494E-03         0.00000E+00
    0.11320E-02         0.22541E-03         0.00000E+00
    0.11254E-02         0.22576E-03         0.00000E+00
    0.11177E-02         0.22598E-03         0.00000E+00
    0.11087E-02         0.22606E-03         0.00000E+00
    0.10986E-02         0.22598E-03         0.00000E+00
    0.10872E-02         0.22573E-03         0.00000E+00
    0.10747E-02         0.22530E-03         0.00000E+00
    0.10611E-02         0.22468E-03         0.00000E+00
    0.10463E-02         0.22385E-03         0.00000E+00
    0.10304E-02         0.22280E-03         0.00000E+00
    0.10134E-02         0.22151E-03         0.00000E+00
    0.99529E-03         0.21999E-03         0.00000E+00
    0.97611E-03         0.21820E-03         0.00000E+00
    0.95586E-03         0.21615E-03         0.00000E+00
    0.93456E-03         0.21382E-03         0.00000E+00
    0.91224E-03         0.21121E-03         0.00000E+00
    0.88891E-03         0.20829E-03         0.00000E+00
    0.86459E-03         0.20507E-03         0.00000E+00
    0.83929E-03         0.20152E-03         0.00000E+00
    0.81305E-03         0.19764E-03         0.00000E+00
    0.78587E-03         0.19343E-03         0.00000E+00
    0.75778E-03         0.18887E-03         0.00000E+00
    0.72881E-03         0.18395E-03         0.00000E+00
    0.69897E-03         0.17866E-03         0.00000E+00
    0.66828E-03         0.17301E-03         0.00000E+00
    0.63678E-03         0.16697E-03         0.00000E+00
    0.60448E-03         0.16054E-03         0.00000E+00
    0.57140E-03         0.15372E-03         0.00000E+00
    0.53758E-03         0.14649E-03         0.00000E+00
    0.50303E-03         0.13885E-03         0.00000E+00
    0.46778E-03         0.13080E-03         0.00000E+00
    0.43186E-03         0.12233E-03         0.00000E+00
    0.39530E-03         0.11343E-03         0.00000E+00
    0.35811E-03         0.10410E-03         0.00000E+00
    0.32033E-03         0.94327E-04         0.00000E+00
    0.28198E-03         0.84117E-04         0.00000E+00
    0.24309E-03         0.73462E-04         0.00000E+00
    0.20369E-03         0.62358E-04         0.00000E+00
    0.16381E-03         0.50801E-04         0.00000E+00
    0.12347E-03         0.38790E-04         0.00000E+00
    0.82699E-04         0.26320E-04         0.00000E+00
    0.41534E-04         0.13391E-04         0.00000E+00
    0.00000E+00         0.00000E+00         0.00000E+00
    0.12811E-02         0.23989E-03         0.00000E+00
    0.12846E-02         0.24094E-03         0.00000E+00
    0.12866E-02         0.24198E-03         0.00000E+00
    0.12873E-02         0.24299E-03         0.00000E+00
    0.12866E-02         0.24395E-03         0.00000E+00
    0.12844E-02         0.24484E-03         0.00000E+00
    0.12810E-02         0.24565E-03         0.00000E+00
    0.12761E-02         0.24636E-03         0.00000E+00
    0.12699E-02         0.24696E-03         0.00000E+00
    0.12623E-02         0.24744E-03         0.00000E+00
    0.12534E-02         0.24776E-03         0.00000E+00
    0.12431E-02         0.24793E-03         0.00000E+00
    0.12315E-02         0.24793E-03         0.00000E+00
    0.12186E-02         0.24774E-03         0.00000E+00
    0.12044E-02         0.24734E-03         0.00000E+00
    0.11890E-02         0.24673E-03         0.00000E+00
    0.11723E-02         0.24589E-03         0.00000E+00
    0.11543E-02         0.24480E-03         0.00000E+00
    0.11351E-02         0.24345E-03         0.00000E+00
    0.11146E-02         0.24183E-03         0.00000E+00
    0.10930E-02         0.23993E-03         0.00000E+00
    0.10702E-02         0.23774E-03         0.00000E+00
    0.10462E-02         0.23523E-03         0.00000E+00
    0.10211E-02         0.23240E-03         0.00000E+00
    0.99488E-03         0.22924E-03         0.00000E+00
    0.96754E-03         0.22573E-03         0.00000E+00
    0.93913E-03         0.22187E-03         0.00000E+00
    0.90967E-03         0.21765E-03         0.00000E+00
    0.87917E-03         0.21305E-03         0.00000E+00
    0.84767E-03         0.20806E-03         0.00000E+00
    0.81518E-03         0.20267E-03         0.00000E+00
    0.78173E-03         0.19688E-03         0.00000E+00
    0.74734E-03         0.19068E-03         0.00000E+00
    0.71205E-03         0.18405E-03         0.00000E+00
    0.67587E-03         0.17699E-03         0.00000E+00
    0.63884E-03         0.16949E-03         0.00000E+00
    0.60098E-03         0.16154E-03         0.00000E+00
    0.56232E-03         0.15314E-03         0.00000E+00
    0.52288E-03         0.14428E-03         0.00000E+00
    0.48270E-03         0.13495E-03         0.00000E+00
    0.44180E-03         0.12515E-03         0.00000E+00
    0.40021E-03         0.11487E-03         0.00000E+00
    0.35797E-03         0.10410E-03         0.00000E+00
    0.31510E-03         0.92842E-04         0.00000E+00
    0.27163E-03         0.81090E-04         0.00000E+00
    0.22759E-03         0.68841E-04         0.00000E+00
    0.18302E-03         0.56089E-04         0.00000E+00
    0.13794E-03         0.42832E-04         0.00000E+00
    0.92394E-04         0.29066E-04         0.00000E+00
    0.46402E-04         0.14790E-04         0.00000E+00
    0.00000E+00         0.00000E+00         0.00000E+00
    0.14390E-02         0.26115E-03         0.00000E+00
    0.14425E-02         0.26243E-03         0.00000E+00
    0.14445E-02         0.26369E-03         0.00000E+00
    0.14450E-02         0.26491E-03         0.00000E+00
    0.14439E-02         0.26608E-03         0.00000E+00
    0.14412E-02         0.26717E-03         0.00000E+00
    0.14370E-02         0.26817E-03         0.00000E+00
    0.14313E-02         0.26907E-03         0.00000E+00
    0.14240E-02         0.26984E-03         0.00000E+00
    0.14153E-02         0.27046E-03         0.00000E+00
    0.14050E-02         0.27093E-03         0.00000E+00
    0.13933E-02         0.27122E-03         0.00000E+00
    0.13800E-02         0.27131E-03         0.00000E+00
    0.13654E-02         0.27120E-03         0.00000E+00
    0.13493E-02         0.27086E-03         0.00000E+00
    0.13317E-02         0.27028E-03         0.00000E+00
    0.13128E-02         0.26944E-03         0.00000E+00
    0.12925E-02         0.26833E-03         0.00000E+00
    0.12708E-02         0.26694E-03         0.00000E+00
    0.12477E-02         0.26524E-03         0.00000E+00
    0.12233E-02         0.26323E-03         0.00000E+00
    0.11976E-02         0.26089E-03         0.00000E+00
    0.11707E-02         0.25820E-03         0.00000E+00
    0.11424E-02         0.25516E-03         0.00000E+00
    0.11129E-02         0.25175E-03         0.00000E+00
    0.10822E-02         0.24795E-03         0.00000E+00
    0.10503E-02         0.24377E-03         0.00000E+00
    0.10173E-02         0.23917E-03         0.00000E+00
    0.98305E-03         0.23416E-03         0.00000E+00
    0.94772E-03         0.22873E-03         0.00000E+00
    0.91130E-03         0.22285E-03         0.00000E+00
    0.87382E-03         0.21652E-03         0.00000E+00
    0.83530E-03         0.20973E-03         0.00000E+00
    0.79578E-03         0.20248E-03         0.00000E+00
    0.75529E-03         0.19474E-03         0.00000E+00
    0.71384E-03         0.18652E-03         0.00000E+00
    0.67148E-03         0.17780E-03         0.00000E+00
    0.62823E-03         0.16858E-03         0.00000E+00
    0.58413E-03         0.15885E-03         0.00000E+00
    0.53920E-03         0.14860E-03         0.00000E+00
    0.49349E-03         0.13783E-03         0.00000E+00
    0.44701E-03         0.12652E-03         0.00000E+00
    0.39980E-03         0.11467E-03         0.00000E+00
    0.35190E-03         0.10229E-03         0.00000E+00
    0.30334E-03         0.89351E-04         0.00000E+00
    0.25415E-03         0.75863E-04         0.00000E+00
    0.20437E-03         0.61818E-04         0.00000E+00
    0.15403E-03         0.47213E-04         0.00000E+00
    0.10316E-03         0.32043E-04         0.00000E+00
    0.51808E-04         0.16306E-04         0.00000E+00
    0.00000E+00         0.00000E+00         0.00000E+00
    0.16159E-02         0.28328E-03         0.00000E+00
    0.16195E-02         0.28482E-03         0.00000E+00
    0.16213E-02         0.28635E-03         0.00000E+00
    0.16215E-02         0.28783E-03         0.00000E+00
    0.16199E-02         0.28925E-03         0.00000E+00
    0.16165E-02         0.29059E-03         0.00000E+00
    0.16115E-02         0.29183E-03         0.00000E+00
    0.16047E-02         0.29295E-03         0.00000E+00
    0.15963E-02         0.29392E-03         0.00000E+00
    0.15862E-02         0.29474E-03         0.00000E+00
    0.15744E-02         0.29538E-03         0.00000E+00
    0.15609E-02         0.29583E-03         0.00000E+00
    0.15459E-02         0.29605E-03         0.00000E+00
    0.15292E-02         0.29605E-03         0.00000E+00
    0.15109E-02         0.29579E-03         0.00000E+00
    0.14910E-02         0.29527E-03         0.00000E+00
    0.14695E-02         0.29446E-03         0.00000E+00
    0.14465E-02         0.29335E-03         0.00000E+00
    0.14220E-02         0.29193E-03         0.00000E+00
    0.13960E-02         0.29016E-03         0.00000E+00
    0.13685E-02         0.28805E-03         0.00000E+00
    0.13396E-02         0.28557E-03         0.00000E+00
    0.13092E-02         0.28272E-03         0.00000E+00
    0.12775E-02         0.27946E-03         0.00000E+00
    0.12443E-02         0.27580E-03         0.00000E+00
    0.12099E-02         0.27172E-03         0.00000E+00
    0.11740E-02         0.26719E-03         0.00000E+00
    0.11369E-02         0.26222E-03         0.00000E+00
    0.10986E-02         0.25679E-03         0.00000E+00
    0.10590E-02         0.25088E-03         0.00000E+00
    0.10182E-02         0.24449E-03         0.00000E+00
    0.97620E-03         0.23759E-03         0.00000E+00
    0.93308E-03         0.23019E-03         0.00000E+00
    0.88885E-03         0.22227E-03         0.00000E+00
    0.84353E-03         0.21382E-03         0.00000E+00
    0.79718E-03         0.20483E-03         0.00000E+00
    0.74981E-03         0.19529E-03         0.00000E+00
    0.70146E-03         0.18519E-03         0.00000E+00
    0.65216E-03         0.17453E-03         0.00000E+00
    0.60196E-03         0.16330E-03         0.00000E+00
    0.55088E-03         0.15148E-03         0.00000E+00
    0.49896E-03         0.13907E-03         0.00000E+00
    0.44624E-03         0.12607E-03         0.00000E+00
    0.39275E-03         0.11247E-03         0.00000E+00
    0.33853E-03         0.98261E-04         0.00000E+00
    0.28362E-03         0.83440E-04         0.00000E+00
    0.22806E-03         0.68002E-04         0.00000E+00
    0.17187E-03         0.51942E-04         0.00000E+00
    0.11511E-03         0.35258E-04         0.00000E+00
    0.57807E-04         0.17944E-04         0.00000E+00
    0.00000E+00         0.00000E+00         0.00000E+00
    0.18140E-02         0.30603E-03         0.00000E+00
    0.18176E-02         0.30789E-03         0.00000E+00
    0.18192E-02         0.30974E-03         0.00000E+00
    0.18189E-02         0.31153E-03         0.00000E+00
    0.18167E-02         0.31326E-03         0.00000E+00
    0.18126E-02         0.31490E-03         0.00000E+00
    0.18065E-02         0.31642E-03         0.00000E+00
    0.17986E-02         0.31781E-03         0.00000E+00
    0.17887E-02         0.31904E-03         0.00000E+00
    0.17770E-02         0.32010E-03         0.00000E+00
    0.17634E-02         0.32096E-03         0.00000E+00
    0.17480E-02         0.32160E-03         0.00000E+00
    0.17308E-02         0.32201E-03         0.00000E+00
    0.17118E-02         0.32215E-03         0.00000E+00
    0.16910E-02         0.32202E-03         0.00000E+00
    0.16684E-02         0.32159E-03         0.00000E+00
    0.16442E-02         0.32084E-03         0.00000E+00
    0.16182E-02         0.31976E-03         0.00000E+00
    0.15905E-02         0.31832E-03         0.00000E+00
    0.15611E-02         0.31652E-03         0.00000E+00
    0.15302E-02         0.31432E-03         0.00000E+00
    0.14976E-02         0.31173E-03         0.00000E+00
    0.14634E-02         0.30871E-03         0.00000E+00
    0.14277E-02         0.30525E-03         0.00000E+00
    0.13905E-02         0.30134E-03         0.00000E+00
    0.13518E-02         0.29697E-03         0.00000E+00
    0.13116E-02         0.29211E-03         0.00000E+00
    0.12700E-02         0.28675E-03         0.00000E+00
    0.12270E-02         0.28088E-03         0.00000E+00
    0.11826E-02         0.27449E-03         0.00000E+00
    0.11369E-02         0.26756E-03         0.00000E+00
    0.10899E-02         0.26007E-03         0.00000E+00
    0.10417E-02         0.25203E-03         0.00000E+00
    0.99217E-03         0.24341E-03         0.00000E+00
    0.94150E-03         0.23421E-03         0.00000E+00
    0.88967E-03         0.22440E-03         0.00000E+00
    0.83673E-03         0.21400E-03         0.00000E+00
    0.78271E-03         0.20297E-03         0.00000E+00
    0.72764E-03         0.19132E-03         0.00000E+00
    0.67158E-03         0.17904E-03         0.00000E+00
    0.61454E-03         0.16611E-03         0.00000E+00
    0.55659E-03         0.15253E-03         0.00000E+00
    0.49774E-03         0.13830E-03         0.00000E+00
    0.43805E-03         0.12340E-03         0.00000E+00
    0.37756E-03         0.10783E-03         0.00000E+00
    0.31630E-03         0.91577E-04         0.00000E+00
    0.25432E-03         0.74645E-04         0.00000E+00
    0.19166E-03         0.57025E-04         0.00000E+00
    0.12836E-03         0.38714E-04         0.00000E+00
    0.64456E-04         0.19706E-04         0.00000E+00
    0.00000E+00         0.00000E+00         0.00000E+00
    0.20357E-02         0.32905E-03         0.00000E+00
    0.20393E-02         0.33130E-03         0.00000E+00
    0.20406E-02         0.33353E-03         0.00000E+00
    0.20397E-02         0.33570E-03         0.00000E+00
    0.20368E-02         0.33780E-03         0.00000E+00
    0.20316E-02         0.33980E-03         0.00000E+00
    0.20243E-02         0.34167E-03         0.00000E+00
    0.20150E-02         0.34340E-03         0.00000E+00
    0.20035E-02         0.34495E-03         0.00000E+00
    0.19899E-02         0.34630E-03         0.00000E+00
    0.19743E-02         0.34743E-03         0.00000E+00
    0.19567E-02         0.34833E-03         0.00000E+00
    0.19370E-02         0.34895E-03         0.00000E+00
    0.19153E-02         0.34930E-03         0.00000E+00
    0.18917E-02         0.34933E-03         0.00000E+00
    0.18661E-02         0.34903E-03         0.00000E+00
    0.18386E-02         0.34839E-03         0.00000E+00
    0.18092E-02         0.34737E-03         0.00000E+00
    0.17779E-02         0.34596E-03         0.00000E+00
    0.17448E-02         0.34415E-03         0.00000E+00
    0.17099E-02         0.34190E-03         0.00000E+00
    0.16733E-02         0.33921E-03         0.00000E+00
    0.16348E-02         0.33605E-03         0.00000E+00
    0.15947E-02         0.33241E-03         0.00000E+00
    0.15529E-02         0.32827E-03         0.00000E+00
    0.15094E-02         0.32361E-03         0.00000E+00
    0.14643E-02         0.31841E-03         0.00000E+00
    0.14177E-02         0.31267E-03         0.00000E+00
    0.13695E-02         0.30636E-03         0.00000E+00
    0.13198E-02         0.29948E-03         0.00000E+00
    0.12687E-02         0.29199E-03         0.00000E+00
    0.12161E-02         0.28390E-03         0.00000E+00
    0.11621E-02         0.27519E-03         0.00000E+00
    0.11068E-02         0.26585E-03         0.00000E+00
    0.10501E-02         0.25586E-03         0.00000E+00
    0.99223E-03         0.24521E-03         0.00000E+00
    0.93309E-03         0.23389E-03         0.00000E+00
    0.87277E-03         0.22189E-03         0.00000E+00
    0.81130E-03         0.20920E-03         0.00000E+00
    0.74872E-03         0.19581E-03         0.00000E+00
    0.68508E-03         0.18171E-03         0.00000E+00
    0.62043E-03         0.16689E-03         0.00000E+00
    0.55479E-03         0.15134E-03         0.00000E+00
    0.48823E-03         0.13506E-03         0.00000E+00
    0.42078E-03         0.11804E-03         0.00000E+00
    0.35249E-03         0.10027E-03         0.00000E+00
    0.28340E-03         0.81745E-04         0.00000E+00
    0.21357E-03         0.62460E-04         0.00000E+00
    0.14302E-03         0.42411E-04         0.00000E+00
    0.71817E-04         0.21592E-04         0.00000E+00
    0.00000E+00         0.00000E+00         0.00000E+00
    0.22839E-02         0.35189E-03         0.00000E+00
    0.22872E-02         0.35461E-03         0.00000E+00
    0.22880E-02         0.35729E-03         0.00000E+00
    0.22865E-02         0.35992E-03         0.00000E+00
    0.22825E-02         0.36247E-03         0.00000E+00
    0.22762E-02         0.36490E-03         0.00000E+00
    0.22675E-02         0.36720E-03         0.00000E+00
    0.22564E-02         0.36933E-03         0.00000E+00
    0.22430E-02         0.37127E-03         0.00000E+00
    0.22273E-02         0.37299E-03         0.00000E+00
    0.22093E-02         0.37446E-03         0.00000E+00
    0.21891E-02         0.37567E-03         0.00000E+00
    0.21666E-02         0.37659E-03         0.00000E+00
    0.21419E-02         0.37719E-03         0.00000E+00
    0.21150E-02         0.37745E-03         0.00000E+00
    0.20860E-02         0.37734E-03         0.00000E+00
    0.20549E-02         0.37685E-03         0.00000E+00
    0.20216E-02         0.37595E-03         0.00000E+00
    0.19863E-02         0.37461E-03         0.00000E+00
    0.19490E-02         0.37283E-03         0.00000E+00
    0.19097E-02         0.37057E-03         0.00000E+00
    0.18684E-02         0.36781E-03         0.00000E+00
    0.18252E-02         0.36455E-03         0.00000E+00
    0.17801E-02         0.36074E-03         0.00000E+00
    0.17331E-02         0.35639E-03         0.00000E+00
    0.16844E-02         0.35147E-03         0.00000E+00
    0.16338E-02         0.34595E-03         0.00000E+00
    0.15815E-02         0.33983E-03         0.00000E+00
    0.15276E-02         0.33309E-03         0.00000E+00
    0.14719E-02         0.32571E-03         0.00000E+00
    0.14147E-02         0.31768E-03         0.00000E+00
    0.13559E-02         0.30897E-03         0.00000E+00
    0.12956E-02         0.29958E-03         0.00000E+00
    0.12337E-02         0.28949E-03         0.00000E+00
    0.11705E-02         0.27869E-03         0.00000E+00
    0.11058E-02         0.26716E-03         0.00000E+00
    0.10398E-02         0.25489E-03         0.00000E+00
    0.97248E-03         0.24188E-03         0.00000E+00
    0.90390E-03         0.22810E-03         0.00000E+00
    0.83411E-03         0.21355E-03         0.00000E+00
    0.76315E-03         0.19822E-03         0.00000E+00
    0.69107E-03         0.18209E-03         0.00000E+00
    0.61792E-03         0.16517E-03         0.00000E+00
    0.54374E-03         0.14743E-03         0.00000E+00
    0.46859E-03         0.12888E-03         0.00000E+00
    0.39252E-03         0.10950E-03         0.00000E+00
    0.31557E-03         0.89287E-04         0.00000E+00
    0.23779E-03         0.68237E-04         0.00000E+00
    0.15924E-03         0.46342E-04         0.00000E+00
    0.79957E-04         0.23598E-04         0.00000E+00
    0.00000E+00         0.00000E+00         0.00000E+00
    0.25613E-02         0.37393E-03         0.00000E+00
    0.25642E-02         0.37721E-03         0.00000E+00
    0.25644E-02         0.38045E-03         0.00000E+00
    0.25620E-02         0.38363E-03         0.00000E+00
    0.25568E-02         0.38671E-03         0.00000E+00
    0.25490E-02         0.38967E-03         0.00000E+00
    0.25386E-02         0.39248E-03         0.00000E+00
    0.25255E-02         0.39510E-03         0.00000E+00
    0.25099E-02         0.39752E-03         0.00000E+00
    0.24917E-02         0.39969E-03         0.00000E+00
    0.24710E-02         0.40159E-03         0.00000E+00
    0.24478E-02         0.40320E-03         0.00000E+00
    0.24221E-02         0.40448E-03         0.00000E+00
    0.23940E-02         0.40541E-03         0.00000E+00
    0.23634E-02         0.40597E-03         0.00000E+00
    0.23305E-02         0.40612E-03         0.00000E+00
    0.22952E-02         0.40585E-03         0.00000E+00
    0.22576E-02         0.40512E-03         0.00000E+00
    0.22177E-02         0.40392E-03         0.00000E+00
    0.21756E-02         0.40222E-03         0.00000E+00
    0.21313E-02         0.40000E-03         0.00000E+00
    0.20849E-02         0.39723E-03         0.00000E+00
    0.20363E-02         0.39390E-03         0.00000E+00
    0.19856E-02         0.38998E-03         0.00000E+00
    0.19330E-02         0.38545E-03         0.00000E+00
    0.18783E-02         0.38029E-03         0.00000E+00
    0.18216E-02         0.37449E-03         0.00000E+00
    0.17631E-02         0.36801E-03         0.00000E+00
    0.17026E-02         0.36085E-03         0.00000E+00
    0.16404E-02         0.35299E-03         0.00000E+00
    0.15764E-02         0.34441E-03         0.00000E+00
    0.15107E-02         0.33509E-03         0.00000E+00
    0.14433E-02         0.32502E-03         0.00000E+00
    0.13742E-02         0.31417E-03         0.00000E+00
    0.13036E-02         0.30255E-03         0.00000E+00
    0.12314E-02         0.29012E-03         0.00000E+00
    0.11578E-02         0.27689E-03         0.00000E+00
    0.10827E-02         0.26282E-03         0.00000E+00
    0.10063E-02         0.24792E-03         0.00000E+00
    0.92849E-03         0.23217E-03         0.00000E+00
    0.84943E-03         0.21556E-03         0.00000E+00
    0.76913E-03         0.19808E-03         0.00000E+00
    0.68766E-03         0.17971E-03         0.00000E+00
    0.60507E-03         0.16045E-03         0.00000E+00
    0.52141E-03         0.14030E-03         0.00000E+00
    0.43673E-03         0.11923E-03         0.00000E+00
    0.35109E-03         0.97244E-04         0.00000E+00
    0.26455E-03         0.74335E-04         0.00000E+00
    0.17715E-03         0.50495E-04         0.00000E+00
    0.88945E-04         0.25719E-04         0.00000E+00
    0.00000E+00         0.00000E+00         0.00000E+00
    0.28713E-02         0.39438E-03         0.00000E+00
    0.28736E-02         0.39833E-03         0.00000E+00
    0.28730E-02         0.40223E-03         0.00000E+00
    0.28693E-02         0.40607E-03         0.00000E+00
    0.28627E-02         0.40981E-03         0.00000E+00
    0.28532E-02         0.41340E-03         0.00000E+00
    0.28407E-02         0.41683E-03         0.00000E+00
    0.28253E-02         0.42006E-03         0.00000E+00
    0.28071E-02         0.42305E-03         0.00000E+00
    0.27860E-02         0.42577E-03         0.00000E+00
    0.27621E-02         0.42820E-03         0.00000E+00
    0.27355E-02         0.43030E-03         0.00000E+00
    0.27061E-02         0.43204E-03         0.00000E+00
    0.26740E-02         0.43340E-03         0.00000E+00
    0.26393E-02         0.43435E-03         0.00000E+00
    0.26019E-02         0.43485E-03         0.00000E+00
    0.25620E-02         0.43488E-03         0.00000E+00
    0.25195E-02         0.43441E-03         0.00000E+00
    0.24745E-02         0.43342E-03         0.00000E+00
    0.24270E-02         0.43188E-03         0.00000E+00
    0.23771E-02         0.42976E-03         0.00000E+00
    0.23248E-02         0.42705E-03         0.00000E+00
    0.22702E-02         0.42371E-03         0.00000E+00
    0.22134E-02         0.41973E-03         0.00000E+00
    0.21542E-02         0.41507E-03         0.00000E+00
    0.20929E-02         0.40973E-03         0.00000E+00
    0.20295E-02         0.40367E-03         0.00000E+00
    0.19639E-02         0.39689E-03         0.00000E+00
    0.18963E-02         0.38935E-03         0.00000E+00
    0.18267E-02         0.38103E-03         0.00000E+00
    0.17552E-02         0.37193E-03         0.00000E+00
    0.16818E-02         0.36201E-03         0.00000E+00
    0.16065E-02         0.35127E-03         0.00000E+00
    0.15295E-02         0.33968E-03         0.00000E+00
    0.14507E-02         0.32723E-03         0.00000E+00
    0.13702E-02         0.31390E-03         0.00000E+00
    0.12881E-02         0.29969E-03         0.00000E+00
    0.12045E-02         0.28456E-03         0.00000E+00
    0.11193E-02         0.26852E-03         0.00000E+00
    0.10327E-02         0.25154E-03         0.00000E+00
    0.94465E-03         0.23361E-03         0.00000E+00
    0.85528E-03         0.21473E-03         0.00000E+00
    0.76462E-03         0.19488E-03         0.00000E+00
    0.67274E-03         0.17405E-03         0.00000E+00
    0.57968E-03         0.15222E-03         0.00000E+00
    0.48550E-03         0.12940E-03         0.00000E+00
    0.39028E-03         0.10557E-03         0.00000E+00
    0.29405E-03         0.80719E-04         0.00000E+00
    0.19689E-03         0.54846E-04         0.00000E+00
    0.98855E-04         0.27942E-04         0.00000E+00
    0.00000E+00         0.00000E+00         0.00000E+00
    0.32174E-02         0.41223E-03         0.00000E+00
    0.32189E-02         0.41697E-03         0.00000E+00
    0.32171E-02         0.42168E-03         0.00000E+00
    0.32120E-02         0.42631E-03         0.00000E+00
    0.32036E-02         0.43083E-03         0.00000E+00
    0.31919E-02         0.43519E-03         0.00000E+00
    0.31770E-02         0.43937E-03         0.00000E+00
    0.31589E-02         0.44332E-03         0.00000E+00
    0.31376E-02         0.44702E-03         0.00000E+00
    0.31132E-02         0.45042E-03         0.00000E+00
    0.30856E-02         0.45350E-03         0.00000E+00
    0.30551E-02         0.45621E-03         0.00000E+00
    0.30215E-02         0.45854E-03         0.00000E+00
    0.29849E-02         0.46043E-03         0.00000E+00
    0.29454E-02         0.46187E-03         0.00000E+00
    0.29030E-02         0.46283E-03         0.00000E+00
    0.28578E-02         0.46327E-03         0.00000E+00
    0.28097E-02         0.46316E-03         0.00000E+00
    0.27589E-02         0.46247E-03         0.00000E+00
    0.27054E-02         0.46118E-03         0.00000E+00
    0.26492E-02         0.45926E-03         0.00000E+00
    0.25904E-02         0.45669E-03         0.00000E+00
    0.25291E-02         0.45343E-03         0.00000E+00
    0.24653E-02         0.44946E-03         0.00000E+00
    0.23990E-02         0.44476E-03         0.00000E+00
    0.23303E-02         0.43930E-03         0.00000E+00
    0.22592E-02         0.43306E-03         0.00000E+00
    0.21859E-02         0.42601E-03         0.00000E+00
    0.21103E-02         0.41814E-03         0.00000E+00
    0.20325E-02         0.40942E-03         0.00000E+00
    0.19526E-02         0.39984E-03         0.00000E+00
    0.18707E-02         0.38937E-03         0.00000E+00
    0.17867E-02         0.37799E-03         0.00000E+00
    0.17008E-02         0.36568E-03         0.00000E+00
    0.16129E-02         0.35243E-03         0.00000E+00
    0.15233E-02         0.33822E-03         0.00000E+00
    0.14319E-02         0.32303E-03         0.00000E+00
    0.13387E-02         0.30685E-03         0.00000E+00
    0.12439E-02         0.28966E-03         0.00000E+00
    0.11475E-02         0.27144E-03         0.00000E+00
    0.10496E-02         0.25219E-03         0.00000E+00
    0.95021E-03         0.23189E-03         0.00000E+00
    0.84942E-03         0.21052E-03         0.00000E+00
    0.74728E-03         0.18808E-03         0.00000E+00
    0.64386E-03         0.16455E-03         0.00000E+00
    0.53922E-03         0.13992E-03         0.00000E+00
    0.43343E-03         0.11419E-03         0.00000E+00
    0.32654E-03         0.87339E-04         0.00000E+00
    0.21864E-03         0.59362E-04         0.00000E+00
    0.10977E-03         0.30251E-04         0.00000E+00
    0.00000E+00         0.00000E+00         0.00000E+00
    0.36035E-02         0.42618E-03         0.00000E+00
    0.36039E-02         0.43189E-03         0.00000E+00
    0.36006E-02         0.43756E-03         0.00000E+00
    0.35936E-02         0.44314E-03         0.00000E+00
    0.35830E-02         0.44859E-03         0.00000E+00
    0.35688E-02         0.45388E-03         0.00000E+00
    0.35510E-02         0.45897E-03         0.00000E+00
    0.35296E-02         0.46380E-03         0.00000E+00
    0.35048E-02         0.46835E-03         0.00000E+00
    0.34765E-02         0.47259E-03         0.00000E+00
    0.34448E-02         0.47646E-03         0.00000E+00
    0.34097E-02         0.47993E-03         0.00000E+00
    0.33713E-02         0.48297E-03         0.00000E+00
    0.33296E-02         0.48555E-03         0.00000E+00
    0.32846E-02         0.48763E-03         0.00000E+00
    0.32365E-02         0.48917E-03         0.00000E+00
    0.31853E-02         0.49014E-03         0.00000E+00
    0.31310E-02         0.49052E-03         0.00000E+00
    0.30737E-02         0.49027E-03         0.00000E+00
    0.30134E-02         0.48935E-03         0.00000E+00
    0.29501E-02         0.48774E-03         0.00000E+00
    0.28841E-02         0.48542E-03         0.00000E+00
    0.28152E-02         0.48234E-03         0.00000E+00
    0.27436E-02         0.47849E-03         0.00000E+00
    0.26692E-02         0.47384E-03         0.00000E+00
    0.25923E-02         0.46836E-03         0.00000E+00
    0.25128E-02         0.46202E-03         0.00000E+00
    0.24308E-02         0.45480E-03         0.00000E+00
    0.23463E-02         0.44668E-03         0.00000E+00
    0.22595E-02         0.43764E-03         0.00000E+00
    0.21703E-02         0.42764E-03         0.00000E+00
    0.20789E-02         0.41668E-03         0.00000E+00
    0.19852E-02         0.40472E-03         0.00000E+00
    0.18895E-02         0.39175E-03         0.00000E+00
    0.17917E-02         0.37775E-03         0.00000E+00
    0.16919E-02         0.36269E-03         0.00000E+00
    0.15901E-02         0.34657E-03         0.00000E+00
    0.14865E-02         0.32936E-03         0.00000E+00
    0.13811E-02         0.31105E-03         0.00000E+00
    0.12739E-02         0.29162E-03         0.00000E+00
    0.11651E-02         0.27105E-03         0.00000E+00
    0.10547E-02         0.24933E-03         0.00000E+00
    0.94269E-03         0.22645E-03         0.00000E+00
    0.82926E-03         0.20238E-03         0.00000E+00
    0.71444E-03         0.17713E-03         0.00000E+00
    0.59828E-03         0.15068E-03         0.00000E+00
    0.48087E-03         0.12301E-03         0.00000E+00
    0.36226E-03         0.94120E-04         0.00000E+00
    0.24254E-03         0.63993E-04         0.00000E+00
    0.12176E-03         0.32623E-04         0.00000E+00
    0.00000E+00         0.00000E+00         0.00000E+00
    0.40338E-02         0.43463E-03         0.00000E+00
    0.40327E-02         0.44149E-03         0.00000E+00
    0.40275E-02         0.44831E-03         0.00000E+00
    0.40183E-02         0.45503E-03         0.00000E+00
    0.40050E-02         0.46162E-03         0.00000E+00
    0.39877E-02         0.46802E-03         0.00000E+00
    0.39665E-02         0.47419E-03         0.00000E+00
    0.39414E-02         0.48010E-03         0.00000E+00
    0.39124E-02         0.48569E-03         0.00000E+00
    0.38795E-02         0.49093E-03         0.00000E+00
    0.38430E-02         0.49577E-03         0.00000E+00
    0.38027E-02         0.50018E-03         0.00000E+00
    0.37588E-02         0.50412E-03         0.00000E+00
    0.37112E-02         0.50755E-03         0.00000E+00
    0.36601E-02         0.51043E-03         0.00000E+00
    0.36056E-02         0.51272E-03         0.00000E+00
    0.35476E-02         0.51440E-03         0.00000E+00
    0.34862E-02         0.51542E-03         0.00000E+00
    0.34215E-02         0.51575E-03         0.00000E+00
    0.33536E-02         0.51536E-03         0.00000E+00
    0.32824E-02         0.51421E-03         0.00000E+00
    0.32082E-02         0.51228E-03         0.00000E+00
    0.31308E-02         0.50953E-03         0.00000E+00
    0.30505E-02         0.50593E-03         0.00000E+00
    0.29673E-02         0.50146E-03         0.00000E+00
    0.28812E-02         0.49608E-03         0.00000E+00
    0.27922E-02         0.48977E-03         0.00000E+00
    0.27006E-02         0.48249E-03         0.00000E+00
    0.26063E-02         0.47424E-03         0.00000E+00
    0.25094E-02         0.46497E-03         0.00000E+00
    0.24099E-02         0.45467E-03         0.00000E+00
    0.23080E-02         0.44331E-03         0.00000E+00
    0.22037E-02         0.43087E-03         0.00000E+00
    0.20971E-02         0.41732E-03         0.00000E+00
    0.19883E-02         0.40265E-03         0.00000E+00
    0.18772E-02         0.38683E-03         0.00000E+00
    0.17641E-02         0.36984E-03         0.00000E+00
    0.16489E-02         0.35167E-03         0.00000E+00
    0.15318E-02         0.33229E-03         0.00000E+00
    0.14128E-02         0.31169E-03         0.00000E+00
    0.12919E-02         0.28985E-03         0.00000E+00
    0.11694E-02         0.26675E-03         0.00000E+00
    0.10451E-02         0.24238E-03         0.00000E+00
    0.91928E-03         0.21673E-03         0.00000E+00
    0.79192E-03         0.18977E-03         0.00000E+00
    0.66312E-03         0.16150E-03         0.00000E+00
    0.53294E-03         0.13190E-03         0.00000E+00
    0.40146E-03         0.10097E-03         0.00000E+00
    0.26877E-03         0.68676E-04         0.00000E+00
    0.13492E-03         0.35024E-04         0.00000E+00
    0.00000E+00         0.00000E+00         0.00000E+00
    0.45129E-02         0.43558E-03         0.00000E+00
    0.45099E-02         0.44383E-03         0.00000E+00
    0.45023E-02         0.45202E-03         0.00000E+00
    0.44903E-02         0.46011E-03         0.00000E+00
    0.44737E-02         0.46805E-03         0.00000E+00
    0.44528E-02         0.47579E-03         0.00000E+00
    0.44275E-02         0.48328E-03         0.00000E+00
    0.43979E-02         0.49047E-03         0.00000E+00
    0.43641E-02         0.49732E-03         0.00000E+00
    0.43261E-02         0.50379E-03         0.00000E+00
    0.42839E-02         0.50982E-03         0.00000E+00
    0.42377E-02         0.51538E-03         0.00000E+00
    0.41874E-02         0.52042E-03         0.00000E+00
    0.41332E-02         0.52491E-03         0.00000E+00
    0.40751E-02         0.52880E-03         0.00000E+00
    0.40132E-02         0.53205E-03         0.00000E+00
    0.39476E-02         0.53462E-03         0.00000E+00
    0.38782E-02         0.53648E-03         0.00000E+00
    0.38053E-02         0.53759E-03         0.00000E+00
    0.37288E-02         0.53791E-03         0.00000E+00
    0.36488E-02         0.53741E-03         0.00000E+00
    0.35654E-02         0.53605E-03         0.00000E+00
    0.34786E-02         0.53380E-03         0.00000E+00
    0.33886E-02         0.53063E-03         0.00000E+00
    0.32954E-02         0.52651E-03         0.00000E+00
    0.31991E-02         0.52140E-03         0.00000E+00
    0.30997E-02         0.51527E-03         0.00000E+00
    0.29974E-02         0.50811E-03         0.00000E+00
    0.28921E-02         0.49987E-03         0.00000E+00
    0.27841E-02         0.49053E-03         0.00000E+00
    0.26733E-02         0.48006E-03         0.00000E+00
    0.25598E-02         0.46845E-03         0.00000E+00
    0.24437E-02         0.45565E-03         0.00000E+00
    0.23251E-02         0.44166E-03         0.00000E+00
    0.22041E-02         0.42643E-03         0.00000E+00
    0.20807E-02         0.40997E-03         0.00000E+00
    0.19550E-02         0.39223E-03         0.00000E+00
    0.18271E-02         0.37320E-03         0.00000E+00
    0.16971E-02         0.35285E-03         0.00000E+00
    0.15651E-02         0.33118E-03         0.00000E+00
    0.14310E-02         0.30816E-03         0.00000E+00
    0.12951E-02         0.28377E-03         0.00000E+00
    0.11574E-02         0.25799E-03         0.00000E+00
    0.10179E-02         0.23081E-03         0.00000E+00
    0.87683E-03         0.20221E-03         0.00000E+00
    0.73416E-03         0.17217E-03         0.00000E+00
    0.58999E-03         0.14069E-03         0.00000E+00
    0.44441E-03         0.10774E-03         0.00000E+00
    0.29749E-03         0.73322E-04         0.00000E+00
    0.14933E-03         0.37411E-04         0.00000E+00
    0.00000E+00         0.00000E+00         0.00000E+00
    0.50458E-02         0.42658E-03         0.00000E+00
    0.50403E-02         0.43648E-03         0.00000E+00
    0.50297E-02         0.44632E-03         0.00000E+00
    0.50142E-02         0.45604E-03         0.00000E+00
    0.49938E-02         0.46560E-03         0.00000E+00
    0.49685E-02         0.47495E-03         0.00000E+00
    0.49384E-02         0.48401E-03         0.00000E+00
    0.49036E-02         0.49276E-03         0.00000E+00
    0.48641E-02         0.50113E-03         0.00000E+00
    0.48200E-02         0.50908E-03         0.00000E+00
    0.47714E-02         0.51657E-03         0.00000E+00
    0.47184E-02         0.52353E-03         0.00000E+00
    0.46609E-02         0.52994E-03         0.00000E+00
    0.45992E-02         0.53573E-03         0.00000E+00
    0.45331E-02         0.54088E-03         0.00000E+00
    0.44629E-02         0.54533E-03         0.00000E+00
    0.43886E-02         0.54905E-03         0.00000E+00
    0.43103E-02         0.55199E-03         0.00000E+00
    0.42281E-02         0.55411E-03         0.00000E+00
    0.41420E-02         0.55538E-03         0.00000E+00
    0.40520E-02         0.55576E-03         0.00000E+00
    0.39584E-02         0.55520E-03         0.00000E+00
    0.38612E-02         0.55368E-03         0.00000E+00
    0.37603E-02         0.55116E-03         0.00000E+00
    0.36561E-02         0.54761E-03         0.00000E+00
    0.35484E-02         0.54298E-03         0.00000E+00
    0.34374E-02         0.53726E-03         0.00000E+00
    0.33232E-02         0.53040E-03         0.00000E+00
    0.32059E-02         0.52238E-03         0.00000E+00
    0.30855E-02         0.51317E-03         0.00000E+00
    0.29621E-02         0.50274E-03         0.00000E+00
    0.28359E-02         0.49105E-03         0.00000E+00
    0.27068E-02         0.47809E-03         0.00000E+00
    0.25750E-02         0.46383E-03         0.00000E+00
    0.24406E-02         0.44824E-03         0.00000E+00
    0.23036E-02         0.43129E-03         0.00000E+00
    0.21641E-02         0.41296E-03         0.00000E+00
    0.20223E-02         0.39324E-03         0.00000E+00
    0.18781E-02         0.37208E-03         0.00000E+00
    0.17317E-02         0.34949E-03         0.00000E+00
    0.15833E-02         0.32542E-03         0.00000E+00
    0.14327E-02         0.29987E-03         0.00000E+00
    0.12802E-02         0.27281E-03         0.00000E+00
    0.11259E-02         0.24423E-03         0.00000E+00
    0.96970E-03         0.21410E-03         0.00000E+00
    0.81184E-03         0.18242E-03         0.00000E+00
    0.65236E-03         0.14915E-03         0.00000E+00
    0.49135E-03         0.11429E-03         0.00000E+00
    0.32890E-03         0.77821E-04         0.00000E+00
    0.16509E-03         0.39729E-04         0.00000E+00
    0.00000E+00         0.00000E+00         0.00000E+00
    0.56377E-02         0.40462E-03         0.00000E+00
    0.56290E-02         0.41648E-03         0.00000E+00
    0.56148E-02         0.42829E-03         0.00000E+00
    0.55950E-02         0.43997E-03         0.00000E+00
    0.55699E-02         0.45147E-03         0.00000E+00
    0.55394E-02         0.46273E-03         0.00000E+00
    0.55037E-02         0.47370E-03         0.00000E+00
    0.54628E-02         0.48431E-03         0.00000E+00
    0.54168E-02         0.49452E-03         0.00000E+00
    0.53657E-02         0.50428E-03         0.00000E+00
    0.53097E-02         0.51352E-03         0.00000E+00
    0.52488E-02         0.52220E-03         0.00000E+00
    0.51831E-02         0.53027E-03         0.00000E+00
    0.51127E-02         0.53768E-03         0.00000E+00
    0.50377E-02         0.54439E-03         0.00000E+00
    0.49581E-02         0.55034E-03         0.00000E+00
    0.48741E-02         0.55550E-03         0.00000E+00
    0.47857E-02         0.55982E-03         0.00000E+00
    0.46930E-02         0.56325E-03         0.00000E+00
    0.45961E-02         0.56576E-03         0.00000E+00
    0.44951E-02         0.56731E-03         0.00000E+00
    0.43901E-02         0.56784E-03         0.00000E+00
    0.42811E-02         0.56734E-03         0.00000E+00
    0.41683E-02         0.56575E-03         0.00000E+00
    0.40517E-02         0.56304E-03         0.00000E+00
    0.39315E-02         0.55917E-03         0.00000E+00
    0.38076E-02         0.55412E-03         0.00000E+00
    0.36803E-02         0.54784E-03         0.00000E+00
    0.35496E-02         0.54031E-03         0.00000E+00
    0.34156E-02         0.53148E-03         0.00000E+00
    0.32784E-02         0.52134E-03         0.00000E+00
    0.31380E-02         0.50984E-03         0.00000E+00
    0.29947E-02         0.49696E-03         0.00000E+00
    0.28483E-02         0.48267E-03         0.00000E+00
    0.26992E-02         0.46695E-03         0.00000E+00
    0.25472E-02         0.44976E-03         0.00000E+00
    0.23927E-02         0.43108E-03         0.00000E+00
    0.22355E-02         0.41088E-03         0.00000E+00
    0.20759E-02         0.38914E-03         0.00000E+00
    0.19138E-02         0.36584E-03         0.00000E+00
    0.17495E-02         0.34094E-03         0.00000E+00
    0.15830E-02         0.31444E-03         0.00000E+00
    0.14143E-02         0.28630E-03         0.00000E+00
    0.12436E-02         0.25651E-03         0.00000E+00
    0.10710E-02         0.22504E-03         0.00000E+00
    0.89660E-03         0.19187E-03         0.00000E+00
    0.72041E-03         0.15700E-03         0.00000E+00
    0.54257E-03         0.12039E-03         0.00000E+00
    0.36316E-03         0.82031E-04         0.00000E+00
    0.18227E-03         0.41907E-04         0.00000E+00
    0.00000E+00         0.00000E+00         0.00000E+00
    0.62944E-02         0.36603E-03         0.00000E+00
    0.62817E-02         0.38025E-03         0.00000E+00
    0.62629E-02         0.39440E-03         0.00000E+00
    0.62380E-02         0.40842E-03         0.00000E+00
    0.62073E-02         0.42224E-03         0.00000E+00
    0.61707E-02         0.43580E-03         0.00000E+00
    0.61283E-02         0.44904E-03         0.00000E+00
    0.60803E-02         0.46190E-03         0.00000E+00
    0.60266E-02         0.47432E-03         0.00000E+00
    0.59675E-02         0.48624E-03         0.00000E+00
    0.59030E-02         0.49762E-03         0.00000E+00
    0.58331E-02         0.50839E-03         0.00000E+00
    0.57581E-02         0.51850E-03         0.00000E+00
    0.56779E-02         0.52789E-03         0.00000E+00
    0.55926E-02         0.53653E-03         0.00000E+00
    0.55025E-02         0.54435E-03         0.00000E+00
    0.54075E-02         0.55132E-03         0.00000E+00
    0.53077E-02         0.55738E-03         0.00000E+00
    0.52033E-02         0.56248E-03         0.00000E+00
    0.50944E-02         0.56659E-03         0.00000E+00
    0.49810E-02         0.56966E-03         0.00000E+00
    0.48632E-02         0.57164E-03         0.00000E+00
    0.47412E-02         0.57250E-03         0.00000E+00
    0.46151E-02         0.57219E-03         0.00000E+00
    0.44848E-02         0.57067E-03         0.00000E+00
    0.43507E-02         0.56791E-03         0.00000E+00
    0.42126E-02         0.56387E-03         0.00000E+00
    0.40708E-02         0.55851E-03         0.00000E+00
    0.39254E-02         0.55180E-03         0.00000E+00
    0.37764E-02         0.54370E-03         0.00000E+00
    0.36239E-02         0.53418E-03         0.00000E+00
    0.34680E-02         0.52320E-03         0.00000E+00
    0.33089E-02         0.51073E-03         0.00000E+00
    0.31467E-02         0.49674E-03         0.00000E+00
    0.29814E-02         0.48121E-03         0.00000E+00
    0.28131E-02         0.46409E-03         0.00000E+00
    0.26419E-02         0.44537E-03         0.00000E+00
    0.24680E-02         0.42501E-03         0.00000E+00
    0.22914E-02         0.40299E-03         0.00000E+00
    0.21123E-02         0.37928E-03         0.00000E+00
    0.19307E-02         0.35385E-03         0.00000E+00
    0.17467E-02         0.32668E-03         0.00000E+00
    0.15604E-02         0.29774E-03         0.00000E+00
    0.13719E-02         0.26702E-03         0.00000E+00
    0.11814E-02         0.23448E-03         0.00000E+00
    0.98890E-03         0.20011E-03         0.00000E+00
    0.79450E-03         0.16388E-03         0.00000E+00
    0.59832E-03         0.12578E-03         0.00000E+00
    0.40044E-03         0.85774E-04         0.00000E+00
    0.20097E-03         0.43855E-04         0.00000E+00
    0.00000E+00         0.00000E+00         0.00000E+00
    0.70219E-02         0.30639E-03         0.00000E+00
    0.70042E-02         0.32342E-03         0.00000E+00
    0.69797E-02         0.34036E-03         0.00000E+00
    0.69487E-02         0.35717E-03         0.00000E+00
    0.69112E-02         0.37376E-03         0.00000E+00
    0.68674E-02         0.39007E-03         0.00000E+00
    0.68172E-02         0.40603E-03         0.00000E+00
    0.67608E-02         0.42159E-03         0.00000E+00
    0.66984E-02         0.43667E-03         0.00000E+00
    0.66299E-02         0.45121E-03         0.00000E+00
    0.65556E-02         0.46517E-03         0.00000E+00
    0.64756E-02         0.47847E-03         0.00000E+00
    0.63898E-02         0.49106E-03         0.00000E+00
    0.62985E-02         0.50288E-03         0.00000E+00
    0.62017E-02         0.51389E-03         0.00000E+00
    0.60996E-02         0.52403E-03         0.00000E+00
    0.59923E-02         0.53324E-03         0.00000E+00
    0.58798E-02         0.54148E-03         0.00000E+00
    0.57623E-02         0.54869E-03         0.00000E+00
    0.56399E-02         0.55484E-03         0.00000E+00
    0.55127E-02         0.55987E-03         0.00000E+00
    0.53808E-02         0.56373E-03         0.00000E+00
    0.52443E-02         0.56639E-03         0.00000E+00
    0.51033E-02         0.56780E-03         0.00000E+00
    0.49580E-02         0.56791E-03         0.00000E+00
    0.48084E-02         0.56669E-03         0.00000E+00
    0.46547E-02         0.56410E-03         0.00000E+00
    0.44969E-02         0.56009E-03         0.00000E+00
    0.43352E-02         0.55463E-03         0.00000E+00
    0.41697E-02         0.54768E-03         0.00000E+00
    0.40005E-02         0.53920E-03         0.00000E+00
    0.38276E-02         0.52916E-03         0.00000E+00
    0.36513E-02         0.51753E-03         0.00000E+00
    0.34716E-02         0.50426E-03         0.00000E+00
    0.32886E-02         0.48934E-03         0.00000E+00
    0.31024E-02         0.47271E-03         0.00000E+00
    0.29132E-02         0.45436E-03         0.00000E+00
    0.27209E-02         0.43425E-03         0.00000E+00
    0.25259E-02         0.41235E-03         0.00000E+00
    0.23280E-02         0.38863E-03         0.00000E+00
    0.21276E-02         0.36306E-03         0.00000E+00
    0.19246E-02         0.33562E-03         0.00000E+00
    0.17191E-02         0.30628E-03         0.00000E+00
    0.15113E-02         0.27501E-03         0.00000E+00
    0.13013E-02         0.24178E-03         0.00000E+00
    0.10891E-02         0.20657E-03         0.00000E+00
    0.87495E-03         0.16936E-03         0.00000E+00
    0.65885E-03         0.13012E-03         0.00000E+00
    0.44092E-03         0.88831E-04         0.00000E+00
    0.22127E-03         0.45464E-04         0.00000E+00
    0.00000E+00         0.00000E+00         0.00000E+00
    0.78264E-02         0.22041E-03         0.00000E+00
    0.78025E-02         0.24077E-03         0.00000E+00
    0.77713E-02         0.26105E-03         0.00000E+00
    0.77328E-02         0.28117E-03         0.00000E+00
    0.76873E-02         0.30106E-03         0.00000E+00
    0.76349E-02         0.32065E-03         0.00000E+00
    0.75756E-02         0.33987E-03         0.00000E+00
    0.75095E-02         0.35865E-03         0.00000E+00
    0.74369E-02         0.37692E-03         0.00000E+00
    0.73577E-02         0.39462E-03         0.00000E+00
    0.72722E-02         0.41169E-03         0.00000E+00
    0.71805E-02         0.42805E-03         0.00000E+00
    0.70825E-02         0.44366E-03         0.00000E+00
    0.69786E-02         0.45845E-03         0.00000E+00
    0.68688E-02         0.47236E-03         0.00000E+00
    0.67533E-02         0.48534E-03         0.00000E+00
    0.66321E-02         0.49733E-03         0.00000E+00
    0.65053E-02         0.50829E-03         0.00000E+00
    0.63732E-02         0.51815E-03         0.00000E+00
    0.62357E-02         0.52686E-03         0.00000E+00
    0.60932E-02         0.53439E-03         0.00000E+00
    0.59455E-02         0.54067E-03         0.00000E+00
    0.57930E-02         0.54567E-03         0.00000E+00
    0.56356E-02         0.54933E-03         0.00000E+00
    0.54736E-02         0.55161E-03         0.00000E+00
    0.53070E-02         0.55246E-03         0.00000E+00
    0.51360E-02         0.55185E-03         0.00000E+00
    0.49607E-02         0.54973E-03         0.00000E+00
    0.47811E-02         0.54606E-03         0.00000E+00
    0.45975E-02         0.54080E-03         0.00000E+00
    0.44099E-02         0.53391E-03         0.00000E+00
    0.42185E-02         0.52535E-03         0.00000E+00
    0.40233E-02         0.51509E-03         0.00000E+00
    0.38245E-02         0.50308E-03         0.00000E+00
    0.36222E-02         0.48929E-03         0.00000E+00
    0.34165E-02         0.47369E-03         0.00000E+00
    0.32075E-02         0.45624E-03         0.00000E+00
    0.29954E-02         0.43690E-03         0.00000E+00
    0.27802E-02         0.41565E-03         0.00000E+00
    0.25621E-02         0.39245E-03         0.00000E+00
    0.23411E-02         0.36728E-03         0.00000E+00
    0.21174E-02         0.34008E-03         0.00000E+00
    0.18911E-02         0.31085E-03         0.00000E+00
    0.16624E-02         0.27955E-03         0.00000E+00
    0.14312E-02         0.24614E-03         0.00000E+00
    0.11977E-02         0.21060E-03         0.00000E+00
    0.96210E-03         0.17291E-03         0.00000E+00
    0.72441E-03         0.13303E-03         0.00000E+00
    0.48476E-03         0.90934E-04         0.00000E+00
    0.24325E-03         0.46600E-04         0.00000E+00
    0.00000E+00         0.00000E+00         0.00000E+00
    0.87146E-02         0.10174E-03         0.00000E+00
    0.86831E-02         0.12606E-03         0.00000E+00
    0.86436E-02         0.15030E-03         0.00000E+00
    0.85963E-02         0.17437E-03         0.00000E+00
    0.85413E-02         0.19819E-03         0.00000E+00
    0.84787E-02         0.22170E-03         0.00000E+00
    0.84088E-02         0.24480E-03         0.00000E+00
    0.83315E-02         0.26744E-03         0.00000E+00
    0.82470E-02         0.28954E-03         0.00000E+00
    0.81556E-02         0.31102E-03         0.00000E+00
    0.80572E-02         0.33183E-03         0.00000E+00
    0.79522E-02         0.35190E-03         0.00000E+00
    0.78405E-02         0.37115E-03         0.00000E+00
    0.77223E-02         0.38954E-03         0.00000E+00
    0.75978E-02         0.40700E-03         0.00000E+00
    0.74671E-02         0.42346E-03         0.00000E+00
    0.73303E-02         0.43888E-03         0.00000E+00
    0.71876E-02         0.45319E-03         0.00000E+00
    0.70392E-02         0.46634E-03         0.00000E+00
    0.68850E-02         0.47828E-03         0.00000E+00
    0.67253E-02         0.48896E-03         0.00000E+00
    0.65603E-02         0.49831E-03         0.00000E+00
    0.63900E-02         0.50630E-03         0.00000E+00
    0.62145E-02         0.51287E-03         0.00000E+00
    0.60341E-02         0.51797E-03         0.00000E+00
    0.58488E-02         0.52157E-03         0.00000E+00
    0.56588E-02         0.52360E-03         0.00000E+00
    0.54642E-02         0.52404E-03         0.00000E+00
    0.52651E-02         0.52282E-03         0.00000E+00
    0.50616E-02         0.51992E-03         0.00000E+00
    0.48539E-02         0.51529E-03         0.00000E+00
    0.46421E-02         0.50888E-03         0.00000E+00
    0.44264E-02         0.50065E-03         0.00000E+00
    0.42068E-02         0.49058E-03         0.00000E+00
    0.39835E-02         0.47861E-03         0.00000E+00
    0.37565E-02         0.46470E-03         0.00000E+00
    0.35261E-02         0.44883E-03         0.00000E+00
    0.32923E-02         0.43095E-03         0.00000E+00
    0.30553E-02         0.41103E-03         0.00000E+00
    0.28151E-02         0.38903E-03         0.00000E+00
    0.25720E-02         0.36491E-03         0.00000E+00
    0.23259E-02         0.33864E-03         0.00000E+00
    0.20771E-02         0.31019E-03         0.00000E+00
    0.18256E-02         0.27952E-03         0.00000E+00
    0.15715E-02         0.24660E-03         0.00000E+00
    0.13150E-02         0.21139E-03         0.00000E+00
    0.10562E-02         0.17387E-03         0.00000E+00
    0.79521E-03         0.13400E-03         0.00000E+00
    0.53209E-03         0.91756E-04         0.00000E+00
    0.26699E-03         0.47098E-04         0.00000E+00
    0.00000E+00         0.00000E+00         0.00000E+00
    0.96932E-02        -0.57156E-04         0.00000E+00
    0.96524E-02        -0.28126E-04         0.00000E+00
    0.96030E-02         0.81405E-06         0.00000E+00
    0.95451E-02         0.29577E-04         0.00000E+00
    0.94789E-02         0.58080E-04         0.00000E+00
    0.94045E-02         0.86241E-04         0.00000E+00
    0.93221E-02         0.11398E-03         0.00000E+00
    0.92318E-02         0.14122E-03         0.00000E+00
    0.91337E-02         0.16789E-03         0.00000E+00
    0.90282E-02         0.19392E-03         0.00000E+00
    0.89152E-02         0.21922E-03         0.00000E+00
    0.87949E-02         0.24374E-03         0.00000E+00
    0.86676E-02         0.26741E-03         0.00000E+00
    0.85334E-02         0.29016E-03         0.00000E+00
    0.83923E-02         0.31192E-03         0.00000E+00
    0.82446E-02         0.33264E-03         0.00000E+00
    0.80905E-02         0.35225E-03         0.00000E+00
    0.79300E-02         0.37070E-03         0.00000E+00
    0.77633E-02         0.38792E-03         0.00000E+00
    0.75906E-02         0.40386E-03         0.00000E+00
    0.74120E-02         0.41847E-03         0.00000E+00
    0.72276E-02         0.43169E-03         0.00000E+00
    0.70377E-02         0.44346E-03         0.00000E+00
    0.68423E-02         0.45374E-03         0.00000E+00
    0.66417E-02         0.46248E-03         0.00000E+00
    0.64358E-02         0.46962E-03         0.00000E+00
    0.62249E-02         0.47512E-03         0.00000E+00
    0.60092E-02         0.47892E-03         0.00000E+00
    0.57887E-02         0.48099E-03         0.00000E+00
    0.55636E-02         0.48127E-03         0.00000E+00
    0.53340E-02         0.47972E-03         0.00000E+00
    0.51001E-02         0.47630E-03         0.00000E+00
    0.48619E-02         0.47095E-03         0.00000E+00
    0.46197E-02         0.46365E-03         0.00000E+00
    0.43736E-02         0.45434E-03         0.00000E+00
    0.41236E-02         0.44298E-03         0.00000E+00
    0.38699E-02         0.42954E-03         0.00000E+00
    0.36127E-02         0.41396E-03         0.00000E+00
    0.33520E-02         0.39622E-03         0.00000E+00
    0.30881E-02         0.37627E-03         0.00000E+00
    0.28209E-02         0.35407E-03         0.00000E+00
    0.25506E-02         0.32958E-03         0.00000E+00
    0.22775E-02         0.30276E-03         0.00000E+00
    0.20014E-02         0.27358E-03         0.00000E+00
    0.17227E-02         0.24200E-03         0.00000E+00
    0.14414E-02         0.20798E-03         0.00000E+00
    0.11576E-02         0.17148E-03         0.00000E+00
    0.87146E-03         0.13247E-03         0.00000E+00
    0.58306E-03         0.90908E-04         0.00000E+00
    0.29254E-03         0.46764E-04         0.00000E+00
    0.00000E+00         0.00000E+00         0.00000E+00
    0.10769E-01        -0.26516E-03         0.00000E+00
    0.10717E-01        -0.23055E-03         0.00000E+00
    0.10656E-01        -0.19603E-03         0.00000E+00
    0.10585E-01        -0.16170E-03         0.00000E+00
    0.10506E-01        -0.12764E-03         0.00000E+00
    0.10418E-01        -0.93947E-04         0.00000E+00
    0.10321E-01        -0.60694E-04         0.00000E+00
    0.10215E-01        -0.27964E-04         0.00000E+00
    0.10102E-01         0.41641E-05         0.00000E+00
    0.99800E-02         0.35614E-04         0.00000E+00
    0.98503E-02         0.66311E-04         0.00000E+00
    0.97129E-02         0.96183E-04         0.00000E+00
    0.95679E-02         0.12516E-03         0.00000E+00
    0.94155E-02         0.15317E-03         0.00000E+00
    0.92558E-02         0.18016E-03         0.00000E+00
    0.90891E-02         0.20605E-03         0.00000E+00
    0.89155E-02         0.23078E-03         0.00000E+00
    0.87352E-02         0.25429E-03         0.00000E+00
    0.85483E-02         0.27652E-03         0.00000E+00
    0.83550E-02         0.29741E-03         0.00000E+00
    0.81555E-02         0.31690E-03         0.00000E+00
    0.79499E-02         0.33493E-03         0.00000E+00
    0.77384E-02         0.35146E-03         0.00000E+00
    0.75211E-02         0.36642E-03         0.00000E+00
    0.72982E-02         0.37976E-03         0.00000E+00
    0.70698E-02         0.39143E-03         0.00000E+00
    0.68362E-02         0.40137E-03         0.00000E+00
    0.65974E-02         0.40955E-03         0.00000E+00
    0.63535E-02         0.41590E-03         0.00000E+00
    0.61048E-02         0.42038E-03         0.00000E+00
    0.58514E-02         0.42293E-03         0.00000E+00
    0.55935E-02         0.42352E-03         0.00000E+00
    0.53310E-02         0.42209E-03         0.00000E+00
    0.50643E-02         0.41859E-03         0.00000E+00
    0.47935E-02         0.41298E-03         0.00000E+00
    0.45186E-02         0.40522E-03         0.00000E+00
    0.42398E-02         0.39526E-03         0.00000E+00
    0.39572E-02         0.38305E-03         0.00000E+00
    0.36711E-02         0.36855E-03         0.00000E+00
    0.33814E-02         0.35171E-03         0.00000E+00
    0.30884E-02         0.33249E-03         0.00000E+00
    0.27921E-02         0.31085E-03         0.00000E+00
    0.24927E-02         0.28675E-03         0.00000E+00
    0.21903E-02         0.26013E-03         0.00000E+00
    0.18851E-02         0.23096E-03         0.00000E+00
    0.15771E-02         0.19920E-03         0.00000E+00
    0.12664E-02         0.16480E-03         0.00000E+00
    0.95330E-03         0.12772E-03         0.00000E+00
    0.63777E-03         0.87925E-04         0.00000E+00
    0.31996E-03         0.45364E-04         0.00000E+00
    0.00000E+00         0.00000E+00         0.00000E+00
    0.11949E-01        -0.53272E-03         0.00000E+00
    0.11883E-01        -0.49149E-03         0.00000E+00
    0.11808E-01        -0.45037E-03         0.00000E+00
    0.11723E-01        -0.40944E-03         0.00000E+00
    0.11628E-01        -0.36880E-03         0.00000E+00
    0.11523E-01        -0.32854E-03         0.00000E+00
    0.11410E-01        -0.28873E-03         0.00000E+00
    0.11287E-01        -0.24948E-03         0.00000E+00
    0.11155E-01        -0.21084E-03         0.00000E+00
    0.11015E-01        -0.17292E-03         0.00000E+00
    0.10867E-01        -0.13577E-03         0.00000E+00
    0.10710E-01        -0.99489E-04         0.00000E+00
    0.10545E-01        -0.64132E-04         0.00000E+00
    0.10372E-01        -0.29776E-04         0.00000E+00
    0.10192E-01         0.35114E-05         0.00000E+00
    0.10004E-01         0.35662E-04         0.00000E+00
    0.98083E-02         0.66610E-04         0.00000E+00
    0.96060E-02         0.96291E-04         0.00000E+00
    0.93967E-02         0.12464E-03         0.00000E+00
    0.91807E-02         0.15160E-03         0.00000E+00
    0.89581E-02         0.17712E-03         0.00000E+00
    0.87291E-02         0.20112E-03         0.00000E+00
    0.84938E-02         0.22355E-03         0.00000E+00
    0.82525E-02         0.24435E-03         0.00000E+00
    0.80053E-02         0.26348E-03         0.00000E+00
    0.77524E-02         0.28087E-03         0.00000E+00
    0.74939E-02         0.29647E-03         0.00000E+00
    0.72299E-02         0.31022E-03         0.00000E+00
    0.69608E-02         0.32207E-03         0.00000E+00
    0.66865E-02         0.33197E-03         0.00000E+00
    0.64073E-02         0.33987E-03         0.00000E+00
    0.61232E-02         0.34572E-03         0.00000E+00
    0.58346E-02         0.34946E-03         0.00000E+00
    0.55414E-02         0.35104E-03         0.00000E+00
    0.52438E-02         0.35042E-03         0.00000E+00
    0.49421E-02         0.34754E-03         0.00000E+00
    0.46363E-02         0.34235E-03         0.00000E+00
    0.43265E-02         0.33480E-03         0.00000E+00
    0.40129E-02         0.32485E-03         0.00000E+00
    0.36956E-02         0.31245E-03         0.00000E+00
    0.33748E-02         0.29754E-03         0.00000E+00
    0.30506E-02         0.28007E-03         0.00000E+00
    0.27231E-02         0.26001E-03         0.00000E+00
    0.23925E-02         0.23729E-03         0.00000E+00
    0.20588E-02         0.21188E-03         0.00000E+00
    0.17222E-02         0.18371E-03         0.00000E+00
    0.13829E-02         0.15276E-03         0.00000E+00
    0.10409E-02         0.11895E-03         0.00000E+00
    0.69629E-03         0.82260E-04         0.00000E+00
    0.34930E-03         0.42624E-04         0.00000E+00
    0.00000E+00         0.00000E+00         0.00000E+00
    0.13239E-01        -0.87202E-03         0.00000E+00
    0.13158E-01        -0.82298E-03         0.00000E+00
    0.13065E-01        -0.77405E-03         0.00000E+00
    0.12963E-01        -0.72532E-03         0.00000E+00
    0.12849E-01        -0.67688E-03         0.00000E+00
    0.12726E-01        -0.62883E-03         0.00000E+00
    0.12593E-01        -0.58126E-03         0.00000E+00
    0.12451E-01        -0.53425E-03         0.00000E+00
    0.12299E-01        -0.48788E-03         0.00000E+00
    0.12138E-01        -0.44224E-03         0.00000E+00
    0.11967E-01        -0.39741E-03         0.00000E+00
    0.11789E-01        -0.35345E-03         0.00000E+00
    0.11601E-01        -0.31045E-03         0.00000E+00
    0.11406E-01        -0.26848E-03         0.00000E+00
    0.11202E-01        -0.22761E-03         0.00000E+00
    0.10990E-01        -0.18790E-03         0.00000E+00
    0.10771E-01        -0.14943E-03         0.00000E+00
    0.10544E-01        -0.11226E-03         0.00000E+00
    0.10310E-01        -0.76453E-04         0.00000E+00
    0.10069E-01        -0.42075E-04         0.00000E+00
    0.98212E-02        -0.91868E-05         0.00000E+00
    0.95666E-02         0.22149E-04         0.00000E+00
    0.93054E-02         0.51874E-04         0.00000E+00
    0.90378E-02         0.79927E-04         0.00000E+00
    0.87641E-02         0.10625E-03         0.00000E+00
    0.84844E-02         0.13078E-03         0.00000E+00
    0.81989E-02         0.15347E-03         0.00000E+00
    0.79078E-02         0.17426E-03         0.00000E+00
    0.76111E-02         0.19309E-03         0.00000E+00
    0.73092E-02         0.20990E-03         0.00000E+00
    0.70021E-02         0.22465E-03         0.00000E+00
    0.66900E-02         0.23726E-03         0.00000E+00
    0.63730E-02         0.24770E-03         0.00000E+00
    0.60514E-02         0.25590E-03         0.00000E+00
    0.57252E-02         0.26181E-03         0.00000E+00
    0.53946E-02         0.26537E-03         0.00000E+00
    0.50597E-02         0.26653E-03         0.00000E+00
    0.47207E-02         0.26524E-03         0.00000E+00
    0.43778E-02         0.26144E-03         0.00000E+00
    0.40310E-02         0.25507E-03         0.00000E+00
    0.36805E-02         0.24608E-03         0.00000E+00
    0.33264E-02         0.23442E-03         0.00000E+00
    0.29689E-02         0.22003E-03         0.00000E+00
    0.26081E-02         0.20285E-03         0.00000E+00
    0.22441E-02         0.18284E-03         0.00000E+00
    0.18770E-02         0.15993E-03         0.00000E+00
    0.15070E-02         0.13407E-03         0.00000E+00
    0.11342E-02         0.10520E-03         0.00000E+00
    0.75865E-03         0.73269E-04         0.00000E+00
    0.38055E-03         0.38221E-04         0.00000E+00
    0.00000E+00         0.00000E+00         0.00000E+00
    0.14646E-01        -0.12972E-02         0.00000E+00
    0.14545E-01        -0.12390E-02         0.00000E+00
    0.14433E-01        -0.11808E-02         0.00000E+00
    0.14310E-01        -0.11228E-02         0.00000E+00
    0.14176E-01        -0.10652E-02         0.00000E+00
    0.14031E-01        -0.10079E-02         0.00000E+00
    0.13876E-01        -0.95117E-03         0.00000E+00
    0.13710E-01        -0.89497E-03         0.00000E+00
    0.13535E-01        -0.83942E-03         0.00000E+00
    0.13350E-01        -0.78462E-03         0.00000E+00
    0.13156E-01        -0.73062E-03         0.00000E+00
    0.12952E-01        -0.67753E-03         0.00000E+00
    0.12740E-01        -0.62540E-03         0.00000E+00
    0.12519E-01        -0.57431E-03         0.00000E+00
    0.12289E-01        -0.52434E-03         0.00000E+00
    0.12051E-01        -0.47554E-03         0.00000E+00
    0.11805E-01        -0.42800E-03         0.00000E+00
    0.11552E-01        -0.38178E-03         0.00000E+00
    0.11290E-01        -0.33694E-03         0.00000E+00
    0.11022E-01        -0.29355E-03         0.00000E+00
    0.10746E-01        -0.25167E-03         0.00000E+00
    0.10463E-01        -0.21136E-03         0.00000E+00
    0.10174E-01        -0.17270E-03         0.00000E+00
    0.98776E-02        -0.13573E-03         0.00000E+00
    0.95751E-02        -0.10052E-03         0.00000E+00
    0.92664E-02        -0.67134E-04         0.00000E+00
    0.89517E-02        -0.35628E-04         0.00000E+00
    0.86311E-02        -0.60622E-05         0.00000E+00
    0.83049E-02         0.21503E-04         0.00000E+00
    0.79731E-02         0.47009E-04         0.00000E+00
    0.76360E-02         0.70394E-04         0.00000E+00
    0.72938E-02         0.91601E-04         0.00000E+00
    0.69465E-02         0.11057E-03         0.00000E+00
    0.65943E-02         0.12724E-03         0.00000E+00
    0.62374E-02         0.14155E-03         0.00000E+00
    0.58760E-02         0.15345E-03         0.00000E+00
    0.55101E-02         0.16286E-03         0.00000E+00
    0.51400E-02         0.16974E-03         0.00000E+00
    0.47657E-02         0.17402E-03         0.00000E+00
    0.43874E-02         0.17563E-03         0.00000E+00
    0.40053E-02         0.17453E-03         0.00000E+00
    0.36194E-02         0.17064E-03         0.00000E+00
    0.32300E-02         0.16390E-03         0.00000E+00
    0.28371E-02         0.15426E-03         0.00000E+00
    0.24408E-02         0.14165E-03         0.00000E+00
    0.20413E-02         0.12600E-03         0.00000E+00
    0.16388E-02         0.10725E-03         0.00000E+00
    0.12332E-02         0.85343E-04         0.00000E+00
    0.82485E-03         0.60208E-04         0.00000E+00
    0.41374E-03         0.31782E-04         0.00000E+00
    0.00000E+00         0.00000E+00         0.00000E+00
    0.16175E-01        -0.18246E-02         0.00000E+00
    0.16051E-01        -0.17555E-02         0.00000E+00
    0.15916E-01        -0.16865E-02         0.00000E+00
    0.15769E-01        -0.16176E-02         0.00000E+00
    0.15611E-01        -0.15491E-02         0.00000E+00
    0.15441E-01        -0.14810E-02         0.00000E+00
    0.15260E-01        -0.14133E-02         0.00000E+00
    0.15068E-01        -0.13463E-02         0.00000E+00
    0.14867E-01        -0.12799E-02         0.00000E+00
    0.14655E-01        -0.12142E-02         0.00000E+00
    0.14433E-01        -0.11493E-02         0.00000E+00
    0.14202E-01        -0.10853E-02         0.00000E+00
    0.13961E-01        -0.10223E-02         0.00000E+00
    0.13712E-01        -0.96036E-03         0.00000E+00
    0.13453E-01        -0.89950E-03         0.00000E+00
    0.13187E-01        -0.83982E-03         0.00000E+00
    0.12911E-01        -0.78139E-03         0.00000E+00
    0.12628E-01        -0.72427E-03         0.00000E+00
    0.12337E-01        -0.66853E-03         0.00000E+00
    0.12038E-01        -0.61424E-03         0.00000E+00
    0.11732E-01        -0.56146E-03         0.00000E+00
    0.11419E-01        -0.51025E-03         0.00000E+00
    0.11099E-01        -0.46069E-03         0.00000E+00
    0.10772E-01        -0.41283E-03         0.00000E+00
    0.10438E-01        -0.36673E-03         0.00000E+00
    0.10098E-01        -0.32246E-03         0.00000E+00
    0.97519E-02        -0.28009E-03         0.00000E+00
    0.93997E-02        -0.23967E-03         0.00000E+00
    0.90416E-02        -0.20127E-03         0.00000E+00
    0.86779E-02        -0.16495E-03         0.00000E+00
    0.83087E-02        -0.13077E-03         0.00000E+00
    0.79341E-02        -0.98805E-04         0.00000E+00
    0.75544E-02        -0.69111E-04         0.00000E+00
    0.71697E-02        -0.41756E-04         0.00000E+00
    0.67801E-02        -0.16804E-04         0.00000E+00
    0.63859E-02         0.56796E-05         0.00000E+00
    0.59870E-02         0.25627E-04         0.00000E+00
    0.55838E-02         0.42973E-04         0.00000E+00
    0.51762E-02         0.57648E-04         0.00000E+00
    0.47646E-02         0.69586E-04         0.00000E+00
    0.43489E-02         0.78716E-04         0.00000E+00
    0.39294E-02         0.84970E-04         0.00000E+00
    0.35061E-02         0.88278E-04         0.00000E+00
    0.30792E-02         0.88567E-04         0.00000E+00
    0.26488E-02         0.85768E-04         0.00000E+00
    0.22151E-02         0.79806E-04         0.00000E+00
    0.17781E-02         0.70611E-04         0.00000E+00
    0.13380E-02         0.58107E-04         0.00000E+00
    0.89484E-03         0.42220E-04         0.00000E+00
    0.44881E-03         0.22877E-04         0.00000E+00
    0.00000E+00         0.00000E+00         0.00000E+00
    0.17829E-01        -0.24729E-02         0.00000E+00
    0.17680E-01        -0.23910E-02         0.00000E+00
    0.17517E-01        -0.23092E-02         0.00000E+00
    0.17343E-01        -0.22275E-02         0.00000E+00
    0.17156E-01        -0.21462E-02         0.00000E+00
    0.16957E-01        -0.20653E-02         0.00000E+00
    0.16747E-01        -0.19848E-02         0.00000E+00
    0.16526E-01        -0.19049E-02         0.00000E+00
    0.16295E-01        -0.18257E-02         0.00000E+00
    0.16053E-01        -0.17471E-02         0.00000E+00
    0.15800E-01        -0.16694E-02         0.00000E+00
    0.15538E-01        -0.15925E-02         0.00000E+00
    0.15266E-01        -0.15166E-02         0.00000E+00
    0.14985E-01        -0.14416E-02         0.00000E+00
    0.14695E-01        -0.13678E-02         0.00000E+00
    0.14396E-01        -0.12951E-02         0.00000E+00
    0.14089E-01        -0.12236E-02         0.00000E+00
    0.13773E-01        -0.11535E-02         0.00000E+00
    0.13450E-01        -0.10846E-02         0.00000E+00
    0.13118E-01        -0.10172E-02         0.00000E+00
    0.12779E-01        -0.95128E-03         0.00000E+00
    0.12433E-01        -0.88690E-03         0.00000E+00
    0.12079E-01        -0.82413E-03         0.00000E+00
    0.11719E-01        -0.76304E-03         0.00000E+00
    0.11352E-01        -0.70369E-03         0.00000E+00
    0.10978E-01        -0.64615E-03         0.00000E+00
    0.10598E-01        -0.59048E-03         0.00000E+00
    0.10212E-01        -0.53675E-03         0.00000E+00
    0.98201E-02        -0.48503E-03         0.00000E+00
    0.94223E-02        -0.43538E-03         0.00000E+00
    0.90189E-02        -0.38787E-03         0.00000E+00
    0.86100E-02        -0.34257E-03         0.00000E+00
    0.81959E-02        -0.29954E-03         0.00000E+00
    0.77766E-02        -0.25887E-03         0.00000E+00
    0.73524E-02        -0.22062E-03         0.00000E+00
    0.69233E-02        -0.18487E-03         0.00000E+00
    0.64896E-02        -0.15168E-03         0.00000E+00
    0.60513E-02        -0.12113E-03         0.00000E+00
    0.56087E-02        -0.93297E-04         0.00000E+00
    0.51618E-02        -0.68257E-04         0.00000E+00
    0.47107E-02        -0.46087E-04         0.00000E+00
    0.42557E-02        -0.26865E-04         0.00000E+00
    0.37967E-02        -0.10671E-04         0.00000E+00
    0.33341E-02         0.24152E-05         0.00000E+00
    0.28677E-02         0.12311E-04         0.00000E+00
    0.23979E-02         0.18934E-04         0.00000E+00
    0.19247E-02         0.22202E-04         0.00000E+00
    0.14482E-02         0.22028E-04         0.00000E+00
    0.96848E-03         0.18328E-04         0.00000E+00
    0.48572E-03         0.11014E-04         0.00000E+00
    0.00000E+00         0.00000E+00         0.00000E+00
    0.19613E-01        -0.32633E-02         0.00000E+00
    0.19432E-01        -0.31664E-02         0.00000E+00
    0.19239E-01        -0.30695E-02         0.00000E+00
    0.19032E-01        -0.29729E-02         0.00000E+00
    0.18813E-01        -0.28765E-02         0.00000E+00
    0.18582E-01        -0.27805E-02         0.00000E+00
    0.18339E-01        -0.26850E-02         0.00000E+00
    0.18084E-01        -0.25899E-02         0.00000E+00
    0.17819E-01        -0.24955E-02         0.00000E+00
    0.17543E-01        -0.24018E-02         0.00000E+00
    0.17256E-01        -0.23088E-02         0.00000E+00
    0.16959E-01        -0.22167E-02         0.00000E+00
    0.16653E-01        -0.21254E-02         0.00000E+00
    0.16337E-01        -0.20351E-02         0.00000E+00
    0.16012E-01        -0.19459E-02         0.00000E+00
    0.15678E-01        -0.18577E-02         0.00000E+00
    0.15336E-01        -0.17707E-02         0.00000E+00
    0.14985E-01        -0.16849E-02         0.00000E+00
    0.14626E-01        -0.16004E-02         0.00000E+00
    0.14259E-01        -0.15173E-02         0.00000E+00
    0.13884E-01        -0.14356E-02         0.00000E+00
    0.13502E-01        -0.13553E-02         0.00000E+00
    0.13113E-01        -0.12767E-02         0.00000E+00
    0.12717E-01        -0.11996E-02         0.00000E+00
    0.12314E-01        -0.11242E-02         0.00000E+00
    0.11904E-01        -0.10506E-02         0.00000E+00
    0.11488E-01        -0.97877E-03         0.00000E+00
    0.11066E-01        -0.90884E-03         0.00000E+00
    0.10638E-01        -0.84087E-03         0.00000E+00
    0.10204E-01        -0.77493E-03         0.00000E+00
    0.97645E-02        -0.71109E-03         0.00000E+00
    0.93194E-02        -0.64943E-03         0.00000E+00
    0.88689E-02        -0.59001E-03         0.00000E+00
    0.84132E-02        -0.53293E-03         0.00000E+00
    0.79524E-02        -0.47825E-03         0.00000E+00
    0.74867E-02        -0.42605E-03         0.00000E+00
    0.70163E-02        -0.37642E-03         0.00000E+00
    0.65413E-02        -0.32944E-03         0.00000E+00
    0.60617E-02        -0.28519E-03         0.00000E+00
    0.55778E-02        -0.24376E-03         0.00000E+00
    0.50897E-02        -0.20524E-03         0.00000E+00
    0.45974E-02        -0.16971E-03         0.00000E+00
    0.41011E-02        -0.13726E-03         0.00000E+00
    0.36009E-02        -0.10799E-03         0.00000E+00
    0.30970E-02        -0.81990E-04         0.00000E+00
    0.25894E-02        -0.59350E-04         0.00000E+00
    0.20782E-02        -0.40170E-04         0.00000E+00
    0.15636E-02        -0.24545E-04         0.00000E+00
    0.10456E-02        -0.12575E-04         0.00000E+00
    0.52437E-03        -0.43597E-05         0.00000E+00
    0.00000E+00         0.00000E+00         0.00000E+00
    0.21526E-01        -0.42198E-02         0.00000E+00
    0.21310E-01        -0.41053E-02         0.00000E+00
    0.21079E-01        -0.39908E-02         0.00000E+00
    0.20836E-01        -0.38765E-02         0.00000E+00
    0.20580E-01        -0.37625E-02         0.00000E+00
    0.20312E-01        -0.36488E-02         0.00000E+00
    0.20031E-01        -0.35356E-02         0.00000E+00
    0.19739E-01        -0.34228E-02         0.00000E+00
    0.19436E-01        -0.33105E-02         0.00000E+00
    0.19122E-01        -0.31989E-02         0.00000E+00
    0.18798E-01        -0.30880E-02         0.00000E+00
    0.18463E-01        -0.29779E-02         0.00000E+00
    0.18118E-01        -0.28685E-02         0.00000E+00
    0.17764E-01        -0.27600E-02         0.00000E+00
    0.17401E-01        -0.26525E-02         0.00000E+00
    0.17029E-01        -0.25460E-02         0.00000E+00
    0.16648E-01        -0.24405E-02         0.00000E+00
    0.16259E-01        -0.23362E-02         0.00000E+00
    0.15862E-01        -0.22330E-02         0.00000E+00
    0.15457E-01        -0.21311E-02         0.00000E+00
    0.15044E-01        -0.20306E-02         0.00000E+00
    0.14624E-01        -0.19314E-02         0.00000E+00
    0.14196E-01        -0.18336E-02         0.00000E+00
    0.13762E-01        -0.17374E-02         0.00000E+00
    0.13321E-01        -0.16427E-02         0.00000E+00
    0.12873E-01        -0.15497E-02         0.00000E+00
    0.12419E-01        -0.14584E-02         0.00000E+00
    0.11959E-01        -0.13689E-02         0.00000E+00
    0.11493E-01        -0.12812E-02         0.00000E+00
    0.11020E-01        -0.11956E-02         0.00000E+00
    0.10543E-01        -0.11119E-02         0.00000E+00
    0.10059E-01        -0.10303E-02         0.00000E+00
    0.95707E-02        -0.95091E-03         0.00000E+00
    0.90768E-02        -0.87378E-03         0.00000E+00
    0.85778E-02        -0.79900E-03         0.00000E+00
    0.80739E-02        -0.72666E-03         0.00000E+00
    0.75651E-02        -0.65684E-03         0.00000E+00
    0.70516E-02        -0.58965E-03         0.00000E+00
    0.65336E-02        -0.52517E-03         0.00000E+00
    0.60111E-02        -0.46350E-03         0.00000E+00
    0.54843E-02        -0.40473E-03         0.00000E+00
    0.49532E-02        -0.34898E-03         0.00000E+00
    0.44180E-02        -0.29633E-03         0.00000E+00
    0.38788E-02        -0.24690E-03         0.00000E+00
    0.33356E-02        -0.20079E-03         0.00000E+00
    0.27887E-02        -0.15810E-03         0.00000E+00
    0.22380E-02        -0.11896E-03         0.00000E+00
    0.16837E-02        -0.83458E-04         0.00000E+00
    0.11259E-02        -0.51723E-04         0.00000E+00
    0.56462E-03        -0.23864E-04         0.00000E+00
    0.00000E+00         0.00000E+00         0.00000E+00
    0.23567E-01        -0.53692E-02         0.00000E+00
    0.23309E-01        -0.52340E-02         0.00000E+00
    0.23037E-01        -0.50990E-02         0.00000E+00
    0.22752E-01        -0.49641E-02         0.00000E+00
    0.22453E-01        -0.48294E-02         0.00000E+00
    0.22143E-01        -0.46950E-02         0.00000E+00
    0.21821E-01        -0.45610E-02         0.00000E+00
    0.21487E-01        -0.44274E-02         0.00000E+00
    0.21141E-01        -0.42942E-02         0.00000E+00
    0.20785E-01        -0.41616E-02         0.00000E+00
    0.20419E-01        -0.40296E-02         0.00000E+00
    0.20043E-01        -0.38982E-02         0.00000E+00
    0.19656E-01        -0.37676E-02         0.00000E+00
    0.19261E-01        -0.36376E-02         0.00000E+00
    0.18856E-01        -0.35085E-02         0.00000E+00
    0.18442E-01        -0.33803E-02         0.00000E+00
    0.18020E-01        -0.32530E-02         0.00000E+00
    0.17590E-01        -0.31267E-02         0.00000E+00
    0.17152E-01        -0.30014E-02         0.00000E+00
    0.16705E-01        -0.28772E-02         0.00000E+00
    0.16252E-01        -0.27542E-02         0.00000E+00
    0.15791E-01        -0.26324E-02         0.00000E+00
    0.15323E-01        -0.25120E-02         0.00000E+00
    0.14848E-01        -0.23928E-02         0.00000E+00
    0.14367E-01        -0.22751E-02         0.00000E+00
    0.13879E-01        -0.21589E-02         0.00000E+00
    0.13385E-01        -0.20442E-02         0.00000E+00
    0.12885E-01        -0.19312E-02         0.00000E+00
    0.12379E-01        -0.18200E-02         0.00000E+00
    0.11867E-01        -0.17105E-02         0.00000E+00
    0.11349E-01        -0.16029E-02         0.00000E+00
    0.10826E-01        -0.14973E-02         0.00000E+00
    0.10298E-01        -0.13938E-02         0.00000E+00
    0.97640E-02        -0.12924E-02         0.00000E+00
    0.92252E-02        -0.11932E-02         0.00000E+00
    0.86816E-02        -0.10964E-02         0.00000E+00
    0.81330E-02        -0.10021E-02         0.00000E+00
    0.75798E-02        -0.91027E-03         0.00000E+00
    0.70218E-02        -0.82112E-03         0.00000E+00
    0.64594E-02        -0.73472E-03         0.00000E+00
    0.58925E-02        -0.65120E-03         0.00000E+00
    0.53213E-02        -0.57066E-03         0.00000E+00
    0.47459E-02        -0.49323E-03         0.00000E+00
    0.41663E-02        -0.41901E-03         0.00000E+00
    0.35826E-02        -0.34812E-03         0.00000E+00
    0.29950E-02        -0.28070E-03         0.00000E+00
    0.24035E-02        -0.21687E-03         0.00000E+00
    0.18081E-02        -0.15675E-03         0.00000E+00
    0.12091E-02        -0.10048E-03         0.00000E+00
    0.60632E-03        -0.48185E-04         0.00000E+00
    0.00000E+00         0.00000E+00         0.00000E+00
    0.25729E-01        -0.67410E-02         0.00000E+00
    0.25424E-01        -0.65818E-02         0.00000E+00
    0.25104E-01        -0.64227E-02         0.00000E+00
    0.24771E-01        -0.62638E-02         0.00000E+00
    0.24426E-01        -0.61050E-02         0.00000E+00
    0.24068E-01        -0.59464E-02         0.00000E+00
    0.23699E-01        -0.57881E-02         0.00000E+00
    0.23318E-01        -0.56301E-02         0.00000E+00
    0.22927E-01        -0.54725E-02         0.00000E+00
    0.22524E-01        -0.53153E-02         0.00000E+00
    0.22112E-01        -0.51585E-02         0.00000E+00
    0.21690E-01        -0.50023E-02         0.00000E+00
    0.21258E-01        -0.48466E-02         0.00000E+00
    0.20817E-01        -0.46915E-02         0.00000E+00
    0.20368E-01        -0.45370E-02         0.00000E+00
    0.19910E-01        -0.43832E-02         0.00000E+00
    0.19443E-01        -0.42302E-02         0.00000E+00
    0.18969E-01        -0.40779E-02         0.00000E+00
    0.18487E-01        -0.39265E-02         0.00000E+00
    0.17997E-01        -0.37760E-02         0.00000E+00
    0.17501E-01        -0.36264E-02         0.00000E+00
    0.16997E-01        -0.34779E-02         0.00000E+00
    0.16486E-01        -0.33304E-02         0.00000E+00
    0.15969E-01        -0.31841E-02         0.00000E+00
    0.15446E-01        -0.30390E-02         0.00000E+00
    0.14916E-01        -0.28951E-02         0.00000E+00
    0.14380E-01        -0.27527E-02         0.00000E+00
    0.13838E-01        -0.26117E-02         0.00000E+00
    0.13290E-01        -0.24722E-02         0.00000E+00
    0.12737E-01        -0.23343E-02         0.00000E+00
    0.12178E-01        -0.21981E-02         0.00000E+00
    0.11614E-01        -0.20637E-02         0.00000E+00
    0.11045E-01        -0.19312E-02         0.00000E+00
    0.10470E-01        -0.18007E-02         0.00000E+00
    0.98904E-02        -0.16722E-02         0.00000E+00
    0.93058E-02        -0.15460E-02         0.00000E+00
    0.87164E-02        -0.14221E-02         0.00000E+00
    0.81222E-02        -0.13006E-02         0.00000E+00
    0.75234E-02        -0.11817E-02         0.00000E+00
    0.69199E-02        -0.10654E-02         0.00000E+00
    0.63120E-02        -0.95189E-03         0.00000E+00
    0.56996E-02        -0.84131E-03         0.00000E+00
    0.50828E-02        -0.73378E-03         0.00000E+00
    0.44618E-02        -0.62944E-03         0.00000E+00
    0.38365E-02        -0.52841E-03         0.00000E+00
    0.32071E-02        -0.43084E-03         0.00000E+00
    0.25736E-02        -0.33687E-03         0.00000E+00
    0.19361E-02        -0.24666E-03         0.00000E+00
    0.12946E-02        -0.16034E-03         0.00000E+00
    0.64923E-03        -0.78068E-04         0.00000E+00
    0.00000E+00         0.00000E+00         0.00000E+00
    0.28004E-01        -0.83677E-02         0.00000E+00
    0.27644E-01        -0.81806E-02         0.00000E+00
    0.27271E-01        -0.79935E-02         0.00000E+00
    0.26885E-01        -0.78065E-02         0.00000E+00
    0.26487E-01        -0.76196E-02         0.00000E+00
    0.26076E-01        -0.74328E-02         0.00000E+00
    0.25655E-01        -0.72462E-02         0.00000E+00
    0.25222E-01        -0.70598E-02         0.00000E+00
    0.24780E-01        -0.68736E-02         0.00000E+00
    0.24327E-01        -0.66877E-02         0.00000E+00
    0.23864E-01        -0.65020E-02         0.00000E+00
    0.23392E-01        -0.63167E-02         0.00000E+00
    0.22912E-01        -0.61317E-02         0.00000E+00
    0.22422E-01        -0.59471E-02         0.00000E+00
    0.21925E-01        -0.57629E-02         0.00000E+00
    0.21419E-01        -0.55791E-02         0.00000E+00
    0.20906E-01        -0.53959E-02         0.00000E+00
    0.20385E-01        -0.52131E-02         0.00000E+00
    0.19856E-01        -0.50310E-02         0.00000E+00
    0.19321E-01        -0.48494E-02         0.00000E+00
    0.18779E-01        -0.46686E-02         0.00000E+00
    0.18231E-01        -0.44885E-02         0.00000E+00
    0.17676E-01        -0.43092E-02         0.00000E+00
    0.17114E-01        -0.41307E-02         0.00000E+00
    0.16547E-01        -0.39532E-02         0.00000E+00
    0.15974E-01        -0.37768E-02         0.00000E+00
    0.15395E-01        -0.36014E-02         0.00000E+00
    0.14810E-01        -0.34271E-02         0.00000E+00
    0.14220E-01        -0.32542E-02         0.00000E+00
    0.13624E-01        -0.30825E-02         0.00000E+00
    0.13023E-01        -0.29124E-02         0.00000E+00
    0.12417E-01        -0.27437E-02         0.00000E+00
    0.11806E-01        -0.25768E-02         0.00000E+00
    0.11189E-01        -0.24116E-02         0.00000E+00
    0.10568E-01        -0.22482E-02         0.00000E+00
    0.99416E-02        -0.20869E-02         0.00000E+00
    0.93106E-02        -0.19277E-02         0.00000E+00
    0.86747E-02        -0.17707E-02         0.00000E+00
    0.80342E-02        -0.16161E-02         0.00000E+00
    0.73891E-02        -0.14640E-02         0.00000E+00
    0.67394E-02        -0.13146E-02         0.00000E+00
    0.60851E-02        -0.11680E-02         0.00000E+00
    0.54263E-02        -0.10243E-02         0.00000E+00
    0.47631E-02        -0.88370E-03         0.00000E+00
    0.40955E-02        -0.74638E-03         0.00000E+00
    0.34236E-02        -0.61248E-03         0.00000E+00
    0.27473E-02        -0.48215E-03         0.00000E+00
    0.20668E-02        -0.35557E-03         0.00000E+00
    0.13820E-02        -0.23290E-03         0.00000E+00
    0.69309E-03        -0.11432E-03         0.00000E+00
    0.00000E+00         0.00000E+00         0.00000E+00
    0.30377E-01        -0.10284E-01         0.00000E+00
    0.29956E-01        -0.10065E-01         0.00000E+00
    0.29522E-01        -0.98451E-02         0.00000E+00
    0.29076E-01        -0.96255E-02         0.00000E+00
    0.28619E-01        -0.94059E-02         0.00000E+00
    0.28150E-01        -0.91864E-02         0.00000E+00
    0.27671E-01        -0.89669E-02         0.00000E+00
    0.27182E-01        -0.87475E-02         0.00000E+00
    0.26684E-01        -0.85280E-02         0.00000E+00
    0.26176E-01        -0.83087E-02         0.00000E+00
    0.25659E-01        -0.80894E-02         0.00000E+00
    0.25134E-01        -0.78701E-02         0.00000E+00
    0.24601E-01        -0.76509E-02         0.00000E+00
    0.24060E-01        -0.74319E-02         0.00000E+00
    0.23511E-01        -0.72130E-02         0.00000E+00
    0.22955E-01        -0.69942E-02         0.00000E+00
    0.22392E-01        -0.67756E-02         0.00000E+00
    0.21822E-01        -0.65572E-02         0.00000E+00
    0.21246E-01        -0.63390E-02         0.00000E+00
    0.20663E-01        -0.61212E-02         0.00000E+00
    0.20074E-01        -0.59036E-02         0.00000E+00
    0.19479E-01        -0.56865E-02         0.00000E+00
    0.18879E-01        -0.54698E-02         0.00000E+00
    0.18272E-01        -0.52537E-02         0.00000E+00
    0.17660E-01        -0.50381E-02         0.00000E+00
    0.17042E-01        -0.48232E-02         0.00000E+00
    0.16419E-01        -0.46091E-02         0.00000E+00
    0.15791E-01        -0.43957E-02         0.00000E+00
    0.15157E-01        -0.41833E-02         0.00000E+00
    0.14519E-01        -0.39719E-02         0.00000E+00
    0.13875E-01        -0.37617E-02         0.00000E+00
    0.13226E-01        -0.35526E-02         0.00000E+00
    0.12573E-01        -0.33449E-02         0.00000E+00
    0.11914E-01        -0.31387E-02         0.00000E+00
    0.11251E-01        -0.29341E-02         0.00000E+00
    0.10583E-01        -0.27312E-02         0.00000E+00
    0.99097E-02        -0.25301E-02         0.00000E+00
    0.92321E-02        -0.23311E-02         0.00000E+00
    0.85497E-02        -0.21342E-02         0.00000E+00
    0.78626E-02        -0.19396E-02         0.00000E+00
    0.71709E-02        -0.17475E-02         0.00000E+00
    0.64745E-02        -0.15581E-02         0.00000E+00
    0.57734E-02        -0.13714E-02         0.00000E+00
    0.50678E-02        -0.11876E-02         0.00000E+00
    0.43575E-02        -0.10071E-02         0.00000E+00
    0.36426E-02        -0.82980E-03         0.00000E+00
    0.29232E-02        -0.65606E-03         0.00000E+00
    0.21992E-02        -0.48601E-03         0.00000E+00
    0.14707E-02        -0.31985E-03         0.00000E+00
    0.73759E-03        -0.15778E-03         0.00000E+00
    0.00000E+00         0.00000E+00         0.00000E+00
    0.32826E-01        -0.12528E-01         0.00000E+00
    0.32336E-01        -0.12271E-01         0.00000E+00
    0.31835E-01        -0.12013E-01         0.00000E+00
    0.31322E-01        -0.11756E-01         0.00000E+00
    0.30800E-01        -0.11499E-01         0.00000E+00
    0.30268E-01        -0.11241E-01         0.00000E+00
    0.29726E-01        -0.10984E-01         0.00000E+00
    0.29176E-01        -0.10726E-01         0.00000E+00
    0.28617E-01        -0.10468E-01         0.00000E+00
    0.28051E-01        -0.10210E-01         0.00000E+00
    0.27476E-01        -0.99513E-02         0.00000E+00
    0.26894E-01        -0.96926E-02         0.00000E+00
    0.26305E-01        -0.94338E-02         0.00000E+00
    0.25710E-01        -0.91747E-02         0.00000E+00
    0.25107E-01        -0.89153E-02         0.00000E+00
    0.24499E-01        -0.86558E-02         0.00000E+00
    0.23884E-01        -0.83960E-02         0.00000E+00
    0.23264E-01        -0.81361E-02         0.00000E+00
    0.22638E-01        -0.78760E-02         0.00000E+00
    0.22006E-01        -0.76158E-02         0.00000E+00
    0.21369E-01        -0.73555E-02         0.00000E+00
    0.20727E-01        -0.70952E-02         0.00000E+00
    0.20079E-01        -0.68349E-02         0.00000E+00
    0.19427E-01        -0.65747E-02         0.00000E+00
    0.18769E-01        -0.63147E-02         0.00000E+00
    0.18107E-01        -0.60549E-02         0.00000E+00
    0.17440E-01        -0.57954E-02         0.00000E+00
    0.16768E-01        -0.55363E-02         0.00000E+00
    0.16091E-01        -0.52777E-02         0.00000E+00
    0.15409E-01        -0.50198E-02         0.00000E+00
    0.14723E-01        -0.47625E-02         0.00000E+00
    0.14032E-01        -0.45061E-02         0.00000E+00
    0.13337E-01        -0.42507E-02         0.00000E+00
    0.12636E-01        -0.39963E-02         0.00000E+00
    0.11931E-01        -0.37432E-02         0.00000E+00
    0.11222E-01        -0.34915E-02         0.00000E+00
    0.10507E-01        -0.32413E-02         0.00000E+00
    0.97880E-02        -0.29929E-02         0.00000E+00
    0.90641E-02        -0.27462E-02         0.00000E+00
    0.83354E-02        -0.25017E-02         0.00000E+00
    0.76020E-02        -0.22593E-02         0.00000E+00
    0.68637E-02        -0.20193E-02         0.00000E+00
    0.61206E-02        -0.17819E-02         0.00000E+00
    0.53727E-02        -0.15473E-02         0.00000E+00
    0.46199E-02        -0.13156E-02         0.00000E+00
    0.38623E-02        -0.10872E-02         0.00000E+00
    0.30997E-02        -0.86208E-03         0.00000E+00
    0.23322E-02        -0.64060E-03         0.00000E+00
    0.15597E-02        -0.42295E-03         0.00000E+00
    0.78235E-03        -0.20934E-03         0.00000E+00
    0.00000E+00         0.00000E+00         0.00000E+00
    0.35322E-01        -0.15137E-01         0.00000E+00
    0.34756E-01        -0.14836E-01         0.00000E+00
    0.34181E-01        -0.14536E-01         0.00000E+00
    0.33596E-01        -0.14235E-01         0.00000E+00
    0.33002E-01        -0.13934E-01         0.00000E+00
    0.32401E-01        -0.13633E-01         0.00000E+00
    0.31792E-01        -0.13331E-01         0.00000E+00
    0.31175E-01        -0.13029E-01         0.00000E+00
    0.30552E-01        -0.12726E-01         0.00000E+00
    0.29923E-01        -0.12423E-01         0.00000E+00
    0.29287E-01        -0.12120E-01         0.00000E+00
    0.28646E-01        -0.11815E-01         0.00000E+00
    0.27998E-01        -0.11511E-01         0.00000E+00
    0.27346E-01        -0.11205E-01         0.00000E+00
    0.26688E-01        -0.10899E-01         0.00000E+00
    0.26026E-01        -0.10592E-01         0.00000E+00
    0.25358E-01        -0.10285E-01         0.00000E+00
    0.24686E-01        -0.99767E-02         0.00000E+00
    0.24009E-01        -0.96679E-02         0.00000E+00
    0.23328E-01        -0.93586E-02         0.00000E+00
    0.22643E-01        -0.90487E-02         0.00000E+00
    0.21953E-01        -0.87383E-02         0.00000E+00
    0.21259E-01        -0.84273E-02         0.00000E+00
    0.20561E-01        -0.81160E-02         0.00000E+00
    0.19858E-01        -0.78043E-02         0.00000E+00
    0.19152E-01        -0.74923E-02         0.00000E+00
    0.18441E-01        -0.71801E-02         0.00000E+00
    0.17726E-01        -0.68679E-02         0.00000E+00
    0.17007E-01        -0.65556E-02         0.00000E+00
    0.16283E-01        -0.62435E-02         0.00000E+00
    0.15555E-01        -0.59316E-02         0.00000E+00
    0.14823E-01        -0.56201E-02         0.00000E+00
    0.14086E-01        -0.53091E-02         0.00000E+00
    0.13345E-01        -0.49987E-02         0.00000E+00
    0.12600E-01        -0.46892E-02         0.00000E+00
    0.11849E-01        -0.43806E-02         0.00000E+00
    0.11095E-01        -0.40731E-02         0.00000E+00
    0.10335E-01        -0.37670E-02         0.00000E+00
    0.95706E-02        -0.34624E-02         0.00000E+00
    0.88014E-02        -0.31594E-02         0.00000E+00
    0.80272E-02        -0.28584E-02         0.00000E+00
    0.72480E-02        -0.25594E-02         0.00000E+00
    0.64638E-02        -0.22628E-02         0.00000E+00
    0.56744E-02        -0.19687E-02         0.00000E+00
    0.48798E-02        -0.16773E-02         0.00000E+00
    0.40800E-02        -0.13889E-02         0.00000E+00
    0.32748E-02        -0.11037E-02         0.00000E+00
    0.24643E-02        -0.82197E-03         0.00000E+00
    0.16484E-02        -0.54395E-03         0.00000E+00
    0.82694E-03        -0.26987E-03         0.00000E+00
    0.00000E+00         0.00000E+00         0.00000E+00
    0.37829E-01        -0.18151E-01         0.00000E+00
    0.37179E-01        -0.17801E-01         0.00000E+00
    0.36522E-01        -0.17450E-01         0.00000E+00
    0.35859E-01        -0.17099E-01         0.00000E+00
    0.35189E-01        -0.16748E-01         0.00000E+00
    0.34513E-01        -0.16396E-01         0.00000E+00
    0.33831E-01        -0.16043E-01         0.00000E+00
    0.33145E-01        -0.15690E-01         0.00000E+00
    0.32454E-01        -0.15336E-01         0.00000E+00
    0.31759E-01        -0.14982E-01         0.00000E+00
    0.31059E-01        -0.14626E-01         0.00000E+00
    0.30356E-01        -0.14269E-01         0.00000E+00
    0.29649E-01        -0.13911E-01         0.00000E+00
    0.28938E-01        -0.13553E-01         0.00000E+00
    0.28224E-01        -0.13193E-01         0.00000E+00
    0.27506E-01        -0.12831E-01         0.00000E+00
    0.26785E-01        -0.12469E-01         0.00000E+00
    0.26061E-01        -0.12105E-01         0.00000E+00
    0.25334E-01        -0.11740E-01         0.00000E+00
    0.24604E-01        -0.11374E-01         0.00000E+00
    0.23871E-01        -0.11007E-01         0.00000E+00
    0.23134E-01        -0.10639E-01         0.00000E+00
    0.22395E-01        -0.10270E-01         0.00000E+00
    0.21652E-01        -0.98993E-02         0.00000E+00
    0.20906E-01        -0.95280E-02         0.00000E+00
    0.20156E-01        -0.91558E-02         0.00000E+00
    0.19404E-01        -0.87828E-02         0.00000E+00
    0.18647E-01        -0.84092E-02         0.00000E+00
    0.17887E-01        -0.80350E-02         0.00000E+00
    0.17124E-01        -0.76603E-02         0.00000E+00
    0.16356E-01        -0.72853E-02         0.00000E+00
    0.15584E-01        -0.69101E-02         0.00000E+00
    0.14809E-01        -0.65349E-02         0.00000E+00
    0.14029E-01        -0.61598E-02         0.00000E+00
    0.13245E-01        -0.57850E-02         0.00000E+00
    0.12456E-01        -0.54107E-02         0.00000E+00
    0.11663E-01        -0.50371E-02         0.00000E+00
    0.10865E-01        -0.46643E-02         0.00000E+00
    0.10062E-01        -0.42926E-02         0.00000E+00
    0.92536E-02        -0.39222E-02         0.00000E+00
    0.84404E-02        -0.35532E-02         0.00000E+00
    0.76220E-02        -0.31860E-02         0.00000E+00
    0.67982E-02        -0.28207E-02         0.00000E+00
    0.59689E-02        -0.24577E-02         0.00000E+00
    0.51339E-02        -0.20971E-02         0.00000E+00
    0.42932E-02        -0.17392E-02         0.00000E+00
    0.34466E-02        -0.13843E-02         0.00000E+00
    0.25941E-02        -0.10327E-02         0.00000E+00
    0.17355E-02        -0.68455E-03         0.00000E+00
    0.87087E-03        -0.34023E-03         0.00000E+00
    0.00000E+00         0.00000E+00         0.00000E+00
    0.40299E-01        -0.21609E-01         0.00000E+00
    0.39558E-01        -0.21201E-01         0.00000E+00
    0.38813E-01        -0.20793E-01         0.00000E+00
    0.38065E-01        -0.20385E-01         0.00000E+00
    0.37313E-01        -0.19976E-01         0.00000E+00
    0.36558E-01        -0.19566E-01         0.00000E+00
    0.35801E-01        -0.19155E-01         0.00000E+00
    0.35042E-01        -0.18744E-01         0.00000E+00
    0.34280E-01        -0.18331E-01         0.00000E+00
    0.33517E-01        -0.17917E-01         0.00000E+00
    0.32752E-01        -0.17501E-01         0.00000E+00
    0.31985E-01        -0.17084E-01         0.00000E+00
    0.31217E-01        -0.16666E-01         0.00000E+00
    0.30448E-01        -0.16246E-01         0.00000E+00
    0.29677E-01        -0.15824E-01         0.00000E+00
    0.28905E-01        -0.15400E-01         0.00000E+00
    0.28132E-01        -0.14974E-01         0.00000E+00
    0.27357E-01        -0.14547E-01         0.00000E+00
    0.26581E-01        -0.14118E-01         0.00000E+00
    0.25803E-01        -0.13687E-01         0.00000E+00
    0.25024E-01        -0.13254E-01         0.00000E+00
    0.24243E-01        -0.12820E-01         0.00000E+00
    0.23460E-01        -0.12383E-01         0.00000E+00
    0.22675E-01        -0.11945E-01         0.00000E+00
    0.21888E-01        -0.11505E-01         0.00000E+00
    0.21098E-01        -0.11064E-01         0.00000E+00
    0.20306E-01        -0.10622E-01         0.00000E+00
    0.19511E-01        -0.10178E-01         0.00000E+00
    0.18713E-01        -0.97323E-02         0.00000E+00
    0.17912E-01        -0.92860E-02         0.00000E+00
    0.17108E-01        -0.88386E-02         0.00000E+00
    0.16300E-01        -0.83905E-02         0.00000E+00
    0.15489E-01        -0.79418E-02         0.00000E+00
    0.14673E-01        -0.74925E-02         0.00000E+00
    0.13853E-01        -0.70430E-02         0.00000E+00
    0.13029E-01        -0.65934E-02         0.00000E+00
    0.12200E-01        -0.61438E-02         0.00000E+00
    0.11367E-01        -0.56947E-02         0.00000E+00
    0.10528E-01        -0.52460E-02         0.00000E+00
    0.96839E-02        -0.47982E-02         0.00000E+00
    0.88345E-02        -0.43514E-02         0.00000E+00
    0.79793E-02        -0.39059E-02         0.00000E+00
    0.71184E-02        -0.34619E-02         0.00000E+00
    0.62514E-02        -0.30198E-02         0.00000E+00
    0.53781E-02        -0.25797E-02         0.00000E+00
    0.44986E-02        -0.21420E-02         0.00000E+00
    0.36125E-02        -0.17071E-02         0.00000E+00
    0.27197E-02        -0.12751E-02         0.00000E+00
    0.18201E-02        -0.84633E-03         0.00000E+00
    0.91359E-03        -0.42121E-03         0.00000E+00
    0.00000E+00         0.00000E+00         0.00000E+00
    0.42672E-01        -0.25547E-01         0.00000E+00
    0.41834E-01        -0.25074E-01         0.00000E+00
    0.40995E-01        -0.24600E-01         0.00000E+00
    0.40157E-01        -0.24126E-01         0.00000E+00
    0.39320E-01        -0.23651E-01         0.00000E+00
    0.38483E-01        -0.23175E-01         0.00000E+00
    0.37647E-01        -0.22698E-01         0.00000E+00
    0.36812E-01        -0.22219E-01         0.00000E+00
    0.35979E-01        -0.21739E-01         0.00000E+00
    0.35147E-01        -0.21257E-01         0.00000E+00
    0.34316E-01        -0.20773E-01         0.00000E+00
    0.33486E-01        -0.20288E-01         0.00000E+00
    0.32658E-01        -0.19800E-01         0.00000E+00
    0.31831E-01        -0.19309E-01         0.00000E+00
    0.31006E-01        -0.18817E-01         0.00000E+00
    0.30181E-01        -0.18322E-01         0.00000E+00
    0.29357E-01        -0.17824E-01         0.00000E+00
    0.28534E-01        -0.17324E-01         0.00000E+00
    0.27712E-01        -0.16822E-01         0.00000E+00
    0.26890E-01        -0.16317E-01         0.00000E+00
    0.26068E-01        -0.15809E-01         0.00000E+00
    0.25246E-01        -0.15299E-01         0.00000E+00
    0.24423E-01        -0.14786E-01         0.00000E+00
    0.23600E-01        -0.14271E-01         0.00000E+00
    0.22775E-01        -0.13754E-01         0.00000E+00
    0.21950E-01        -0.13234E-01         0.00000E+00
    0.21123E-01        -0.12712E-01         0.00000E+00
    0.20294E-01        -0.12188E-01         0.00000E+00
    0.19462E-01        -0.11662E-01         0.00000E+00
    0.18629E-01        -0.11134E-01         0.00000E+00
    0.17792E-01        -0.10605E-01         0.00000E+00
    0.16952E-01        -0.10074E-01         0.00000E+00
    0.16109E-01        -0.95412E-02         0.00000E+00
    0.15262E-01        -0.90077E-02         0.00000E+00
    0.14411E-01        -0.84732E-02         0.00000E+00
    0.13556E-01        -0.79380E-02         0.00000E+00
    0.12695E-01        -0.74023E-02         0.00000E+00
    0.11830E-01        -0.68664E-02         0.00000E+00
    0.10960E-01        -0.63304E-02         0.00000E+00
    0.10083E-01        -0.57946E-02         0.00000E+00
    0.92012E-02        -0.52594E-02         0.00000E+00
    0.83129E-02        -0.47249E-02         0.00000E+00
    0.74181E-02        -0.41915E-02         0.00000E+00
    0.65167E-02        -0.36594E-02         0.00000E+00
    0.56083E-02        -0.31290E-02         0.00000E+00
    0.46927E-02        -0.26006E-02         0.00000E+00
    0.37697E-02        -0.20745E-02         0.00000E+00
    0.28392E-02        -0.15511E-02         0.00000E+00
    0.19008E-02        -0.10306E-02         0.00000E+00
    0.95447E-03        -0.51347E-03         0.00000E+00
    0.00000E+00         0.00000E+00         0.00000E+00
    0.44875E-01        -0.29996E-01         0.00000E+00
    0.43935E-01        -0.29448E-01         0.00000E+00
    0.42999E-01        -0.28900E-01         0.00000E+00
    0.42068E-01        -0.28351E-01         0.00000E+00
    0.41142E-01        -0.27801E-01         0.00000E+00
    0.40222E-01        -0.27250E-01         0.00000E+00
    0.39306E-01        -0.26697E-01         0.00000E+00
    0.38396E-01        -0.26142E-01         0.00000E+00
    0.37490E-01        -0.25586E-01         0.00000E+00
    0.36590E-01        -0.25027E-01         0.00000E+00
    0.35695E-01        -0.24465E-01         0.00000E+00
    0.34805E-01        -0.23901E-01         0.00000E+00
    0.33919E-01        -0.23335E-01         0.00000E+00
    0.33037E-01        -0.22765E-01         0.00000E+00
    0.32160E-01        -0.22192E-01         0.00000E+00
    0.31286E-01        -0.21616E-01         0.00000E+00
    0.30416E-01        -0.21037E-01         0.00000E+00
    0.29549E-01        -0.20455E-01         0.00000E+00
    0.28685E-01        -0.19869E-01         0.00000E+00
    0.27823E-01        -0.19280E-01         0.00000E+00
    0.26964E-01        -0.18688E-01         0.00000E+00
    0.26106E-01        -0.18092E-01         0.00000E+00
    0.25249E-01        -0.17493E-01         0.00000E+00
    0.24393E-01        -0.16891E-01         0.00000E+00
    0.23537E-01        -0.16286E-01         0.00000E+00
    0.22681E-01        -0.15677E-01         0.00000E+00
    0.21825E-01        -0.15066E-01         0.00000E+00
    0.20967E-01        -0.14451E-01         0.00000E+00
    0.20109E-01        -0.13834E-01         0.00000E+00
    0.19248E-01        -0.13215E-01         0.00000E+00
    0.18385E-01        -0.12592E-01         0.00000E+00
    0.17519E-01        -0.11968E-01         0.00000E+00
    0.16650E-01        -0.11342E-01         0.00000E+00
    0.15778E-01        -0.10713E-01         0.00000E+00
    0.14901E-01        -0.10083E-01         0.00000E+00
    0.14020E-01        -0.94517E-02         0.00000E+00
    0.13133E-01        -0.88190E-02         0.00000E+00
    0.12242E-01        -0.81854E-02         0.00000E+00
    0.11345E-01        -0.75511E-02         0.00000E+00
    0.10441E-01        -0.69165E-02         0.00000E+00
    0.95313E-02        -0.62817E-02         0.00000E+00
    0.86144E-02        -0.56471E-02         0.00000E+00
    0.76904E-02        -0.50131E-02         0.00000E+00
    0.67587E-02        -0.43799E-02         0.00000E+00
    0.58192E-02        -0.37478E-02         0.00000E+00
    0.48714E-02        -0.31173E-02         0.00000E+00
    0.39152E-02        -0.24886E-02         0.00000E+00
    0.29502E-02        -0.18622E-02         0.00000E+00
    0.19761E-02        -0.12384E-02         0.00000E+00
    0.99281E-03        -0.61749E-03         0.00000E+00
    0.00000E+00         0.00000E+00         0.00000E+00
    0.46824E-01        -0.34981E-01         0.00000E+00
    0.45777E-01        -0.34348E-01         0.00000E+00
    0.44742E-01        -0.33715E-01         0.00000E+00
    0.43716E-01        -0.33082E-01         0.00000E+00
    0.42702E-01        -0.32447E-01         0.00000E+00
    0.41697E-01        -0.31810E-01         0.00000E+00
    0.40703E-01        -0.31172E-01         0.00000E+00
    0.39719E-01        -0.30531E-01         0.00000E+00
    0.38745E-01        -0.29888E-01         0.00000E+00
    0.37780E-01        -0.29242E-01         0.00000E+00
    0.36824E-01        -0.28593E-01         0.00000E+00
    0.35877E-01        -0.27940E-01         0.00000E+00
    0.34938E-01        -0.27285E-01         0.00000E+00
    0.34007E-01        -0.26625E-01         0.00000E+00
    0.33083E-01        -0.25962E-01         0.00000E+00
    0.32166E-01        -0.25295E-01         0.00000E+00
    0.31256E-01        -0.24624E-01         0.00000E+00
    0.30352E-01        -0.23949E-01         0.00000E+00
    0.29452E-01        -0.23269E-01         0.00000E+00
    0.28558E-01        -0.22586E-01         0.00000E+00
    0.27668E-01        -0.21899E-01         0.00000E+00
    0.26781E-01        -0.21207E-01         0.00000E+00
    0.25897E-01        -0.20511E-01         0.00000E+00
    0.25016E-01        -0.19811E-01         0.00000E+00
    0.24136E-01        -0.19108E-01         0.00000E+00
    0.23258E-01        -0.18400E-01         0.00000E+00
    0.22380E-01        -0.17688E-01         0.00000E+00
    0.21502E-01        -0.16973E-01         0.00000E+00
    0.20623E-01        -0.16254E-01         0.00000E+00
    0.19743E-01        -0.15532E-01         0.00000E+00
    0.18861E-01        -0.14806E-01         0.00000E+00
    0.17977E-01        -0.14078E-01         0.00000E+00
    0.17090E-01        -0.13346E-01         0.00000E+00
    0.16199E-01        -0.12612E-01         0.00000E+00
    0.15304E-01        -0.11876E-01         0.00000E+00
    0.14404E-01        -0.11137E-01         0.00000E+00
    0.13499E-01        -0.10396E-01         0.00000E+00
    0.12587E-01        -0.96542E-02         0.00000E+00
    0.11670E-01        -0.89105E-02         0.00000E+00
    0.10746E-01        -0.81658E-02         0.00000E+00
    0.98142E-02        -0.74203E-02         0.00000E+00
    0.88748E-02        -0.66744E-02         0.00000E+00
    0.79272E-02        -0.59283E-02         0.00000E+00
    0.69708E-02        -0.51825E-02         0.00000E+00
    0.60053E-02        -0.44373E-02         0.00000E+00
    0.50302E-02        -0.36930E-02         0.00000E+00
    0.40453E-02        -0.29501E-02         0.00000E+00
    0.30501E-02        -0.22090E-02         0.00000E+00
    0.20444E-02        -0.14700E-02         0.00000E+00
    0.10278E-02        -0.73350E-03         0.00000E+00
    0.00000E+00         0.00000E+00         0.00000E+00
    0.48414E-01        -0.40513E-01         0.00000E+00
    0.47261E-01        -0.39786E-01         0.00000E+00
    0.46126E-01        -0.39058E-01         0.00000E+00
    0.45008E-01        -0.38329E-01         0.00000E+00
    0.43907E-01        -0.37598E-01         0.00000E+00
    0.42822E-01        -0.36865E-01         0.00000E+00
    0.41753E-01        -0.36130E-01         0.00000E+00
    0.40699E-01        -0.35393E-01         0.00000E+00
    0.39661E-01        -0.34652E-01         0.00000E+00
    0.38637E-01        -0.33908E-01         0.00000E+00
    0.37627E-01        -0.33160E-01         0.00000E+00
    0.36630E-01        -0.32409E-01         0.00000E+00
    0.35645E-01        -0.31653E-01         0.00000E+00
    0.34673E-01        -0.30893E-01         0.00000E+00
    0.33711E-01        -0.30128E-01         0.00000E+00
    0.32759E-01        -0.29359E-01         0.00000E+00
    0.31817E-01        -0.28585E-01         0.00000E+00
    0.30884E-01        -0.27806E-01         0.00000E+00
    0.29959E-01        -0.27023E-01         0.00000E+00
    0.29041E-01        -0.26234E-01         0.00000E+00
    0.28130E-01        -0.25441E-01         0.00000E+00
    0.27224E-01        -0.24642E-01         0.00000E+00
    0.26323E-01        -0.23839E-01         0.00000E+00
    0.25426E-01        -0.23031E-01         0.00000E+00
    0.24532E-01        -0.22217E-01         0.00000E+00
    0.23641E-01        -0.21400E-01         0.00000E+00
    0.22751E-01        -0.20577E-01         0.00000E+00
    0.21862E-01        -0.19750E-01         0.00000E+00
    0.20973E-01        -0.18919E-01         0.00000E+00
    0.20084E-01        -0.18083E-01         0.00000E+00
    0.19193E-01        -0.17244E-01         0.00000E+00
    0.18299E-01        -0.16400E-01         0.00000E+00
    0.17403E-01        -0.15553E-01         0.00000E+00
    0.16503E-01        -0.14702E-01         0.00000E+00
    0.15598E-01        -0.13848E-01         0.00000E+00
    0.14688E-01        -0.12992E-01         0.00000E+00
    0.13772E-01        -0.12132E-01         0.00000E+00
    0.12850E-01        -0.11270E-01         0.00000E+00
    0.11921E-01        -0.10406E-01         0.00000E+00
    0.10984E-01        -0.95406E-02         0.00000E+00
    0.10038E-01        -0.86733E-02         0.00000E+00
    0.90834E-02        -0.78049E-02         0.00000E+00
    0.81192E-02        -0.69357E-02         0.00000E+00
    0.71448E-02        -0.60661E-02         0.00000E+00
    0.61598E-02        -0.51964E-02         0.00000E+00
    0.51636E-02        -0.43271E-02         0.00000E+00
    0.41559E-02        -0.34585E-02         0.00000E+00
    0.31360E-02        -0.25910E-02         0.00000E+00
    0.21037E-02        -0.17252E-02         0.00000E+00
    0.10584E-02        -0.86135E-03         0.00000E+00
    0.00000E+00         0.00000E+00         0.00000E+00
    0.49529E-01        -0.46592E-01         0.00000E+00
    0.48273E-01        -0.45758E-01         0.00000E+00
    0.47042E-01        -0.44923E-01         0.00000E+00
    0.45836E-01        -0.44087E-01         0.00000E+00
    0.44654E-01        -0.43249E-01         0.00000E+00
    0.43495E-01        -0.42408E-01         0.00000E+00
    0.42359E-01        -0.41565E-01         0.00000E+00
    0.41244E-01        -0.40719E-01         0.00000E+00
    0.40150E-01        -0.39869E-01         0.00000E+00
    0.39077E-01        -0.39016E-01         0.00000E+00
    0.38022E-01        -0.38158E-01         0.00000E+00
    0.36985E-01        -0.37295E-01         0.00000E+00
    0.35965E-01        -0.36428E-01         0.00000E+00
    0.34961E-01        -0.35556E-01         0.00000E+00
    0.33973E-01        -0.34679E-01         0.00000E+00
    0.32998E-01        -0.33796E-01         0.00000E+00
    0.32036E-01        -0.32908E-01         0.00000E+00
    0.31086E-01        -0.32015E-01         0.00000E+00
    0.30147E-01        -0.31115E-01         0.00000E+00
    0.29218E-01        -0.30211E-01         0.00000E+00
    0.28297E-01        -0.29300E-01         0.00000E+00
    0.27384E-01        -0.28384E-01         0.00000E+00
    0.26478E-01        -0.27462E-01         0.00000E+00
    0.25577E-01        -0.26534E-01         0.00000E+00
    0.24682E-01        -0.25601E-01         0.00000E+00
    0.23789E-01        -0.24663E-01         0.00000E+00
    0.22899E-01        -0.23719E-01         0.00000E+00
    0.22011E-01        -0.22770E-01         0.00000E+00
    0.21124E-01        -0.21815E-01         0.00000E+00
    0.20236E-01        -0.20856E-01         0.00000E+00
    0.19347E-01        -0.19892E-01         0.00000E+00
    0.18456E-01        -0.18923E-01         0.00000E+00
    0.17561E-01        -0.17950E-01         0.00000E+00
    0.16663E-01        -0.16972E-01         0.00000E+00
    0.15759E-01        -0.15991E-01         0.00000E+00
    0.14850E-01        -0.15006E-01         0.00000E+00
    0.13934E-01        -0.14017E-01         0.00000E+00
    0.13011E-01        -0.13025E-01         0.00000E+00
    0.12079E-01        -0.12031E-01         0.00000E+00
    0.11139E-01        -0.11034E-01         0.00000E+00
    0.10189E-01        -0.10034E-01         0.00000E+00
    0.92277E-02        -0.90330E-02         0.00000E+00
    0.82555E-02        -0.80301E-02         0.00000E+00
    0.72715E-02        -0.70261E-02         0.00000E+00
    0.62750E-02        -0.60214E-02         0.00000E+00
    0.52653E-02        -0.50162E-02         0.00000E+00
    0.42418E-02        -0.40111E-02         0.00000E+00
    0.32041E-02        -0.30065E-02         0.00000E+00
    0.21515E-02        -0.20028E-02         0.00000E+00
    0.10836E-02        -0.10005E-02         0.00000E+00
    0.00000E+00         0.00000E+00         0.00000E+00
    0.50035E-01        -0.53194E-01         0.00000E+00
    0.48682E-01        -0.52241E-01         0.00000E+00
    0.47364E-01        -0.51287E-01         0.00000E+00
    0.46079E-01        -0.50331E-01         0.00000E+00
    0.44827E-01        -0.49374E-01         0.00000E+00
    0.43605E-01        -0.48413E-01         0.00000E+00
    0.42413E-01        -0.47450E-01         0.00000E+00
    0.41250E-01        -0.46483E-01         0.00000E+00
    0.40114E-01        -0.45512E-01         0.00000E+00
    0.39003E-01        -0.44537E-01         0.00000E+00
    0.37917E-01        -0.43557E-01         0.00000E+00
    0.36855E-01        -0.42572E-01         0.00000E+00
    0.35814E-01        -0.41581E-01         0.00000E+00
    0.34793E-01        -0.40585E-01         0.00000E+00
    0.33792E-01        -0.39584E-01         0.00000E+00
    0.32809E-01        -0.38576E-01         0.00000E+00
    0.31841E-01        -0.37562E-01         0.00000E+00
    0.30889E-01        -0.36543E-01         0.00000E+00
    0.29951E-01        -0.35517E-01         0.00000E+00
    0.29025E-01        -0.34485E-01         0.00000E+00
    0.28110E-01        -0.33446E-01         0.00000E+00
    0.27205E-01        -0.32402E-01         0.00000E+00
    0.26308E-01        -0.31351E-01         0.00000E+00
    0.25419E-01        -0.30294E-01         0.00000E+00
    0.24535E-01        -0.29230E-01         0.00000E+00
    0.23656E-01        -0.28161E-01         0.00000E+00
    0.22780E-01        -0.27085E-01         0.00000E+00
    0.21907E-01        -0.26004E-01         0.00000E+00
    0.21035E-01        -0.24917E-01         0.00000E+00
    0.20163E-01        -0.23824E-01         0.00000E+00
    0.19289E-01        -0.22726E-01         0.00000E+00
    0.18413E-01        -0.21623E-01         0.00000E+00
    0.17534E-01        -0.20514E-01         0.00000E+00
    0.16650E-01        -0.19401E-01         0.00000E+00
    0.15760E-01        -0.18283E-01         0.00000E+00
    0.14864E-01        -0.17160E-01         0.00000E+00
    0.13960E-01        -0.16034E-01         0.00000E+00
    0.13048E-01        -0.14903E-01         0.00000E+00
    0.12126E-01        -0.13769E-01         0.00000E+00
    0.11193E-01        -0.12631E-01         0.00000E+00
    0.10249E-01        -0.11490E-01         0.00000E+00
    0.92929E-02        -0.10347E-01         0.00000E+00
    0.83234E-02        -0.92016E-02         0.00000E+00
    0.73398E-02        -0.80539E-02         0.00000E+00
    0.63414E-02        -0.69048E-02         0.00000E+00
    0.53274E-02        -0.57544E-02         0.00000E+00
    0.42971E-02        -0.46032E-02         0.00000E+00
    0.32499E-02        -0.34518E-02         0.00000E+00
    0.21850E-02        -0.23004E-02         0.00000E+00
    0.11019E-02        -0.11497E-02         0.00000E+00
    0.00000E+00         0.00000E+00         0.00000E+00
    0.49781E-01        -0.60271E-01         0.00000E+00
    0.48346E-01        -0.59185E-01         0.00000E+00
    0.46955E-01        -0.58099E-01         0.00000E+00
    0.45607E-01        -0.57011E-01         0.00000E+00
    0.44300E-01        -0.55921E-01         0.00000E+00
    0.43032E-01        -0.54828E-01         0.00000E+00
    0.41801E-01        -0.53732E-01         0.00000E+00
    0.40606E-01        -0.52631E-01         0.00000E+00
    0.39445E-01        -0.51527E-01         0.00000E+00
    0.38315E-01        -0.50417E-01         0.00000E+00
    0.37217E-01        -0.49303E-01         0.00000E+00
    0.36146E-01        -0.48183E-01         0.00000E+00
    0.35103E-01        -0.47057E-01         0.00000E+00
    0.34084E-01        -0.45926E-01         0.00000E+00
    0.33088E-01        -0.44788E-01         0.00000E+00
    0.32114E-01        -0.43644E-01         0.00000E+00
    0.31160E-01        -0.42494E-01         0.00000E+00
    0.30224E-01        -0.41337E-01         0.00000E+00
    0.29304E-01        -0.40174E-01         0.00000E+00
    0.28399E-01        -0.39004E-01         0.00000E+00
    0.27507E-01        -0.37828E-01         0.00000E+00
    0.26627E-01        -0.36645E-01         0.00000E+00
    0.25757E-01        -0.35455E-01         0.00000E+00
    0.24895E-01        -0.34259E-01         0.00000E+00
    0.24040E-01        -0.33056E-01         0.00000E+00
    0.23191E-01        -0.31847E-01         0.00000E+00
    0.22346E-01        -0.30631E-01         0.00000E+00
    0.21504E-01        -0.29410E-01         0.00000E+00
    0.20663E-01        -0.28182E-01         0.00000E+00
    0.19822E-01        -0.26948E-01         0.00000E+00
    0.18979E-01        -0.25708E-01         0.00000E+00
    0.18134E-01        -0.24462E-01         0.00000E+00
    0.17285E-01        -0.23211E-01         0.00000E+00
    0.16430E-01        -0.21954E-01         0.00000E+00
    0.15569E-01        -0.20692E-01         0.00000E+00
    0.14700E-01        -0.19425E-01         0.00000E+00
    0.13823E-01        -0.18153E-01         0.00000E+00
    0.12935E-01        -0.16877E-01         0.00000E+00
    0.12036E-01        -0.15596E-01         0.00000E+00
    0.11125E-01        -0.14311E-01         0.00000E+00
    0.10200E-01        -0.13022E-01         0.00000E+00
    0.92611E-02        -0.11730E-01         0.00000E+00
    0.83066E-02        -0.10434E-01         0.00000E+00
    0.73355E-02        -0.91359E-02         0.00000E+00
    0.63470E-02        -0.78350E-02         0.00000E+00
    0.53401E-02        -0.65320E-02         0.00000E+00
    0.43139E-02        -0.52273E-02         0.00000E+00
    0.32676E-02        -0.39212E-02         0.00000E+00
    0.22004E-02        -0.26144E-02         0.00000E+00
    0.11114E-02        -0.13071E-02         0.00000E+00
    0.00000E+00         0.00000E+00         0.00000E+00
    0.48606E-01        -0.67738E-01         0.00000E+00
    0.47109E-01        -0.66508E-01         0.00000E+00
    0.45667E-01        -0.65276E-01         0.00000E+00
    0.44277E-01        -0.64043E-01         0.00000E+00
    0.42937E-01        -0.62807E-01         0.00000E+00
    0.41646E-01        -0.61569E-01         0.00000E+00
    0.40399E-01        -0.60326E-01         0.00000E+00
    0.39195E-01        -0.59080E-01         0.00000E+00
    0.38033E-01        -0.57829E-01         0.00000E+00
    0.36908E-01        -0.56573E-01         0.00000E+00
    0.35819E-01        -0.55312E-01         0.00000E+00
    0.34764E-01        -0.54045E-01         0.00000E+00
    0.33740E-01        -0.52773E-01         0.00000E+00
    0.32746E-01        -0.51494E-01         0.00000E+00
    0.31778E-01        -0.50210E-01         0.00000E+00
    0.30836E-01        -0.48919E-01         0.00000E+00
    0.29916E-01        -0.47621E-01         0.00000E+00
    0.29017E-01        -0.46317E-01         0.00000E+00
    0.28136E-01        -0.45007E-01         0.00000E+00
    0.27273E-01        -0.43690E-01         0.00000E+00
    0.26424E-01        -0.42367E-01         0.00000E+00
    0.25589E-01        -0.41037E-01         0.00000E+00
    0.24764E-01        -0.39700E-01         0.00000E+00
    0.23950E-01        -0.38357E-01         0.00000E+00
    0.23143E-01        -0.37008E-01         0.00000E+00
    0.22342E-01        -0.35652E-01         0.00000E+00
    0.21545E-01        -0.34290E-01         0.00000E+00
    0.20752E-01        -0.32921E-01         0.00000E+00
    0.19959E-01        -0.31546E-01         0.00000E+00
    0.19167E-01        -0.30165E-01         0.00000E+00
    0.18372E-01        -0.28778E-01         0.00000E+00
    0.17575E-01        -0.27385E-01         0.00000E+00
    0.16772E-01        -0.25987E-01         0.00000E+00
    0.15964E-01        -0.24582E-01         0.00000E+00
    0.15148E-01        -0.23172E-01         0.00000E+00
    0.14323E-01        -0.21756E-01         0.00000E+00
    0.13487E-01        -0.20335E-01         0.00000E+00
    0.12640E-01        -0.18909E-01         0.00000E+00
    0.11780E-01        -0.17477E-01         0.00000E+00
    0.10906E-01        -0.16041E-01         0.00000E+00
    0.10016E-01        -0.14600E-01         0.00000E+00
    0.91094E-02        -0.13155E-01         0.00000E+00
    0.81847E-02        -0.11706E-01         0.00000E+00
    0.72407E-02        -0.10252E-01         0.00000E+00
    0.62764E-02        -0.87954E-02         0.00000E+00
    0.52905E-02        -0.73354E-02         0.00000E+00
    0.42819E-02        -0.58724E-02         0.00000E+00
    0.32495E-02        -0.44069E-02         0.00000E+00
    0.21924E-02        -0.29394E-02         0.00000E+00
    0.11096E-02        -0.14703E-02         0.00000E+00
    0.00000E+00         0.00000E+00         0.00000E+00
    0.46335E-01        -0.75474E-01         0.00000E+00
    0.44806E-01        -0.74085E-01         0.00000E+00
    0.43342E-01        -0.72695E-01         0.00000E+00
    0.41941E-01        -0.71303E-01         0.00000E+00
    0.40600E-01        -0.69909E-01         0.00000E+00
    0.39315E-01        -0.68512E-01         0.00000E+00
    0.38083E-01        -0.67111E-01         0.00000E+00
    0.36901E-01        -0.65706E-01         0.00000E+00
    0.35766E-01        -0.64296E-01         0.00000E+00
    0.34675E-01        -0.62881E-01         0.00000E+00
    0.33625E-01        -0.61462E-01         0.00000E+00
    0.32613E-01        -0.60037E-01         0.00000E+00
    0.31637E-01        -0.58606E-01         0.00000E+00
    0.30693E-01        -0.57170E-01         0.00000E+00
    0.29780E-01        -0.55728E-01         0.00000E+00
    0.28894E-01        -0.54281E-01         0.00000E+00
    0.28034E-01        -0.52827E-01         0.00000E+00
    0.27196E-01        -0.51367E-01         0.00000E+00
    0.26378E-01        -0.49902E-01         0.00000E+00
    0.25579E-01        -0.48431E-01         0.00000E+00
    0.24796E-01        -0.46953E-01         0.00000E+00
    0.24027E-01        -0.45470E-01         0.00000E+00
    0.23269E-01        -0.43981E-01         0.00000E+00
    0.22522E-01        -0.42486E-01         0.00000E+00
    0.21783E-01        -0.40986E-01         0.00000E+00
    0.21050E-01        -0.39479E-01         0.00000E+00
    0.20321E-01        -0.37967E-01         0.00000E+00
    0.19596E-01        -0.36448E-01         0.00000E+00
    0.18871E-01        -0.34924E-01         0.00000E+00
    0.18145E-01        -0.33395E-01         0.00000E+00
    0.17417E-01        -0.31859E-01         0.00000E+00
    0.16686E-01        -0.30317E-01         0.00000E+00
    0.15948E-01        -0.28770E-01         0.00000E+00
    0.15204E-01        -0.27217E-01         0.00000E+00
    0.14451E-01        -0.25659E-01         0.00000E+00
    0.13688E-01        -0.24094E-01         0.00000E+00
    0.12912E-01        -0.22524E-01         0.00000E+00
    0.12124E-01        -0.20948E-01         0.00000E+00
    0.11321E-01        -0.19366E-01         0.00000E+00
    0.10502E-01        -0.17779E-01         0.00000E+00
    0.96643E-02        -0.16187E-01         0.00000E+00
    0.88079E-02        -0.14589E-01         0.00000E+00
    0.79309E-02        -0.12985E-01         0.00000E+00
    0.70316E-02        -0.11377E-01         0.00000E+00
    0.61088E-02        -0.97640E-02         0.00000E+00
    0.51610E-02        -0.81463E-02         0.00000E+00
    0.41868E-02        -0.65243E-02         0.00000E+00
    0.31850E-02        -0.48983E-02         0.00000E+00
    0.21540E-02        -0.32686E-02         0.00000E+00
    0.10928E-02        -0.16357E-02         0.00000E+00
    0.00000E+00         0.00000E+00         0.00000E+00
    0.42789E-01        -0.83303E-01         0.00000E+00
    0.41268E-01        -0.81743E-01         0.00000E+00
    0.39823E-01        -0.80182E-01         0.00000E+00
    0.38452E-01        -0.78619E-01         0.00000E+00
    0.37148E-01        -0.77053E-01         0.00000E+00
    0.35909E-01        -0.75485E-01         0.00000E+00
    0.34731E-01        -0.73913E-01         0.00000E+00
    0.33608E-01        -0.72337E-01         0.00000E+00
    0.32538E-01        -0.70757E-01         0.00000E+00
    0.31516E-01        -0.69172E-01         0.00000E+00
    0.30540E-01        -0.67584E-01         0.00000E+00
    0.29605E-01        -0.65990E-01         0.00000E+00
    0.28709E-01        -0.64392E-01         0.00000E+00
    0.27847E-01        -0.62789E-01         0.00000E+00
    0.27018E-01        -0.61182E-01         0.00000E+00
    0.26217E-01        -0.59570E-01         0.00000E+00
    0.25443E-01        -0.57953E-01         0.00000E+00
    0.24693E-01        -0.56332E-01         0.00000E+00
    0.23963E-01        -0.54707E-01         0.00000E+00
    0.23253E-01        -0.53076E-01         0.00000E+00
    0.22558E-01        -0.51442E-01         0.00000E+00
    0.21877E-01        -0.49803E-01         0.00000E+00
    0.21209E-01        -0.48159E-01         0.00000E+00
    0.20550E-01        -0.46511E-01         0.00000E+00
    0.19899E-01        -0.44859E-01         0.00000E+00
    0.19254E-01        -0.43202E-01         0.00000E+00
    0.18613E-01        -0.41540E-01         0.00000E+00
    0.17974E-01        -0.39874E-01         0.00000E+00
    0.17336E-01        -0.38203E-01         0.00000E+00
    0.16697E-01        -0.36527E-01         0.00000E+00
    0.16054E-01        -0.34847E-01         0.00000E+00
    0.15407E-01        -0.33161E-01         0.00000E+00
    0.14754E-01        -0.31470E-01         0.00000E+00
    0.14093E-01        -0.29773E-01         0.00000E+00
    0.13422E-01        -0.28071E-01         0.00000E+00
    0.12740E-01        -0.26363E-01         0.00000E+00
    0.12045E-01        -0.24649E-01         0.00000E+00
    0.11335E-01        -0.22929E-01         0.00000E+00
    0.10609E-01        -0.21203E-01         0.00000E+00
    0.98653E-02        -0.19471E-01         0.00000E+00
    0.91017E-02        -0.17732E-01         0.00000E+00
    0.83166E-02        -0.15987E-01         0.00000E+00
    0.75085E-02        -0.14236E-01         0.00000E+00
    0.66754E-02        -0.12477E-01         0.00000E+00
    0.58156E-02        -0.10713E-01         0.00000E+00
    0.49275E-02        -0.89422E-02         0.00000E+00
    0.40092E-02        -0.71652E-02         0.00000E+00
    0.30590E-02        -0.53822E-02         0.00000E+00
    0.20752E-02        -0.35934E-02         0.00000E+00
    0.10561E-02        -0.17992E-02         0.00000E+00
    0.00000E+00         0.00000E+00         0.00000E+00
    0.37786E-01        -0.90991E-01         0.00000E+00
    0.36327E-01        -0.89247E-01         0.00000E+00
    0.34956E-01        -0.87503E-01         0.00000E+00
    0.33666E-01        -0.85756E-01         0.00000E+00
    0.32453E-01        -0.84007E-01         0.00000E+00
    0.31310E-01        -0.82256E-01         0.00000E+00
    0.30233E-01        -0.80501E-01         0.00000E+00
    0.29217E-01        -0.78744E-01         0.00000E+00
    0.28257E-01        -0.76983E-01         0.00000E+00
    0.27347E-01        -0.75220E-01         0.00000E+00
    0.26485E-01        -0.73453E-01         0.00000E+00
    0.25666E-01        -0.71683E-01         0.00000E+00
    0.24885E-01        -0.69910E-01         0.00000E+00
    0.24140E-01        -0.68135E-01         0.00000E+00
    0.23427E-01        -0.66357E-01         0.00000E+00
    0.22742E-01        -0.64577E-01         0.00000E+00
    0.22083E-01        -0.62794E-01         0.00000E+00
    0.21447E-01        -0.61010E-01         0.00000E+00
    0.20831E-01        -0.59223E-01         0.00000E+00
    0.20232E-01        -0.57435E-01         0.00000E+00
    0.19649E-01        -0.55645E-01         0.00000E+00
    0.19078E-01        -0.53852E-01         0.00000E+00
    0.18519E-01        -0.52058E-01         0.00000E+00
    0.17969E-01        -0.50261E-01         0.00000E+00
    0.17425E-01        -0.48463E-01         0.00000E+00
    0.16887E-01        -0.46662E-01         0.00000E+00
    0.16352E-01        -0.44859E-01         0.00000E+00
    0.15818E-01        -0.43052E-01         0.00000E+00
    0.15285E-01        -0.41243E-01         0.00000E+00
    0.14749E-01        -0.39431E-01         0.00000E+00
    0.14211E-01        -0.37615E-01         0.00000E+00
    0.13667E-01        -0.35795E-01         0.00000E+00
    0.13117E-01        -0.33970E-01         0.00000E+00
    0.12558E-01        -0.32142E-01         0.00000E+00
    0.11989E-01        -0.30308E-01         0.00000E+00
    0.11409E-01        -0.28469E-01         0.00000E+00
    0.10815E-01        -0.26624E-01         0.00000E+00
    0.10206E-01        -0.24772E-01         0.00000E+00
    0.95796E-02        -0.22915E-01         0.00000E+00
    0.89346E-02        -0.21050E-01         0.00000E+00
    0.82688E-02        -0.19178E-01         0.00000E+00
    0.75801E-02        -0.17298E-01         0.00000E+00
    0.68665E-02        -0.15410E-01         0.00000E+00
    0.61260E-02        -0.13514E-01         0.00000E+00
    0.53562E-02        -0.11609E-01         0.00000E+00
    0.45552E-02        -0.96957E-02         0.00000E+00
    0.37205E-02        -0.77737E-02         0.00000E+00
    0.28499E-02        -0.58430E-02         0.00000E+00
    0.19412E-02        -0.39037E-02         0.00000E+00
    0.99193E-03        -0.19559E-02         0.00000E+00
    0.00000E+00         0.00000E+00         0.00000E+00
    0.31151E-01        -0.98222E-01         0.00000E+00
    0.29827E-01        -0.96283E-01         0.00000E+00
    0.28600E-01        -0.94344E-01         0.00000E+00
    0.27461E-01        -0.92403E-01         0.00000E+00
    0.26404E-01        -0.90461E-01         0.00000E+00
    0.25421E-01        -0.88517E-01         0.00000E+00
    0.24507E-01        -0.86571E-01         0.00000E+00
    0.23654E-01        -0.84623E-01         0.00000E+00
    0.22857E-01        -0.82674E-01         0.00000E+00
    0.22110E-01        -0.80725E-01         0.00000E+00
    0.21407E-01        -0.78775E-01         0.00000E+00
    0.20746E-01        -0.76825E-01         0.00000E+00
    0.20120E-01        -0.74876E-01         0.00000E+00
    0.19526E-01        -0.72927E-01         0.00000E+00
    0.18961E-01        -0.70980E-01         0.00000E+00
    0.18421E-01        -0.69034E-01         0.00000E+00
    0.17904E-01        -0.67091E-01         0.00000E+00
    0.17406E-01        -0.65148E-01         0.00000E+00
    0.16926E-01        -0.63208E-01         0.00000E+00
    0.16461E-01        -0.61270E-01         0.00000E+00
    0.16008E-01        -0.59333E-01         0.00000E+00
    0.15567E-01        -0.57399E-01         0.00000E+00
    0.15134E-01        -0.55465E-01         0.00000E+00
    0.14708E-01        -0.53533E-01         0.00000E+00
    0.14288E-01        -0.51602E-01         0.00000E+00
    0.13872E-01        -0.49672E-01         0.00000E+00
    0.13459E-01        -0.47742E-01         0.00000E+00
    0.13046E-01        -0.45811E-01         0.00000E+00
    0.12632E-01        -0.43880E-01         0.00000E+00
    0.12217E-01        -0.41948E-01         0.00000E+00
    0.11798E-01        -0.40015E-01         0.00000E+00
    0.11374E-01        -0.38079E-01         0.00000E+00
    0.10944E-01        -0.36141E-01         0.00000E+00
    0.10506E-01        -0.34199E-01         0.00000E+00
    0.10059E-01        -0.32253E-01         0.00000E+00
    0.96007E-02        -0.30302E-01         0.00000E+00
    0.91297E-02        -0.28346E-01         0.00000E+00
    0.86443E-02        -0.26384E-01         0.00000E+00
    0.81427E-02        -0.24415E-01         0.00000E+00
    0.76228E-02        -0.22438E-01         0.00000E+00
    0.70826E-02        -0.20453E-01         0.00000E+00
    0.65198E-02        -0.18458E-01         0.00000E+00
    0.59321E-02        -0.16454E-01         0.00000E+00
    0.53169E-02        -0.14439E-01         0.00000E+00
    0.46715E-02        -0.12413E-01         0.00000E+00
    0.39931E-02        -0.10376E-01         0.00000E+00
    0.32787E-02        -0.83256E-02         0.00000E+00
    0.25254E-02        -0.62632E-02         0.00000E+00
    0.17300E-02        -0.41882E-02         0.00000E+00
    0.88948E-03        -0.21006E-02         0.00000E+00
    0.00000E+00         0.00000E+00         0.00000E+00
    0.22724E-01        -0.10457E+00         0.00000E+00
    0.21632E-01        -0.10243E+00         0.00000E+00
    0.20643E-01        -0.10029E+00         0.00000E+00
    0.19748E-01        -0.98143E-01         0.00000E+00
    0.18935E-01        -0.95999E-01         0.00000E+00
    0.18195E-01        -0.93853E-01         0.00000E+00
    0.17517E-01        -0.91709E-01         0.00000E+00
    0.16895E-01        -0.89567E-01         0.00000E+00
    0.16320E-01        -0.87428E-01         0.00000E+00
    0.15788E-01        -0.85294E-01         0.00000E+00
    0.15291E-01        -0.83165E-01         0.00000E+00
    0.14827E-01        -0.81042E-01         0.00000E+00
    0.14391E-01        -0.78926E-01         0.00000E+00
    0.13980E-01        -0.76817E-01         0.00000E+00
    0.13590E-01        -0.74714E-01         0.00000E+00
    0.13219E-01        -0.72619E-01         0.00000E+00
    0.12865E-01        -0.70532E-01         0.00000E+00
    0.12525E-01        -0.68451E-01         0.00000E+00
    0.12197E-01        -0.66377E-01         0.00000E+00
    0.11881E-01        -0.64310E-01         0.00000E+00
    0.11573E-01        -0.62250E-01         0.00000E+00
    0.11273E-01        -0.60195E-01         0.00000E+00
    0.10979E-01        -0.58146E-01         0.00000E+00
    0.10691E-01        -0.56103E-01         0.00000E+00
    0.10406E-01        -0.54063E-01         0.00000E+00
    0.10123E-01        -0.52028E-01         0.00000E+00
    0.98419E-02        -0.49996E-01         0.00000E+00
    0.95611E-02        -0.47967E-01         0.00000E+00
    0.92796E-02        -0.45940E-01         0.00000E+00
    0.89963E-02        -0.43914E-01         0.00000E+00
    0.87100E-02        -0.41889E-01         0.00000E+00
    0.84199E-02        -0.39863E-01         0.00000E+00
    0.81246E-02        -0.37837E-01         0.00000E+00
    0.78231E-02        -0.35809E-01         0.00000E+00
    0.75142E-02        -0.33778E-01         0.00000E+00
    0.71965E-02        -0.31743E-01         0.00000E+00
    0.68688E-02        -0.29704E-01         0.00000E+00
    0.65295E-02        -0.27658E-01         0.00000E+00
    0.61770E-02        -0.25606E-01         0.00000E+00
    0.58096E-02        -0.23546E-01         0.00000E+00
    0.54253E-02        -0.21477E-01         0.00000E+00
    0.50218E-02        -0.19397E-01         0.00000E+00
    0.45968E-02        -0.17305E-01         0.00000E+00
    0.41474E-02        -0.15200E-01         0.00000E+00
    0.36703E-02        -0.13081E-01         0.00000E+00
    0.31620E-02        -0.10946E-01         0.00000E+00
    0.26184E-02        -0.87942E-02         0.00000E+00
    0.20349E-02        -0.66240E-02         0.00000E+00
    0.14067E-02        -0.44348E-02         0.00000E+00
    0.72936E-03        -0.22266E-02         0.00000E+00
    0.00000E+00         0.00000E+00         0.00000E+00
    0.12351E-01        -0.10943E+00         0.00000E+00
    0.11645E-01        -0.10708E+00         0.00000E+00
    0.11048E-01        -0.10472E+00         0.00000E+00
    0.10532E-01        -0.10236E+00         0.00000E+00
    0.10079E-01        -0.10001E+00         0.00000E+00
    0.96765E-02        -0.97666E-01         0.00000E+00
    0.93144E-02        -0.95334E-01         0.00000E+00
    0.89861E-02        -0.93015E-01         0.00000E+00
    0.86862E-02        -0.90709E-01         0.00000E+00
    0.84102E-02        -0.88419E-01         0.00000E+00
    0.81547E-02        -0.86142E-01         0.00000E+00
    0.79169E-02        -0.83881E-01         0.00000E+00
    0.76943E-02        -0.81634E-01         0.00000E+00
    0.74849E-02        -0.79401E-01         0.00000E+00
    0.72871E-02        -0.77183E-01         0.00000E+00
    0.70992E-02        -0.74978E-01         0.00000E+00
    0.69200E-02        -0.72786E-01         0.00000E+00
    0.67483E-02        -0.70606E-01         0.00000E+00
    0.65830E-02        -0.68438E-01         0.00000E+00
    0.64233E-02        -0.66282E-01         0.00000E+00
    0.62682E-02        -0.64136E-01         0.00000E+00
    0.61169E-02        -0.61999E-01         0.00000E+00
    0.59689E-02        -0.59872E-01         0.00000E+00
    0.58233E-02        -0.57753E-01         0.00000E+00
    0.56795E-02        -0.55642E-01         0.00000E+00
    0.55369E-02        -0.53538E-01         0.00000E+00
    0.53950E-02        -0.51439E-01         0.00000E+00
    0.52531E-02        -0.49346E-01         0.00000E+00
    0.51107E-02        -0.47257E-01         0.00000E+00
    0.49672E-02        -0.45171E-01         0.00000E+00
    0.48220E-02        -0.43087E-01         0.00000E+00
    0.46746E-02        -0.41005E-01         0.00000E+00
    0.45244E-02        -0.38924E-01         0.00000E+00
    0.43707E-02        -0.36842E-01         0.00000E+00
    0.42129E-02        -0.34758E-01         0.00000E+00
    0.40502E-02        -0.32672E-01         0.00000E+00
    0.38819E-02        -0.30582E-01         0.00000E+00
    0.37071E-02        -0.28486E-01         0.00000E+00
    0.35248E-02        -0.26384E-01         0.00000E+00
    0.33339E-02        -0.24274E-01         0.00000E+00
    0.31332E-02        -0.22155E-01         0.00000E+00
    0.29212E-02        -0.20025E-01         0.00000E+00
    0.26961E-02        -0.17881E-01         0.00000E+00
    0.24560E-02        -0.15724E-01         0.00000E+00
    0.21981E-02        -0.13549E-01         0.00000E+00
    0.19193E-02        -0.11355E-01         0.00000E+00
    0.16154E-02        -0.91399E-02         0.00000E+00
    0.12809E-02        -0.68999E-02         0.00000E+00
    0.90820E-03        -0.46321E-02         0.00000E+00
    0.48659E-03        -0.23333E-02         0.00000E+00
    0.00000E+00         0.00000E+00         0.00000E+00
    0.00000E+00        -0.11162E+00         0.00000E+00
    0.00000E+00        -0.10907E+00         0.00000E+00
    0.00000E+00        -0.10655E+00         0.00000E+00
    0.00000E+00        -0.10404E+00         0.00000E+00
    0.00000E+00        -0.10157E+00         0.00000E+00
    0.00000E+00        -0.99118E-01         0.00000E+00
    0.00000E+00        -0.96692E-01         0.00000E+00
    0.00000E+00        -0.94289E-01         0.00000E+00
    0.00000E+00        -0.91909E-01         0.00000E+00
    0.00000E+00        -0.89551E-01         0.00000E+00
    0.00000E+00        -0.87213E-01         0.00000E+00
    0.00000E+00        -0.84895E-01         0.00000E+00
    0.00000E+00        -0.82596E-01         0.00000E+00
    0.00000E+00        -0.80316E-01         0.00000E+00
    0.00000E+00        -0.78052E-01         0.00000E+00
    0.00000E+00        -0.75806E-01         0.00000E+00
    0.00000E+00        -0.73575E-01         0.00000E+00
    0.00000E+00        -0.71358E-01         0.00000E+00
    0.00000E+00        -0.69156E-01         0.00000E+00
    0.00000E+00        -0.66967E-01         0.00000E+00
    0.00000E+00        -0.64790E-01         0.00000E+00
    0.00000E+00        -0.62624E-01         0.00000E+00
    0.00000E+00        -0.60469E-01         0.00000E+00
    0.00000E+00        -0.58324E-01         0.00000E+00
    0.00000E+00        -0.56187E-01         0.00000E+00
    0.00000E+00        -0.54059E-01         0.00000E+00
    0.00000E+00        -0.51937E-01         0.00000E+00
    0.00000E+00        -0.49821E-01         0.00000E+00
    0.00000E+00        -0.47710E-01         0.00000E+00
    0.00000E+00        -0.45604E-01         0.00000E+00
    0.00000E+00        -0.43500E-01         0.00000E+00
    0.00000E+00        -0.41399E-01         0.00000E+00
    0.00000E+00        -0.39299E-01         0.00000E+00
    0.00000E+00        -0.37199E-01         0.00000E+00
    0.00000E+00        -0.35097E-01         0.00000E+00
    0.00000E+00        -0.32994E-01         0.00000E+00
    0.00000E+00        -0.30887E-01         0.00000E+00
    0.00000E+00        -0.28775E-01         0.00000E+00
    0.00000E+00        -0.26656E-01         0.00000E+00
    0.00000E+00        -0.24530E-01         0.00000E+00
    0.00000E+00        -0.22395E-01         0.00000E+00
    0.00000E+00        -0.20249E-01         0.00000E+00
    0.00000E+00        -0.18089E-01         0.00000E+00
    0.00000E+00        -0.15915E-01         0.00000E+00
    0.00000E+00        -0.13723E-01         0.00000E+00
    0.00000E+00        -0.11511E-01         0.00000E+00
    0.00000E+00        -0.92756E-02         0.00000E+00
    0.00000E+00        -0.70126E-02         0.00000E+00
    0.00000E+00        -0.47171E-02         0.00000E+00
    0.00000E+00        -0.23826E-02         0.00000E+00
    0.00000E+00         0.00000E+00         0.00000E+00
CELL_DATA       5000
VECTORS vDarcy double 
    0.20118E-13         0.00000E+00         0.00000E+00
    0.20118E-13         0.23283E-20         0.00000E+00
    0.20118E-13         0.46566E-20         0.00000E+00
    0.20118E-13         0.18626E-20         0.00000E+00
    0.20118E-13         0.41910E-20         0.00000E+00
    0.20118E-13         0.88476E-20         0.00000E+00
    0.20118E-13         0.53551E-20         0.00000E+00
    0.20118E-13         0.23283E-20         0.00000E+00
    0.20118E-13         0.27940E-20         0.00000E+00
    0.20118E-13         0.46566E-21         0.00000E+00
    0.20118E-13        -0.18626E-20         0.00000E+00
    0.20118E-13         0.23283E-21         0.00000E+00
    0.20118E-13        -0.27940E-20         0.00000E+00
    0.20118E-13         0.55879E-20         0.00000E+00
    0.20118E-13         0.25611E-20         0.00000E+00
    0.20118E-13        -0.23283E-20         0.00000E+00
    0.20118E-13         0.23283E-20         0.00000E+00
    0.20118E-13         0.27940E-20         0.00000E+00
    0.20118E-13         0.23283E-20         0.00000E+00
    0.20118E-13        -0.18626E-20         0.00000E+00
    0.20118E-13         0.00000E+00         0.00000E+00
    0.20118E-13        -0.23283E-20         0.00000E+00
    0.20118E-13         0.00000E+00         0.00000E+00
    0.20118E-13         0.27940E-20         0.00000E+00
    0.20118E-13        -0.13970E-20         0.00000E+00
    0.20118E-13         0.46566E-21         0.00000E+00
    0.20118E-13         0.46566E-21         0.00000E+00
    0.20118E-13         0.23283E-20         0.00000E+00
    0.20118E-13         0.00000E+00         0.00000E+00
    0.20118E-13         0.23283E-20         0.00000E+00
    0.20118E-13         0.00000E+00         0.00000E+00
    0.20118E-13         0.46566E-20         0.00000E+00
    0.20118E-13         0.00000E+00         0.00000E+00
    0.20118E-13        -0.18626E-20         0.00000E+00
    0.20118E-13         0.23283E-20         0.00000E+00
    0.20118E-13         0.00000E+00         0.00000E+00
    0.20118E-13        -0.23283E-20         0.00000E+00
    0.20118E-13         0.46566E-20         0.00000E+00
    0.20118E-13         0.00000E+00         0.00000E+00
    0.20118E-13         0.23283E-20         0.00000E+00
    0.20118E-13         0.53551E-20         0.00000E+00
    0.20118E-13         0.23283E-21         0.00000E+00
    0.20118E-13         0.23283E-20         0.00000E+00
    0.20118E-13         0.39581E-20         0.00000E+00
    0.20118E-13        -0.46566E-21         0.00000E+00
    0.20118E-13         0.23283E-20         0.00000E+00
    0.20118E-13         0.18626E-20         0.00000E+00
    0.20118E-13         0.69849E-20         0.00000E+00
    0.20118E-13         0.23283E-20         0.00000E+00
    0.20118E-13         0.37253E-20         0.00000E+00
    0.20956E-13         0.00000E+00         0.00000E+00
    0.20956E-13         0.93132E-20         0.00000E+00
    0.20956E-13         0.17695E-19         0.00000E+00
    0.20956E-13         0.19092E-19         0.00000E+00
    0.20956E-13         0.12340E-19         0.00000E+00
    0.20956E-13         0.10710E-19         0.00000E+00
    0.20956E-13         0.37253E-20         0.00000E+00
    0.20956E-13         0.18626E-20         0.00000E+00
    0.20956E-13         0.23283E-20         0.00000E+00
    0.20956E-13         0.18626E-20         0.00000E+00
    0.20956E-13         0.46566E-21         0.00000E+00
    0.20956E-13        -0.39581E-20         0.00000E+00
    0.20956E-13         0.00000E+00         0.00000E+00
    0.20956E-13         0.81491E-20         0.00000E+00
    0.20956E-13         0.76834E-20         0.00000E+00
    0.20956E-13         0.74506E-20         0.00000E+00
    0.20956E-13        -0.23283E-20         0.00000E+00
    0.20956E-13         0.27940E-20         0.00000E+00
    0.20956E-13         0.65193E-20         0.00000E+00
    0.20956E-13         0.51223E-20         0.00000E+00
    0.20956E-13         0.17229E-19         0.00000E+00
    0.20956E-13         0.12573E-19         0.00000E+00
    0.20956E-13         0.00000E+00         0.00000E+00
    0.20956E-13         0.00000E+00         0.00000E+00
    0.20956E-13         0.46566E-21         0.00000E+00
    0.20956E-13         0.23283E-20         0.00000E+00
    0.20956E-13        -0.23283E-21         0.00000E+00
    0.20956E-13        -0.69849E-20         0.00000E+00
    0.20956E-13        -0.74506E-20         0.00000E+00
    0.20956E-13        -0.69849E-20         0.00000E+00
    0.20956E-13         0.46566E-20         0.00000E+00
    0.20956E-13         0.18626E-20         0.00000E+00
    0.20956E-13         0.27940E-20         0.00000E+00
    0.20956E-13        -0.18626E-20         0.00000E+00
    0.20956E-13         0.18626E-20         0.00000E+00
    0.20956E-13         0.00000E+00         0.00000E+00
    0.20956E-13         0.74506E-20         0.00000E+00
    0.20956E-13        -0.46566E-21         0.00000E+00
    0.20956E-13         0.00000E+00         0.00000E+00
    0.20956E-13        -0.46566E-21         0.00000E+00
    0.20956E-13         0.13970E-20         0.00000E+00
    0.20956E-13         0.37253E-20         0.00000E+00
    0.20956E-13        -0.27940E-20         0.00000E+00
    0.20956E-13        -0.46566E-20         0.00000E+00
    0.20956E-13         0.23283E-21         0.00000E+00
    0.20956E-13         0.46566E-20         0.00000E+00
    0.20956E-13         0.13737E-19         0.00000E+00
    0.20956E-13         0.97789E-20         0.00000E+00
    0.20956E-13         0.93132E-20         0.00000E+00
    0.20956E-13         0.13970E-20         0.00000E+00
    0.22665E-13         0.23283E-20         0.00000E+00
    0.22665E-13         0.17928E-19         0.00000E+00
    0.22665E-13         0.22585E-19         0.00000E+00
    0.22665E-13         0.24680E-19         0.00000E+00
    0.22665E-13         0.24680E-19         0.00000E+00
    0.22665E-13         0.17229E-19         0.00000E+00
    0.22665E-13         0.44238E-20         0.00000E+00
    0.22665E-13        -0.27940E-20         0.00000E+00
    0.22665E-13         0.20955E-20         0.00000E+00
    0.22665E-13         0.44238E-20         0.00000E+00
    0.22665E-13         0.27940E-20         0.00000E+00
    0.22665E-13        -0.10710E-19         0.00000E+00
    0.22665E-13        -0.69849E-20         0.00000E+00
    0.22665E-13        -0.69849E-21         0.00000E+00
    0.22665E-13         0.69849E-20         0.00000E+00
    0.22665E-13        -0.23283E-20         0.00000E+00
    0.22665E-13         0.46566E-20         0.00000E+00
    0.22665E-13         0.97789E-20         0.00000E+00
    0.22665E-13         0.14901E-19         0.00000E+00
    0.22665E-13         0.55879E-20         0.00000E+00
    0.22665E-13         0.15832E-19         0.00000E+00
    0.22665E-13         0.32596E-20         0.00000E+00
    0.22665E-13        -0.93132E-21         0.00000E+00
    0.22665E-13        -0.27940E-20         0.00000E+00
    0.22665E-13         0.46566E-21         0.00000E+00
    0.22665E-13         0.60536E-20         0.00000E+00
    0.22665E-13        -0.16298E-20         0.00000E+00
    0.22665E-13        -0.69849E-21         0.00000E+00
    0.22665E-13        -0.93132E-21         0.00000E+00
    0.22665E-13        -0.90804E-20         0.00000E+00
    0.22665E-13         0.32596E-20         0.00000E+00
    0.22665E-13         0.25611E-20         0.00000E+00
    0.22665E-13         0.37253E-20         0.00000E+00
    0.22665E-13         0.65193E-20         0.00000E+00
    0.22665E-13         0.11642E-19         0.00000E+00
    0.22665E-13        -0.23283E-20         0.00000E+00
    0.22665E-13         0.46566E-21         0.00000E+00
    0.22665E-13        -0.13970E-20         0.00000E+00
    0.22665E-13         0.18626E-20         0.00000E+00
    0.22665E-13        -0.69849E-20         0.00000E+00
    0.22665E-13         0.93132E-21         0.00000E+00
    0.22665E-13        -0.18626E-20         0.00000E+00
    0.22665E-13         0.60536E-20         0.00000E+00
    0.22665E-13        -0.16764E-19         0.00000E+00
    0.22665E-13        -0.18626E-20         0.00000E+00
    0.22665E-13         0.23283E-21         0.00000E+00
    0.22665E-13         0.53551E-20         0.00000E+00
    0.22665E-13         0.23283E-21         0.00000E+00
    0.22665E-13        -0.46566E-20         0.00000E+00
    0.22665E-13         0.37253E-20         0.00000E+00
    0.25316E-13        -0.32596E-20         0.00000E+00
    0.25316E-13         0.46566E-21         0.00000E+00
    0.25316E-13         0.10245E-19         0.00000E+00
    0.25316E-13         0.41910E-20         0.00000E+00
    0.25316E-13         0.10710E-19         0.00000E+00
    0.25316E-13         0.10710E-19         0.00000E+00
    0.25316E-13         0.97789E-20         0.00000E+00
    0.25316E-13         0.00000E+00         0.00000E+00
    0.25316E-13        -0.37253E-20         0.00000E+00
    0.25316E-13         0.37253E-20         0.00000E+00
    0.25316E-13        -0.51223E-20         0.00000E+00
    0.25316E-13        -0.79162E-20         0.00000E+00
    0.25316E-13        -0.74506E-20         0.00000E+00
    0.25316E-13         0.93132E-21         0.00000E+00
    0.25316E-13         0.13970E-20         0.00000E+00
    0.25316E-13         0.32596E-20         0.00000E+00
    0.25316E-13         0.55879E-20         0.00000E+00
    0.25316E-13         0.10245E-19         0.00000E+00
    0.25316E-13         0.14901E-19         0.00000E+00
    0.25316E-13         0.18626E-19         0.00000E+00
    0.25316E-13         0.93132E-21         0.00000E+00
    0.25316E-13        -0.65193E-20         0.00000E+00
    0.25316E-13        -0.60536E-20         0.00000E+00
    0.25316E-13        -0.93132E-21         0.00000E+00
    0.25316E-13        -0.23283E-20         0.00000E+00
    0.25316E-13        -0.23283E-20         0.00000E+00
    0.25316E-13        -0.51223E-20         0.00000E+00
    0.25316E-13         0.69849E-20         0.00000E+00
    0.25316E-13         0.10245E-19         0.00000E+00
    0.25316E-13         0.12107E-19         0.00000E+00
    0.25316E-13         0.51223E-20         0.00000E+00
    0.25316E-13         0.10245E-19         0.00000E+00
    0.25316E-13         0.23283E-20         0.00000E+00
    0.25316E-13         0.00000E+00         0.00000E+00
    0.25316E-13         0.37253E-20         0.00000E+00
    0.25316E-13        -0.69849E-20         0.00000E+00
    0.25316E-13        -0.46566E-20         0.00000E+00
    0.25316E-13         0.51223E-20         0.00000E+00
    0.25316E-13         0.23283E-20         0.00000E+00
    0.25316E-13        -0.93132E-21         0.00000E+00
    0.25316E-13         0.23283E-20         0.00000E+00
    0.25316E-13         0.60536E-20         0.00000E+00
    0.25316E-13         0.88476E-20         0.00000E+00
    0.25316E-13        -0.69849E-20         0.00000E+00
    0.25316E-13         0.10245E-19         0.00000E+00
    0.25316E-13         0.46566E-21         0.00000E+00
    0.25316E-13        -0.60536E-20         0.00000E+00
    0.25316E-13         0.13970E-20         0.00000E+00
    0.25316E-13        -0.11176E-19         0.00000E+00
    0.25316E-13         0.27940E-20         0.00000E+00
    0.29017E-13        -0.60536E-20         0.00000E+00
    0.29017E-13        -0.16764E-19         0.00000E+00
    0.29017E-13        -0.79162E-20         0.00000E+00
    0.29017E-13        -0.17462E-19         0.00000E+00
    0.29017E-13        -0.69849E-21         0.00000E+00
    0.29017E-13         0.79162E-20         0.00000E+00
    0.29017E-13         0.51223E-20         0.00000E+00
    0.29017E-13        -0.46566E-21         0.00000E+00
    0.29017E-13        -0.13970E-20         0.00000E+00
    0.29017E-13        -0.69849E-20         0.00000E+00
    0.29017E-13        -0.15832E-19         0.00000E+00
    0.29017E-13        -0.15832E-19         0.00000E+00
    0.29017E-13        -0.93132E-20         0.00000E+00
    0.29017E-13         0.13970E-20         0.00000E+00
    0.29017E-13         0.93132E-20         0.00000E+00
    0.29017E-13         0.14901E-19         0.00000E+00
    0.29017E-13         0.51223E-20         0.00000E+00
    0.29017E-13         0.00000E+00         0.00000E+00
    0.29017E-13         0.19558E-19         0.00000E+00
    0.29017E-13         0.18626E-19         0.00000E+00
    0.29017E-13         0.13970E-20         0.00000E+00
    0.29017E-13         0.10710E-19         0.00000E+00
    0.29017E-13        -0.32596E-20         0.00000E+00
    0.29017E-13         0.69849E-20         0.00000E+00
    0.29017E-13         0.11176E-19         0.00000E+00
    0.29017E-13        -0.37253E-20         0.00000E+00
    0.29017E-13         0.93132E-21         0.00000E+00
    0.29017E-13        -0.69849E-20         0.00000E+00
    0.29017E-13         0.60536E-20         0.00000E+00
    0.29017E-13         0.60536E-20         0.00000E+00
    0.29017E-13         0.93132E-20         0.00000E+00
    0.29017E-13        -0.93132E-21         0.00000E+00
    0.29017E-13        -0.74506E-20         0.00000E+00
    0.29017E-13        -0.46566E-21         0.00000E+00
    0.29017E-13        -0.74506E-20         0.00000E+00
    0.29017E-13        -0.12107E-19         0.00000E+00
    0.29017E-13        -0.32596E-20         0.00000E+00
    0.29017E-13         0.15367E-19         0.00000E+00
    0.29017E-13         0.12573E-19         0.00000E+00
    0.29017E-13         0.10710E-19         0.00000E+00
    0.29017E-13         0.15367E-19         0.00000E+00
    0.29017E-13         0.11176E-19         0.00000E+00
    0.29017E-13         0.16764E-19         0.00000E+00
    0.29017E-13         0.14435E-19         0.00000E+00
    0.29017E-13         0.10477E-19         0.00000E+00
    0.29017E-13         0.23283E-20         0.00000E+00
    0.29017E-13         0.41910E-20         0.00000E+00
    0.29017E-13         0.74506E-20         0.00000E+00
    0.29017E-13         0.00000E+00         0.00000E+00
    0.29017E-13        -0.27940E-20         0.00000E+00
    0.33918E-13        -0.23283E-20         0.00000E+00
    0.33918E-13         0.27940E-20         0.00000E+00
    0.33918E-13        -0.20955E-20         0.00000E+00
    0.33918E-13        -0.23283E-21         0.00000E+00
    0.33918E-13         0.65193E-20         0.00000E+00
    0.33918E-13        -0.41910E-20         0.00000E+00
    0.33918E-13        -0.13970E-20         0.00000E+00
    0.33918E-13        -0.41910E-20         0.00000E+00
    0.33918E-13        -0.12340E-19         0.00000E+00
    0.33918E-13        -0.26077E-19         0.00000E+00
    0.33918E-13        -0.69849E-20         0.00000E+00
    0.33918E-13        -0.97789E-20         0.00000E+00
    0.33918E-13        -0.16764E-19         0.00000E+00
    0.33918E-13        -0.74506E-20         0.00000E+00
    0.33918E-13        -0.74506E-20         0.00000E+00
    0.33918E-13        -0.97789E-20         0.00000E+00
    0.33918E-13        -0.37253E-20         0.00000E+00
    0.33918E-13         0.23283E-20         0.00000E+00
    0.33918E-13         0.55879E-20         0.00000E+00
    0.33918E-13         0.00000E+00         0.00000E+00
    0.33918E-13        -0.51223E-20         0.00000E+00
    0.33918E-13         0.51223E-20         0.00000E+00
    0.33918E-13         0.93132E-20         0.00000E+00
    0.33918E-13         0.93132E-21         0.00000E+00
    0.33918E-13         0.11176E-19         0.00000E+00
    0.33918E-13         0.12573E-19         0.00000E+00
    0.33918E-13         0.10245E-19         0.00000E+00
    0.33918E-13        -0.46566E-20         0.00000E+00
    0.33918E-13         0.55879E-20         0.00000E+00
    0.33918E-13         0.32596E-20         0.00000E+00
    0.33918E-13         0.18626E-20         0.00000E+00
    0.33918E-13         0.41910E-20         0.00000E+00
    0.33918E-13        -0.60536E-20         0.00000E+00
    0.33918E-13         0.27940E-20         0.00000E+00
    0.33918E-13        -0.27940E-20         0.00000E+00
    0.33918E-13         0.13970E-20         0.00000E+00
    0.33918E-13         0.51223E-20         0.00000E+00
    0.33918E-13         0.10710E-19         0.00000E+00
    0.33918E-13         0.55879E-20         0.00000E+00
    0.33918E-13         0.12107E-19         0.00000E+00
    0.33918E-13         0.20489E-19         0.00000E+00
    0.33918E-13         0.13504E-19         0.00000E+00
    0.33918E-13         0.23749E-19         0.00000E+00
    0.33918E-13         0.18161E-19         0.00000E+00
    0.33918E-13         0.13970E-19         0.00000E+00
    0.33918E-13         0.69849E-20         0.00000E+00
    0.33918E-13         0.93132E-21         0.00000E+00
    0.33918E-13         0.79162E-20         0.00000E+00
    0.33918E-13        -0.79162E-20         0.00000E+00
    0.33918E-13        -0.48894E-20         0.00000E+00
    0.40219E-13         0.41910E-20         0.00000E+00
    0.40219E-13         0.88476E-20         0.00000E+00
    0.40219E-13         0.14435E-19         0.00000E+00
    0.40219E-13        -0.46566E-20         0.00000E+00
    0.40220E-13        -0.15367E-19         0.00000E+00
    0.40220E-13        -0.12107E-19         0.00000E+00
    0.40220E-13        -0.79162E-20         0.00000E+00
    0.40220E-13        -0.15367E-19         0.00000E+00
    0.40220E-13        -0.34459E-19         0.00000E+00
    0.40220E-13        -0.30268E-19         0.00000E+00
    0.40220E-13        -0.14435E-19         0.00000E+00
    0.40220E-13        -0.93132E-20         0.00000E+00
    0.40220E-13        -0.93132E-20         0.00000E+00
    0.40220E-13        -0.11642E-19         0.00000E+00
    0.40220E-13        -0.15832E-19         0.00000E+00
    0.40220E-13        -0.18161E-19         0.00000E+00
    0.40220E-13        -0.16298E-19         0.00000E+00
    0.40220E-13        -0.21886E-19         0.00000E+00
    0.40220E-13        -0.18161E-19         0.00000E+00
    0.40220E-13        -0.21420E-19         0.00000E+00
    0.40220E-13        -0.93132E-20         0.00000E+00
    0.40220E-13         0.46566E-21         0.00000E+00
    0.40220E-13         0.79162E-20         0.00000E+00
    0.40220E-13        -0.46566E-20         0.00000E+00
    0.40220E-13        -0.13970E-20         0.00000E+00
    0.40220E-13        -0.46566E-21         0.00000E+00
    0.40220E-13         0.13970E-19         0.00000E+00
    0.40220E-13         0.11642E-19         0.00000E+00
    0.40220E-13         0.74506E-20         0.00000E+00
    0.40220E-13         0.74506E-20         0.00000E+00
    0.40220E-13         0.00000E+00         0.00000E+00
    0.40220E-13         0.11642E-19         0.00000E+00
    0.40220E-13         0.37253E-20         0.00000E+00
    0.40220E-13        -0.10710E-19         0.00000E+00
    0.40220E-13         0.93132E-21         0.00000E+00
    0.40220E-13         0.14435E-19         0.00000E+00
    0.40220E-13         0.11176E-19         0.00000E+00
    0.40220E-13         0.93132E-20         0.00000E+00
    0.40220E-13         0.44238E-20         0.00000E+00
    0.40220E-13         0.22352E-19         0.00000E+00
    0.40220E-13         0.14901E-19         0.00000E+00
    0.40220E-13         0.15367E-19         0.00000E+00
    0.40220E-13         0.11176E-19         0.00000E+00
    0.40220E-13         0.16764E-19         0.00000E+00
    0.40220E-13         0.11642E-19         0.00000E+00
    0.40220E-13         0.13970E-20         0.00000E+00
    0.40220E-13        -0.34925E-20         0.00000E+00
    0.40220E-13         0.46566E-20         0.00000E+00
    0.40220E-13        -0.97789E-20         0.00000E+00
    0.40220E-13        -0.11642E-19         0.00000E+00
    0.48177E-13         0.20955E-20         0.00000E+00
    0.48177E-13        -0.14435E-19         0.00000E+00
    0.48177E-13        -0.10710E-19         0.00000E+00
    0.48177E-13        -0.22352E-19         0.00000E+00
    0.48177E-13        -0.24214E-19         0.00000E+00
    0.48177E-13        -0.10710E-19         0.00000E+00
    0.48177E-13        -0.14203E-19         0.00000E+00
    0.48177E-13        -0.18626E-19         0.00000E+00
    0.48177E-13        -0.25146E-19         0.00000E+00
    0.48177E-13        -0.20489E-19         0.00000E+00
    0.48177E-13        -0.15832E-19         0.00000E+00
    0.48177E-13        -0.21886E-19         0.00000E+00
    0.48177E-13        -0.12573E-19         0.00000E+00
    0.48177E-13         0.32596E-20         0.00000E+00
    0.48177E-13        -0.55879E-20         0.00000E+00
    0.48177E-13        -0.14435E-19         0.00000E+00
    0.48177E-13        -0.16764E-19         0.00000E+00
    0.48177E-13        -0.12107E-19         0.00000E+00
    0.48177E-13        -0.16298E-19         0.00000E+00
    0.48177E-13        -0.18161E-19         0.00000E+00
    0.48177E-13        -0.16764E-19         0.00000E+00
    0.48177E-13        -0.69849E-20         0.00000E+00
    0.48177E-13        -0.74506E-20         0.00000E+00
    0.48177E-13         0.39581E-20         0.00000E+00
    0.48177E-13         0.69849E-20         0.00000E+00
    0.48177E-13         0.51223E-20         0.00000E+00
    0.48177E-13         0.18626E-20         0.00000E+00
    0.48177E-13         0.18626E-20         0.00000E+00
    0.48177E-13        -0.46566E-20         0.00000E+00
    0.48177E-13        -0.23283E-20         0.00000E+00
    0.48177E-13         0.23283E-20         0.00000E+00
    0.48177E-13         0.69849E-20         0.00000E+00
    0.48177E-13         0.97789E-20         0.00000E+00
    0.48177E-13         0.41910E-20         0.00000E+00
    0.48177E-13         0.55879E-20         0.00000E+00
    0.48177E-13         0.10245E-19         0.00000E+00
    0.48177E-13         0.88476E-20         0.00000E+00
    0.48177E-13         0.69849E-20         0.00000E+00
    0.48177E-13         0.97789E-20         0.00000E+00
    0.48177E-13         0.14901E-19         0.00000E+00
    0.48177E-13         0.55879E-20         0.00000E+00
    0.48177E-13         0.00000E+00         0.00000E+00
    0.48177E-13        -0.55879E-20         0.00000E+00
    0.48177E-13         0.74506E-20         0.00000E+00
    0.48177E-13        -0.51223E-20         0.00000E+00
    0.48177E-13        -0.88476E-20         0.00000E+00
    0.48177E-13         0.58208E-20         0.00000E+00
    0.48177E-13         0.46566E-20         0.00000E+00
    0.48177E-13         0.32596E-20         0.00000E+00
    0.48177E-13        -0.16764E-19         0.00000E+00
    0.58114E-13        -0.18626E-20         0.00000E+00
    0.58114E-13        -0.13039E-19         0.00000E+00
    0.58114E-13        -0.18626E-20         0.00000E+00
    0.58114E-13        -0.19092E-19         0.00000E+00
    0.58114E-13        -0.79162E-20         0.00000E+00
    0.58114E-13        -0.88476E-20         0.00000E+00
    0.58114E-13        -0.19092E-19         0.00000E+00
    0.58114E-13        -0.23749E-19         0.00000E+00
    0.58114E-13        -0.11642E-19         0.00000E+00
    0.58114E-13        -0.55879E-20         0.00000E+00
    0.58114E-13        -0.60536E-20         0.00000E+00
    0.58114E-13        -0.74506E-20         0.00000E+00
    0.58114E-13        -0.88476E-20         0.00000E+00
    0.58114E-13        -0.74506E-20         0.00000E+00
    0.58114E-13        -0.88476E-20         0.00000E+00
    0.58114E-13        -0.27940E-20         0.00000E+00
    0.58114E-13        -0.46566E-20         0.00000E+00
    0.58114E-13        -0.32596E-20         0.00000E+00
    0.58114E-13        -0.51223E-20         0.00000E+00
    0.58114E-13         0.93132E-21         0.00000E+00
    0.58114E-13        -0.88476E-20         0.00000E+00
    0.58114E-13        -0.27940E-20         0.00000E+00
    0.58114E-13         0.23283E-20         0.00000E+00
    0.58114E-13         0.93132E-21         0.00000E+00
    0.58114E-13         0.19092E-19         0.00000E+00
    0.58114E-13         0.10012E-19         0.00000E+00
    0.58114E-13         0.93132E-21         0.00000E+00
    0.58114E-13        -0.11642E-19         0.00000E+00
    0.58114E-13        -0.83819E-20         0.00000E+00
    0.58114E-13         0.46566E-21         0.00000E+00
    0.58114E-13        -0.27940E-20         0.00000E+00
    0.58114E-13         0.79162E-20         0.00000E+00
    0.58114E-13         0.10012E-19         0.00000E+00
    0.58114E-13         0.88476E-20         0.00000E+00
    0.58114E-13         0.74506E-20         0.00000E+00
    0.58114E-13         0.11176E-19         0.00000E+00
    0.58114E-13         0.74506E-20         0.00000E+00
    0.58114E-13         0.93132E-21         0.00000E+00
    0.58114E-13         0.18626E-20         0.00000E+00
    0.58114E-13        -0.46566E-20         0.00000E+00
    0.58114E-13        -0.65193E-20         0.00000E+00
    0.58114E-13        -0.11642E-19         0.00000E+00
    0.58114E-13        -0.23283E-20         0.00000E+00
    0.58114E-13        -0.23283E-21         0.00000E+00
    0.58114E-13        -0.13970E-20         0.00000E+00
    0.58114E-13        -0.74506E-20         0.00000E+00
    0.58114E-13         0.37253E-20         0.00000E+00
    0.58114E-13         0.13970E-20         0.00000E+00
    0.58114E-13         0.79162E-20         0.00000E+00
    0.58114E-13        -0.23283E-20         0.00000E+00
    0.70432E-13         0.58208E-20         0.00000E+00
    0.70432E-13         0.41910E-20         0.00000E+00
    0.70432E-13         0.10012E-19         0.00000E+00
    0.70432E-13         0.27940E-20         0.00000E+00
    0.70432E-13        -0.69849E-21         0.00000E+00
    0.70432E-13        -0.44238E-20         0.00000E+00
    0.70432E-13        -0.13271E-19         0.00000E+00
    0.70432E-13        -0.16764E-19         0.00000E+00
    0.70432E-13         0.13970E-20         0.00000E+00
    0.70432E-13         0.13970E-20         0.00000E+00
    0.70432E-13        -0.55879E-20         0.00000E+00
    0.70432E-13        -0.13970E-20         0.00000E+00
    0.70432E-13         0.93132E-21         0.00000E+00
    0.70432E-13        -0.14435E-19         0.00000E+00
    0.70432E-13        -0.46566E-20         0.00000E+00
    0.70432E-13         0.13970E-20         0.00000E+00
    0.70432E-13        -0.93132E-21         0.00000E+00
    0.70432E-13        -0.10710E-19         0.00000E+00
    0.70432E-13         0.46566E-20         0.00000E+00
    0.70432E-13         0.51223E-20         0.00000E+00
    0.70432E-13         0.11642E-19         0.00000E+00
    0.70432E-13         0.11642E-19         0.00000E+00
    0.70432E-13         0.15832E-19         0.00000E+00
    0.70432E-13         0.27940E-20         0.00000E+00
    0.70432E-13         0.13970E-19         0.00000E+00
    0.70432E-13         0.93132E-20         0.00000E+00
    0.70432E-13        -0.39581E-20         0.00000E+00
    0.70432E-13        -0.18626E-20         0.00000E+00
    0.70432E-13        -0.93132E-21         0.00000E+00
    0.70432E-13        -0.12573E-19         0.00000E+00
    0.70432E-13        -0.93132E-21         0.00000E+00
    0.70432E-13         0.23283E-21         0.00000E+00
    0.70432E-13         0.41910E-20         0.00000E+00
    0.70432E-13         0.74506E-20         0.00000E+00
    0.70432E-13         0.12107E-19         0.00000E+00
    0.70432E-13         0.14435E-19         0.00000E+00
    0.70432E-13         0.69849E-20         0.00000E+00
    0.70432E-13         0.13970E-20         0.00000E+00
    0.70432E-13         0.46566E-21         0.00000E+00
    0.70432E-13        -0.62864E-20         0.00000E+00
    0.70432E-13        -0.95461E-20         0.00000E+00
    0.70432E-13        -0.69849E-21         0.00000E+00
    0.70432E-13         0.18626E-20         0.00000E+00
    0.70432E-13        -0.39581E-20         0.00000E+00
    0.70432E-13         0.23283E-20         0.00000E+00
    0.70432E-13         0.51223E-20         0.00000E+00
    0.70432E-13         0.81491E-20         0.00000E+00
    0.70432E-13         0.53551E-20         0.00000E+00
    0.70432E-13         0.88476E-20         0.00000E+00
    0.70432E-13         0.27940E-20         0.00000E+00
    0.85629E-13         0.93132E-21         0.00000E+00
    0.85629E-13         0.51223E-20         0.00000E+00
    0.85629E-13         0.10710E-19         0.00000E+00
    0.85629E-13         0.93132E-20         0.00000E+00
    0.85629E-13         0.79162E-20         0.00000E+00
    0.85629E-13        -0.62864E-20         0.00000E+00
    0.85629E-13        -0.32596E-20         0.00000E+00
    0.85629E-13        -0.55879E-20         0.00000E+00
    0.85629E-13         0.74506E-20         0.00000E+00
    0.85629E-13        -0.20955E-20         0.00000E+00
    0.85629E-13        -0.79162E-20         0.00000E+00
    0.85629E-13        -0.65193E-20         0.00000E+00
    0.85629E-13        -0.93132E-21         0.00000E+00
    0.85629E-13        -0.51223E-20         0.00000E+00
    0.85629E-13         0.65193E-20         0.00000E+00
    0.85629E-13        -0.79162E-20         0.00000E+00
    0.85629E-13        -0.60536E-20         0.00000E+00
    0.85629E-13        -0.55879E-20         0.00000E+00
    0.85629E-13         0.48894E-20         0.00000E+00
    0.85629E-13         0.10012E-19         0.00000E+00
    0.85629E-13         0.46566E-20         0.00000E+00
    0.85629E-13         0.51223E-20         0.00000E+00
    0.85629E-13         0.15367E-19         0.00000E+00
    0.85629E-13         0.10710E-19         0.00000E+00
    0.85629E-13         0.32596E-20         0.00000E+00
    0.85629E-13         0.60536E-20         0.00000E+00
    0.85629E-13        -0.32596E-20         0.00000E+00
    0.85629E-13        -0.23283E-20         0.00000E+00
    0.85629E-13         0.13970E-20         0.00000E+00
    0.85629E-13        -0.12573E-19         0.00000E+00
    0.85629E-13         0.11642E-20         0.00000E+00
    0.85629E-13         0.72177E-20         0.00000E+00
    0.85629E-13         0.10710E-19         0.00000E+00
    0.85629E-13         0.14901E-19         0.00000E+00
    0.85629E-13         0.69849E-20         0.00000E+00
    0.85629E-13         0.55879E-20         0.00000E+00
    0.85629E-13         0.11409E-19         0.00000E+00
    0.85629E-13         0.10245E-19         0.00000E+00
    0.85629E-13         0.13504E-19         0.00000E+00
    0.85629E-13        -0.60536E-20         0.00000E+00
    0.85629E-13        -0.10245E-19         0.00000E+00
    0.85629E-13        -0.46566E-20         0.00000E+00
    0.85629E-13         0.69849E-20         0.00000E+00
    0.85629E-13        -0.74506E-20         0.00000E+00
    0.85629E-13        -0.23283E-21         0.00000E+00
    0.85629E-13         0.32596E-20         0.00000E+00
    0.85629E-13         0.11409E-19         0.00000E+00
    0.85629E-13         0.51223E-20         0.00000E+00
    0.85629E-13         0.97789E-20         0.00000E+00
    0.85629E-13        -0.13970E-20         0.00000E+00
    0.10432E-12        -0.93132E-21         0.00000E+00
    0.10432E-12        -0.74506E-20         0.00000E+00
    0.10432E-12         0.51223E-20         0.00000E+00
    0.10432E-12         0.23283E-20         0.00000E+00
    0.10432E-12        -0.51223E-20         0.00000E+00
    0.10432E-12        -0.37253E-20         0.00000E+00
    0.10432E-12         0.65193E-20         0.00000E+00
    0.10432E-12        -0.74506E-20         0.00000E+00
    0.10432E-12        -0.39581E-20         0.00000E+00
    0.10432E-12        -0.55879E-20         0.00000E+00
    0.10432E-12        -0.23283E-20         0.00000E+00
    0.10432E-12         0.60536E-20         0.00000E+00
    0.10432E-12         0.11642E-20         0.00000E+00
    0.10432E-12        -0.69849E-21         0.00000E+00
    0.10432E-12        -0.13970E-20         0.00000E+00
    0.10432E-12        -0.74506E-20         0.00000E+00
    0.10432E-12         0.00000E+00         0.00000E+00
    0.10432E-12         0.65193E-20         0.00000E+00
    0.10432E-12         0.93132E-20         0.00000E+00
    0.10432E-12         0.10477E-19         0.00000E+00
    0.10432E-12        -0.11642E-20         0.00000E+00
    0.10432E-12        -0.10710E-19         0.00000E+00
    0.10432E-12         0.88476E-20         0.00000E+00
    0.10432E-12         0.76834E-20         0.00000E+00
    0.10432E-12         0.79162E-20         0.00000E+00
    0.10432E-12        -0.93132E-21         0.00000E+00
    0.10432E-12        -0.46566E-21         0.00000E+00
    0.10432E-12         0.51223E-20         0.00000E+00
    0.10432E-12         0.16298E-19         0.00000E+00
    0.10432E-12         0.88476E-20         0.00000E+00
    0.10432E-12         0.72177E-20         0.00000E+00
    0.10432E-12         0.12806E-19         0.00000E+00
    0.10432E-12         0.11176E-19         0.00000E+00
    0.10432E-12         0.14901E-19         0.00000E+00
    0.10432E-12         0.60536E-20         0.00000E+00
    0.10432E-12         0.93132E-21         0.00000E+00
    0.10432E-12         0.12573E-19         0.00000E+00
    0.10432E-12         0.22119E-19         0.00000E+00
    0.10432E-12         0.12107E-19         0.00000E+00
    0.10432E-12         0.46566E-21         0.00000E+00
    0.10432E-12         0.93132E-21         0.00000E+00
    0.10432E-12         0.13970E-20         0.00000E+00
    0.10432E-12         0.19092E-19         0.00000E+00
    0.10432E-12        -0.23283E-20         0.00000E+00
    0.10432E-12        -0.12573E-19         0.00000E+00
    0.10432E-12        -0.86147E-20         0.00000E+00
    0.10432E-12        -0.65193E-20         0.00000E+00
    0.10432E-12        -0.46566E-20         0.00000E+00
    0.10432E-12        -0.12107E-19         0.00000E+00
    0.10432E-12        -0.46566E-21         0.00000E+00
    0.12725E-12         0.41910E-20         0.00000E+00
    0.12725E-12        -0.13970E-20         0.00000E+00
    0.12725E-12        -0.46566E-20         0.00000E+00
    0.12725E-12        -0.23283E-20         0.00000E+00
    0.12725E-12        -0.14435E-19         0.00000E+00
    0.12725E-12        -0.69849E-20         0.00000E+00
    0.12725E-12         0.37253E-20         0.00000E+00
    0.12725E-12        -0.55879E-20         0.00000E+00
    0.12725E-12         0.13970E-20         0.00000E+00
    0.12725E-12        -0.23283E-20         0.00000E+00
    0.12725E-12        -0.46566E-21         0.00000E+00
    0.12725E-12         0.10710E-19         0.00000E+00
    0.12725E-12         0.16298E-20         0.00000E+00
    0.12725E-12        -0.46566E-21         0.00000E+00
    0.12725E-12        -0.46566E-21         0.00000E+00
    0.12725E-12        -0.32596E-20         0.00000E+00
    0.12725E-12        -0.23283E-20         0.00000E+00
    0.12725E-12         0.65193E-20         0.00000E+00
    0.12725E-12         0.79162E-20         0.00000E+00
    0.12725E-12         0.93132E-20         0.00000E+00
    0.12725E-12        -0.93132E-21         0.00000E+00
    0.12725E-12        -0.74506E-20         0.00000E+00
    0.12725E-12        -0.60536E-20         0.00000E+00
    0.12725E-12         0.18626E-20         0.00000E+00
    0.12725E-12         0.65193E-20         0.00000E+00
    0.12725E-12         0.83819E-20         0.00000E+00
    0.12725E-12         0.74506E-20         0.00000E+00
    0.12725E-12         0.19092E-19         0.00000E+00
    0.12725E-12         0.18626E-19         0.00000E+00
    0.12725E-12         0.12573E-19         0.00000E+00
    0.12725E-12         0.12107E-19         0.00000E+00
    0.12725E-12        -0.69849E-20         0.00000E+00
    0.12725E-12         0.18626E-20         0.00000E+00
    0.12725E-12         0.74506E-20         0.00000E+00
    0.12725E-12         0.65193E-20         0.00000E+00
    0.12725E-12         0.18626E-20         0.00000E+00
    0.12725E-12         0.12107E-19         0.00000E+00
    0.12725E-12         0.21653E-19         0.00000E+00
    0.12725E-12         0.13039E-19         0.00000E+00
    0.12725E-12         0.88476E-20         0.00000E+00
    0.12725E-12         0.79162E-20         0.00000E+00
    0.12725E-12         0.74506E-20         0.00000E+00
    0.12725E-12         0.65193E-20         0.00000E+00
    0.12725E-12         0.60536E-20         0.00000E+00
    0.12725E-12        -0.51223E-20         0.00000E+00
    0.12725E-12        -0.27940E-20         0.00000E+00
    0.12725E-12        -0.37253E-20         0.00000E+00
    0.12725E-12        -0.37253E-20         0.00000E+00
    0.12725E-12        -0.79162E-20         0.00000E+00
    0.12725E-12        -0.18626E-20         0.00000E+00
    0.15535E-12         0.23283E-21         0.00000E+00
    0.15535E-12         0.60536E-20         0.00000E+00
    0.15535E-12        -0.93132E-21         0.00000E+00
    0.15535E-12        -0.10710E-19         0.00000E+00
    0.15535E-12        -0.14668E-19         0.00000E+00
    0.15535E-12        -0.51223E-20         0.00000E+00
    0.15535E-12        -0.76834E-20         0.00000E+00
    0.15535E-12        -0.46566E-20         0.00000E+00
    0.15535E-12        -0.13970E-20         0.00000E+00
    0.15535E-12         0.00000E+00         0.00000E+00
    0.15535E-12         0.46566E-21         0.00000E+00
    0.15535E-12         0.60536E-20         0.00000E+00
    0.15535E-12         0.11642E-19         0.00000E+00
    0.15535E-12        -0.27940E-20         0.00000E+00
    0.15535E-12         0.46566E-20         0.00000E+00
    0.15535E-12         0.46566E-20         0.00000E+00
    0.15535E-12         0.46566E-20         0.00000E+00
    0.15535E-12         0.13970E-20         0.00000E+00
    0.15535E-12        -0.23283E-20         0.00000E+00
    0.15535E-12         0.13970E-20         0.00000E+00
    0.15535E-12        -0.18626E-20         0.00000E+00
    0.15535E-12        -0.46566E-21         0.00000E+00
    0.15535E-12        -0.69849E-20         0.00000E+00
    0.15535E-12        -0.27940E-20         0.00000E+00
    0.15535E-12         0.13970E-20         0.00000E+00
    0.15535E-12         0.15367E-19         0.00000E+00
    0.15535E-12         0.19092E-19         0.00000E+00
    0.15535E-12         0.20955E-19         0.00000E+00
    0.15535E-12         0.16298E-19         0.00000E+00
    0.15535E-12         0.12107E-19         0.00000E+00
    0.15535E-12         0.32596E-20         0.00000E+00
    0.15535E-12        -0.37253E-20         0.00000E+00
    0.15535E-12         0.00000E+00         0.00000E+00
    0.15535E-12         0.00000E+00         0.00000E+00
    0.15535E-12         0.37253E-20         0.00000E+00
    0.15535E-12        -0.18626E-20         0.00000E+00
    0.15535E-12         0.13970E-20         0.00000E+00
    0.15535E-12         0.15832E-19         0.00000E+00
    0.15535E-12         0.23516E-19         0.00000E+00
    0.15535E-12         0.19325E-19         0.00000E+00
    0.15535E-12         0.12107E-19         0.00000E+00
    0.15535E-12        -0.51223E-20         0.00000E+00
    0.15535E-12         0.12573E-19         0.00000E+00
    0.15535E-12         0.74506E-20         0.00000E+00
    0.15535E-12        -0.32596E-20         0.00000E+00
    0.15535E-12         0.37253E-20         0.00000E+00
    0.15535E-12        -0.46566E-20         0.00000E+00
    0.15535E-12        -0.23283E-20         0.00000E+00
    0.15535E-12         0.27940E-20         0.00000E+00
    0.15535E-12         0.00000E+00         0.00000E+00
    0.18974E-12        -0.18626E-20         0.00000E+00
    0.18974E-12        -0.34925E-20         0.00000E+00
    0.18974E-12        -0.69849E-20         0.00000E+00
    0.18974E-12        -0.13970E-19         0.00000E+00
    0.18974E-12        -0.13737E-19         0.00000E+00
    0.18974E-12        -0.10710E-19         0.00000E+00
    0.18974E-12        -0.10943E-19         0.00000E+00
    0.18974E-12        -0.11176E-19         0.00000E+00
    0.18974E-12        -0.55879E-20         0.00000E+00
    0.18974E-12         0.23283E-20         0.00000E+00
    0.18974E-12         0.37253E-20         0.00000E+00
    0.18974E-12         0.51223E-20         0.00000E+00
    0.18974E-12         0.23283E-20         0.00000E+00
    0.18974E-12         0.97789E-20         0.00000E+00
    0.18974E-12        -0.13970E-20         0.00000E+00
    0.18974E-12        -0.20955E-20         0.00000E+00
    0.18974E-12         0.32596E-20         0.00000E+00
    0.18974E-12        -0.60536E-20         0.00000E+00
    0.18974E-12         0.55879E-20         0.00000E+00
    0.18974E-12         0.74506E-20         0.00000E+00
    0.18974E-12         0.74506E-20         0.00000E+00
    0.18974E-12         0.46566E-21         0.00000E+00
    0.18974E-12        -0.79162E-20         0.00000E+00
    0.18974E-12        -0.37253E-20         0.00000E+00
    0.18974E-12        -0.55879E-20         0.00000E+00
    0.18974E-12         0.12806E-19         0.00000E+00
    0.18974E-12         0.18161E-19         0.00000E+00
    0.18974E-12         0.12107E-19         0.00000E+00
    0.18974E-12         0.97789E-20         0.00000E+00
    0.18974E-12         0.30268E-20         0.00000E+00
    0.18974E-12        -0.16298E-20         0.00000E+00
    0.18974E-12         0.11642E-19         0.00000E+00
    0.18974E-12         0.13970E-20         0.00000E+00
    0.18974E-12        -0.27940E-20         0.00000E+00
    0.18974E-12        -0.46566E-20         0.00000E+00
    0.18974E-12        -0.51223E-20         0.00000E+00
    0.18974E-12        -0.18626E-20         0.00000E+00
    0.18974E-12         0.27940E-20         0.00000E+00
    0.18974E-12         0.51223E-20         0.00000E+00
    0.18974E-12         0.93132E-20         0.00000E+00
    0.18974E-12         0.15367E-19         0.00000E+00
    0.18974E-12         0.11642E-19         0.00000E+00
    0.18974E-12         0.22119E-19         0.00000E+00
    0.18974E-12         0.74506E-20         0.00000E+00
    0.18974E-12         0.20023E-19         0.00000E+00
    0.18974E-12         0.13970E-19         0.00000E+00
    0.18974E-12         0.37253E-20         0.00000E+00
    0.18974E-12        -0.88476E-20         0.00000E+00
    0.18974E-12        -0.60536E-20         0.00000E+00
    0.18974E-12        -0.46566E-20         0.00000E+00
    0.23179E-12        -0.46566E-20         0.00000E+00
    0.23179E-12         0.00000E+00         0.00000E+00
    0.23179E-12        -0.27940E-20         0.00000E+00
    0.23179E-12        -0.13504E-19         0.00000E+00
    0.23179E-12        -0.12107E-19         0.00000E+00
    0.23179E-12        -0.24214E-19         0.00000E+00
    0.23179E-12         0.93132E-21         0.00000E+00
    0.23179E-12        -0.10245E-19         0.00000E+00
    0.23179E-12        -0.53551E-20         0.00000E+00
    0.23179E-12         0.00000E+00         0.00000E+00
    0.23179E-12         0.93132E-21         0.00000E+00
    0.23179E-12         0.41910E-20         0.00000E+00
    0.23179E-12         0.30268E-20         0.00000E+00
    0.23179E-12        -0.62864E-20         0.00000E+00
    0.23179E-12         0.46566E-21         0.00000E+00
    0.23179E-12        -0.46566E-21         0.00000E+00
    0.23179E-12         0.23283E-20         0.00000E+00
    0.23179E-12         0.83819E-20         0.00000E+00
    0.23179E-12         0.11642E-19         0.00000E+00
    0.23179E-12         0.74506E-20         0.00000E+00
    0.23179E-12         0.53551E-20         0.00000E+00
    0.23179E-12        -0.10245E-19         0.00000E+00
    0.23179E-12         0.60536E-20         0.00000E+00
    0.23179E-12         0.83819E-20         0.00000E+00
    0.23179E-12        -0.41910E-20         0.00000E+00
    0.23179E-12         0.10245E-19         0.00000E+00
    0.23179E-12         0.97789E-20         0.00000E+00
    0.23179E-12         0.11176E-19         0.00000E+00
    0.23179E-12        -0.27940E-20         0.00000E+00
    0.23179E-12        -0.16997E-19         0.00000E+00
    0.23179E-12        -0.44238E-20         0.00000E+00
    0.23179E-12         0.11176E-19         0.00000E+00
    0.23179E-12         0.95461E-20         0.00000E+00
    0.23179E-12        -0.13970E-20         0.00000E+00
    0.23179E-12        -0.93132E-21         0.00000E+00
    0.23179E-12         0.37253E-20         0.00000E+00
    0.23179E-12         0.41910E-20         0.00000E+00
    0.23179E-12        -0.69849E-21         0.00000E+00
    0.23179E-12        -0.11176E-19         0.00000E+00
    0.23179E-12        -0.32596E-20         0.00000E+00
    0.23179E-12         0.51223E-20         0.00000E+00
    0.23179E-12         0.72177E-20         0.00000E+00
    0.23179E-12         0.14901E-19         0.00000E+00
    0.23179E-12         0.10245E-19         0.00000E+00
    0.23179E-12         0.23516E-19         0.00000E+00
    0.23179E-12         0.14901E-19         0.00000E+00
    0.23179E-12         0.32596E-20         0.00000E+00
    0.23179E-12        -0.32596E-20         0.00000E+00
    0.23179E-12         0.32596E-20         0.00000E+00
    0.23179E-12        -0.23283E-20         0.00000E+00
    0.28317E-12        -0.37253E-20         0.00000E+00
    0.28317E-12         0.83819E-20         0.00000E+00
    0.28317E-12        -0.16298E-19         0.00000E+00
    0.28317E-12        -0.16298E-19         0.00000E+00
    0.28317E-12        -0.21886E-19         0.00000E+00
    0.28317E-12        -0.14203E-19         0.00000E+00
    0.28317E-12        -0.79162E-20         0.00000E+00
    0.28317E-12        -0.15367E-19         0.00000E+00
    0.28317E-12        -0.20955E-20         0.00000E+00
    0.28317E-12        -0.69849E-21         0.00000E+00
    0.28317E-12         0.51223E-20         0.00000E+00
    0.28317E-12         0.60536E-20         0.00000E+00
    0.28317E-12         0.74506E-20         0.00000E+00
    0.28317E-12        -0.32596E-20         0.00000E+00
    0.28317E-12        -0.18626E-20         0.00000E+00
    0.28317E-12         0.51223E-20         0.00000E+00
    0.28317E-12         0.93132E-21         0.00000E+00
    0.28317E-12         0.44238E-20         0.00000E+00
    0.28317E-12        -0.60536E-20         0.00000E+00
    0.28317E-12        -0.53551E-20         0.00000E+00
    0.28317E-12        -0.79162E-20         0.00000E+00
    0.28317E-12        -0.51223E-20         0.00000E+00
    0.28317E-12        -0.93132E-21         0.00000E+00
    0.28317E-12         0.37253E-20         0.00000E+00
    0.28317E-12        -0.32596E-20         0.00000E+00
    0.28317E-12         0.10710E-19         0.00000E+00
    0.28317E-12         0.14668E-19         0.00000E+00
    0.28317E-12         0.12573E-19         0.00000E+00
    0.28317E-12         0.27940E-20         0.00000E+00
    0.28317E-12        -0.12806E-19         0.00000E+00
    0.28317E-12        -0.69849E-21         0.00000E+00
    0.28317E-12        -0.51223E-20         0.00000E+00
    0.28317E-12         0.32596E-20         0.00000E+00
    0.28317E-12         0.60536E-20         0.00000E+00
    0.28317E-12        -0.93132E-20         0.00000E+00
    0.28317E-12         0.79162E-20         0.00000E+00
    0.28317E-12        -0.32596E-20         0.00000E+00
    0.28317E-12        -0.83819E-20         0.00000E+00
    0.28317E-12        -0.12573E-19         0.00000E+00
    0.28317E-12        -0.97789E-20         0.00000E+00
    0.28317E-12        -0.13271E-19         0.00000E+00
    0.28317E-12        -0.65193E-20         0.00000E+00
    0.28317E-12         0.51223E-20         0.00000E+00
    0.28317E-12        -0.46566E-21         0.00000E+00
    0.28317E-12         0.95461E-20         0.00000E+00
    0.28317E-12         0.16298E-19         0.00000E+00
    0.28317E-12         0.15367E-19         0.00000E+00
    0.28317E-12         0.10710E-19         0.00000E+00
    0.28317E-12         0.23283E-21         0.00000E+00
    0.28317E-12         0.46566E-21         0.00000E+00
    0.34594E-12        -0.53551E-20         0.00000E+00
    0.34594E-12         0.93132E-21         0.00000E+00
    0.34594E-12        -0.76834E-20         0.00000E+00
    0.34594E-12         0.11642E-20         0.00000E+00
    0.34594E-12        -0.10943E-19         0.00000E+00
    0.34594E-12        -0.58208E-20         0.00000E+00
    0.34594E-12        -0.13271E-19         0.00000E+00
    0.34594E-12        -0.88476E-20         0.00000E+00
    0.34594E-12        -0.60536E-20         0.00000E+00
    0.34594E-12        -0.65193E-20         0.00000E+00
    0.34594E-12        -0.13970E-20         0.00000E+00
    0.34594E-12        -0.13970E-20         0.00000E+00
    0.34594E-12         0.32596E-20         0.00000E+00
    0.34594E-12         0.27940E-20         0.00000E+00
    0.34594E-12         0.18626E-20         0.00000E+00
    0.34594E-12         0.69849E-20         0.00000E+00
    0.34594E-12        -0.93132E-21         0.00000E+00
    0.34594E-12         0.51223E-20         0.00000E+00
    0.34594E-12        -0.11176E-19         0.00000E+00
    0.34594E-12        -0.60536E-20         0.00000E+00
    0.34594E-12        -0.88476E-20         0.00000E+00
    0.34594E-12         0.10710E-19         0.00000E+00
    0.34594E-12        -0.97789E-20         0.00000E+00
    0.34594E-12        -0.83819E-20         0.00000E+00
    0.34594E-12         0.00000E+00         0.00000E+00
    0.34594E-12         0.00000E+00         0.00000E+00
    0.34594E-12         0.69849E-20         0.00000E+00
    0.34594E-12         0.13970E-20         0.00000E+00
    0.34594E-12        -0.46566E-21         0.00000E+00
    0.34594E-12         0.18626E-20         0.00000E+00
    0.34594E-12         0.46566E-21         0.00000E+00
    0.34594E-12         0.83819E-20         0.00000E+00
    0.34594E-12         0.58208E-20         0.00000E+00
    0.34594E-12        -0.27940E-20         0.00000E+00
    0.34594E-12        -0.65193E-20         0.00000E+00
    0.34594E-12        -0.51223E-20         0.00000E+00
    0.34594E-12        -0.19092E-19         0.00000E+00
    0.34594E-12        -0.17695E-19         0.00000E+00
    0.34594E-12        -0.18626E-19         0.00000E+00
    0.34594E-12        -0.21886E-19         0.00000E+00
    0.34594E-12        -0.19325E-19         0.00000E+00
    0.34594E-12        -0.83819E-20         0.00000E+00
    0.34594E-12        -0.11642E-19         0.00000E+00
    0.34594E-12         0.46566E-20         0.00000E+00
    0.34594E-12         0.74506E-20         0.00000E+00
    0.34594E-12         0.12107E-19         0.00000E+00
    0.34594E-12         0.18161E-19         0.00000E+00
    0.34594E-12         0.13737E-19         0.00000E+00
    0.34594E-12        -0.69849E-21         0.00000E+00
    0.34594E-12         0.23283E-21         0.00000E+00
    0.42256E-12        -0.60536E-20         0.00000E+00
    0.42256E-12        -0.23283E-20         0.00000E+00
    0.42256E-12         0.12107E-19         0.00000E+00
    0.42256E-12         0.14435E-19         0.00000E+00
    0.42256E-12        -0.93132E-21         0.00000E+00
    0.42256E-12        -0.34925E-20         0.00000E+00
    0.42256E-12        -0.18626E-20         0.00000E+00
    0.42256E-12        -0.79162E-20         0.00000E+00
    0.42256E-12        -0.14435E-19         0.00000E+00
    0.42256E-12        -0.88476E-20         0.00000E+00
    0.42256E-12        -0.12573E-19         0.00000E+00
    0.42256E-12        -0.18161E-19         0.00000E+00
    0.42256E-12        -0.60536E-20         0.00000E+00
    0.42256E-12        -0.10245E-19         0.00000E+00
    0.42256E-12         0.30268E-20         0.00000E+00
    0.42256E-12         0.12573E-19         0.00000E+00
    0.42256E-12         0.83819E-20         0.00000E+00
    0.42256E-12         0.27940E-20         0.00000E+00
    0.42256E-12         0.69849E-20         0.00000E+00
    0.42256E-12         0.51223E-20         0.00000E+00
    0.42256E-12         0.41910E-20         0.00000E+00
    0.42256E-12         0.23283E-20         0.00000E+00
    0.42256E-12         0.32596E-20         0.00000E+00
    0.42256E-12        -0.13039E-19         0.00000E+00
    0.42256E-12        -0.79162E-20         0.00000E+00
    0.42256E-12        -0.55879E-20         0.00000E+00
    0.42256E-12         0.00000E+00         0.00000E+00
    0.42256E-12         0.46566E-21         0.00000E+00
    0.42256E-12        -0.18626E-20         0.00000E+00
    0.42256E-12        -0.23283E-20         0.00000E+00
    0.42256E-12        -0.27940E-20         0.00000E+00
    0.42256E-12         0.14901E-19         0.00000E+00
    0.42256E-12        -0.48894E-20         0.00000E+00
    0.42256E-12         0.18626E-20         0.00000E+00
    0.42256E-12        -0.93132E-21         0.00000E+00
    0.42256E-12        -0.15367E-19         0.00000E+00
    0.42256E-12        -0.19558E-19         0.00000E+00
    0.42256E-12        -0.20489E-19         0.00000E+00
    0.42256E-12        -0.28871E-19         0.00000E+00
    0.42256E-12        -0.13039E-19         0.00000E+00
    0.42256E-12        -0.83819E-20         0.00000E+00
    0.42256E-12        -0.81491E-20         0.00000E+00
    0.42256E-12        -0.46566E-21         0.00000E+00
    0.42256E-12         0.13970E-19         0.00000E+00
    0.42256E-12         0.74506E-20         0.00000E+00
    0.42256E-12        -0.32596E-20         0.00000E+00
    0.42256E-12        -0.37253E-20         0.00000E+00
    0.42256E-12         0.34925E-20         0.00000E+00
    0.42256E-12        -0.32596E-20         0.00000E+00
    0.42256E-12         0.74506E-20         0.00000E+00
    0.51607E-12         0.93132E-21         0.00000E+00
    0.51607E-12         0.41910E-20         0.00000E+00
    0.51607E-12         0.93132E-20         0.00000E+00
    0.51607E-12         0.10245E-19         0.00000E+00
    0.51607E-12         0.46566E-20         0.00000E+00
    0.51607E-12         0.79162E-20         0.00000E+00
    0.51607E-12         0.51223E-20         0.00000E+00
    0.51607E-12        -0.11642E-19         0.00000E+00
    0.51607E-12        -0.14901E-19         0.00000E+00
    0.51607E-12        -0.46566E-20         0.00000E+00
    0.51607E-12         0.37253E-20         0.00000E+00
    0.51607E-12        -0.88476E-20         0.00000E+00
    0.51607E-12        -0.79162E-20         0.00000E+00
    0.51607E-12         0.51223E-20         0.00000E+00
    0.51607E-12        -0.93132E-21         0.00000E+00
    0.51607E-12        -0.88476E-20         0.00000E+00
    0.51607E-12         0.60536E-20         0.00000E+00
    0.51607E-12        -0.13970E-20         0.00000E+00
    0.51607E-12         0.93132E-20         0.00000E+00
    0.51607E-12         0.74506E-20         0.00000E+00
    0.51607E-12         0.46566E-20         0.00000E+00
    0.51607E-12         0.65193E-20         0.00000E+00
    0.51607E-12        -0.41910E-20         0.00000E+00
    0.51607E-12        -0.97789E-20         0.00000E+00
    0.51607E-12        -0.18626E-20         0.00000E+00
    0.51607E-12        -0.65193E-20         0.00000E+00
    0.51607E-12        -0.60536E-20         0.00000E+00
    0.51607E-12        -0.97789E-20         0.00000E+00
    0.51607E-12        -0.23283E-20         0.00000E+00
    0.51607E-12         0.51223E-20         0.00000E+00
    0.51607E-12         0.32596E-20         0.00000E+00
    0.51607E-12        -0.23283E-20         0.00000E+00
    0.51607E-12        -0.17695E-19         0.00000E+00
    0.51607E-12        -0.79162E-20         0.00000E+00
    0.51607E-12        -0.55879E-20         0.00000E+00
    0.51607E-12        -0.13970E-19         0.00000E+00
    0.51607E-12        -0.13970E-19         0.00000E+00
    0.51607E-12        -0.23283E-19         0.00000E+00
    0.51607E-12        -0.20023E-19         0.00000E+00
    0.51607E-12        -0.46566E-20         0.00000E+00
    0.51607E-12         0.23283E-20         0.00000E+00
    0.51607E-12        -0.46566E-21         0.00000E+00
    0.51607E-12         0.69849E-20         0.00000E+00
    0.51607E-12         0.93132E-21         0.00000E+00
    0.51607E-12         0.74506E-20         0.00000E+00
    0.51607E-12        -0.27940E-20         0.00000E+00
    0.51607E-12        -0.11642E-20         0.00000E+00
    0.51607E-12         0.46566E-21         0.00000E+00
    0.51607E-12        -0.12573E-19         0.00000E+00
    0.51607E-12         0.74506E-20         0.00000E+00
    0.63014E-12         0.60536E-20         0.00000E+00
    0.63014E-12         0.41910E-20         0.00000E+00
    0.63014E-12         0.69849E-20         0.00000E+00
    0.63014E-12         0.81491E-20         0.00000E+00
    0.63014E-12         0.10245E-19         0.00000E+00
    0.63014E-12         0.14435E-19         0.00000E+00
    0.63014E-12         0.10245E-19         0.00000E+00
    0.63014E-12         0.46566E-20         0.00000E+00
    0.63014E-12        -0.46566E-20         0.00000E+00
    0.63014E-12         0.55879E-20         0.00000E+00
    0.63014E-12         0.10477E-19         0.00000E+00
    0.63014E-12         0.27940E-20         0.00000E+00
    0.63014E-12         0.93132E-21         0.00000E+00
    0.63014E-12        -0.30268E-20         0.00000E+00
    0.63014E-12         0.34925E-20         0.00000E+00
    0.63014E-12        -0.13970E-20         0.00000E+00
    0.63014E-12         0.37253E-20         0.00000E+00
    0.63014E-12        -0.46566E-21         0.00000E+00
    0.63014E-12        -0.48894E-20         0.00000E+00
    0.63014E-12         0.13970E-20         0.00000E+00
    0.63014E-12         0.27940E-20         0.00000E+00
    0.63014E-12         0.37253E-20         0.00000E+00
    0.63014E-12         0.37253E-20         0.00000E+00
    0.63014E-12        -0.81491E-20         0.00000E+00
    0.63014E-12        -0.51223E-20         0.00000E+00
    0.63014E-12        -0.83819E-20         0.00000E+00
    0.63014E-12        -0.16298E-19         0.00000E+00
    0.63014E-12        -0.13970E-19         0.00000E+00
    0.63014E-12        -0.93132E-20         0.00000E+00
    0.63014E-12        -0.51223E-20         0.00000E+00
    0.63014E-12        -0.37253E-20         0.00000E+00
    0.63014E-12        -0.55879E-20         0.00000E+00
    0.63014E-12        -0.32596E-20         0.00000E+00
    0.63014E-12        -0.46566E-20         0.00000E+00
    0.63014E-12        -0.46566E-20         0.00000E+00
    0.63014E-12         0.93132E-21         0.00000E+00
    0.63014E-12         0.18626E-20         0.00000E+00
    0.63014E-12        -0.13504E-19         0.00000E+00
    0.63014E-12        -0.79162E-20         0.00000E+00
    0.63014E-12        -0.76834E-20         0.00000E+00
    0.63014E-12        -0.46566E-20         0.00000E+00
    0.63014E-12         0.00000E+00         0.00000E+00
    0.63014E-12        -0.65193E-20         0.00000E+00
    0.63014E-12        -0.15367E-19         0.00000E+00
    0.63014E-12        -0.79162E-20         0.00000E+00
    0.63014E-12        -0.55879E-20         0.00000E+00
    0.63014E-12        -0.88476E-20         0.00000E+00
    0.63014E-12         0.46566E-21         0.00000E+00
    0.63014E-12         0.23283E-20         0.00000E+00
    0.63014E-12         0.00000E+00         0.00000E+00
    0.76925E-12         0.18626E-20         0.00000E+00
    0.76925E-12         0.27940E-20         0.00000E+00
    0.76925E-12         0.51223E-20         0.00000E+00
    0.76925E-12         0.46566E-20         0.00000E+00
    0.76925E-12         0.12573E-19         0.00000E+00
    0.76925E-12         0.17695E-19         0.00000E+00
    0.76925E-12         0.13039E-19         0.00000E+00
    0.76925E-12         0.12573E-19         0.00000E+00
    0.76925E-12         0.20489E-19         0.00000E+00
    0.76925E-12         0.15600E-19         0.00000E+00
    0.76925E-12        -0.48894E-20         0.00000E+00
    0.76925E-12         0.23283E-20         0.00000E+00
    0.76925E-12         0.13970E-20         0.00000E+00
    0.76925E-12        -0.46566E-20         0.00000E+00
    0.76925E-12        -0.55879E-20         0.00000E+00
    0.76925E-12         0.18626E-20         0.00000E+00
    0.76925E-12         0.13970E-19         0.00000E+00
    0.76925E-12         0.13970E-19         0.00000E+00
    0.76925E-12         0.27940E-20         0.00000E+00
    0.76925E-12         0.69849E-20         0.00000E+00
    0.76925E-12        -0.93132E-21         0.00000E+00
    0.76925E-12        -0.46566E-20         0.00000E+00
    0.76925E-12         0.32596E-20         0.00000E+00
    0.76925E-12        -0.32596E-20         0.00000E+00
    0.76925E-12        -0.13039E-19         0.00000E+00
    0.76925E-12        -0.17928E-19         0.00000E+00
    0.76925E-12        -0.18161E-19         0.00000E+00
    0.76925E-12        -0.14901E-19         0.00000E+00
    0.76925E-12        -0.18626E-19         0.00000E+00
    0.76925E-12        -0.22585E-19         0.00000E+00
    0.76925E-12        -0.14435E-19         0.00000E+00
    0.76925E-12        -0.46566E-20         0.00000E+00
    0.76925E-12        -0.46566E-21         0.00000E+00
    0.76925E-12        -0.83819E-20         0.00000E+00
    0.76925E-12        -0.17928E-19         0.00000E+00
    0.76925E-12        -0.46566E-21         0.00000E+00
    0.76925E-12         0.69849E-20         0.00000E+00
    0.76925E-12        -0.23283E-20         0.00000E+00
    0.76925E-12        -0.13039E-19         0.00000E+00
    0.76925E-12        -0.15832E-19         0.00000E+00
    0.76925E-12        -0.20955E-20         0.00000E+00
    0.76925E-12        -0.25611E-20         0.00000E+00
    0.76925E-12         0.51223E-20         0.00000E+00
    0.76925E-12        -0.22817E-19         0.00000E+00
    0.76925E-12        -0.67521E-20         0.00000E+00
    0.76925E-12        -0.93132E-20         0.00000E+00
    0.76925E-12         0.00000E+00         0.00000E+00
    0.76925E-12         0.23283E-20         0.00000E+00
    0.76925E-12         0.19092E-19         0.00000E+00
    0.76925E-12        -0.13970E-20         0.00000E+00
    0.93885E-12        -0.11642E-20         0.00000E+00
    0.93885E-12        -0.13970E-20         0.00000E+00
    0.93885E-12         0.18626E-20         0.00000E+00
    0.93885E-12         0.18626E-19         0.00000E+00
    0.93885E-12         0.12340E-19         0.00000E+00
    0.93885E-12         0.19325E-19         0.00000E+00
    0.93885E-12         0.55879E-20         0.00000E+00
    0.93885E-12         0.10012E-19         0.00000E+00
    0.93885E-12         0.74506E-20         0.00000E+00
    0.93885E-12         0.00000E+00         0.00000E+00
    0.93885E-12         0.27940E-20         0.00000E+00
    0.93885E-12         0.65193E-20         0.00000E+00
    0.93885E-12         0.93132E-21         0.00000E+00
    0.93885E-12         0.37253E-20         0.00000E+00
    0.93885E-12        -0.13970E-20         0.00000E+00
    0.93885E-12        -0.32596E-20         0.00000E+00
    0.93885E-12         0.32596E-20         0.00000E+00
    0.93885E-12         0.83819E-20         0.00000E+00
    0.93885E-12         0.18626E-20         0.00000E+00
    0.93885E-12         0.10245E-19         0.00000E+00
    0.93885E-12        -0.79162E-20         0.00000E+00
    0.93885E-12        -0.79162E-20         0.00000E+00
    0.93885E-12        -0.79162E-20         0.00000E+00
    0.93885E-12        -0.76834E-20         0.00000E+00
    0.93885E-12        -0.51223E-20         0.00000E+00
    0.93885E-12        -0.11642E-19         0.00000E+00
    0.93885E-12        -0.26776E-19         0.00000E+00
    0.93885E-12        -0.26310E-19         0.00000E+00
    0.93885E-12        -0.21653E-19         0.00000E+00
    0.93885E-12        -0.20955E-19         0.00000E+00
    0.93885E-12        -0.19092E-19         0.00000E+00
    0.93885E-12        -0.41910E-20         0.00000E+00
    0.93885E-12        -0.37253E-20         0.00000E+00
    0.93885E-12        -0.79162E-20         0.00000E+00
    0.93885E-12        -0.12340E-19         0.00000E+00
    0.93885E-12        -0.10245E-19         0.00000E+00
    0.93885E-12        -0.60536E-20         0.00000E+00
    0.93885E-12        -0.51223E-20         0.00000E+00
    0.93885E-12         0.11642E-20         0.00000E+00
    0.93885E-12        -0.60536E-20         0.00000E+00
    0.93885E-12         0.88476E-20         0.00000E+00
    0.93885E-12         0.51223E-20         0.00000E+00
    0.93885E-12         0.37616E-36         0.00000E+00
    0.93885E-12        -0.67521E-20         0.00000E+00
    0.93885E-12         0.13970E-20         0.00000E+00
    0.93885E-12         0.23283E-20         0.00000E+00
    0.93885E-12         0.46566E-20         0.00000E+00
    0.93885E-12         0.27940E-20         0.00000E+00
    0.93885E-12         0.46566E-20         0.00000E+00
    0.93885E-12        -0.23283E-21         0.00000E+00
    0.11455E-11         0.13970E-20         0.00000E+00
    0.11455E-11         0.65193E-20         0.00000E+00
    0.11455E-11         0.81491E-20         0.00000E+00
    0.11455E-11         0.19092E-19         0.00000E+00
    0.11455E-11         0.74506E-20         0.00000E+00
    0.11455E-11         0.32596E-20         0.00000E+00
    0.11455E-11        -0.46566E-21         0.00000E+00
    0.11455E-11         0.65193E-20         0.00000E+00
    0.11455E-11        -0.37253E-20         0.00000E+00
    0.11455E-11         0.37253E-20         0.00000E+00
    0.11455E-11         0.15600E-19         0.00000E+00
    0.11455E-11        -0.23283E-20         0.00000E+00
    0.11455E-11        -0.60536E-20         0.00000E+00
    0.11455E-11        -0.88476E-20         0.00000E+00
    0.11455E-11         0.23283E-20         0.00000E+00
    0.11455E-11         0.27940E-20         0.00000E+00
    0.11455E-11        -0.27940E-20         0.00000E+00
    0.11455E-11        -0.69849E-20         0.00000E+00
    0.11455E-11        -0.97789E-20         0.00000E+00
    0.11455E-11        -0.55879E-20         0.00000E+00
    0.11455E-11        -0.76834E-20         0.00000E+00
    0.11455E-11        -0.11176E-19         0.00000E+00
    0.11455E-11        -0.20489E-19         0.00000E+00
    0.11455E-11        -0.19558E-19         0.00000E+00
    0.11455E-11        -0.20955E-19         0.00000E+00
    0.11455E-11        -0.10245E-19         0.00000E+00
    0.11455E-11        -0.15367E-19         0.00000E+00
    0.11455E-11        -0.15134E-19         0.00000E+00
    0.11455E-11        -0.88476E-20         0.00000E+00
    0.11455E-11        -0.13737E-19         0.00000E+00
    0.11455E-11        -0.22352E-19         0.00000E+00
    0.11455E-11        -0.11176E-19         0.00000E+00
    0.11455E-11        -0.60536E-20         0.00000E+00
    0.11455E-11         0.79162E-20         0.00000E+00
    0.11455E-11        -0.27940E-20         0.00000E+00
    0.11455E-11        -0.11874E-19         0.00000E+00
    0.11455E-11        -0.44238E-20         0.00000E+00
    0.11455E-11         0.23283E-20         0.00000E+00
    0.11455E-11         0.17229E-19         0.00000E+00
    0.11455E-11         0.55879E-20         0.00000E+00
    0.11455E-11         0.23283E-20         0.00000E+00
    0.11455E-11        -0.60536E-20         0.00000E+00
    0.11455E-11        -0.79162E-20         0.00000E+00
    0.11455E-11         0.93132E-21         0.00000E+00
    0.11455E-11        -0.74506E-20         0.00000E+00
    0.11455E-11         0.60536E-20         0.00000E+00
    0.11455E-11        -0.46566E-21         0.00000E+00
    0.11455E-11        -0.41910E-20         0.00000E+00
    0.11455E-11         0.58208E-20         0.00000E+00
    0.11455E-11        -0.23283E-21         0.00000E+00
    0.13973E-11        -0.46566E-21         0.00000E+00
    0.13973E-11         0.67521E-20         0.00000E+00
    0.13973E-11         0.60536E-20         0.00000E+00
    0.13973E-11         0.60536E-20         0.00000E+00
    0.13973E-11         0.55879E-20         0.00000E+00
    0.13973E-11         0.60536E-20         0.00000E+00
    0.13973E-11         0.79162E-20         0.00000E+00
    0.13973E-11         0.00000E+00         0.00000E+00
    0.13973E-11         0.23283E-20         0.00000E+00
    0.13973E-11         0.37616E-36         0.00000E+00
    0.13973E-11         0.00000E+00         0.00000E+00
    0.13973E-11        -0.60536E-20         0.00000E+00
    0.13973E-11        -0.46566E-20         0.00000E+00
    0.13973E-11        -0.17695E-19         0.00000E+00
    0.13973E-11        -0.97789E-20         0.00000E+00
    0.13973E-11        -0.20023E-19         0.00000E+00
    0.13973E-11        -0.11642E-19         0.00000E+00
    0.13973E-11        -0.20256E-19         0.00000E+00
    0.13973E-11        -0.60536E-20         0.00000E+00
    0.13973E-11        -0.12107E-19         0.00000E+00
    0.13973E-11        -0.14901E-19         0.00000E+00
    0.13973E-11        -0.20489E-19         0.00000E+00
    0.13973E-11        -0.24680E-19         0.00000E+00
    0.13973E-11        -0.25611E-19         0.00000E+00
    0.13973E-11        -0.20489E-19         0.00000E+00
    0.13973E-11        -0.11642E-19         0.00000E+00
    0.13973E-11        -0.44238E-20         0.00000E+00
    0.13973E-11        -0.46566E-20         0.00000E+00
    0.13973E-11        -0.41910E-20         0.00000E+00
    0.13973E-11        -0.41910E-20         0.00000E+00
    0.13973E-11        -0.19092E-19         0.00000E+00
    0.13973E-11        -0.16298E-19         0.00000E+00
    0.13973E-11        -0.12573E-19         0.00000E+00
    0.13973E-11        -0.12573E-19         0.00000E+00
    0.13973E-11        -0.27940E-20         0.00000E+00
    0.13973E-11        -0.41910E-20         0.00000E+00
    0.13973E-11         0.93132E-20         0.00000E+00
    0.13973E-11         0.88476E-20         0.00000E+00
    0.13973E-11         0.37253E-20         0.00000E+00
    0.13973E-11         0.39581E-20         0.00000E+00
    0.13973E-11        -0.11409E-19         0.00000E+00
    0.13973E-11        -0.10245E-19         0.00000E+00
    0.13973E-11        -0.97789E-20         0.00000E+00
    0.13973E-11        -0.65193E-20         0.00000E+00
    0.13973E-11        -0.16764E-19         0.00000E+00
    0.13973E-11        -0.18626E-20         0.00000E+00
    0.13973E-11         0.30268E-20         0.00000E+00
    0.13973E-11         0.46566E-20         0.00000E+00
    0.13973E-11         0.18626E-19         0.00000E+00
    0.13973E-11        -0.32596E-20         0.00000E+00
    0.17040E-11        -0.69849E-20         0.00000E+00
    0.17040E-11         0.27940E-20         0.00000E+00
    0.17040E-11         0.11176E-19         0.00000E+00
    0.17040E-11        -0.32596E-20         0.00000E+00
    0.17040E-11        -0.41910E-20         0.00000E+00
    0.17040E-11        -0.23283E-20         0.00000E+00
    0.17040E-11        -0.74506E-20         0.00000E+00
    0.17040E-11        -0.12107E-19         0.00000E+00
    0.17040E-11        -0.55879E-20         0.00000E+00
    0.17040E-11        -0.18626E-20         0.00000E+00
    0.17040E-11        -0.83819E-20         0.00000E+00
    0.17040E-11        -0.83819E-20         0.00000E+00
    0.17040E-11        -0.10710E-19         0.00000E+00
    0.17040E-11        -0.97789E-20         0.00000E+00
    0.17040E-11        -0.29802E-19         0.00000E+00
    0.17040E-11        -0.28405E-19         0.00000E+00
    0.17040E-11        -0.23749E-19         0.00000E+00
    0.17040E-11        -0.31898E-19         0.00000E+00
    0.17040E-11        -0.86147E-20         0.00000E+00
    0.17040E-11        -0.16065E-19         0.00000E+00
    0.17040E-11        -0.21420E-19         0.00000E+00
    0.17040E-11        -0.17229E-19         0.00000E+00
    0.17040E-11        -0.13039E-19         0.00000E+00
    0.17040E-11        -0.14901E-19         0.00000E+00
    0.17040E-11        -0.18161E-19         0.00000E+00
    0.17040E-11        -0.11176E-19         0.00000E+00
    0.17040E-11        -0.93132E-20         0.00000E+00
    0.17040E-11        -0.26077E-19         0.00000E+00
    0.17040E-11        -0.25146E-19         0.00000E+00
    0.17040E-11        -0.97789E-20         0.00000E+00
    0.17040E-11        -0.16764E-19         0.00000E+00
    0.17040E-11        -0.83819E-20         0.00000E+00
    0.17040E-11        -0.15832E-19         0.00000E+00
    0.17040E-11        -0.21886E-19         0.00000E+00
    0.17040E-11        -0.18859E-19         0.00000E+00
    0.17040E-11        -0.10710E-19         0.00000E+00
    0.17040E-11        -0.27940E-20         0.00000E+00
    0.17040E-11         0.97789E-20         0.00000E+00
    0.17040E-11         0.48894E-20         0.00000E+00
    0.17040E-11         0.27940E-20         0.00000E+00
    0.17040E-11        -0.46566E-21         0.00000E+00
    0.17040E-11         0.55879E-20         0.00000E+00
    0.17040E-11        -0.55879E-20         0.00000E+00
    0.17040E-11        -0.17695E-19         0.00000E+00
    0.17040E-11        -0.26077E-19         0.00000E+00
    0.17040E-11        -0.10710E-19         0.00000E+00
    0.17040E-11        -0.12573E-19         0.00000E+00
    0.17040E-11        -0.83819E-20         0.00000E+00
    0.17040E-11        -0.23283E-20         0.00000E+00
    0.17040E-11         0.23283E-20         0.00000E+00
    0.20773E-11         0.16298E-20         0.00000E+00
    0.20773E-11         0.74506E-20         0.00000E+00
    0.20773E-11        -0.97789E-20         0.00000E+00
    0.20773E-11        -0.46566E-20         0.00000E+00
    0.20773E-11        -0.20955E-19         0.00000E+00
    0.20773E-11        -0.13970E-19         0.00000E+00
    0.20773E-11        -0.12107E-19         0.00000E+00
    0.20773E-11        -0.10943E-19         0.00000E+00
    0.20773E-11        -0.10012E-19         0.00000E+00
    0.20773E-11        -0.11176E-19         0.00000E+00
    0.20773E-11        -0.19558E-19         0.00000E+00
    0.20773E-11        -0.14901E-19         0.00000E+00
    0.20773E-11        -0.32596E-20         0.00000E+00
    0.20773E-11        -0.18626E-19         0.00000E+00
    0.20773E-11        -0.27940E-19         0.00000E+00
    0.20773E-11        -0.27241E-19         0.00000E+00
    0.20773E-11        -0.19558E-19         0.00000E+00
    0.20773E-11        -0.23283E-19         0.00000E+00
    0.20773E-11        -0.15600E-19         0.00000E+00
    0.20773E-11        -0.13504E-19         0.00000E+00
    0.20773E-11        -0.17695E-19         0.00000E+00
    0.20773E-11        -0.24214E-19         0.00000E+00
    0.20773E-11        -0.20955E-19         0.00000E+00
    0.20773E-11        -0.16298E-19         0.00000E+00
    0.20773E-11        -0.23749E-19         0.00000E+00
    0.20773E-11        -0.18626E-19         0.00000E+00
    0.20773E-11        -0.20489E-19         0.00000E+00
    0.20773E-11        -0.23749E-19         0.00000E+00
    0.20773E-11        -0.34459E-19         0.00000E+00
    0.20773E-11        -0.12107E-19         0.00000E+00
    0.20773E-11        -0.32596E-20         0.00000E+00
    0.20773E-11        -0.22352E-19         0.00000E+00
    0.20773E-11        -0.16764E-19         0.00000E+00
    0.20773E-11        -0.19092E-19         0.00000E+00
    0.20773E-11        -0.33062E-19         0.00000E+00
    0.20773E-11        -0.16764E-19         0.00000E+00
    0.20773E-11        -0.15832E-19         0.00000E+00
    0.20773E-11        -0.23283E-20         0.00000E+00
    0.20773E-11        -0.13970E-20         0.00000E+00
    0.20773E-11         0.00000E+00         0.00000E+00
    0.20773E-11        -0.46566E-20         0.00000E+00
    0.20773E-11         0.27940E-20         0.00000E+00
    0.20773E-11         0.13970E-20         0.00000E+00
    0.20773E-11        -0.13039E-19         0.00000E+00
    0.20773E-11        -0.18626E-19         0.00000E+00
    0.20773E-11        -0.14901E-19         0.00000E+00
    0.20773E-11        -0.11642E-19         0.00000E+00
    0.20773E-11        -0.27940E-20         0.00000E+00
    0.20773E-11        -0.12107E-19         0.00000E+00
    0.20773E-11         0.13970E-20         0.00000E+00
    0.25316E-11         0.69849E-21         0.00000E+00
    0.25316E-11         0.30268E-20         0.00000E+00
    0.25316E-11        -0.88476E-20         0.00000E+00
    0.25316E-11        -0.65193E-20         0.00000E+00
    0.25316E-11        -0.15134E-19         0.00000E+00
    0.25316E-11        -0.17695E-19         0.00000E+00
    0.25316E-11        -0.17229E-19         0.00000E+00
    0.25316E-11        -0.25611E-19         0.00000E+00
    0.25316E-11        -0.18626E-19         0.00000E+00
    0.25316E-11        -0.20955E-19         0.00000E+00
    0.25316E-11        -0.15367E-19         0.00000E+00
    0.25316E-11        -0.16298E-19         0.00000E+00
    0.25316E-11        -0.14901E-19         0.00000E+00
    0.25316E-11        -0.10245E-19         0.00000E+00
    0.25316E-11        -0.14435E-19         0.00000E+00
    0.25316E-11        -0.12573E-19         0.00000E+00
    0.25316E-11        -0.14668E-19         0.00000E+00
    0.25316E-11        -0.16764E-19         0.00000E+00
    0.25316E-11        -0.11642E-19         0.00000E+00
    0.25316E-11        -0.15367E-19         0.00000E+00
    0.25316E-11        -0.28871E-19         0.00000E+00
    0.25316E-11        -0.28871E-19         0.00000E+00
    0.25316E-11        -0.37719E-19         0.00000E+00
    0.25316E-11        -0.24214E-19         0.00000E+00
    0.25316E-11        -0.22352E-19         0.00000E+00
    0.25316E-11        -0.13970E-19         0.00000E+00
    0.25316E-11        -0.18161E-19         0.00000E+00
    0.25316E-11        -0.21886E-19         0.00000E+00
    0.25316E-11        -0.25146E-19         0.00000E+00
    0.25316E-11        -0.18161E-19         0.00000E+00
    0.25316E-11        -0.10710E-19         0.00000E+00
    0.25316E-11        -0.21420E-19         0.00000E+00
    0.25316E-11        -0.11642E-19         0.00000E+00
    0.25316E-11        -0.18161E-19         0.00000E+00
    0.25316E-11        -0.18626E-19         0.00000E+00
    0.25316E-11        -0.19092E-19         0.00000E+00
    0.25316E-11        -0.26077E-19         0.00000E+00
    0.25316E-11        -0.22817E-19         0.00000E+00
    0.25316E-11        -0.11176E-19         0.00000E+00
    0.25316E-11        -0.12573E-19         0.00000E+00
    0.25316E-11        -0.22585E-19         0.00000E+00
    0.25316E-11        -0.13970E-19         0.00000E+00
    0.25316E-11        -0.19092E-19         0.00000E+00
    0.25316E-11        -0.12107E-19         0.00000E+00
    0.25316E-11        -0.23283E-20         0.00000E+00
    0.25316E-11        -0.23283E-20         0.00000E+00
    0.25316E-11        -0.81491E-20         0.00000E+00
    0.25316E-11         0.23283E-21         0.00000E+00
    0.25316E-11        -0.32596E-20         0.00000E+00
    0.25316E-11         0.46566E-21         0.00000E+00
    0.30844E-11        -0.93132E-21         0.00000E+00
    0.30844E-11        -0.16298E-20         0.00000E+00
    0.30844E-11        -0.97789E-20         0.00000E+00
    0.30844E-11        -0.34925E-20         0.00000E+00
    0.30844E-11        -0.10012E-19         0.00000E+00
    0.30844E-11        -0.88476E-20         0.00000E+00
    0.30844E-11        -0.21886E-19         0.00000E+00
    0.30844E-11        -0.28871E-19         0.00000E+00
    0.30844E-11        -0.11874E-19         0.00000E+00
    0.30844E-11        -0.17462E-19         0.00000E+00
    0.30844E-11        -0.13970E-19         0.00000E+00
    0.30844E-11        -0.46566E-20         0.00000E+00
    0.30844E-11        -0.14435E-19         0.00000E+00
    0.30844E-11        -0.83819E-20         0.00000E+00
    0.30844E-11        -0.10245E-19         0.00000E+00
    0.30844E-11        -0.90804E-20         0.00000E+00
    0.30844E-11         0.00000E+00         0.00000E+00
    0.30844E-11        -0.88476E-20         0.00000E+00
    0.30844E-11        -0.23283E-19         0.00000E+00
    0.30844E-11        -0.36089E-19         0.00000E+00
    0.30844E-11        -0.31665E-19         0.00000E+00
    0.30844E-11        -0.15367E-19         0.00000E+00
    0.30844E-11        -0.23749E-19         0.00000E+00
    0.30844E-11        -0.23283E-19         0.00000E+00
    0.30844E-11        -0.19558E-19         0.00000E+00
    0.30844E-11        -0.26543E-19         0.00000E+00
    0.30844E-11        -0.12573E-19         0.00000E+00
    0.30844E-11        -0.11642E-19         0.00000E+00
    0.30844E-11        -0.10245E-19         0.00000E+00
    0.30844E-11        -0.16065E-19         0.00000E+00
    0.30844E-11        -0.26077E-19         0.00000E+00
    0.30844E-11        -0.18161E-19         0.00000E+00
    0.30844E-11        -0.23283E-19         0.00000E+00
    0.30844E-11        -0.17229E-19         0.00000E+00
    0.30844E-11        -0.20256E-19         0.00000E+00
    0.30844E-11        -0.22817E-19         0.00000E+00
    0.30844E-11        -0.19325E-19         0.00000E+00
    0.30844E-11        -0.18626E-19         0.00000E+00
    0.30844E-11        -0.20955E-19         0.00000E+00
    0.30844E-11        -0.21420E-19         0.00000E+00
    0.30844E-11        -0.15367E-19         0.00000E+00
    0.30844E-11        -0.29337E-19         0.00000E+00
    0.30844E-11        -0.25146E-19         0.00000E+00
    0.30844E-11        -0.25146E-19         0.00000E+00
    0.30844E-11        -0.13504E-19         0.00000E+00
    0.30844E-11        -0.18626E-19         0.00000E+00
    0.30844E-11        -0.86147E-20         0.00000E+00
    0.30844E-11        -0.11409E-19         0.00000E+00
    0.30844E-11        -0.48894E-20         0.00000E+00
    0.30844E-11         0.93132E-21         0.00000E+00
    0.37566E-11         0.51223E-20         0.00000E+00
    0.37566E-11        -0.48894E-20         0.00000E+00
    0.37566E-11        -0.10245E-19         0.00000E+00
    0.37566E-11         0.30268E-20         0.00000E+00
    0.37566E-11        -0.39581E-20         0.00000E+00
    0.37566E-11         0.81491E-20         0.00000E+00
    0.37566E-11         0.00000E+00         0.00000E+00
    0.37566E-11        -0.60536E-20         0.00000E+00
    0.37566E-11        -0.41910E-20         0.00000E+00
    0.37566E-11        -0.69849E-20         0.00000E+00
    0.37566E-11        -0.21188E-19         0.00000E+00
    0.37566E-11        -0.48894E-20         0.00000E+00
    0.37566E-11        -0.11642E-19         0.00000E+00
    0.37566E-11        -0.16531E-19         0.00000E+00
    0.37566E-11        -0.51223E-20         0.00000E+00
    0.37566E-11        -0.14668E-19         0.00000E+00
    0.37566E-11        -0.12107E-19         0.00000E+00
    0.37566E-11        -0.20722E-19         0.00000E+00
    0.37566E-11        -0.18161E-19         0.00000E+00
    0.37566E-11        -0.25146E-19         0.00000E+00
    0.37566E-11        -0.24214E-19         0.00000E+00
    0.37566E-11        -0.18161E-19         0.00000E+00
    0.37566E-11        -0.23749E-19         0.00000E+00
    0.37566E-11        -0.21886E-19         0.00000E+00
    0.37566E-11        -0.58208E-20         0.00000E+00
    0.37566E-11        -0.27008E-19         0.00000E+00
    0.37566E-11        -0.12573E-19         0.00000E+00
    0.37566E-11         0.46566E-21         0.00000E+00
    0.37566E-11        -0.88476E-20         0.00000E+00
    0.37566E-11        -0.15367E-19         0.00000E+00
    0.37566E-11        -0.18161E-19         0.00000E+00
    0.37566E-11        -0.10245E-19         0.00000E+00
    0.37566E-11        -0.27707E-19         0.00000E+00
    0.37566E-11        -0.32596E-19         0.00000E+00
    0.37566E-11        -0.23283E-19         0.00000E+00
    0.37566E-11        -0.16531E-19         0.00000E+00
    0.37566E-11        -0.41910E-20         0.00000E+00
    0.37566E-11        -0.46566E-20         0.00000E+00
    0.37566E-11        -0.69849E-20         0.00000E+00
    0.37566E-11        -0.81491E-20         0.00000E+00
    0.37566E-11        -0.13970E-19         0.00000E+00
    0.37566E-11        -0.29104E-19         0.00000E+00
    0.37566E-11        -0.23516E-19         0.00000E+00
    0.37566E-11        -0.22352E-19         0.00000E+00
    0.37566E-11        -0.21188E-19         0.00000E+00
    0.37566E-11        -0.21420E-19         0.00000E+00
    0.37566E-11        -0.11176E-19         0.00000E+00
    0.37566E-11        -0.16298E-20         0.00000E+00
    0.37566E-11        -0.18626E-20         0.00000E+00
    0.37566E-11         0.55879E-20         0.00000E+00
    0.45738E-11        -0.60536E-20         0.00000E+00
    0.45738E-11        -0.39581E-20         0.00000E+00
    0.45738E-11        -0.25611E-20         0.00000E+00
    0.45738E-11        -0.27940E-20         0.00000E+00
    0.45738E-11        -0.23283E-20         0.00000E+00
    0.45738E-11         0.83819E-20         0.00000E+00
    0.45738E-11         0.12573E-19         0.00000E+00
    0.45738E-11         0.69849E-21         0.00000E+00
    0.45738E-11        -0.83819E-20         0.00000E+00
    0.45738E-11        -0.23283E-20         0.00000E+00
    0.45738E-11        -0.74506E-20         0.00000E+00
    0.45738E-11        -0.83819E-20         0.00000E+00
    0.45738E-11        -0.20023E-19         0.00000E+00
    0.45738E-11        -0.15134E-19         0.00000E+00
    0.45738E-11        -0.69849E-20         0.00000E+00
    0.45738E-11        -0.14668E-19         0.00000E+00
    0.45738E-11        -0.83819E-20         0.00000E+00
    0.45738E-11        -0.29802E-19         0.00000E+00
    0.45738E-11        -0.74506E-20         0.00000E+00
    0.45738E-11        -0.90804E-20         0.00000E+00
    0.45738E-11        -0.25146E-19         0.00000E+00
    0.45738E-11        -0.25611E-19         0.00000E+00
    0.45738E-11        -0.21420E-19         0.00000E+00
    0.45738E-11        -0.22585E-19         0.00000E+00
    0.45738E-11        -0.12107E-19         0.00000E+00
    0.45738E-11        -0.41910E-20         0.00000E+00
    0.45738E-11        -0.79162E-20         0.00000E+00
    0.45738E-11        -0.65193E-20         0.00000E+00
    0.45738E-11        -0.18626E-20         0.00000E+00
    0.45738E-11        -0.97789E-20         0.00000E+00
    0.45738E-11        -0.74506E-20         0.00000E+00
    0.45738E-11        -0.65193E-20         0.00000E+00
    0.45738E-11        -0.72177E-20         0.00000E+00
    0.45738E-11        -0.17229E-19         0.00000E+00
    0.45738E-11        -0.10245E-19         0.00000E+00
    0.45738E-11        -0.93132E-20         0.00000E+00
    0.45738E-11        -0.10710E-19         0.00000E+00
    0.45738E-11        -0.32596E-20         0.00000E+00
    0.45738E-11         0.74506E-20         0.00000E+00
    0.45738E-11        -0.32596E-20         0.00000E+00
    0.45738E-11        -0.37253E-20         0.00000E+00
    0.45738E-11        -0.17695E-19         0.00000E+00
    0.45738E-11        -0.14435E-19         0.00000E+00
    0.45738E-11        -0.17229E-19         0.00000E+00
    0.45738E-11        -0.16298E-19         0.00000E+00
    0.45738E-11        -0.62864E-20         0.00000E+00
    0.45738E-11        -0.97789E-20         0.00000E+00
    0.45738E-11        -0.62864E-20         0.00000E+00
    0.45738E-11        -0.11642E-19         0.00000E+00
    0.45738E-11        -0.27940E-20         0.00000E+00
    0.55669E-11        -0.13504E-19         0.00000E+00
    0.55669E-11        -0.41910E-20         0.00000E+00
    0.55669E-11         0.27940E-20         0.00000E+00
    0.55669E-11         0.16298E-20         0.00000E+00
    0.55669E-11         0.10710E-19         0.00000E+00
    0.55669E-11         0.81491E-20         0.00000E+00
    0.55669E-11         0.55879E-20         0.00000E+00
    0.55669E-11        -0.58208E-20         0.00000E+00
    0.55669E-11        -0.79162E-20         0.00000E+00
    0.55669E-11        -0.95461E-20         0.00000E+00
    0.55669E-11        -0.13970E-19         0.00000E+00
    0.55669E-11        -0.11642E-19         0.00000E+00
    0.55669E-11        -0.55879E-20         0.00000E+00
    0.55669E-11        -0.83819E-20         0.00000E+00
    0.55669E-11        -0.10710E-19         0.00000E+00
    0.55669E-11        -0.67521E-20         0.00000E+00
    0.55669E-11        -0.93132E-21         0.00000E+00
    0.55669E-11        -0.13737E-19         0.00000E+00
    0.55669E-11        -0.12340E-19         0.00000E+00
    0.55669E-11        -0.23749E-19         0.00000E+00
    0.55669E-11        -0.22817E-19         0.00000E+00
    0.55669E-11        -0.16298E-19         0.00000E+00
    0.55669E-11        -0.14901E-19         0.00000E+00
    0.55669E-11        -0.22817E-19         0.00000E+00
    0.55669E-11        -0.14901E-19         0.00000E+00
    0.55669E-11        -0.69849E-21         0.00000E+00
    0.55669E-11        -0.41910E-20         0.00000E+00
    0.55669E-11        -0.39581E-20         0.00000E+00
    0.55669E-11        -0.46566E-20         0.00000E+00
    0.55669E-11         0.93132E-21         0.00000E+00
    0.55669E-11        -0.51223E-20         0.00000E+00
    0.55669E-11        -0.60536E-20         0.00000E+00
    0.55669E-11        -0.55879E-20         0.00000E+00
    0.55669E-11        -0.23283E-20         0.00000E+00
    0.55669E-11        -0.55879E-20         0.00000E+00
    0.55669E-11        -0.23283E-20         0.00000E+00
    0.55669E-11         0.88476E-20         0.00000E+00
    0.55669E-11         0.13970E-19         0.00000E+00
    0.55669E-11         0.27940E-20         0.00000E+00
    0.55669E-11         0.93132E-21         0.00000E+00
    0.55669E-11        -0.46566E-21         0.00000E+00
    0.55669E-11        -0.60536E-20         0.00000E+00
    0.55669E-11         0.74506E-20         0.00000E+00
    0.55669E-11        -0.79162E-20         0.00000E+00
    0.55669E-11        -0.14901E-19         0.00000E+00
    0.55669E-11        -0.79162E-20         0.00000E+00
    0.55669E-11        -0.79162E-20         0.00000E+00
    0.55669E-11        -0.23283E-20         0.00000E+00
    0.55669E-11        -0.11176E-19         0.00000E+00
    0.55669E-11         0.00000E+00         0.00000E+00
    0.67732E-11        -0.79162E-20         0.00000E+00
    0.67732E-11        -0.27940E-20         0.00000E+00
    0.67732E-11        -0.13970E-20         0.00000E+00
    0.67732E-11         0.16298E-20         0.00000E+00
    0.67732E-11         0.86147E-20         0.00000E+00
    0.67732E-11         0.41910E-20         0.00000E+00
    0.67732E-11         0.55879E-20         0.00000E+00
    0.67732E-11         0.65193E-20         0.00000E+00
    0.67732E-11        -0.12573E-19         0.00000E+00
    0.67732E-11        -0.25611E-19         0.00000E+00
    0.67732E-11        -0.11642E-19         0.00000E+00
    0.67732E-11        -0.69849E-20         0.00000E+00
    0.67732E-11        -0.51223E-20         0.00000E+00
    0.67732E-11        -0.41910E-20         0.00000E+00
    0.67732E-11        -0.79162E-20         0.00000E+00
    0.67732E-11        -0.16298E-19         0.00000E+00
    0.67732E-11        -0.10710E-19         0.00000E+00
    0.67732E-11        -0.93132E-20         0.00000E+00
    0.67732E-11        -0.97789E-20         0.00000E+00
    0.67732E-11        -0.19092E-19         0.00000E+00
    0.67732E-11        -0.20955E-19         0.00000E+00
    0.67732E-11        -0.23749E-19         0.00000E+00
    0.67732E-11        -0.27474E-19         0.00000E+00
    0.67732E-11        -0.12107E-19         0.00000E+00
    0.67732E-11         0.69849E-21         0.00000E+00
    0.67732E-11        -0.74506E-20         0.00000E+00
    0.67732E-11         0.37253E-20         0.00000E+00
    0.67732E-11        -0.93132E-21         0.00000E+00
    0.67732E-11        -0.79162E-20         0.00000E+00
    0.67732E-11        -0.83819E-20         0.00000E+00
    0.67732E-11        -0.93132E-21         0.00000E+00
    0.67732E-11         0.76834E-20         0.00000E+00
    0.67732E-11         0.10012E-19         0.00000E+00
    0.67732E-11        -0.23283E-20         0.00000E+00
    0.67732E-11        -0.46566E-21         0.00000E+00
    0.67732E-11         0.79162E-20         0.00000E+00
    0.67732E-11         0.11642E-19         0.00000E+00
    0.67732E-11         0.37253E-20         0.00000E+00
    0.67732E-11        -0.93132E-21         0.00000E+00
    0.67732E-11         0.18626E-20         0.00000E+00
    0.67732E-11         0.18626E-20         0.00000E+00
    0.67732E-11        -0.55879E-20         0.00000E+00
    0.67732E-11        -0.18626E-20         0.00000E+00
    0.67732E-11        -0.65193E-20         0.00000E+00
    0.67732E-11        -0.79162E-20         0.00000E+00
    0.67732E-11        -0.37253E-20         0.00000E+00
    0.67732E-11        -0.14901E-19         0.00000E+00
    0.67732E-11        -0.46566E-21         0.00000E+00
    0.67732E-11         0.00000E+00         0.00000E+00
    0.67732E-11         0.32596E-20         0.00000E+00
    0.82380E-11         0.13970E-20         0.00000E+00
    0.82380E-11        -0.39581E-20         0.00000E+00
    0.82380E-11         0.27940E-20         0.00000E+00
    0.82380E-11        -0.46566E-21         0.00000E+00
    0.82380E-11         0.27940E-20         0.00000E+00
    0.82380E-11        -0.60536E-20         0.00000E+00
    0.82380E-11         0.39581E-20         0.00000E+00
    0.82380E-11         0.37253E-20         0.00000E+00
    0.82380E-11        -0.46566E-20         0.00000E+00
    0.82380E-11        -0.13504E-19         0.00000E+00
    0.82380E-11        -0.88476E-20         0.00000E+00
    0.82380E-11        -0.15600E-19         0.00000E+00
    0.82380E-11        -0.10710E-19         0.00000E+00
    0.82380E-11        -0.10245E-19         0.00000E+00
    0.82380E-11        -0.97789E-20         0.00000E+00
    0.82380E-11        -0.95461E-20         0.00000E+00
    0.82380E-11        -0.12806E-19         0.00000E+00
    0.82380E-11        -0.13039E-19         0.00000E+00
    0.82380E-11        -0.10245E-19         0.00000E+00
    0.82380E-11        -0.13271E-19         0.00000E+00
    0.82380E-11        -0.24680E-19         0.00000E+00
    0.82380E-11        -0.21420E-19         0.00000E+00
    0.82380E-11        -0.16764E-19         0.00000E+00
    0.82380E-11        -0.53551E-20         0.00000E+00
    0.82380E-11        -0.93132E-21         0.00000E+00
    0.82380E-11        -0.41910E-20         0.00000E+00
    0.82380E-11         0.51223E-20         0.00000E+00
    0.82380E-11         0.10245E-19         0.00000E+00
    0.82380E-11         0.14435E-19         0.00000E+00
    0.82380E-11         0.00000E+00         0.00000E+00
    0.82380E-11        -0.25611E-20         0.00000E+00
    0.82380E-11         0.97789E-20         0.00000E+00
    0.82380E-11         0.25611E-19         0.00000E+00
    0.82380E-11         0.14203E-19         0.00000E+00
    0.82380E-11         0.55879E-20         0.00000E+00
    0.82380E-11        -0.11642E-20         0.00000E+00
    0.82380E-11        -0.60536E-20         0.00000E+00
    0.82380E-11        -0.12107E-19         0.00000E+00
    0.82380E-11        -0.10012E-19         0.00000E+00
    0.82380E-11        -0.37253E-20         0.00000E+00
    0.82380E-11         0.30268E-20         0.00000E+00
    0.82380E-11        -0.23283E-20         0.00000E+00
    0.82380E-11        -0.11176E-19         0.00000E+00
    0.82380E-11        -0.11409E-19         0.00000E+00
    0.82380E-11        -0.19558E-19         0.00000E+00
    0.82380E-11         0.00000E+00         0.00000E+00
    0.82380E-11        -0.48894E-20         0.00000E+00
    0.82380E-11        -0.46566E-20         0.00000E+00
    0.82380E-11        -0.15367E-19         0.00000E+00
    0.82380E-11        -0.95461E-20         0.00000E+00
    0.10016E-10        -0.88476E-20         0.00000E+00
    0.10016E-10         0.46566E-21         0.00000E+00
    0.10016E-10         0.93132E-20         0.00000E+00
    0.10016E-10         0.69849E-20         0.00000E+00
    0.10016E-10         0.16764E-19         0.00000E+00
    0.10016E-10         0.14435E-19         0.00000E+00
    0.10016E-10        -0.58208E-20         0.00000E+00
    0.10016E-10        -0.14435E-19         0.00000E+00
    0.10016E-10        -0.51223E-20         0.00000E+00
    0.10016E-10        -0.32596E-20         0.00000E+00
    0.10016E-10        -0.93132E-20         0.00000E+00
    0.10016E-10        -0.19558E-19         0.00000E+00
    0.10016E-10        -0.16764E-19         0.00000E+00
    0.10016E-10        -0.17695E-19         0.00000E+00
    0.10016E-10        -0.83819E-20         0.00000E+00
    0.10016E-10        -0.46566E-20         0.00000E+00
    0.10016E-10        -0.48894E-20         0.00000E+00
    0.10016E-10        -0.10245E-19         0.00000E+00
    0.10016E-10        -0.41910E-20         0.00000E+00
    0.10016E-10        -0.21886E-19         0.00000E+00
    0.10016E-10        -0.25611E-19         0.00000E+00
    0.10016E-10        -0.20489E-19         0.00000E+00
    0.10016E-10        -0.97789E-20         0.00000E+00
    0.10016E-10         0.93132E-21         0.00000E+00
    0.10016E-10         0.62864E-20         0.00000E+00
    0.10016E-10         0.13504E-19         0.00000E+00
    0.10016E-10         0.90804E-20         0.00000E+00
    0.10016E-10         0.17462E-19         0.00000E+00
    0.10016E-10         0.97789E-20         0.00000E+00
    0.10016E-10        -0.18626E-20         0.00000E+00
    0.10016E-10         0.51223E-20         0.00000E+00
    0.10016E-10         0.30268E-20         0.00000E+00
    0.10016E-10         0.41910E-20         0.00000E+00
    0.10016E-10         0.69849E-21         0.00000E+00
    0.10016E-10         0.14668E-19         0.00000E+00
    0.10016E-10        -0.51223E-20         0.00000E+00
    0.10016E-10        -0.55879E-20         0.00000E+00
    0.10016E-10        -0.41910E-20         0.00000E+00
    0.10016E-10        -0.88476E-20         0.00000E+00
    0.10016E-10        -0.18394E-19         0.00000E+00
    0.10016E-10        -0.22585E-19         0.00000E+00
    0.10016E-10         0.11642E-20         0.00000E+00
    0.10016E-10        -0.15134E-19         0.00000E+00
    0.10016E-10        -0.16764E-19         0.00000E+00
    0.10016E-10        -0.25146E-19         0.00000E+00
    0.10016E-10        -0.11642E-19         0.00000E+00
    0.10016E-10        -0.46566E-20         0.00000E+00
    0.10016E-10        -0.46566E-21         0.00000E+00
    0.10016E-10        -0.13039E-19         0.00000E+00
    0.10016E-10        -0.58208E-20         0.00000E+00
    0.12173E-10        -0.16298E-20         0.00000E+00
    0.12173E-10         0.86147E-20         0.00000E+00
    0.12173E-10         0.60536E-20         0.00000E+00
    0.12173E-10         0.11642E-20         0.00000E+00
    0.12173E-10         0.11176E-19         0.00000E+00
    0.12173E-10         0.21653E-19         0.00000E+00
    0.12173E-10        -0.41910E-20         0.00000E+00
    0.12173E-10        -0.21420E-19         0.00000E+00
    0.12173E-10        -0.15832E-19         0.00000E+00
    0.12173E-10        -0.90804E-20         0.00000E+00
    0.12173E-10        -0.18626E-20         0.00000E+00
    0.12173E-10        -0.74506E-20         0.00000E+00
    0.12173E-10        -0.10245E-19         0.00000E+00
    0.12173E-10        -0.11642E-19         0.00000E+00
    0.12173E-10        -0.97789E-20         0.00000E+00
    0.12173E-10        -0.21420E-19         0.00000E+00
    0.12173E-10        -0.11176E-19         0.00000E+00
    0.12173E-10        -0.14901E-19         0.00000E+00
    0.12173E-10        -0.41910E-20         0.00000E+00
    0.12173E-10        -0.37253E-20         0.00000E+00
    0.12173E-10        -0.97789E-20         0.00000E+00
    0.12173E-10        -0.19558E-19         0.00000E+00
    0.12173E-10        -0.93132E-20         0.00000E+00
    0.12173E-10         0.18626E-20         0.00000E+00
    0.12173E-10         0.00000E+00         0.00000E+00
    0.12173E-10         0.13737E-19         0.00000E+00
    0.12173E-10         0.18161E-19         0.00000E+00
    0.12173E-10         0.11176E-19         0.00000E+00
    0.12173E-10         0.18626E-20         0.00000E+00
    0.12173E-10        -0.46566E-20         0.00000E+00
    0.12173E-10         0.60536E-20         0.00000E+00
    0.12173E-10         0.34925E-20         0.00000E+00
    0.12173E-10         0.23283E-20         0.00000E+00
    0.12173E-10         0.53551E-20         0.00000E+00
    0.12173E-10         0.27940E-20         0.00000E+00
    0.12173E-10         0.00000E+00         0.00000E+00
    0.12173E-10        -0.14435E-19         0.00000E+00
    0.12173E-10        -0.18161E-19         0.00000E+00
    0.12173E-10        -0.11642E-19         0.00000E+00
    0.12173E-10        -0.28405E-19         0.00000E+00
    0.12173E-10        -0.19558E-19         0.00000E+00
    0.12173E-10        -0.11874E-19         0.00000E+00
    0.12173E-10        -0.18394E-19         0.00000E+00
    0.12173E-10        -0.27241E-19         0.00000E+00
    0.12173E-10        -0.12573E-19         0.00000E+00
    0.12173E-10        -0.23283E-19         0.00000E+00
    0.12173E-10        -0.95461E-20         0.00000E+00
    0.12173E-10        -0.93132E-21         0.00000E+00
    0.12173E-10        -0.46566E-20         0.00000E+00
    0.12173E-10         0.44238E-20         0.00000E+00
    0.14788E-10         0.55879E-20         0.00000E+00
    0.14788E-10        -0.11642E-20         0.00000E+00
    0.14788E-10         0.86147E-20         0.00000E+00
    0.14788E-10         0.27940E-20         0.00000E+00
    0.14788E-10         0.18626E-20         0.00000E+00
    0.14788E-10        -0.18626E-20         0.00000E+00
    0.14788E-10        -0.93132E-20         0.00000E+00
    0.14788E-10        -0.23283E-20         0.00000E+00
    0.14788E-10        -0.14435E-19         0.00000E+00
    0.14788E-10        -0.14901E-19         0.00000E+00
    0.14788E-10         0.46566E-21         0.00000E+00
    0.14788E-10        -0.23283E-20         0.00000E+00
    0.14788E-10        -0.13970E-20         0.00000E+00
    0.14788E-10        -0.13970E-20         0.00000E+00
    0.14788E-10        -0.11642E-19         0.00000E+00
    0.14788E-10        -0.88476E-20         0.00000E+00
    0.14788E-10        -0.69849E-20         0.00000E+00
    0.14788E-10        -0.21420E-19         0.00000E+00
    0.14788E-10        -0.20955E-19         0.00000E+00
    0.14788E-10        -0.27940E-20         0.00000E+00
    0.14788E-10        -0.13970E-20         0.00000E+00
    0.14788E-10         0.46566E-21         0.00000E+00
    0.14788E-10         0.46566E-21         0.00000E+00
    0.14788E-10         0.93132E-21         0.00000E+00
    0.14788E-10         0.00000E+00         0.00000E+00
    0.14788E-10         0.44238E-20         0.00000E+00
    0.14788E-10         0.83819E-20         0.00000E+00
    0.14788E-10         0.55879E-20         0.00000E+00
    0.14788E-10         0.51223E-20         0.00000E+00
    0.14788E-10         0.37253E-20         0.00000E+00
    0.14788E-10        -0.74506E-20         0.00000E+00
    0.14788E-10        -0.83819E-20         0.00000E+00
    0.14788E-10         0.39581E-20         0.00000E+00
    0.14788E-10         0.20955E-19         0.00000E+00
    0.14788E-10         0.69849E-20         0.00000E+00
    0.14788E-10        -0.11642E-19         0.00000E+00
    0.14788E-10        -0.20955E-19         0.00000E+00
    0.14788E-10        -0.16298E-19         0.00000E+00
    0.14788E-10        -0.10710E-19         0.00000E+00
    0.14788E-10        -0.86147E-20         0.00000E+00
    0.14788E-10        -0.60536E-20         0.00000E+00
    0.14788E-10        -0.69849E-20         0.00000E+00
    0.14788E-10        -0.90804E-20         0.00000E+00
    0.14788E-10        -0.18859E-19         0.00000E+00
    0.14788E-10        -0.18859E-19         0.00000E+00
    0.14788E-10        -0.22352E-19         0.00000E+00
    0.14788E-10        -0.13970E-19         0.00000E+00
    0.14788E-10        -0.18394E-19         0.00000E+00
    0.14788E-10        -0.10710E-19         0.00000E+00
    0.14788E-10         0.60536E-20         0.00000E+00
    0.17958E-10         0.74506E-20         0.00000E+00
    0.17958E-10         0.10245E-19         0.00000E+00
    0.17958E-10         0.16298E-20         0.00000E+00
    0.17958E-10         0.18626E-20         0.00000E+00
    0.17958E-10        -0.67521E-20         0.00000E+00
    0.17958E-10        -0.41910E-20         0.00000E+00
    0.17958E-10        -0.18626E-20         0.00000E+00
    0.17958E-10         0.00000E+00         0.00000E+00
    0.17958E-10        -0.13970E-20         0.00000E+00
    0.17958E-10         0.18626E-20         0.00000E+00
    0.17958E-10         0.81491E-20         0.00000E+00
    0.17958E-10         0.25611E-20         0.00000E+00
    0.17958E-10        -0.32596E-20         0.00000E+00
    0.17958E-10         0.93132E-21         0.00000E+00
    0.17958E-10        -0.55879E-20         0.00000E+00
    0.17958E-10        -0.97789E-20         0.00000E+00
    0.17958E-10        -0.12573E-19         0.00000E+00
    0.17958E-10        -0.16298E-19         0.00000E+00
    0.17958E-10        -0.17695E-19         0.00000E+00
    0.17958E-10        -0.17695E-19         0.00000E+00
    0.17958E-10        -0.10245E-19         0.00000E+00
    0.17958E-10        -0.51223E-20         0.00000E+00
    0.17958E-10        -0.93132E-21         0.00000E+00
    0.17958E-10         0.30268E-20         0.00000E+00
    0.17958E-10         0.88476E-20         0.00000E+00
    0.17958E-10         0.11642E-20         0.00000E+00
    0.17958E-10         0.16298E-20         0.00000E+00
    0.17958E-10         0.27940E-20         0.00000E+00
    0.17958E-10         0.83819E-20         0.00000E+00
    0.17958E-10         0.16298E-19         0.00000E+00
    0.17958E-10         0.65193E-20         0.00000E+00
    0.17958E-10        -0.69849E-20         0.00000E+00
    0.17958E-10        -0.11176E-19         0.00000E+00
    0.17958E-10         0.51223E-20         0.00000E+00
    0.17958E-10         0.11874E-19         0.00000E+00
    0.17958E-10        -0.23283E-20         0.00000E+00
    0.17958E-10        -0.16298E-20         0.00000E+00
    0.17958E-10         0.46566E-20         0.00000E+00
    0.17958E-10        -0.11642E-19         0.00000E+00
    0.17958E-10         0.18626E-20         0.00000E+00
    0.17958E-10        -0.10245E-19         0.00000E+00
    0.17958E-10         0.30268E-20         0.00000E+00
    0.17958E-10        -0.65193E-20         0.00000E+00
    0.17958E-10        -0.37253E-20         0.00000E+00
    0.17958E-10        -0.16764E-19         0.00000E+00
    0.17958E-10        -0.13970E-19         0.00000E+00
    0.17958E-10        -0.88476E-20         0.00000E+00
    0.17958E-10        -0.51223E-20         0.00000E+00
    0.17958E-10        -0.74506E-20         0.00000E+00
    0.17958E-10        -0.53551E-20         0.00000E+00
    0.21799E-10         0.41910E-20         0.00000E+00
    0.21799E-10         0.11176E-19         0.00000E+00
    0.21799E-10         0.46566E-20         0.00000E+00
    0.21799E-10         0.27940E-20         0.00000E+00
    0.21799E-10        -0.93132E-21         0.00000E+00
    0.21799E-10         0.21188E-19         0.00000E+00
    0.21799E-10         0.19092E-19         0.00000E+00
    0.21799E-10         0.00000E+00         0.00000E+00
    0.21799E-10         0.51223E-20         0.00000E+00
    0.21799E-10         0.79162E-20         0.00000E+00
    0.21799E-10         0.10943E-19         0.00000E+00
    0.21799E-10        -0.37253E-20         0.00000E+00
    0.21799E-10        -0.11409E-19         0.00000E+00
    0.21799E-10        -0.51223E-20         0.00000E+00
    0.21799E-10        -0.86147E-20         0.00000E+00
    0.21799E-10        -0.19791E-19         0.00000E+00
    0.21799E-10        -0.15600E-19         0.00000E+00
    0.21799E-10        -0.88476E-20         0.00000E+00
    0.21799E-10        -0.12107E-19         0.00000E+00
    0.21799E-10        -0.12573E-19         0.00000E+00
    0.21799E-10        -0.88476E-20         0.00000E+00
    0.21799E-10        -0.97789E-20         0.00000E+00
    0.21799E-10        -0.12573E-19         0.00000E+00
    0.21799E-10        -0.55879E-20         0.00000E+00
    0.21799E-10        -0.11176E-19         0.00000E+00
    0.21799E-10         0.00000E+00         0.00000E+00
    0.21799E-10         0.27940E-20         0.00000E+00
    0.21799E-10        -0.13970E-20         0.00000E+00
    0.21799E-10         0.23283E-20         0.00000E+00
    0.21799E-10         0.97789E-20         0.00000E+00
    0.21799E-10         0.74506E-20         0.00000E+00
    0.21799E-10         0.46566E-20         0.00000E+00
    0.21799E-10         0.46566E-20         0.00000E+00
    0.21799E-10         0.10245E-19         0.00000E+00
    0.21799E-10         0.12107E-19         0.00000E+00
    0.21799E-10         0.34925E-20         0.00000E+00
    0.21799E-10         0.53551E-20         0.00000E+00
    0.21799E-10         0.62864E-20         0.00000E+00
    0.21799E-10         0.46566E-20         0.00000E+00
    0.21799E-10         0.00000E+00         0.00000E+00
    0.21799E-10        -0.53551E-20         0.00000E+00
    0.21799E-10         0.53551E-20         0.00000E+00
    0.21799E-10        -0.25611E-20         0.00000E+00
    0.21799E-10        -0.13970E-20         0.00000E+00
    0.21799E-10        -0.18626E-20         0.00000E+00
    0.21799E-10         0.93132E-21         0.00000E+00
    0.21799E-10         0.10245E-19         0.00000E+00
    0.21799E-10         0.81491E-20         0.00000E+00
    0.21799E-10        -0.34925E-20         0.00000E+00
    0.21799E-10        -0.62864E-20         0.00000E+00
    0.26450E-10        -0.13970E-20         0.00000E+00
    0.26450E-10         0.65193E-20         0.00000E+00
    0.26450E-10         0.32596E-20         0.00000E+00
    0.26450E-10         0.37253E-20         0.00000E+00
    0.26450E-10         0.74506E-20         0.00000E+00
    0.26450E-10         0.33062E-19         0.00000E+00
    0.26450E-10         0.16298E-19         0.00000E+00
    0.26450E-10         0.11642E-19         0.00000E+00
    0.26450E-10         0.79162E-20         0.00000E+00
    0.26450E-10         0.10245E-19         0.00000E+00
    0.26450E-10        -0.13970E-20         0.00000E+00
    0.26450E-10        -0.46566E-21         0.00000E+00
    0.26450E-10         0.88476E-20         0.00000E+00
    0.26450E-10        -0.37253E-20         0.00000E+00
    0.26450E-10        -0.16764E-19         0.00000E+00
    0.26450E-10        -0.23283E-20         0.00000E+00
    0.26450E-10        -0.46566E-20         0.00000E+00
    0.26450E-10        -0.19558E-19         0.00000E+00
    0.26450E-10        -0.21420E-19         0.00000E+00
    0.26450E-10        -0.11642E-19         0.00000E+00
    0.26450E-10        -0.83819E-20         0.00000E+00
    0.26450E-10        -0.25611E-19         0.00000E+00
    0.26450E-10        -0.16997E-19         0.00000E+00
    0.26450E-10        -0.14203E-19         0.00000E+00
    0.26450E-10        -0.18626E-19         0.00000E+00
    0.26450E-10        -0.15134E-19         0.00000E+00
    0.26450E-10        -0.69849E-20         0.00000E+00
    0.26450E-10        -0.60536E-20         0.00000E+00
    0.26450E-10         0.30268E-20         0.00000E+00
    0.26450E-10         0.12573E-19         0.00000E+00
    0.26450E-10         0.95461E-20         0.00000E+00
    0.26450E-10         0.19558E-19         0.00000E+00
    0.26450E-10         0.28405E-19         0.00000E+00
    0.26450E-10         0.20023E-19         0.00000E+00
    0.26450E-10         0.51223E-20         0.00000E+00
    0.26450E-10        -0.32596E-20         0.00000E+00
    0.26450E-10        -0.46566E-21         0.00000E+00
    0.26450E-10        -0.27940E-20         0.00000E+00
    0.26450E-10         0.90804E-20         0.00000E+00
    0.26450E-10        -0.46566E-21         0.00000E+00
    0.26450E-10         0.65193E-20         0.00000E+00
    0.26450E-10         0.93132E-21         0.00000E+00
    0.26450E-10         0.93132E-21         0.00000E+00
    0.26450E-10         0.18626E-20         0.00000E+00
    0.26450E-10         0.17695E-19         0.00000E+00
    0.26450E-10         0.60536E-20         0.00000E+00
    0.26450E-10         0.58208E-20         0.00000E+00
    0.26450E-10         0.74506E-20         0.00000E+00
    0.26450E-10         0.79162E-20         0.00000E+00
    0.26450E-10        -0.93132E-21         0.00000E+00
    0.32079E-10        -0.46566E-21         0.00000E+00
    0.32079E-10         0.30268E-20         0.00000E+00
    0.32079E-10         0.41910E-20         0.00000E+00
    0.32079E-10         0.11874E-19         0.00000E+00
    0.32079E-10         0.69849E-20         0.00000E+00
    0.32079E-10         0.10012E-19         0.00000E+00
    0.32079E-10         0.13271E-19         0.00000E+00
    0.32079E-10         0.14668E-19         0.00000E+00
    0.32079E-10         0.16764E-19         0.00000E+00
    0.32079E-10         0.18161E-19         0.00000E+00
    0.32079E-10         0.83819E-20         0.00000E+00
    0.32079E-10         0.27940E-20         0.00000E+00
    0.32079E-10         0.16764E-19         0.00000E+00
    0.32079E-10        -0.23283E-20         0.00000E+00
    0.32079E-10        -0.17462E-19         0.00000E+00
    0.32079E-10        -0.13504E-19         0.00000E+00
    0.32079E-10        -0.65193E-20         0.00000E+00
    0.32079E-10        -0.13970E-19         0.00000E+00
    0.32079E-10        -0.93132E-21         0.00000E+00
    0.32079E-10        -0.13039E-19         0.00000E+00
    0.32079E-10        -0.16764E-19         0.00000E+00
    0.32079E-10        -0.18626E-19         0.00000E+00
    0.32079E-10        -0.16764E-19         0.00000E+00
    0.32079E-10        -0.12573E-19         0.00000E+00
    0.32079E-10        -0.21420E-19         0.00000E+00
    0.32079E-10        -0.13271E-19         0.00000E+00
    0.32079E-10        -0.44238E-20         0.00000E+00
    0.32079E-10        -0.13504E-19         0.00000E+00
    0.32079E-10        -0.27940E-20         0.00000E+00
    0.32079E-10         0.10245E-19         0.00000E+00
    0.32079E-10         0.13039E-19         0.00000E+00
    0.32079E-10         0.11642E-19         0.00000E+00
    0.32079E-10         0.10245E-19         0.00000E+00
    0.32079E-10         0.14901E-19         0.00000E+00
    0.32079E-10         0.11874E-19         0.00000E+00
    0.32079E-10         0.90804E-20         0.00000E+00
    0.32079E-10        -0.41910E-20         0.00000E+00
    0.32079E-10        -0.41910E-20         0.00000E+00
    0.32079E-10         0.48894E-20         0.00000E+00
    0.32079E-10         0.69849E-21         0.00000E+00
    0.32079E-10         0.46566E-20         0.00000E+00
    0.32079E-10         0.20955E-20         0.00000E+00
    0.32079E-10         0.12806E-19         0.00000E+00
    0.32079E-10         0.97789E-20         0.00000E+00
    0.32079E-10         0.65193E-20         0.00000E+00
    0.32079E-10         0.93132E-21         0.00000E+00
    0.32079E-10         0.88476E-20         0.00000E+00
    0.32079E-10         0.12107E-19         0.00000E+00
    0.32079E-10         0.11409E-19         0.00000E+00
    0.32079E-10         0.11642E-20         0.00000E+00
    0.38889E-10        -0.23283E-20         0.00000E+00
    0.38889E-10        -0.93132E-20         0.00000E+00
    0.38889E-10        -0.46566E-21         0.00000E+00
    0.38889E-10         0.27940E-20         0.00000E+00
    0.38889E-10         0.15832E-19         0.00000E+00
    0.38889E-10        -0.41910E-20         0.00000E+00
    0.38889E-10        -0.23283E-21         0.00000E+00
    0.38889E-10         0.65193E-20         0.00000E+00
    0.38889E-10         0.19092E-19         0.00000E+00
    0.38889E-10         0.74506E-20         0.00000E+00
    0.38889E-10         0.69849E-20         0.00000E+00
    0.38889E-10         0.55879E-20         0.00000E+00
    0.38889E-10         0.00000E+00         0.00000E+00
    0.38889E-10        -0.27940E-20         0.00000E+00
    0.38889E-10        -0.32596E-20         0.00000E+00
    0.38889E-10        -0.93132E-21         0.00000E+00
    0.38889E-10         0.11642E-20         0.00000E+00
    0.38889E-10         0.60536E-20         0.00000E+00
    0.38889E-10         0.10710E-19         0.00000E+00
    0.38889E-10         0.13970E-20         0.00000E+00
    0.38889E-10         0.32596E-20         0.00000E+00
    0.38889E-10        -0.69849E-20         0.00000E+00
    0.38889E-10        -0.97789E-20         0.00000E+00
    0.38889E-10        -0.86147E-20         0.00000E+00
    0.38889E-10        -0.13737E-19         0.00000E+00
    0.38889E-10         0.00000E+00         0.00000E+00
    0.38889E-10        -0.51223E-20         0.00000E+00
    0.38889E-10        -0.18626E-20         0.00000E+00
    0.38889E-10        -0.60536E-20         0.00000E+00
    0.38889E-10        -0.12573E-19         0.00000E+00
    0.38889E-10        -0.90804E-20         0.00000E+00
    0.38889E-10        -0.27940E-20         0.00000E+00
    0.38889E-10         0.32596E-20         0.00000E+00
    0.38889E-10         0.14901E-19         0.00000E+00
    0.38889E-10         0.26077E-19         0.00000E+00
    0.38889E-10         0.17928E-19         0.00000E+00
    0.38889E-10         0.23283E-20         0.00000E+00
    0.38889E-10         0.23283E-20         0.00000E+00
    0.38889E-10         0.11409E-19         0.00000E+00
    0.38889E-10        -0.13970E-20         0.00000E+00
    0.38889E-10         0.41910E-20         0.00000E+00
    0.38889E-10         0.10943E-19         0.00000E+00
    0.38889E-10         0.30268E-20         0.00000E+00
    0.38889E-10         0.11642E-19         0.00000E+00
    0.38889E-10         0.48894E-20         0.00000E+00
    0.38889E-10         0.74506E-20         0.00000E+00
    0.38889E-10         0.76834E-20         0.00000E+00
    0.38889E-10         0.32596E-20         0.00000E+00
    0.38889E-10         0.39581E-20         0.00000E+00
    0.38889E-10         0.81491E-20         0.00000E+00
    0.47122E-10         0.00000E+00         0.00000E+00
    0.47122E-10        -0.23283E-20         0.00000E+00
    0.47122E-10        -0.10943E-19         0.00000E+00
    0.47122E-10        -0.18626E-19         0.00000E+00
    0.47122E-10        -0.10012E-19         0.00000E+00
    0.47122E-10        -0.27940E-20         0.00000E+00
    0.47122E-10        -0.97789E-20         0.00000E+00
    0.47122E-10         0.18626E-20         0.00000E+00
    0.47122E-10         0.13970E-20         0.00000E+00
    0.47122E-10         0.00000E+00         0.00000E+00
    0.47122E-10        -0.13970E-20         0.00000E+00
    0.47122E-10         0.93132E-21         0.00000E+00
    0.47122E-10         0.37253E-20         0.00000E+00
    0.47122E-10         0.11642E-20         0.00000E+00
    0.47122E-10         0.11409E-19         0.00000E+00
    0.47122E-10         0.12573E-19         0.00000E+00
    0.47122E-10         0.21886E-19         0.00000E+00
    0.47122E-10         0.25611E-19         0.00000E+00
    0.47122E-10         0.10710E-19         0.00000E+00
    0.47122E-10         0.14901E-19         0.00000E+00
    0.47122E-10        -0.23283E-20         0.00000E+00
    0.47122E-10        -0.74506E-20         0.00000E+00
    0.47122E-10        -0.93132E-21         0.00000E+00
    0.47122E-10        -0.12107E-19         0.00000E+00
    0.47122E-10         0.93132E-21         0.00000E+00
    0.47122E-10        -0.25611E-20         0.00000E+00
    0.47122E-10        -0.65193E-20         0.00000E+00
    0.47122E-10        -0.51223E-20         0.00000E+00
    0.47122E-10        -0.41910E-20         0.00000E+00
    0.47122E-10        -0.11642E-20         0.00000E+00
    0.47122E-10        -0.46566E-20         0.00000E+00
    0.47122E-10         0.37253E-20         0.00000E+00
    0.47122E-10         0.20489E-19         0.00000E+00
    0.47122E-10         0.17928E-19         0.00000E+00
    0.47122E-10         0.97789E-20         0.00000E+00
    0.47122E-10         0.19092E-19         0.00000E+00
    0.47122E-10         0.18161E-19         0.00000E+00
    0.47122E-10         0.93132E-21         0.00000E+00
    0.47122E-10         0.58208E-20         0.00000E+00
    0.47122E-10         0.86147E-20         0.00000E+00
    0.47122E-10         0.17229E-19         0.00000E+00
    0.47122E-10         0.16764E-19         0.00000E+00
    0.47122E-10        -0.25611E-20         0.00000E+00
    0.47122E-10        -0.79162E-20         0.00000E+00
    0.47122E-10         0.23283E-21         0.00000E+00
    0.47122E-10         0.46566E-20         0.00000E+00
    0.47122E-10        -0.65193E-20         0.00000E+00
    0.47122E-10         0.00000E+00         0.00000E+00
    0.47122E-10        -0.30268E-20         0.00000E+00
    0.47122E-10        -0.93132E-21         0.00000E+00
    0.57071E-10         0.46566E-20         0.00000E+00
    0.57071E-10        -0.69849E-20         0.00000E+00
    0.57071E-10        -0.72177E-20         0.00000E+00
    0.57071E-10        -0.13970E-19         0.00000E+00
    0.57071E-10        -0.25844E-19         0.00000E+00
    0.57071E-10        -0.19092E-19         0.00000E+00
    0.57071E-10        -0.13970E-19         0.00000E+00
    0.57071E-10        -0.15134E-19         0.00000E+00
    0.57071E-10        -0.16298E-20         0.00000E+00
    0.57071E-10        -0.27940E-20         0.00000E+00
    0.57071E-10         0.46566E-20         0.00000E+00
    0.57071E-10         0.97789E-20         0.00000E+00
    0.57071E-10         0.23283E-21         0.00000E+00
    0.57071E-10         0.37253E-20         0.00000E+00
    0.57071E-10         0.15367E-19         0.00000E+00
    0.57071E-10         0.74506E-20         0.00000E+00
    0.57071E-10         0.13970E-19         0.00000E+00
    0.57071E-10         0.19092E-19         0.00000E+00
    0.57071E-10         0.22352E-19         0.00000E+00
    0.57071E-10         0.30268E-20         0.00000E+00
    0.57071E-10        -0.20489E-19         0.00000E+00
    0.57071E-10         0.46566E-21         0.00000E+00
    0.57071E-10         0.11642E-19         0.00000E+00
    0.57071E-10        -0.27940E-20         0.00000E+00
    0.57071E-10        -0.18626E-20         0.00000E+00
    0.57071E-10         0.16298E-20         0.00000E+00
    0.57071E-10         0.41910E-20         0.00000E+00
    0.57071E-10        -0.27940E-20         0.00000E+00
    0.57071E-10         0.10710E-19         0.00000E+00
    0.57071E-10         0.69849E-20         0.00000E+00
    0.57071E-10         0.81491E-20         0.00000E+00
    0.57071E-10         0.95461E-20         0.00000E+00
    0.57071E-10         0.21420E-19         0.00000E+00
    0.57071E-10         0.23283E-19         0.00000E+00
    0.57071E-10         0.19325E-19         0.00000E+00
    0.57071E-10         0.16997E-19         0.00000E+00
    0.57071E-10         0.19092E-19         0.00000E+00
    0.57071E-10         0.97789E-20         0.00000E+00
    0.57071E-10         0.60536E-20         0.00000E+00
    0.57071E-10         0.13039E-19         0.00000E+00
    0.57071E-10         0.11409E-19         0.00000E+00
    0.57071E-10         0.74506E-20         0.00000E+00
    0.57071E-10        -0.72177E-20         0.00000E+00
    0.57071E-10        -0.41910E-20         0.00000E+00
    0.57071E-10        -0.16764E-19         0.00000E+00
    0.57071E-10        -0.86147E-20         0.00000E+00
    0.57071E-10        -0.60536E-20         0.00000E+00
    0.57071E-10         0.23283E-20         0.00000E+00
    0.57071E-10        -0.27940E-20         0.00000E+00
    0.57071E-10        -0.41910E-20         0.00000E+00
    0.69086E-10         0.13970E-20         0.00000E+00
    0.69086E-10        -0.65193E-20         0.00000E+00
    0.69086E-10         0.32596E-20         0.00000E+00
    0.69086E-10        -0.41910E-20         0.00000E+00
    0.69086E-10        -0.46566E-20         0.00000E+00
    0.69086E-10        -0.18626E-20         0.00000E+00
    0.69086E-10        -0.74506E-20         0.00000E+00
    0.69086E-10        -0.16764E-19         0.00000E+00
    0.69086E-10        -0.10012E-19         0.00000E+00
    0.69086E-10        -0.16298E-19         0.00000E+00
    0.69086E-10         0.93132E-20         0.00000E+00
    0.69086E-10         0.13970E-20         0.00000E+00
    0.69086E-10        -0.34925E-20         0.00000E+00
    0.69086E-10        -0.39581E-20         0.00000E+00
    0.69086E-10         0.51223E-20         0.00000E+00
    0.69086E-10         0.17462E-19         0.00000E+00
    0.69086E-10        -0.13970E-20         0.00000E+00
    0.69086E-10         0.13970E-20         0.00000E+00
    0.69086E-10         0.12340E-19         0.00000E+00
    0.69086E-10         0.81491E-20         0.00000E+00
    0.69086E-10         0.93132E-20         0.00000E+00
    0.69086E-10        -0.51223E-20         0.00000E+00
    0.69086E-10         0.90804E-20         0.00000E+00
    0.69086E-10        -0.18626E-20         0.00000E+00
    0.69086E-10        -0.76834E-20         0.00000E+00
    0.69086E-10         0.23283E-21         0.00000E+00
    0.69086E-10         0.12573E-19         0.00000E+00
    0.69086E-10         0.76834E-20         0.00000E+00
    0.69086E-10         0.15600E-19         0.00000E+00
    0.69086E-10         0.17462E-19         0.00000E+00
    0.69086E-10         0.13504E-19         0.00000E+00
    0.69086E-10         0.20489E-19         0.00000E+00
    0.69086E-10         0.28871E-19         0.00000E+00
    0.69086E-10         0.22585E-19         0.00000E+00
    0.69086E-10         0.24680E-19         0.00000E+00
    0.69086E-10         0.20489E-19         0.00000E+00
    0.69086E-10         0.14203E-19         0.00000E+00
    0.69086E-10         0.18626E-19         0.00000E+00
    0.69086E-10         0.13039E-19         0.00000E+00
    0.69086E-10         0.46566E-20         0.00000E+00
    0.69086E-10         0.83819E-20         0.00000E+00
    0.69086E-10        -0.41910E-20         0.00000E+00
    0.69086E-10        -0.93132E-21         0.00000E+00
    0.69086E-10        -0.93132E-21         0.00000E+00
    0.69086E-10        -0.11176E-19         0.00000E+00
    0.69086E-10        -0.13970E-19         0.00000E+00
    0.69086E-10        -0.11176E-19         0.00000E+00
    0.69086E-10        -0.32596E-20         0.00000E+00
    0.69086E-10        -0.16298E-20         0.00000E+00
    0.69086E-10         0.30268E-20         0.00000E+00
    0.83588E-10         0.39581E-20         0.00000E+00
    0.83588E-10         0.18626E-19         0.00000E+00
    0.83588E-10         0.53551E-20         0.00000E+00
    0.83588E-10         0.62864E-20         0.00000E+00
    0.83588E-10         0.69849E-21         0.00000E+00
    0.83588E-10         0.53551E-20         0.00000E+00
    0.83588E-10         0.79162E-20         0.00000E+00
    0.83588E-10         0.37253E-20         0.00000E+00
    0.83588E-10        -0.16298E-20         0.00000E+00
    0.83588E-10        -0.69849E-21         0.00000E+00
    0.83588E-10        -0.51223E-20         0.00000E+00
    0.83588E-10        -0.74506E-20         0.00000E+00
    0.83588E-10        -0.93132E-20         0.00000E+00
    0.83588E-10        -0.97789E-20         0.00000E+00
    0.83588E-10         0.18626E-20         0.00000E+00
    0.83588E-10        -0.34925E-20         0.00000E+00
    0.83588E-10        -0.34925E-20         0.00000E+00
    0.83588E-10        -0.27940E-20         0.00000E+00
    0.83588E-10         0.00000E+00         0.00000E+00
    0.83588E-10         0.46566E-20         0.00000E+00
    0.83588E-10         0.13970E-20         0.00000E+00
    0.83588E-10        -0.46566E-20         0.00000E+00
    0.83588E-10         0.51223E-20         0.00000E+00
    0.83588E-10        -0.79162E-20         0.00000E+00
    0.83588E-10        -0.30268E-20         0.00000E+00
    0.83588E-10        -0.37253E-20         0.00000E+00
    0.83588E-10         0.79162E-20         0.00000E+00
    0.83588E-10         0.15367E-19         0.00000E+00
    0.83588E-10         0.18626E-19         0.00000E+00
    0.83588E-10         0.27241E-19         0.00000E+00
    0.83588E-10         0.34226E-19         0.00000E+00
    0.83588E-10         0.28405E-19         0.00000E+00
    0.83588E-10         0.24913E-19         0.00000E+00
    0.83588E-10         0.23516E-19         0.00000E+00
    0.83588E-10         0.19325E-19         0.00000E+00
    0.83588E-10         0.20489E-19         0.00000E+00
    0.83588E-10         0.20955E-19         0.00000E+00
    0.83588E-10         0.30501E-19         0.00000E+00
    0.83588E-10         0.17229E-19         0.00000E+00
    0.83588E-10         0.11409E-19         0.00000E+00
    0.83588E-10         0.79162E-20         0.00000E+00
    0.83588E-10         0.25611E-20         0.00000E+00
    0.83588E-10         0.83819E-20         0.00000E+00
    0.83588E-10        -0.18626E-20         0.00000E+00
    0.83588E-10         0.10245E-19         0.00000E+00
    0.83588E-10        -0.16298E-20         0.00000E+00
    0.83588E-10        -0.95461E-20         0.00000E+00
    0.83588E-10        -0.13504E-19         0.00000E+00
    0.83588E-10        -0.46566E-20         0.00000E+00
    0.83588E-10        -0.55879E-20         0.00000E+00
    0.10108E-09         0.51223E-20         0.00000E+00
    0.10108E-09         0.60536E-20         0.00000E+00
    0.10108E-09         0.65193E-20         0.00000E+00
    0.10108E-09         0.14435E-19         0.00000E+00
    0.10108E-09         0.69849E-20         0.00000E+00
    0.10108E-09         0.20955E-20         0.00000E+00
    0.10108E-09         0.10710E-19         0.00000E+00
    0.10108E-09         0.69849E-20         0.00000E+00
    0.10108E-09         0.14668E-19         0.00000E+00
    0.10108E-09         0.11409E-19         0.00000E+00
    0.10108E-09        -0.11642E-19         0.00000E+00
    0.10108E-09        -0.11642E-19         0.00000E+00
    0.10108E-09        -0.22352E-19         0.00000E+00
    0.10108E-09        -0.23283E-20         0.00000E+00
    0.10108E-09         0.44238E-20         0.00000E+00
    0.10108E-09        -0.83819E-20         0.00000E+00
    0.10108E-09        -0.97789E-20         0.00000E+00
    0.10108E-09        -0.65193E-20         0.00000E+00
    0.10108E-09        -0.18626E-20         0.00000E+00
    0.10108E-09        -0.32596E-20         0.00000E+00
    0.10108E-09        -0.13737E-19         0.00000E+00
    0.10108E-09        -0.11176E-19         0.00000E+00
    0.10108E-09        -0.51223E-20         0.00000E+00
    0.10108E-09        -0.46566E-20         0.00000E+00
    0.10108E-09        -0.83819E-20         0.00000E+00
    0.10108E-09         0.30268E-20         0.00000E+00
    0.10108E-09         0.62864E-20         0.00000E+00
    0.10108E-09         0.24214E-19         0.00000E+00
    0.10108E-09         0.18161E-19         0.00000E+00
    0.10108E-09         0.27474E-19         0.00000E+00
    0.10108E-09         0.33062E-19         0.00000E+00
    0.10108E-09         0.35856E-19         0.00000E+00
    0.10108E-09         0.26776E-19         0.00000E+00
    0.10108E-09         0.29802E-19         0.00000E+00
    0.10108E-09         0.19558E-19         0.00000E+00
    0.10108E-09         0.76834E-20         0.00000E+00
    0.10108E-09         0.97789E-20         0.00000E+00
    0.10108E-09         0.13737E-19         0.00000E+00
    0.10108E-09         0.14668E-19         0.00000E+00
    0.10108E-09         0.16997E-19         0.00000E+00
    0.10108E-09         0.81491E-20         0.00000E+00
    0.10108E-09         0.11642E-20         0.00000E+00
    0.10108E-09        -0.34925E-20         0.00000E+00
    0.10108E-09         0.69849E-20         0.00000E+00
    0.10108E-09         0.95461E-20         0.00000E+00
    0.10108E-09         0.10943E-19         0.00000E+00
    0.10108E-09         0.69849E-20         0.00000E+00
    0.10108E-09         0.37253E-20         0.00000E+00
    0.10108E-09         0.12107E-19         0.00000E+00
    0.10108E-09         0.32596E-20         0.00000E+00
    0.12217E-09        -0.13970E-20         0.00000E+00
    0.12217E-09         0.30268E-20         0.00000E+00
    0.12217E-09         0.11642E-20         0.00000E+00
    0.12217E-09         0.32596E-20         0.00000E+00
    0.12217E-09         0.10012E-19         0.00000E+00
    0.12217E-09         0.15367E-19         0.00000E+00
    0.12217E-09         0.88476E-20         0.00000E+00
    0.12217E-09        -0.34925E-20         0.00000E+00
    0.12217E-09        -0.13970E-20         0.00000E+00
    0.12217E-09         0.46566E-21         0.00000E+00
    0.12217E-09         0.00000E+00         0.00000E+00
    0.12217E-09        -0.83819E-20         0.00000E+00
    0.12217E-09        -0.21886E-19         0.00000E+00
    0.12217E-09        -0.90804E-20         0.00000E+00
    0.12217E-09         0.27940E-20         0.00000E+00
    0.12217E-09        -0.32596E-20         0.00000E+00
    0.12217E-09        -0.10245E-19         0.00000E+00
    0.12217E-09        -0.17229E-19         0.00000E+00
    0.12217E-09        -0.25611E-19         0.00000E+00
    0.12217E-09        -0.55879E-20         0.00000E+00
    0.12217E-09        -0.58208E-20         0.00000E+00
    0.12217E-09        -0.17229E-19         0.00000E+00
    0.12217E-09        -0.15134E-19         0.00000E+00
    0.12217E-09        -0.14901E-19         0.00000E+00
    0.12217E-09        -0.37253E-20         0.00000E+00
    0.12217E-09         0.69849E-21         0.00000E+00
    0.12217E-09         0.10245E-19         0.00000E+00
    0.12217E-09         0.19325E-19         0.00000E+00
    0.12217E-09         0.21886E-19         0.00000E+00
    0.12217E-09         0.25611E-19         0.00000E+00
    0.12217E-09         0.23982E-19         0.00000E+00
    0.12217E-09         0.31665E-19         0.00000E+00
    0.12217E-09         0.24214E-19         0.00000E+00
    0.12217E-09         0.14901E-19         0.00000E+00
    0.12217E-09         0.74506E-20         0.00000E+00
    0.12217E-09         0.44238E-20         0.00000E+00
    0.12217E-09         0.27940E-20         0.00000E+00
    0.12217E-09         0.13504E-19         0.00000E+00
    0.12217E-09         0.19092E-19         0.00000E+00
    0.12217E-09         0.19092E-19         0.00000E+00
    0.12217E-09         0.19558E-19         0.00000E+00
    0.12217E-09         0.39581E-20         0.00000E+00
    0.12217E-09         0.41910E-20         0.00000E+00
    0.12217E-09         0.69849E-20         0.00000E+00
    0.12217E-09        -0.53551E-20         0.00000E+00
    0.12217E-09        -0.69849E-21         0.00000E+00
    0.12217E-09         0.74506E-20         0.00000E+00
    0.12217E-09         0.15600E-19         0.00000E+00
    0.12217E-09         0.13970E-19         0.00000E+00
    0.12217E-09         0.46566E-20         0.00000E+00
    0.14757E-09        -0.23283E-20         0.00000E+00
    0.14757E-09         0.34925E-20         0.00000E+00
    0.14757E-09        -0.13970E-20         0.00000E+00
    0.14757E-09        -0.65193E-20         0.00000E+00
    0.14757E-09         0.46566E-21         0.00000E+00
    0.14757E-09        -0.25611E-20         0.00000E+00
    0.14757E-09         0.16298E-20         0.00000E+00
    0.14757E-09        -0.11409E-19         0.00000E+00
    0.14757E-09        -0.69849E-20         0.00000E+00
    0.14757E-09        -0.79162E-20         0.00000E+00
    0.14757E-09        -0.83819E-20         0.00000E+00
    0.14757E-09        -0.46566E-20         0.00000E+00
    0.14757E-09        -0.14435E-19         0.00000E+00
    0.14757E-09        -0.16298E-20         0.00000E+00
    0.14757E-09         0.93132E-20         0.00000E+00
    0.14757E-09         0.10710E-19         0.00000E+00
    0.14757E-09         0.23283E-20         0.00000E+00
    0.14757E-09        -0.16764E-19         0.00000E+00
    0.14757E-09        -0.14435E-19         0.00000E+00
    0.14757E-09        -0.16764E-19         0.00000E+00
    0.14757E-09        -0.13271E-19         0.00000E+00
    0.14757E-09        -0.18626E-19         0.00000E+00
    0.14757E-09        -0.11642E-19         0.00000E+00
    0.14757E-09        -0.17928E-19         0.00000E+00
    0.14757E-09        -0.65193E-20         0.00000E+00
    0.14757E-09        -0.79162E-20         0.00000E+00
    0.14757E-09         0.55879E-20         0.00000E+00
    0.14757E-09         0.14435E-19         0.00000E+00
    0.14757E-09         0.21188E-19         0.00000E+00
    0.14757E-09         0.11176E-19         0.00000E+00
    0.14757E-09         0.93132E-20         0.00000E+00
    0.14757E-09         0.55879E-20         0.00000E+00
    0.14757E-09         0.16065E-19         0.00000E+00
    0.14757E-09         0.12573E-19         0.00000E+00
    0.14757E-09         0.79162E-20         0.00000E+00
    0.14757E-09         0.46566E-21         0.00000E+00
    0.14757E-09         0.13970E-20         0.00000E+00
    0.14757E-09         0.22119E-19         0.00000E+00
    0.14757E-09         0.13271E-19         0.00000E+00
    0.14757E-09         0.18859E-19         0.00000E+00
    0.14757E-09         0.15832E-19         0.00000E+00
    0.14757E-09         0.17462E-19         0.00000E+00
    0.14757E-09         0.14435E-19         0.00000E+00
    0.14757E-09         0.00000E+00         0.00000E+00
    0.14757E-09        -0.10710E-19         0.00000E+00
    0.14757E-09         0.69849E-21         0.00000E+00
    0.14757E-09         0.12573E-19         0.00000E+00
    0.14757E-09         0.17229E-19         0.00000E+00
    0.14757E-09         0.41910E-20         0.00000E+00
    0.14757E-09        -0.13970E-20         0.00000E+00
    0.17815E-09         0.11642E-20         0.00000E+00
    0.17815E-09        -0.81491E-20         0.00000E+00
    0.17815E-09        -0.11642E-19         0.00000E+00
    0.17815E-09         0.20955E-20         0.00000E+00
    0.17815E-09         0.55879E-20         0.00000E+00
    0.17815E-09        -0.11642E-20         0.00000E+00
    0.17815E-09        -0.11642E-19         0.00000E+00
    0.17815E-09        -0.12107E-19         0.00000E+00
    0.17815E-09         0.23283E-20         0.00000E+00
    0.17815E-09        -0.93132E-20         0.00000E+00
    0.17815E-09        -0.13039E-19         0.00000E+00
    0.17815E-09        -0.88476E-20         0.00000E+00
    0.17815E-09        -0.32596E-20         0.00000E+00
    0.17815E-09         0.14435E-19         0.00000E+00
    0.17815E-09         0.15832E-19         0.00000E+00
    0.17815E-09         0.55879E-20         0.00000E+00
    0.17815E-09        -0.60536E-20         0.00000E+00
    0.17815E-09        -0.32596E-20         0.00000E+00
    0.17815E-09        -0.39581E-20         0.00000E+00
    0.17815E-09        -0.93132E-20         0.00000E+00
    0.17815E-09        -0.51223E-20         0.00000E+00
    0.17815E-09        -0.23283E-20         0.00000E+00
    0.17815E-09        -0.83819E-20         0.00000E+00
    0.17815E-09        -0.97789E-20         0.00000E+00
    0.17815E-09        -0.51223E-20         0.00000E+00
    0.17815E-09        -0.18626E-20         0.00000E+00
    0.17815E-09        -0.74506E-20         0.00000E+00
    0.17815E-09        -0.18626E-20         0.00000E+00
    0.17815E-09         0.97789E-20         0.00000E+00
    0.17815E-09         0.69849E-20         0.00000E+00
    0.17815E-09         0.93132E-20         0.00000E+00
    0.17815E-09         0.16997E-19         0.00000E+00
    0.17815E-09         0.11642E-19         0.00000E+00
    0.17815E-09         0.23283E-19         0.00000E+00
    0.17815E-09         0.12573E-19         0.00000E+00
    0.17815E-09         0.00000E+00         0.00000E+00
    0.17815E-09        -0.88476E-20         0.00000E+00
    0.17815E-09        -0.44238E-20         0.00000E+00
    0.17815E-09         0.16298E-20         0.00000E+00
    0.17815E-09         0.23283E-20         0.00000E+00
    0.17815E-09        -0.23283E-20         0.00000E+00
    0.17815E-09         0.32596E-20         0.00000E+00
    0.17815E-09         0.46566E-21         0.00000E+00
    0.17815E-09         0.32596E-20         0.00000E+00
    0.17815E-09        -0.46566E-20         0.00000E+00
    0.17815E-09         0.13039E-19         0.00000E+00
    0.17815E-09         0.13039E-19         0.00000E+00
    0.17815E-09         0.27008E-19         0.00000E+00
    0.17815E-09         0.15367E-19         0.00000E+00
    0.17815E-09         0.37253E-20         0.00000E+00
    0.21493E-09        -0.23283E-20         0.00000E+00
    0.21493E-09         0.93132E-21         0.00000E+00
    0.21493E-09        -0.23283E-20         0.00000E+00
    0.21493E-09         0.13504E-19         0.00000E+00
    0.21493E-09         0.74506E-20         0.00000E+00
    0.21493E-09         0.11409E-19         0.00000E+00
    0.21493E-09        -0.13970E-20         0.00000E+00
    0.21493E-09        -0.55879E-20         0.00000E+00
    0.21493E-09         0.62864E-20         0.00000E+00
    0.21493E-09        -0.69849E-21         0.00000E+00
    0.21493E-09         0.11642E-19         0.00000E+00
    0.21493E-09         0.76834E-20         0.00000E+00
    0.21493E-09         0.81491E-20         0.00000E+00
    0.21493E-09         0.97789E-20         0.00000E+00
    0.21493E-09         0.13970E-20         0.00000E+00
    0.21493E-09         0.93132E-21         0.00000E+00
    0.21493E-09        -0.37253E-20         0.00000E+00
    0.21493E-09         0.81491E-20         0.00000E+00
    0.21493E-09        -0.46566E-21         0.00000E+00
    0.21493E-09         0.69849E-21         0.00000E+00
    0.21493E-09        -0.27940E-20         0.00000E+00
    0.21493E-09        -0.69849E-20         0.00000E+00
    0.21493E-09        -0.18626E-20         0.00000E+00
    0.21493E-09         0.39581E-20         0.00000E+00
    0.21493E-09         0.10477E-19         0.00000E+00
    0.21493E-09         0.93132E-20         0.00000E+00
    0.21493E-09        -0.93132E-20         0.00000E+00
    0.21493E-09        -0.93132E-20         0.00000E+00
    0.21493E-09         0.18626E-20         0.00000E+00
    0.21493E-09         0.11642E-19         0.00000E+00
    0.21493E-09         0.13970E-19         0.00000E+00
    0.21493E-09         0.12107E-19         0.00000E+00
    0.21493E-09         0.41910E-20         0.00000E+00
    0.21493E-09         0.14668E-19         0.00000E+00
    0.21493E-09         0.13504E-19         0.00000E+00
    0.21493E-09        -0.93132E-21         0.00000E+00
    0.21493E-09        -0.74506E-20         0.00000E+00
    0.21493E-09        -0.41910E-20         0.00000E+00
    0.21493E-09        -0.23283E-20         0.00000E+00
    0.21493E-09        -0.55879E-20         0.00000E+00
    0.21493E-09        -0.65193E-20         0.00000E+00
    0.21493E-09        -0.14901E-19         0.00000E+00
    0.21493E-09        -0.97789E-20         0.00000E+00
    0.21493E-09        -0.18626E-20         0.00000E+00
    0.21493E-09         0.55879E-20         0.00000E+00
    0.21493E-09         0.79162E-20         0.00000E+00
    0.21493E-09        -0.25611E-20         0.00000E+00
    0.21493E-09         0.58208E-20         0.00000E+00
    0.21493E-09         0.93132E-20         0.00000E+00
    0.21493E-09         0.41910E-20         0.00000E+00
    0.25915E-09        -0.13970E-20         0.00000E+00
    0.25915E-09         0.23283E-20         0.00000E+00
    0.25915E-09         0.14435E-19         0.00000E+00
    0.25915E-09         0.15367E-19         0.00000E+00
    0.25915E-09        -0.62864E-20         0.00000E+00
    0.25915E-09         0.60536E-20         0.00000E+00
    0.25915E-09         0.13970E-19         0.00000E+00
    0.25915E-09         0.69849E-20         0.00000E+00
    0.25915E-09         0.21653E-19         0.00000E+00
    0.25915E-09         0.20955E-19         0.00000E+00
    0.25915E-09         0.18161E-19         0.00000E+00
    0.25915E-09         0.10943E-19         0.00000E+00
    0.25915E-09         0.11409E-19         0.00000E+00
    0.25915E-09         0.88476E-20         0.00000E+00
    0.25915E-09         0.46566E-21         0.00000E+00
    0.25915E-09         0.88476E-20         0.00000E+00
    0.25915E-09         0.27940E-20         0.00000E+00
    0.25915E-09         0.88476E-20         0.00000E+00
    0.25915E-09         0.93132E-21         0.00000E+00
    0.25915E-09        -0.32596E-20         0.00000E+00
    0.25915E-09        -0.83819E-20         0.00000E+00
    0.25915E-09        -0.14435E-19         0.00000E+00
    0.25915E-09        -0.10245E-19         0.00000E+00
    0.25915E-09        -0.48894E-20         0.00000E+00
    0.25915E-09         0.10710E-19         0.00000E+00
    0.25915E-09         0.00000E+00         0.00000E+00
    0.25915E-09         0.27940E-20         0.00000E+00
    0.25915E-09         0.93132E-21         0.00000E+00
    0.25915E-09         0.13970E-19         0.00000E+00
    0.25915E-09         0.83819E-20         0.00000E+00
    0.25915E-09         0.74506E-20         0.00000E+00
    0.25915E-09         0.27940E-20         0.00000E+00
    0.25915E-09         0.37253E-20         0.00000E+00
    0.25915E-09         0.65193E-20         0.00000E+00
    0.25915E-09         0.69849E-21         0.00000E+00
    0.25915E-09         0.46566E-21         0.00000E+00
    0.25915E-09         0.60536E-20         0.00000E+00
    0.25915E-09         0.97789E-20         0.00000E+00
    0.25915E-09         0.51223E-20         0.00000E+00
    0.25915E-09        -0.51223E-20         0.00000E+00
    0.25915E-09        -0.13970E-20         0.00000E+00
    0.25915E-09        -0.69849E-20         0.00000E+00
    0.25915E-09        -0.10012E-19         0.00000E+00
    0.25915E-09        -0.13970E-19         0.00000E+00
    0.25915E-09        -0.11642E-20         0.00000E+00
    0.25915E-09        -0.79162E-20         0.00000E+00
    0.25915E-09        -0.46566E-20         0.00000E+00
    0.25915E-09        -0.10943E-19         0.00000E+00
    0.25915E-09        -0.23283E-20         0.00000E+00
    0.25915E-09        -0.25611E-20         0.00000E+00
    0.31227E-09         0.00000E+00         0.00000E+00
    0.31227E-09         0.18626E-20         0.00000E+00
    0.31227E-09        -0.93132E-21         0.00000E+00
    0.31227E-09         0.83819E-20         0.00000E+00
    0.31227E-09         0.18626E-20         0.00000E+00
    0.31227E-09         0.88476E-20         0.00000E+00
    0.31227E-09         0.88476E-20         0.00000E+00
    0.31227E-09         0.12573E-19         0.00000E+00
    0.31227E-09         0.14435E-19         0.00000E+00
    0.31227E-09         0.60536E-20         0.00000E+00
    0.31227E-09         0.97789E-20         0.00000E+00
    0.31227E-09        -0.51223E-20         0.00000E+00
    0.31227E-09        -0.37253E-20         0.00000E+00
    0.31227E-09        -0.86147E-20         0.00000E+00
    0.31227E-09        -0.51223E-20         0.00000E+00
    0.31227E-09         0.69849E-20         0.00000E+00
    0.31227E-09         0.10245E-19         0.00000E+00
    0.31227E-09         0.13970E-20         0.00000E+00
    0.31227E-09        -0.83819E-20         0.00000E+00
    0.31227E-09        -0.32596E-20         0.00000E+00
    0.31227E-09         0.13970E-20         0.00000E+00
    0.31227E-09        -0.27940E-20         0.00000E+00
    0.31227E-09        -0.60536E-20         0.00000E+00
    0.31227E-09        -0.15832E-19         0.00000E+00
    0.31227E-09         0.18626E-20         0.00000E+00
    0.31227E-09         0.46566E-20         0.00000E+00
    0.31227E-09         0.37253E-20         0.00000E+00
    0.31227E-09         0.10710E-19         0.00000E+00
    0.31227E-09         0.23749E-19         0.00000E+00
    0.31227E-09         0.95461E-20         0.00000E+00
    0.31227E-09        -0.23283E-20         0.00000E+00
    0.31227E-09        -0.37253E-20         0.00000E+00
    0.31227E-09         0.46566E-20         0.00000E+00
    0.31227E-09         0.69849E-20         0.00000E+00
    0.31227E-09        -0.76834E-20         0.00000E+00
    0.31227E-09        -0.37253E-20         0.00000E+00
    0.31227E-09         0.46566E-21         0.00000E+00
    0.31227E-09         0.14435E-19         0.00000E+00
    0.31227E-09         0.13039E-19         0.00000E+00
    0.31227E-09         0.37253E-20         0.00000E+00
    0.31227E-09        -0.27940E-20         0.00000E+00
    0.31227E-09        -0.65193E-20         0.00000E+00
    0.31227E-09        -0.51223E-20         0.00000E+00
    0.31227E-09        -0.20955E-20         0.00000E+00
    0.31227E-09        -0.30268E-20         0.00000E+00
    0.31227E-09        -0.93132E-20         0.00000E+00
    0.31227E-09        -0.41910E-20         0.00000E+00
    0.31227E-09        -0.18626E-20         0.00000E+00
    0.31227E-09         0.32596E-20         0.00000E+00
    0.31227E-09        -0.55879E-20         0.00000E+00
    0.37602E-09        -0.93132E-20         0.00000E+00
    0.37602E-09        -0.32596E-20         0.00000E+00
    0.37602E-09         0.55879E-20         0.00000E+00
    0.37602E-09         0.19558E-19         0.00000E+00
    0.37602E-09         0.29337E-19         0.00000E+00
    0.37602E-09         0.72177E-20         0.00000E+00
    0.37602E-09         0.55879E-20         0.00000E+00
    0.37602E-09         0.93132E-21         0.00000E+00
    0.37602E-09         0.13970E-20         0.00000E+00
    0.37602E-09        -0.46566E-21         0.00000E+00
    0.37602E-09         0.23283E-21         0.00000E+00
    0.37602E-09        -0.93132E-20         0.00000E+00
    0.37602E-09        -0.15832E-19         0.00000E+00
    0.37602E-09        -0.16065E-19         0.00000E+00
    0.37602E-09        -0.15600E-19         0.00000E+00
    0.37602E-09         0.74506E-20         0.00000E+00
    0.37602E-09         0.12573E-19         0.00000E+00
    0.37602E-09        -0.11176E-19         0.00000E+00
    0.37602E-09         0.18626E-20         0.00000E+00
    0.37602E-09         0.11176E-19         0.00000E+00
    0.37602E-09         0.25611E-20         0.00000E+00
    0.37602E-09        -0.93132E-21         0.00000E+00
    0.37602E-09         0.97789E-20         0.00000E+00
    0.37602E-09        -0.37253E-20         0.00000E+00
    0.37602E-09        -0.65193E-20         0.00000E+00
    0.37602E-09        -0.27940E-20         0.00000E+00
    0.37602E-09        -0.46566E-20         0.00000E+00
    0.37602E-09         0.74506E-20         0.00000E+00
    0.37602E-09        -0.23283E-20         0.00000E+00
    0.37602E-09         0.74506E-20         0.00000E+00
    0.37602E-09         0.46566E-21         0.00000E+00
    0.37602E-09        -0.93132E-21         0.00000E+00
    0.37602E-09         0.41910E-20         0.00000E+00
    0.37602E-09         0.13970E-20         0.00000E+00
    0.37602E-09        -0.93132E-21         0.00000E+00
    0.37602E-09        -0.39581E-20         0.00000E+00
    0.37602E-09        -0.12573E-19         0.00000E+00
    0.37602E-09         0.37253E-20         0.00000E+00
    0.37602E-09         0.74506E-20         0.00000E+00
    0.37602E-09         0.12107E-19         0.00000E+00
    0.37602E-09         0.18626E-20         0.00000E+00
    0.37602E-09        -0.27940E-20         0.00000E+00
    0.37602E-09         0.10245E-19         0.00000E+00
    0.37602E-09         0.23283E-20         0.00000E+00
    0.37602E-09         0.23283E-20         0.00000E+00
    0.37602E-09         0.23283E-20         0.00000E+00
    0.37602E-09        -0.79162E-20         0.00000E+00
    0.37602E-09        -0.46566E-20         0.00000E+00
    0.37602E-09        -0.51223E-20         0.00000E+00
    0.37602E-09         0.00000E+00         0.00000E+00
    0.45247E-09        -0.37253E-20         0.00000E+00
    0.45247E-09        -0.46566E-20         0.00000E+00
    0.45247E-09         0.11642E-19         0.00000E+00
    0.45247E-09         0.12573E-19         0.00000E+00
    0.45247E-09         0.12806E-19         0.00000E+00
    0.45247E-09         0.76834E-20         0.00000E+00
    0.45247E-09        -0.46566E-20         0.00000E+00
    0.45247E-09         0.60536E-20         0.00000E+00
    0.45247E-09         0.97789E-20         0.00000E+00
    0.45247E-09         0.13970E-20         0.00000E+00
    0.45247E-09        -0.93132E-20         0.00000E+00
    0.45247E-09        -0.93132E-20         0.00000E+00
    0.45247E-09        -0.17229E-19         0.00000E+00
    0.45247E-09        -0.12107E-19         0.00000E+00
    0.45247E-09        -0.13970E-19         0.00000E+00
    0.45247E-09         0.00000E+00         0.00000E+00
    0.45247E-09         0.93132E-20         0.00000E+00
    0.45247E-09         0.69849E-21         0.00000E+00
    0.45247E-09         0.10245E-19         0.00000E+00
    0.45247E-09         0.12573E-19         0.00000E+00
    0.45247E-09        -0.13970E-20         0.00000E+00
    0.45247E-09         0.13039E-19         0.00000E+00
    0.45247E-09         0.41910E-20         0.00000E+00
    0.45247E-09        -0.23283E-20         0.00000E+00
    0.45247E-09        -0.12107E-19         0.00000E+00
    0.45247E-09        -0.32596E-20         0.00000E+00
    0.45247E-09        -0.12573E-19         0.00000E+00
    0.45247E-09        -0.46566E-20         0.00000E+00
    0.45247E-09        -0.13970E-19         0.00000E+00
    0.45247E-09         0.37253E-20         0.00000E+00
    0.45247E-09         0.69849E-20         0.00000E+00
    0.45247E-09         0.13970E-19         0.00000E+00
    0.45247E-09        -0.41910E-20         0.00000E+00
    0.45247E-09        -0.60536E-20         0.00000E+00
    0.45247E-09        -0.10245E-19         0.00000E+00
    0.45247E-09        -0.13504E-19         0.00000E+00
    0.45247E-09        -0.60536E-20         0.00000E+00
    0.45247E-09        -0.12107E-19         0.00000E+00
    0.45247E-09        -0.48894E-20         0.00000E+00
    0.45247E-09        -0.32596E-20         0.00000E+00
    0.45247E-09         0.51223E-20         0.00000E+00
    0.45247E-09         0.90804E-20         0.00000E+00
    0.45247E-09         0.81491E-20         0.00000E+00
    0.45247E-09         0.74506E-20         0.00000E+00
    0.45247E-09         0.34925E-20         0.00000E+00
    0.45247E-09         0.60536E-20         0.00000E+00
    0.45247E-09        -0.41910E-20         0.00000E+00
    0.45247E-09        -0.41910E-20         0.00000E+00
    0.45247E-09        -0.20955E-20         0.00000E+00
    0.45247E-09        -0.23283E-20         0.00000E+00
    0.54407E-09        -0.46566E-21         0.00000E+00
    0.54407E-09        -0.16298E-20         0.00000E+00
    0.54407E-09        -0.11642E-19         0.00000E+00
    0.54407E-09        -0.46566E-20         0.00000E+00
    0.54407E-09        -0.93132E-21         0.00000E+00
    0.54407E-09         0.69849E-21         0.00000E+00
    0.54407E-09        -0.18626E-20         0.00000E+00
    0.54407E-09         0.11409E-19         0.00000E+00
    0.54407E-09         0.46566E-20         0.00000E+00
    0.54407E-09         0.11642E-20         0.00000E+00
    0.54407E-09        -0.15600E-19         0.00000E+00
    0.54407E-09        -0.16531E-19         0.00000E+00
    0.54407E-09        -0.13970E-19         0.00000E+00
    0.54407E-09        -0.28871E-19         0.00000E+00
    0.54407E-09        -0.12107E-19         0.00000E+00
    0.54407E-09         0.00000E+00         0.00000E+00
    0.54407E-09         0.65193E-20         0.00000E+00
    0.54407E-09        -0.41910E-20         0.00000E+00
    0.54407E-09         0.60536E-20         0.00000E+00
    0.54407E-09         0.39581E-20         0.00000E+00
    0.54407E-09        -0.27940E-20         0.00000E+00
    0.54407E-09         0.46566E-20         0.00000E+00
    0.54407E-09         0.13970E-20         0.00000E+00
    0.54407E-09         0.32596E-20         0.00000E+00
    0.54407E-09         0.83819E-20         0.00000E+00
    0.54407E-09         0.18626E-20         0.00000E+00
    0.54407E-09        -0.51223E-20         0.00000E+00
    0.54407E-09        -0.10710E-19         0.00000E+00
    0.54407E-09        -0.88476E-20         0.00000E+00
    0.54407E-09         0.46566E-20         0.00000E+00
    0.54407E-09         0.74506E-20         0.00000E+00
    0.54407E-09         0.88476E-20         0.00000E+00
    0.54407E-09         0.46566E-21         0.00000E+00
    0.54407E-09         0.32596E-20         0.00000E+00
    0.54407E-09         0.46566E-20         0.00000E+00
    0.54407E-09        -0.13970E-19         0.00000E+00
    0.54407E-09        -0.13970E-20         0.00000E+00
    0.54407E-09        -0.37253E-20         0.00000E+00
    0.54407E-09        -0.16065E-19         0.00000E+00
    0.54407E-09        -0.11642E-19         0.00000E+00
    0.54407E-09        -0.46566E-20         0.00000E+00
    0.54407E-09        -0.46566E-20         0.00000E+00
    0.54407E-09        -0.25611E-20         0.00000E+00
    0.54407E-09         0.00000E+00         0.00000E+00
    0.54407E-09         0.74506E-20         0.00000E+00
    0.54407E-09         0.12107E-19         0.00000E+00
    0.54407E-09         0.11176E-19         0.00000E+00
    0.54407E-09         0.44238E-20         0.00000E+00
    0.54407E-09         0.32596E-20         0.00000E+00
    0.54407E-09         0.23283E-21         0.00000E+00
    0.65372E-09        -0.32596E-20         0.00000E+00
    0.65372E-09        -0.67521E-20         0.00000E+00
    0.65372E-09        -0.22352E-19         0.00000E+00
    0.65372E-09        -0.86147E-20         0.00000E+00
    0.65372E-09         0.13970E-19         0.00000E+00
    0.65372E-09         0.18626E-20         0.00000E+00
    0.65372E-09        -0.23283E-20         0.00000E+00
    0.65372E-09         0.62864E-20         0.00000E+00
    0.65372E-09         0.23283E-20         0.00000E+00
    0.65372E-09         0.93132E-20         0.00000E+00
    0.65372E-09        -0.76834E-20         0.00000E+00
    0.65372E-09        -0.14203E-19         0.00000E+00
    0.65372E-09        -0.25611E-20         0.00000E+00
    0.65372E-09        -0.10710E-19         0.00000E+00
    0.65372E-09        -0.12107E-19         0.00000E+00
    0.65372E-09        -0.27940E-20         0.00000E+00
    0.65372E-09        -0.74506E-20         0.00000E+00
    0.65372E-09        -0.12806E-19         0.00000E+00
    0.65372E-09        -0.10012E-19         0.00000E+00
    0.65372E-09        -0.86147E-20         0.00000E+00
    0.65372E-09        -0.65193E-20         0.00000E+00
    0.65372E-09        -0.79162E-20         0.00000E+00
    0.65372E-09         0.46566E-21         0.00000E+00
    0.65372E-09        -0.37253E-20         0.00000E+00
    0.65372E-09         0.10245E-19         0.00000E+00
    0.65372E-09        -0.46566E-20         0.00000E+00
    0.65372E-09         0.18626E-20         0.00000E+00
    0.65372E-09        -0.23283E-20         0.00000E+00
    0.65372E-09         0.74506E-20         0.00000E+00
    0.65372E-09         0.11409E-19         0.00000E+00
    0.65372E-09        -0.23283E-21         0.00000E+00
    0.65372E-09        -0.13970E-20         0.00000E+00
    0.65372E-09         0.69849E-21         0.00000E+00
    0.65372E-09         0.14901E-19         0.00000E+00
    0.65372E-09         0.22817E-19         0.00000E+00
    0.65372E-09         0.23283E-21         0.00000E+00
    0.65372E-09         0.69849E-20         0.00000E+00
    0.65372E-09         0.27940E-20         0.00000E+00
    0.65372E-09        -0.95461E-20         0.00000E+00
    0.65372E-09        -0.17695E-19         0.00000E+00
    0.65372E-09        -0.76834E-20         0.00000E+00
    0.65372E-09        -0.88476E-20         0.00000E+00
    0.65372E-09         0.37253E-20         0.00000E+00
    0.65372E-09         0.72177E-20         0.00000E+00
    0.65372E-09         0.14435E-19         0.00000E+00
    0.65372E-09         0.51223E-20         0.00000E+00
    0.65372E-09         0.13039E-19         0.00000E+00
    0.65372E-09         0.14435E-19         0.00000E+00
    0.65372E-09         0.32596E-20         0.00000E+00
    0.65372E-09         0.46566E-20         0.00000E+00
    0.78485E-09         0.46566E-21         0.00000E+00
    0.78485E-09        -0.37253E-20         0.00000E+00
    0.78485E-09        -0.93132E-20         0.00000E+00
    0.78485E-09        -0.74506E-20         0.00000E+00
    0.78485E-09         0.13737E-19         0.00000E+00
    0.78485E-09         0.15134E-19         0.00000E+00
    0.78485E-09         0.10710E-19         0.00000E+00
    0.78485E-09         0.11642E-19         0.00000E+00
    0.78485E-09         0.67521E-20         0.00000E+00
    0.78485E-09         0.16764E-19         0.00000E+00
    0.78485E-09        -0.83819E-20         0.00000E+00
    0.78485E-09         0.93132E-21         0.00000E+00
    0.78485E-09        -0.55879E-20         0.00000E+00
    0.78485E-09        -0.65193E-20         0.00000E+00
    0.78485E-09         0.13970E-20         0.00000E+00
    0.78485E-09        -0.95461E-20         0.00000E+00
    0.78485E-09        -0.27940E-20         0.00000E+00
    0.78485E-09        -0.53551E-20         0.00000E+00
    0.78485E-09        -0.11176E-19         0.00000E+00
    0.78485E-09        -0.14668E-19         0.00000E+00
    0.78485E-09        -0.16298E-20         0.00000E+00
    0.78485E-09         0.46566E-20         0.00000E+00
    0.78485E-09        -0.27940E-20         0.00000E+00
    0.78485E-09        -0.12107E-19         0.00000E+00
    0.78485E-09        -0.14203E-19         0.00000E+00
    0.78485E-09        -0.37253E-20         0.00000E+00
    0.78485E-09        -0.69849E-20         0.00000E+00
    0.78485E-09         0.83819E-20         0.00000E+00
    0.78485E-09         0.11176E-19         0.00000E+00
    0.78485E-09         0.15600E-19         0.00000E+00
    0.78485E-09         0.62864E-20         0.00000E+00
    0.78485E-09        -0.67521E-20         0.00000E+00
    0.78485E-09        -0.93132E-21         0.00000E+00
    0.78485E-09         0.23283E-20         0.00000E+00
    0.78485E-09         0.11409E-19         0.00000E+00
    0.78485E-09         0.12340E-19         0.00000E+00
    0.78485E-09         0.79162E-20         0.00000E+00
    0.78485E-09         0.10245E-19         0.00000E+00
    0.78485E-09        -0.18626E-20         0.00000E+00
    0.78485E-09        -0.17229E-19         0.00000E+00
    0.78485E-09        -0.74506E-20         0.00000E+00
    0.78485E-09        -0.37253E-20         0.00000E+00
    0.78485E-09         0.27940E-20         0.00000E+00
    0.78485E-09         0.55879E-20         0.00000E+00
    0.78485E-09         0.12573E-19         0.00000E+00
    0.78485E-09         0.90804E-20         0.00000E+00
    0.78485E-09         0.97789E-20         0.00000E+00
    0.78485E-09         0.20955E-19         0.00000E+00
    0.78485E-09         0.13039E-19         0.00000E+00
    0.78485E-09         0.32596E-20         0.00000E+00
    0.94152E-09        -0.13970E-20         0.00000E+00
    0.94152E-09         0.65193E-20         0.00000E+00
    0.94152E-09         0.60536E-20         0.00000E+00
    0.94152E-09         0.60536E-20         0.00000E+00
    0.94152E-09         0.14203E-19         0.00000E+00
    0.94152E-09         0.23749E-19         0.00000E+00
    0.94152E-09         0.21420E-19         0.00000E+00
    0.94152E-09         0.22817E-19         0.00000E+00
    0.94152E-09         0.20023E-19         0.00000E+00
    0.94152E-09         0.18626E-19         0.00000E+00
    0.94152E-09        -0.79162E-20         0.00000E+00
    0.94152E-09         0.51223E-20         0.00000E+00
    0.94152E-09        -0.18626E-20         0.00000E+00
    0.94152E-09        -0.27940E-20         0.00000E+00
    0.94152E-09         0.93132E-21         0.00000E+00
    0.94152E-09        -0.17229E-19         0.00000E+00
    0.94152E-09        -0.83819E-20         0.00000E+00
    0.94152E-09        -0.90804E-20         0.00000E+00
    0.94152E-09        -0.69849E-20         0.00000E+00
    0.94152E-09        -0.88476E-20         0.00000E+00
    0.94152E-09         0.65193E-20         0.00000E+00
    0.94152E-09         0.97789E-20         0.00000E+00
    0.94152E-09        -0.60536E-20         0.00000E+00
    0.94152E-09        -0.37253E-20         0.00000E+00
    0.94152E-09        -0.13970E-20         0.00000E+00
    0.94152E-09         0.25611E-20         0.00000E+00
    0.94152E-09         0.13970E-20         0.00000E+00
    0.94152E-09         0.32596E-20         0.00000E+00
    0.94152E-09         0.46566E-20         0.00000E+00
    0.94152E-09         0.21420E-19         0.00000E+00
    0.94152E-09         0.15832E-19         0.00000E+00
    0.94152E-09         0.00000E+00         0.00000E+00
    0.94152E-09        -0.13039E-19         0.00000E+00
    0.94152E-09        -0.10012E-19         0.00000E+00
    0.94152E-09         0.32596E-20         0.00000E+00
    0.94152E-09         0.41910E-20         0.00000E+00
    0.94152E-09         0.10710E-19         0.00000E+00
    0.94152E-09         0.41910E-20         0.00000E+00
    0.94152E-09        -0.27940E-20         0.00000E+00
    0.94152E-09        -0.37253E-20         0.00000E+00
    0.94152E-09        -0.46566E-20         0.00000E+00
    0.94152E-09         0.00000E+00         0.00000E+00
    0.94152E-09         0.32596E-20         0.00000E+00
    0.94152E-09         0.58208E-20         0.00000E+00
    0.94152E-09         0.95461E-20         0.00000E+00
    0.94152E-09         0.79162E-20         0.00000E+00
    0.94152E-09         0.10245E-19         0.00000E+00
    0.94152E-09         0.20955E-19         0.00000E+00
    0.94152E-09         0.41910E-20         0.00000E+00
    0.94152E-09         0.11642E-20         0.00000E+00
    0.11285E-08         0.00000E+00         0.00000E+00
    0.11285E-08         0.60536E-20         0.00000E+00
    0.11285E-08         0.10710E-19         0.00000E+00
    0.11285E-08         0.12806E-19         0.00000E+00
    0.11285E-08         0.14435E-19         0.00000E+00
    0.11285E-08         0.24214E-19         0.00000E+00
    0.11285E-08         0.25146E-19         0.00000E+00
    0.11285E-08         0.27008E-19         0.00000E+00
    0.11285E-08         0.25611E-19         0.00000E+00
    0.11285E-08         0.14203E-19         0.00000E+00
    0.11285E-08         0.37253E-20         0.00000E+00
    0.11285E-08         0.67521E-20         0.00000E+00
    0.11285E-08         0.27940E-20         0.00000E+00
    0.11285E-08         0.18626E-20         0.00000E+00
    0.11285E-08        -0.14435E-19         0.00000E+00
    0.11285E-08        -0.17462E-19         0.00000E+00
    0.11285E-08        -0.17695E-19         0.00000E+00
    0.11285E-08        -0.17695E-19         0.00000E+00
    0.11285E-08        -0.23283E-20         0.00000E+00
    0.11285E-08        -0.79162E-20         0.00000E+00
    0.11285E-08         0.10710E-19         0.00000E+00
    0.11285E-08         0.11409E-19         0.00000E+00
    0.11285E-08         0.27940E-20         0.00000E+00
    0.11285E-08         0.00000E+00         0.00000E+00
    0.11285E-08         0.32596E-20         0.00000E+00
    0.11285E-08         0.65193E-20         0.00000E+00
    0.11285E-08         0.93132E-20         0.00000E+00
    0.11285E-08         0.53551E-20         0.00000E+00
    0.11285E-08         0.46566E-21         0.00000E+00
    0.11285E-08         0.17928E-19         0.00000E+00
    0.11285E-08         0.10943E-19         0.00000E+00
    0.11285E-08         0.55879E-20         0.00000E+00
    0.11285E-08        -0.13504E-19         0.00000E+00
    0.11285E-08        -0.17928E-19         0.00000E+00
    0.11285E-08         0.32596E-20         0.00000E+00
    0.11285E-08        -0.27940E-20         0.00000E+00
    0.11285E-08         0.79162E-20         0.00000E+00
    0.11285E-08         0.39581E-20         0.00000E+00
    0.11285E-08         0.51223E-20         0.00000E+00
    0.11285E-08         0.18626E-20         0.00000E+00
    0.11285E-08        -0.13970E-20         0.00000E+00
    0.11285E-08         0.00000E+00         0.00000E+00
    0.11285E-08         0.17229E-19         0.00000E+00
    0.11285E-08         0.30268E-19         0.00000E+00
    0.11285E-08         0.19092E-19         0.00000E+00
    0.11285E-08         0.93132E-20         0.00000E+00
    0.11285E-08         0.12806E-19         0.00000E+00
    0.11285E-08         0.10245E-19         0.00000E+00
    0.11285E-08        -0.51223E-20         0.00000E+00
    0.11285E-08         0.46566E-20         0.00000E+00
    0.13515E-08         0.46566E-20         0.00000E+00
    0.13515E-08         0.88476E-20         0.00000E+00
    0.13515E-08         0.97789E-20         0.00000E+00
    0.13515E-08         0.11642E-20         0.00000E+00
    0.13515E-08         0.17229E-19         0.00000E+00
    0.13515E-08         0.20955E-19         0.00000E+00
    0.13515E-08         0.17695E-19         0.00000E+00
    0.13515E-08         0.11642E-19         0.00000E+00
    0.13515E-08         0.11642E-19         0.00000E+00
    0.13515E-08         0.46566E-21         0.00000E+00
    0.13515E-08         0.30268E-20         0.00000E+00
    0.13515E-08         0.23283E-21         0.00000E+00
    0.13515E-08        -0.32596E-20         0.00000E+00
    0.13515E-08        -0.11642E-19         0.00000E+00
    0.13515E-08        -0.15134E-19         0.00000E+00
    0.13515E-08        -0.19558E-19         0.00000E+00
    0.13515E-08        -0.27940E-19         0.00000E+00
    0.13515E-08        -0.11176E-19         0.00000E+00
    0.13515E-08         0.79162E-20         0.00000E+00
    0.13515E-08         0.51223E-20         0.00000E+00
    0.13515E-08         0.13504E-19         0.00000E+00
    0.13515E-08         0.14901E-19         0.00000E+00
    0.13515E-08         0.15832E-19         0.00000E+00
    0.13515E-08         0.12107E-19         0.00000E+00
    0.13515E-08        -0.23283E-21         0.00000E+00
    0.13515E-08        -0.34925E-20         0.00000E+00
    0.13515E-08         0.00000E+00         0.00000E+00
    0.13515E-08         0.32596E-20         0.00000E+00
    0.13515E-08        -0.46566E-20         0.00000E+00
    0.13515E-08         0.23283E-21         0.00000E+00
    0.13515E-08         0.93132E-21         0.00000E+00
    0.13515E-08         0.23283E-21         0.00000E+00
    0.13515E-08        -0.93132E-20         0.00000E+00
    0.13515E-08        -0.10245E-19         0.00000E+00
    0.13515E-08        -0.23283E-21         0.00000E+00
    0.13515E-08        -0.93132E-21         0.00000E+00
    0.13515E-08         0.81491E-20         0.00000E+00
    0.13515E-08         0.93132E-20         0.00000E+00
    0.13515E-08         0.16764E-19         0.00000E+00
    0.13515E-08         0.65193E-20         0.00000E+00
    0.13515E-08         0.10477E-19         0.00000E+00
    0.13515E-08         0.41910E-20         0.00000E+00
    0.13515E-08         0.18626E-19         0.00000E+00
    0.13515E-08         0.34459E-19         0.00000E+00
    0.13515E-08         0.21188E-19         0.00000E+00
    0.13515E-08         0.97789E-20         0.00000E+00
    0.13515E-08         0.83819E-20         0.00000E+00
    0.13515E-08         0.88476E-20         0.00000E+00
    0.13515E-08        -0.32596E-20         0.00000E+00
    0.13515E-08         0.60536E-20         0.00000E+00
    0.16170E-08         0.41910E-20         0.00000E+00
    0.16170E-08         0.13970E-19         0.00000E+00
    0.16170E-08         0.12107E-19         0.00000E+00
    0.16170E-08         0.93132E-20         0.00000E+00
    0.16170E-08         0.19558E-19         0.00000E+00
    0.16170E-08         0.21653E-19         0.00000E+00
    0.16170E-08         0.14901E-19         0.00000E+00
    0.16170E-08         0.55879E-20         0.00000E+00
    0.16170E-08         0.88476E-20         0.00000E+00
    0.16170E-08        -0.74506E-20         0.00000E+00
    0.16170E-08        -0.74506E-20         0.00000E+00
    0.16170E-08        -0.13970E-19         0.00000E+00
    0.16170E-08        -0.93132E-20         0.00000E+00
    0.16170E-08        -0.53551E-20         0.00000E+00
    0.16170E-08        -0.19325E-19         0.00000E+00
    0.16170E-08        -0.37719E-19         0.00000E+00
    0.16170E-08        -0.28405E-19         0.00000E+00
    0.16170E-08        -0.83819E-20         0.00000E+00
    0.16170E-08         0.32596E-20         0.00000E+00
    0.16170E-08         0.00000E+00         0.00000E+00
    0.16170E-08         0.18626E-19         0.00000E+00
    0.16170E-08         0.23749E-19         0.00000E+00
    0.16170E-08         0.22352E-19         0.00000E+00
    0.16170E-08         0.26543E-19         0.00000E+00
    0.16170E-08         0.15134E-19         0.00000E+00
    0.16170E-08         0.23283E-20         0.00000E+00
    0.16170E-08         0.00000E+00         0.00000E+00
    0.16170E-08        -0.88476E-20         0.00000E+00
    0.16170E-08        -0.12573E-19         0.00000E+00
    0.16170E-08        -0.18626E-20         0.00000E+00
    0.16170E-08        -0.60536E-20         0.00000E+00
    0.16170E-08         0.00000E+00         0.00000E+00
    0.16170E-08        -0.83819E-20         0.00000E+00
    0.16170E-08        -0.15832E-19         0.00000E+00
    0.16170E-08        -0.51223E-20         0.00000E+00
    0.16170E-08        -0.58208E-20         0.00000E+00
    0.16170E-08         0.11642E-20         0.00000E+00
    0.16170E-08         0.74506E-20         0.00000E+00
    0.16170E-08         0.12107E-19         0.00000E+00
    0.16170E-08         0.97789E-20         0.00000E+00
    0.16170E-08         0.13039E-19         0.00000E+00
    0.16170E-08         0.15600E-19         0.00000E+00
    0.16170E-08         0.23749E-19         0.00000E+00
    0.16170E-08         0.25146E-19         0.00000E+00
    0.16170E-08         0.13039E-19         0.00000E+00
    0.16170E-08         0.11176E-19         0.00000E+00
    0.16170E-08         0.51223E-20         0.00000E+00
    0.16170E-08         0.13039E-19         0.00000E+00
    0.16170E-08         0.65193E-20         0.00000E+00
    0.16170E-08         0.41910E-20         0.00000E+00
    0.19328E-08         0.18626E-20         0.00000E+00
    0.19328E-08         0.18626E-20         0.00000E+00
    0.19328E-08         0.12573E-19         0.00000E+00
    0.19328E-08         0.97789E-20         0.00000E+00
    0.19328E-08         0.23283E-19         0.00000E+00
    0.19328E-08         0.28405E-19         0.00000E+00
    0.19328E-08         0.24447E-19         0.00000E+00
    0.19328E-08         0.15600E-19         0.00000E+00
    0.19328E-08         0.17229E-19         0.00000E+00
    0.19328E-08         0.20955E-20         0.00000E+00
    0.19328E-08        -0.55879E-20         0.00000E+00
    0.19328E-08        -0.10012E-19         0.00000E+00
    0.19328E-08         0.51223E-20         0.00000E+00
    0.19328E-08        -0.53551E-20         0.00000E+00
    0.19328E-08        -0.22352E-19         0.00000E+00
    0.19328E-08        -0.25611E-19         0.00000E+00
    0.19328E-08        -0.29802E-19         0.00000E+00
    0.19328E-08        -0.10245E-19         0.00000E+00
    0.19328E-08         0.23283E-20         0.00000E+00
    0.19328E-08         0.51223E-20         0.00000E+00
    0.19328E-08         0.11642E-19         0.00000E+00
    0.19328E-08         0.22119E-19         0.00000E+00
    0.19328E-08         0.20023E-19         0.00000E+00
    0.19328E-08         0.19791E-19         0.00000E+00
    0.19328E-08         0.19092E-19         0.00000E+00
    0.19328E-08         0.97789E-20         0.00000E+00
    0.19328E-08         0.46566E-21         0.00000E+00
    0.19328E-08        -0.13970E-20         0.00000E+00
    0.19328E-08        -0.97789E-20         0.00000E+00
    0.19328E-08         0.41910E-20         0.00000E+00
    0.19328E-08        -0.65193E-20         0.00000E+00
    0.19328E-08        -0.23283E-20         0.00000E+00
    0.19328E-08        -0.26077E-19         0.00000E+00
    0.19328E-08        -0.29104E-19         0.00000E+00
    0.19328E-08        -0.25379E-19         0.00000E+00
    0.19328E-08        -0.16764E-19         0.00000E+00
    0.19328E-08        -0.55879E-20         0.00000E+00
    0.19328E-08         0.00000E+00         0.00000E+00
    0.19328E-08         0.46566E-21         0.00000E+00
    0.19328E-08        -0.46566E-21         0.00000E+00
    0.19328E-08         0.60536E-20         0.00000E+00
    0.19328E-08         0.16298E-19         0.00000E+00
    0.19328E-08         0.21886E-19         0.00000E+00
    0.19328E-08         0.20955E-19         0.00000E+00
    0.19328E-08         0.15600E-19         0.00000E+00
    0.19328E-08         0.10477E-19         0.00000E+00
    0.19328E-08         0.76834E-20         0.00000E+00
    0.19328E-08         0.97789E-20         0.00000E+00
    0.19328E-08         0.60536E-20         0.00000E+00
    0.19328E-08         0.41910E-20         0.00000E+00
    0.23079E-08         0.46566E-20         0.00000E+00
    0.23079E-08         0.41910E-20         0.00000E+00
    0.23079E-08         0.55879E-20         0.00000E+00
    0.23079E-08        -0.41910E-20         0.00000E+00
    0.23079E-08         0.20722E-19         0.00000E+00
    0.23079E-08         0.36089E-19         0.00000E+00
    0.23079E-08         0.30734E-19         0.00000E+00
    0.23079E-08         0.20023E-19         0.00000E+00
    0.23079E-08         0.20955E-19         0.00000E+00
    0.23079E-08         0.37253E-20         0.00000E+00
    0.23079E-08         0.88476E-20         0.00000E+00
    0.23079E-08         0.37253E-20         0.00000E+00
    0.23079E-08         0.15367E-19         0.00000E+00
    0.23079E-08         0.46566E-20         0.00000E+00
    0.23079E-08        -0.74506E-20         0.00000E+00
    0.23079E-08        -0.15134E-19         0.00000E+00
    0.23079E-08        -0.14901E-19         0.00000E+00
    0.23079E-08        -0.13970E-19         0.00000E+00
    0.23079E-08         0.41910E-20         0.00000E+00
    0.23079E-08         0.46566E-20         0.00000E+00
    0.23079E-08         0.83819E-20         0.00000E+00
    0.23079E-08         0.12573E-19         0.00000E+00
    0.23079E-08         0.16764E-19         0.00000E+00
    0.23079E-08         0.88476E-20         0.00000E+00
    0.23079E-08         0.12107E-19         0.00000E+00
    0.23079E-08         0.51223E-20         0.00000E+00
    0.23079E-08        -0.65193E-20         0.00000E+00
    0.23079E-08         0.55879E-20         0.00000E+00
    0.23079E-08        -0.88476E-20         0.00000E+00
    0.23079E-08        -0.46566E-21         0.00000E+00
    0.23079E-08        -0.79162E-20         0.00000E+00
    0.23079E-08        -0.12107E-19         0.00000E+00
    0.23079E-08        -0.29802E-19         0.00000E+00
    0.23079E-08        -0.27474E-19         0.00000E+00
    0.23079E-08        -0.31665E-19         0.00000E+00
    0.23079E-08        -0.23749E-19         0.00000E+00
    0.23079E-08        -0.12107E-19         0.00000E+00
    0.23079E-08        -0.93132E-20         0.00000E+00
    0.23079E-08        -0.15367E-19         0.00000E+00
    0.23079E-08        -0.11176E-19         0.00000E+00
    0.23079E-08         0.32596E-20         0.00000E+00
    0.23079E-08         0.11642E-19         0.00000E+00
    0.23079E-08         0.14901E-19         0.00000E+00
    0.23079E-08         0.11409E-19         0.00000E+00
    0.23079E-08         0.72177E-20         0.00000E+00
    0.23079E-08         0.74506E-20         0.00000E+00
    0.23079E-08         0.13970E-20         0.00000E+00
    0.23079E-08         0.32596E-20         0.00000E+00
    0.23079E-08        -0.46566E-21         0.00000E+00
    0.23079E-08         0.44238E-20         0.00000E+00
    0.27530E-08         0.41910E-20         0.00000E+00
    0.27530E-08         0.83819E-20         0.00000E+00
    0.27530E-08         0.25611E-20         0.00000E+00
    0.27530E-08         0.51223E-20         0.00000E+00
    0.27530E-08         0.27008E-19         0.00000E+00
    0.27530E-08         0.30734E-19         0.00000E+00
    0.27530E-08         0.28405E-19         0.00000E+00
    0.27530E-08         0.24913E-19         0.00000E+00
    0.27530E-08         0.25379E-19         0.00000E+00
    0.27530E-08         0.11874E-19         0.00000E+00
    0.27530E-08         0.14668E-19         0.00000E+00
    0.27530E-08         0.17229E-19         0.00000E+00
    0.27530E-08         0.20955E-19         0.00000E+00
    0.27530E-08         0.10710E-19         0.00000E+00
    0.27530E-08        -0.23283E-20         0.00000E+00
    0.27530E-08        -0.10012E-19         0.00000E+00
    0.27530E-08        -0.88476E-20         0.00000E+00
    0.27530E-08        -0.74506E-20         0.00000E+00
    0.27530E-08         0.41910E-20         0.00000E+00
    0.27530E-08        -0.60536E-20         0.00000E+00
    0.27530E-08         0.27940E-20         0.00000E+00
    0.27530E-08         0.93132E-20         0.00000E+00
    0.27530E-08         0.12573E-19         0.00000E+00
    0.27530E-08         0.11409E-19         0.00000E+00
    0.27530E-08         0.16298E-19         0.00000E+00
    0.27530E-08         0.48894E-20         0.00000E+00
    0.27530E-08        -0.27940E-20         0.00000E+00
    0.27530E-08        -0.93132E-21         0.00000E+00
    0.27530E-08        -0.18859E-19         0.00000E+00
    0.27530E-08        -0.18626E-20         0.00000E+00
    0.27530E-08        -0.41910E-20         0.00000E+00
    0.27530E-08        -0.12107E-19         0.00000E+00
    0.27530E-08        -0.27474E-19         0.00000E+00
    0.27530E-08        -0.29104E-19         0.00000E+00
    0.27530E-08        -0.35623E-19         0.00000E+00
    0.27530E-08        -0.28871E-19         0.00000E+00
    0.27530E-08        -0.22352E-19         0.00000E+00
    0.27530E-08        -0.21420E-19         0.00000E+00
    0.27530E-08        -0.22817E-19         0.00000E+00
    0.27530E-08        -0.20955E-19         0.00000E+00
    0.27530E-08        -0.55879E-20         0.00000E+00
    0.27530E-08         0.65193E-20         0.00000E+00
    0.27530E-08         0.15832E-19         0.00000E+00
    0.27530E-08         0.16298E-19         0.00000E+00
    0.27530E-08         0.86147E-20         0.00000E+00
    0.27530E-08         0.53551E-20         0.00000E+00
    0.27530E-08        -0.18626E-20         0.00000E+00
    0.27530E-08         0.11642E-20         0.00000E+00
    0.27530E-08         0.46566E-21         0.00000E+00
    0.27530E-08         0.13970E-20         0.00000E+00
    0.32803E-08         0.18626E-20         0.00000E+00
    0.32803E-08         0.12340E-19         0.00000E+00
    0.32803E-08         0.88476E-20         0.00000E+00
    0.32803E-08         0.97789E-20         0.00000E+00
    0.32803E-08         0.24214E-19         0.00000E+00
    0.32803E-08         0.44005E-19         0.00000E+00
    0.32803E-08         0.37253E-19         0.00000E+00
    0.32803E-08         0.27940E-19         0.00000E+00
    0.32803E-08         0.29104E-19         0.00000E+00
    0.32803E-08         0.22352E-19         0.00000E+00
    0.32803E-08         0.16531E-19         0.00000E+00
    0.32803E-08         0.18626E-19         0.00000E+00
    0.32803E-08         0.20955E-19         0.00000E+00
    0.32803E-08         0.74506E-20         0.00000E+00
    0.32803E-08        -0.10245E-19         0.00000E+00
    0.32803E-08        -0.37253E-20         0.00000E+00
    0.32803E-08        -0.97789E-20         0.00000E+00
    0.32803E-08        -0.51223E-20         0.00000E+00
    0.32803E-08         0.11642E-20         0.00000E+00
    0.32803E-08        -0.51223E-20         0.00000E+00
    0.32803E-08        -0.27940E-20         0.00000E+00
    0.32803E-08         0.18626E-20         0.00000E+00
    0.32803E-08         0.55879E-20         0.00000E+00
    0.32803E-08         0.83819E-20         0.00000E+00
    0.32803E-08         0.10012E-19         0.00000E+00
    0.32803E-08         0.79162E-20         0.00000E+00
    0.32803E-08         0.79162E-20         0.00000E+00
    0.32803E-08         0.00000E+00         0.00000E+00
    0.32803E-08        -0.16298E-19         0.00000E+00
    0.32803E-08         0.00000E+00         0.00000E+00
    0.32803E-08        -0.65193E-20         0.00000E+00
    0.32803E-08        -0.13504E-19         0.00000E+00
    0.32803E-08        -0.33062E-19         0.00000E+00
    0.32803E-08        -0.34925E-19         0.00000E+00
    0.32803E-08        -0.34925E-19         0.00000E+00
    0.32803E-08        -0.24447E-19         0.00000E+00
    0.32803E-08        -0.19092E-19         0.00000E+00
    0.32803E-08        -0.20955E-19         0.00000E+00
    0.32803E-08        -0.28173E-19         0.00000E+00
    0.32803E-08        -0.19791E-19         0.00000E+00
    0.32803E-08        -0.32596E-20         0.00000E+00
    0.32803E-08         0.67521E-20         0.00000E+00
    0.32803E-08         0.18626E-19         0.00000E+00
    0.32803E-08         0.14901E-19         0.00000E+00
    0.32803E-08         0.10245E-19         0.00000E+00
    0.32803E-08         0.41910E-20         0.00000E+00
    0.32803E-08        -0.46566E-20         0.00000E+00
    0.32803E-08         0.18626E-20         0.00000E+00
    0.32803E-08        -0.93132E-21         0.00000E+00
    0.32803E-08         0.27940E-20         0.00000E+00
    0.39042E-08         0.18626E-20         0.00000E+00
    0.39042E-08         0.18626E-20         0.00000E+00
    0.39042E-08         0.11642E-19         0.00000E+00
    0.39042E-08         0.65193E-20         0.00000E+00
    0.39042E-08         0.23749E-19         0.00000E+00
    0.39042E-08         0.52853E-19         0.00000E+00
    0.39042E-08         0.48662E-19         0.00000E+00
    0.39042E-08         0.34226E-19         0.00000E+00
    0.39042E-08         0.30734E-19         0.00000E+00
    0.39042E-08         0.13504E-19         0.00000E+00
    0.39042E-08         0.16298E-19         0.00000E+00
    0.39042E-08         0.19092E-19         0.00000E+00
    0.39042E-08         0.22817E-19         0.00000E+00
    0.39042E-08         0.65193E-20         0.00000E+00
    0.39042E-08        -0.11176E-19         0.00000E+00
    0.39042E-08         0.46566E-21         0.00000E+00
    0.39042E-08        -0.83819E-20         0.00000E+00
    0.39042E-08        -0.13504E-19         0.00000E+00
    0.39042E-08        -0.60536E-20         0.00000E+00
    0.39042E-08        -0.97789E-20         0.00000E+00
    0.39042E-08         0.11642E-20         0.00000E+00
    0.39042E-08         0.23283E-20         0.00000E+00
    0.39042E-08         0.41910E-20         0.00000E+00
    0.39042E-08         0.32596E-20         0.00000E+00
    0.39042E-08         0.41910E-20         0.00000E+00
    0.39042E-08         0.62864E-20         0.00000E+00
    0.39042E-08         0.13970E-20         0.00000E+00
    0.39042E-08         0.46566E-20         0.00000E+00
    0.39042E-08        -0.10245E-19         0.00000E+00
    0.39042E-08         0.23283E-20         0.00000E+00
    0.39042E-08        -0.65193E-20         0.00000E+00
    0.39042E-08        -0.14435E-19         0.00000E+00
    0.39042E-08        -0.33528E-19         0.00000E+00
    0.39042E-08        -0.35856E-19         0.00000E+00
    0.39042E-08        -0.27008E-19         0.00000E+00
    0.39042E-08        -0.24214E-19         0.00000E+00
    0.39042E-08        -0.13970E-19         0.00000E+00
    0.39042E-08        -0.13970E-19         0.00000E+00
    0.39042E-08        -0.20023E-19         0.00000E+00
    0.39042E-08        -0.20489E-19         0.00000E+00
    0.39042E-08        -0.13970E-20         0.00000E+00
    0.39042E-08         0.97789E-20         0.00000E+00
    0.39042E-08         0.14435E-19         0.00000E+00
    0.39042E-08         0.17462E-19         0.00000E+00
    0.39042E-08         0.32596E-20         0.00000E+00
    0.39042E-08        -0.27940E-20         0.00000E+00
    0.39042E-08        -0.60536E-20         0.00000E+00
    0.39042E-08         0.23283E-20         0.00000E+00
    0.39042E-08        -0.65193E-20         0.00000E+00
    0.39042E-08         0.18626E-20         0.00000E+00
    0.46410E-08         0.46566E-20         0.00000E+00
    0.46410E-08         0.18626E-20         0.00000E+00
    0.46410E-08         0.12107E-19         0.00000E+00
    0.46410E-08         0.17229E-19         0.00000E+00
    0.46410E-08         0.26543E-19         0.00000E+00
    0.46410E-08         0.42841E-19         0.00000E+00
    0.46410E-08         0.44238E-19         0.00000E+00
    0.46410E-08         0.33528E-19         0.00000E+00
    0.46410E-08         0.31665E-19         0.00000E+00
    0.46410E-08         0.16065E-19         0.00000E+00
    0.46410E-08         0.76834E-20         0.00000E+00
    0.46410E-08         0.15832E-19         0.00000E+00
    0.46410E-08         0.21420E-19         0.00000E+00
    0.46410E-08         0.13039E-19         0.00000E+00
    0.46410E-08         0.51223E-20         0.00000E+00
    0.46410E-08         0.30268E-20         0.00000E+00
    0.46410E-08        -0.13970E-20         0.00000E+00
    0.46410E-08        -0.79162E-20         0.00000E+00
    0.46410E-08         0.93132E-21         0.00000E+00
    0.46410E-08        -0.90804E-20         0.00000E+00
    0.46410E-08         0.00000E+00         0.00000E+00
    0.46410E-08        -0.16298E-20         0.00000E+00
    0.46410E-08        -0.46566E-21         0.00000E+00
    0.46410E-08         0.27940E-20         0.00000E+00
    0.46410E-08         0.93132E-21         0.00000E+00
    0.46410E-08         0.62864E-20         0.00000E+00
    0.46410E-08         0.18626E-20         0.00000E+00
    0.46410E-08        -0.27940E-20         0.00000E+00
    0.46410E-08        -0.13504E-19         0.00000E+00
    0.46410E-08        -0.13970E-20         0.00000E+00
    0.46410E-08        -0.14668E-19         0.00000E+00
    0.46410E-08        -0.13039E-19         0.00000E+00
    0.46410E-08        -0.28871E-19         0.00000E+00
    0.46410E-08        -0.32131E-19         0.00000E+00
    0.46410E-08        -0.26310E-19         0.00000E+00
    0.46410E-08        -0.27940E-19         0.00000E+00
    0.46410E-08        -0.12806E-19         0.00000E+00
    0.46410E-08        -0.12573E-19         0.00000E+00
    0.46410E-08        -0.11642E-19         0.00000E+00
    0.46410E-08        -0.15832E-19         0.00000E+00
    0.46410E-08        -0.23283E-20         0.00000E+00
    0.46410E-08         0.83819E-20         0.00000E+00
    0.46410E-08         0.11409E-19         0.00000E+00
    0.46410E-08         0.11642E-19         0.00000E+00
    0.46410E-08        -0.13970E-20         0.00000E+00
    0.46410E-08        -0.44238E-20         0.00000E+00
    0.46410E-08        -0.18626E-20         0.00000E+00
    0.46410E-08         0.18626E-20         0.00000E+00
    0.46410E-08        -0.48894E-20         0.00000E+00
    0.46410E-08         0.39581E-20         0.00000E+00
    0.55100E-08         0.83819E-20         0.00000E+00
    0.55100E-08         0.15367E-19         0.00000E+00
    0.55100E-08         0.10710E-19         0.00000E+00
    0.55100E-08         0.14668E-19         0.00000E+00
    0.55100E-08         0.23283E-19         0.00000E+00
    0.55100E-08         0.35390E-19         0.00000E+00
    0.55100E-08         0.31199E-19         0.00000E+00
    0.55100E-08         0.34925E-19         0.00000E+00
    0.55100E-08         0.27940E-19         0.00000E+00
    0.55100E-08         0.17229E-19         0.00000E+00
    0.55100E-08         0.95461E-20         0.00000E+00
    0.55100E-08         0.13970E-19         0.00000E+00
    0.55100E-08         0.26077E-19         0.00000E+00
    0.55100E-08         0.20023E-19         0.00000E+00
    0.55100E-08         0.12573E-19         0.00000E+00
    0.55100E-08         0.60536E-20         0.00000E+00
    0.55100E-08         0.65193E-20         0.00000E+00
    0.55100E-08        -0.18626E-20         0.00000E+00
    0.55100E-08         0.13039E-19         0.00000E+00
    0.55100E-08         0.51223E-20         0.00000E+00
    0.55100E-08         0.20955E-20         0.00000E+00
    0.55100E-08         0.58208E-20         0.00000E+00
    0.55100E-08         0.51223E-20         0.00000E+00
    0.55100E-08         0.55879E-20         0.00000E+00
    0.55100E-08        -0.11642E-20         0.00000E+00
    0.55100E-08         0.37253E-20         0.00000E+00
    0.55100E-08        -0.10012E-19         0.00000E+00
    0.55100E-08        -0.10245E-19         0.00000E+00
    0.55100E-08        -0.23749E-19         0.00000E+00
    0.55100E-08        -0.11642E-19         0.00000E+00
    0.55100E-08        -0.22817E-19         0.00000E+00
    0.55100E-08        -0.16298E-19         0.00000E+00
    0.55100E-08        -0.20489E-19         0.00000E+00
    0.55100E-08        -0.30268E-19         0.00000E+00
    0.55100E-08        -0.28405E-19         0.00000E+00
    0.55100E-08        -0.21886E-19         0.00000E+00
    0.55100E-08        -0.95461E-20         0.00000E+00
    0.55100E-08        -0.93132E-20         0.00000E+00
    0.55100E-08        -0.97789E-20         0.00000E+00
    0.55100E-08        -0.17695E-19         0.00000E+00
    0.55100E-08         0.34925E-20         0.00000E+00
    0.55100E-08         0.10012E-19         0.00000E+00
    0.55100E-08         0.10710E-19         0.00000E+00
    0.55100E-08         0.88476E-20         0.00000E+00
    0.55100E-08         0.41910E-20         0.00000E+00
    0.55100E-08         0.60536E-20         0.00000E+00
    0.55100E-08         0.25611E-20         0.00000E+00
    0.55100E-08         0.81491E-20         0.00000E+00
    0.55100E-08        -0.37253E-20         0.00000E+00
    0.55100E-08         0.65193E-20         0.00000E+00
    0.65330E-08         0.11642E-19         0.00000E+00
    0.65330E-08         0.20023E-19         0.00000E+00
    0.65330E-08         0.15832E-19         0.00000E+00
    0.65330E-08         0.11874E-19         0.00000E+00
    0.65330E-08         0.27474E-19         0.00000E+00
    0.65330E-08         0.42375E-19         0.00000E+00
    0.65330E-08         0.29104E-19         0.00000E+00
    0.65330E-08         0.32596E-19         0.00000E+00
    0.65330E-08         0.23283E-19         0.00000E+00
    0.65330E-08         0.15367E-19         0.00000E+00
    0.65330E-08         0.16298E-19         0.00000E+00
    0.65330E-08         0.25146E-19         0.00000E+00
    0.65330E-08         0.29337E-19         0.00000E+00
    0.65330E-08         0.20955E-19         0.00000E+00
    0.65330E-08         0.97789E-20         0.00000E+00
    0.65330E-08         0.11409E-19         0.00000E+00
    0.65330E-08         0.10710E-19         0.00000E+00
    0.65330E-08         0.46566E-20         0.00000E+00
    0.65330E-08         0.10245E-19         0.00000E+00
    0.65330E-08         0.97789E-20         0.00000E+00
    0.65330E-08         0.46566E-20         0.00000E+00
    0.65330E-08         0.13504E-19         0.00000E+00
    0.65330E-08         0.10710E-19         0.00000E+00
    0.65330E-08         0.46566E-20         0.00000E+00
    0.65330E-08         0.55879E-20         0.00000E+00
    0.65330E-08        -0.20955E-20         0.00000E+00
    0.65330E-08        -0.69849E-20         0.00000E+00
    0.65330E-08        -0.10245E-19         0.00000E+00
    0.65330E-08        -0.24214E-19         0.00000E+00
    0.65330E-08        -0.15600E-19         0.00000E+00
    0.65330E-08        -0.23749E-19         0.00000E+00
    0.65330E-08        -0.21420E-19         0.00000E+00
    0.65330E-08        -0.26776E-19         0.00000E+00
    0.65330E-08        -0.29337E-19         0.00000E+00
    0.65330E-08        -0.35390E-19         0.00000E+00
    0.65330E-08        -0.26077E-19         0.00000E+00
    0.65330E-08        -0.13039E-19         0.00000E+00
    0.65330E-08        -0.10710E-19         0.00000E+00
    0.65330E-08        -0.10943E-19         0.00000E+00
    0.65330E-08        -0.19092E-19         0.00000E+00
    0.65330E-08         0.93132E-21         0.00000E+00
    0.65330E-08         0.15832E-19         0.00000E+00
    0.65330E-08         0.16764E-19         0.00000E+00
    0.65330E-08         0.14435E-19         0.00000E+00
    0.65330E-08         0.69849E-20         0.00000E+00
    0.65330E-08         0.79162E-20         0.00000E+00
    0.65330E-08        -0.93132E-21         0.00000E+00
    0.65330E-08         0.41910E-20         0.00000E+00
    0.65330E-08        -0.46566E-21         0.00000E+00
    0.65330E-08         0.51223E-20         0.00000E+00
    0.77350E-08         0.51223E-20         0.00000E+00
    0.77350E-08         0.20023E-19         0.00000E+00
    0.77350E-08         0.18161E-19         0.00000E+00
    0.77350E-08         0.60536E-20         0.00000E+00
    0.77350E-08         0.26077E-19         0.00000E+00
    0.77350E-08         0.43306E-19         0.00000E+00
    0.77350E-08         0.34925E-19         0.00000E+00
    0.77350E-08         0.26077E-19         0.00000E+00
    0.77350E-08         0.26543E-19         0.00000E+00
    0.77350E-08         0.21886E-19         0.00000E+00
    0.77350E-08         0.28405E-19         0.00000E+00
    0.77350E-08         0.31898E-19         0.00000E+00
    0.77350E-08         0.27008E-19         0.00000E+00
    0.77350E-08         0.14901E-19         0.00000E+00
    0.77350E-08         0.11642E-20         0.00000E+00
    0.77350E-08         0.46566E-20         0.00000E+00
    0.77350E-08         0.37253E-20         0.00000E+00
    0.77350E-08         0.13970E-19         0.00000E+00
    0.77350E-08         0.20023E-19         0.00000E+00
    0.77350E-08         0.23283E-20         0.00000E+00
    0.77350E-08         0.79162E-20         0.00000E+00
    0.77350E-08         0.41910E-20         0.00000E+00
    0.77350E-08         0.14435E-19         0.00000E+00
    0.77350E-08         0.13970E-19         0.00000E+00
    0.77350E-08         0.74506E-20         0.00000E+00
    0.77350E-08         0.74506E-20         0.00000E+00
    0.77350E-08         0.00000E+00         0.00000E+00
    0.77350E-08        -0.10710E-19         0.00000E+00
    0.77350E-08        -0.24214E-19         0.00000E+00
    0.77350E-08        -0.14435E-19         0.00000E+00
    0.77350E-08        -0.16298E-19         0.00000E+00
    0.77350E-08        -0.19325E-19         0.00000E+00
    0.77350E-08        -0.26543E-19         0.00000E+00
    0.77350E-08        -0.30966E-19         0.00000E+00
    0.77350E-08        -0.32829E-19         0.00000E+00
    0.77350E-08        -0.27940E-19         0.00000E+00
    0.77350E-08        -0.12340E-19         0.00000E+00
    0.77350E-08        -0.79162E-20         0.00000E+00
    0.77350E-08        -0.65193E-20         0.00000E+00
    0.77350E-08        -0.93132E-20         0.00000E+00
    0.77350E-08         0.00000E+00         0.00000E+00
    0.77350E-08         0.15134E-19         0.00000E+00
    0.77350E-08         0.16298E-19         0.00000E+00
    0.77350E-08         0.97789E-20         0.00000E+00
    0.77350E-08         0.34925E-20         0.00000E+00
    0.77350E-08         0.00000E+00         0.00000E+00
    0.77350E-08        -0.34925E-20         0.00000E+00
    0.77350E-08         0.27940E-20         0.00000E+00
    0.77350E-08         0.00000E+00         0.00000E+00
    0.77350E-08         0.41910E-20         0.00000E+00
    0.91447E-08         0.51223E-20         0.00000E+00
    0.91447E-08         0.14435E-19         0.00000E+00
    0.91447E-08         0.12573E-19         0.00000E+00
    0.91447E-08         0.97789E-20         0.00000E+00
    0.91447E-08         0.23749E-19         0.00000E+00
    0.91447E-08         0.44471E-19         0.00000E+00
    0.91447E-08         0.40047E-19         0.00000E+00
    0.91447E-08         0.26310E-19         0.00000E+00
    0.91447E-08         0.16531E-19         0.00000E+00
    0.91447E-08         0.13504E-19         0.00000E+00
    0.91447E-08         0.22352E-19         0.00000E+00
    0.91447E-08         0.26543E-19         0.00000E+00
    0.91447E-08         0.31199E-19         0.00000E+00
    0.91447E-08         0.16531E-19         0.00000E+00
    0.91447E-08         0.37253E-20         0.00000E+00
    0.91447E-08         0.18626E-20         0.00000E+00
    0.91447E-08         0.69849E-20         0.00000E+00
    0.91447E-08         0.16298E-20         0.00000E+00
    0.91447E-08         0.12107E-19         0.00000E+00
    0.91447E-08         0.23283E-20         0.00000E+00
    0.91447E-08        -0.46566E-21         0.00000E+00
    0.91447E-08         0.18626E-20         0.00000E+00
    0.91447E-08         0.97789E-20         0.00000E+00
    0.91447E-08         0.12107E-19         0.00000E+00
    0.91447E-08         0.10710E-19         0.00000E+00
    0.91447E-08         0.53551E-20         0.00000E+00
    0.91447E-08        -0.18626E-20         0.00000E+00
    0.91447E-08        -0.69849E-20         0.00000E+00
    0.91447E-08        -0.26077E-19         0.00000E+00
    0.91447E-08        -0.18626E-19         0.00000E+00
    0.91447E-08        -0.19558E-19         0.00000E+00
    0.91447E-08        -0.13271E-19         0.00000E+00
    0.91447E-08        -0.27241E-19         0.00000E+00
    0.91447E-08        -0.30734E-19         0.00000E+00
    0.91447E-08        -0.25844E-19         0.00000E+00
    0.91447E-08        -0.23283E-19         0.00000E+00
    0.91447E-08        -0.11642E-19         0.00000E+00
    0.91447E-08        -0.10012E-19         0.00000E+00
    0.91447E-08        -0.10943E-19         0.00000E+00
    0.91447E-08        -0.53551E-20         0.00000E+00
    0.91447E-08         0.37253E-20         0.00000E+00
    0.91447E-08         0.12573E-19         0.00000E+00
    0.91447E-08         0.10943E-19         0.00000E+00
    0.91447E-08         0.15134E-19         0.00000E+00
    0.91447E-08         0.23283E-20         0.00000E+00
    0.91447E-08        -0.37253E-20         0.00000E+00
    0.91447E-08        -0.23283E-20         0.00000E+00
    0.91447E-08         0.13039E-19         0.00000E+00
    0.91447E-08         0.18626E-20         0.00000E+00
    0.91447E-08         0.23283E-20         0.00000E+00
    0.10794E-07         0.86147E-20         0.00000E+00
    0.10794E-07         0.11642E-19         0.00000E+00
    0.10794E-07         0.10245E-19         0.00000E+00
    0.10794E-07         0.10245E-19         0.00000E+00
    0.10794E-07         0.25146E-19         0.00000E+00
    0.10794E-07         0.35856E-19         0.00000E+00
    0.10794E-07         0.35623E-19         0.00000E+00
    0.10794E-07         0.26310E-19         0.00000E+00
    0.10794E-07         0.20722E-19         0.00000E+00
    0.10794E-07         0.93132E-20         0.00000E+00
    0.10794E-07         0.11642E-19         0.00000E+00
    0.10794E-07         0.20955E-19         0.00000E+00
    0.10794E-07         0.24214E-19         0.00000E+00
    0.10794E-07         0.17928E-19         0.00000E+00
    0.10794E-07         0.10943E-19         0.00000E+00
    0.10794E-07         0.51223E-20         0.00000E+00
    0.10794E-07         0.48894E-20         0.00000E+00
    0.10794E-07        -0.32596E-20         0.00000E+00
    0.10794E-07         0.93132E-21         0.00000E+00
    0.10794E-07         0.13970E-20         0.00000E+00
    0.10794E-07         0.32596E-20         0.00000E+00
    0.10794E-07         0.46566E-20         0.00000E+00
    0.10794E-07         0.14901E-19         0.00000E+00
    0.10794E-07         0.15832E-19         0.00000E+00
    0.10794E-07         0.39581E-20         0.00000E+00
    0.10794E-07         0.30268E-20         0.00000E+00
    0.10794E-07        -0.32596E-20         0.00000E+00
    0.10794E-07         0.27940E-20         0.00000E+00
    0.10794E-07        -0.18626E-19         0.00000E+00
    0.10794E-07        -0.12107E-19         0.00000E+00
    0.10794E-07        -0.19558E-19         0.00000E+00
    0.10794E-07        -0.12573E-19         0.00000E+00
    0.10794E-07        -0.30734E-19         0.00000E+00
    0.10794E-07        -0.27474E-19         0.00000E+00
    0.10794E-07        -0.29337E-19         0.00000E+00
    0.10794E-07        -0.26543E-19         0.00000E+00
    0.10794E-07        -0.16298E-19         0.00000E+00
    0.10794E-07        -0.12340E-19         0.00000E+00
    0.10794E-07        -0.15832E-19         0.00000E+00
    0.10794E-07        -0.11176E-19         0.00000E+00
    0.10794E-07        -0.34925E-20         0.00000E+00
    0.10794E-07         0.16764E-19         0.00000E+00
    0.10794E-07         0.17695E-19         0.00000E+00
    0.10794E-07         0.12573E-19         0.00000E+00
    0.10794E-07         0.25611E-20         0.00000E+00
    0.10794E-07        -0.23283E-20         0.00000E+00
    0.10794E-07        -0.93132E-21         0.00000E+00
    0.10794E-07         0.18626E-20         0.00000E+00
    0.10794E-07         0.46566E-20         0.00000E+00
    0.10794E-07         0.23283E-20         0.00000E+00
    0.12721E-07         0.27940E-20         0.00000E+00
    0.12721E-07         0.14435E-19         0.00000E+00
    0.12721E-07         0.11642E-19         0.00000E+00
    0.12721E-07         0.83819E-20         0.00000E+00
    0.12721E-07         0.19092E-19         0.00000E+00
    0.12721E-07         0.33528E-19         0.00000E+00
    0.12721E-07         0.27940E-19         0.00000E+00
    0.12721E-07         0.25611E-19         0.00000E+00
    0.12721E-07         0.31199E-19         0.00000E+00
    0.12721E-07         0.19092E-19         0.00000E+00
    0.12721E-07         0.24680E-19         0.00000E+00
    0.12721E-07         0.24447E-19         0.00000E+00
    0.12721E-07         0.26310E-19         0.00000E+00
    0.12721E-07         0.21188E-19         0.00000E+00
    0.12721E-07        -0.32596E-20         0.00000E+00
    0.12721E-07        -0.18626E-20         0.00000E+00
    0.12721E-07        -0.41910E-20         0.00000E+00
    0.12721E-07        -0.37253E-20         0.00000E+00
    0.12721E-07         0.14901E-19         0.00000E+00
    0.12721E-07         0.79162E-20         0.00000E+00
    0.12721E-07         0.74506E-20         0.00000E+00
    0.12721E-07         0.18626E-20         0.00000E+00
    0.12721E-07         0.93132E-20         0.00000E+00
    0.12721E-07         0.81491E-20         0.00000E+00
    0.12721E-07         0.74506E-20         0.00000E+00
    0.12721E-07         0.32596E-20         0.00000E+00
    0.12721E-07         0.13970E-20         0.00000E+00
    0.12721E-07         0.93132E-21         0.00000E+00
    0.12721E-07        -0.23283E-19         0.00000E+00
    0.12721E-07        -0.88476E-20         0.00000E+00
    0.12721E-07        -0.10245E-19         0.00000E+00
    0.12721E-07        -0.14901E-19         0.00000E+00
    0.12721E-07        -0.30734E-19         0.00000E+00
    0.12721E-07        -0.33528E-19         0.00000E+00
    0.12721E-07        -0.32131E-19         0.00000E+00
    0.12721E-07        -0.24913E-19         0.00000E+00
    0.12721E-07        -0.13737E-19         0.00000E+00
    0.12721E-07        -0.10710E-19         0.00000E+00
    0.12721E-07        -0.19558E-19         0.00000E+00
    0.12721E-07        -0.16298E-19         0.00000E+00
    0.12721E-07         0.23283E-20         0.00000E+00
    0.12721E-07         0.12340E-19         0.00000E+00
    0.12721E-07         0.12573E-19         0.00000E+00
    0.12721E-07         0.76834E-20         0.00000E+00
    0.12721E-07        -0.67521E-20         0.00000E+00
    0.12721E-07        -0.46566E-20         0.00000E+00
    0.12721E-07        -0.60536E-20         0.00000E+00
    0.12721E-07         0.16298E-20         0.00000E+00
    0.12721E-07         0.13970E-20         0.00000E+00
    0.12721E-07         0.25611E-20         0.00000E+00
    0.14965E-07         0.51223E-20         0.00000E+00
    0.14965E-07         0.12107E-19         0.00000E+00
    0.14965E-07         0.10710E-19         0.00000E+00
    0.14965E-07         0.17695E-19         0.00000E+00
    0.14965E-07         0.23283E-19         0.00000E+00
    0.14965E-07         0.37719E-19         0.00000E+00
    0.14965E-07         0.41910E-19         0.00000E+00
    0.14965E-07         0.37719E-19         0.00000E+00
    0.14965E-07         0.31665E-19         0.00000E+00
    0.14965E-07         0.23283E-19         0.00000E+00
    0.14965E-07         0.25611E-19         0.00000E+00
    0.14965E-07         0.32131E-19         0.00000E+00
    0.14965E-07         0.29569E-19         0.00000E+00
    0.14965E-07         0.21653E-19         0.00000E+00
    0.14965E-07        -0.93132E-21         0.00000E+00
    0.14965E-07         0.41910E-20         0.00000E+00
    0.14965E-07         0.23283E-20         0.00000E+00
    0.14965E-07        -0.46566E-20         0.00000E+00
    0.14965E-07         0.14435E-19         0.00000E+00
    0.14965E-07         0.69849E-20         0.00000E+00
    0.14965E-07         0.18626E-20         0.00000E+00
    0.14965E-07         0.27940E-20         0.00000E+00
    0.14965E-07         0.93132E-20         0.00000E+00
    0.14965E-07         0.93132E-20         0.00000E+00
    0.14965E-07         0.11642E-19         0.00000E+00
    0.14965E-07         0.41910E-20         0.00000E+00
    0.14965E-07         0.13970E-20         0.00000E+00
    0.14965E-07        -0.13504E-19         0.00000E+00
    0.14965E-07        -0.28871E-19         0.00000E+00
    0.14965E-07        -0.12573E-19         0.00000E+00
    0.14965E-07        -0.10245E-19         0.00000E+00
    0.14965E-07        -0.13039E-19         0.00000E+00
    0.14965E-07        -0.32596E-19         0.00000E+00
    0.14965E-07        -0.28871E-19         0.00000E+00
    0.14965E-07        -0.23283E-19         0.00000E+00
    0.14965E-07        -0.19791E-19         0.00000E+00
    0.14965E-07        -0.14435E-19         0.00000E+00
    0.14965E-07        -0.14901E-19         0.00000E+00
    0.14965E-07        -0.17229E-19         0.00000E+00
    0.14965E-07        -0.19092E-19         0.00000E+00
    0.14965E-07        -0.20955E-20         0.00000E+00
    0.14965E-07         0.11176E-19         0.00000E+00
    0.14965E-07         0.21420E-19         0.00000E+00
    0.14965E-07         0.18626E-20         0.00000E+00
    0.14965E-07        -0.13970E-19         0.00000E+00
    0.14965E-07        -0.10710E-19         0.00000E+00
    0.14965E-07        -0.97789E-20         0.00000E+00
    0.14965E-07         0.53551E-20         0.00000E+00
    0.14965E-07        -0.18626E-20         0.00000E+00
    0.14965E-07         0.34925E-20         0.00000E+00
    0.17572E-07         0.79162E-20         0.00000E+00
    0.17572E-07         0.60536E-20         0.00000E+00
    0.17572E-07         0.51223E-20         0.00000E+00
    0.17572E-07         0.11642E-19         0.00000E+00
    0.17572E-07         0.27008E-19         0.00000E+00
    0.17572E-07         0.39581E-19         0.00000E+00
    0.17572E-07         0.40047E-19         0.00000E+00
    0.17572E-07         0.29802E-19         0.00000E+00
    0.17572E-07         0.39116E-19         0.00000E+00
    0.17572E-07         0.31665E-19         0.00000E+00
    0.17572E-07         0.38184E-19         0.00000E+00
    0.17572E-07         0.32596E-19         0.00000E+00
    0.17572E-07         0.31199E-19         0.00000E+00
    0.17572E-07         0.26543E-19         0.00000E+00
    0.17572E-07         0.13039E-19         0.00000E+00
    0.17572E-07         0.65193E-20         0.00000E+00
    0.17572E-07         0.79162E-20         0.00000E+00
    0.17572E-07        -0.18626E-20         0.00000E+00
    0.17572E-07         0.16764E-19         0.00000E+00
    0.17572E-07         0.27940E-20         0.00000E+00
    0.17572E-07        -0.46566E-21         0.00000E+00
    0.17572E-07         0.88476E-20         0.00000E+00
    0.17572E-07         0.12107E-19         0.00000E+00
    0.17572E-07         0.16298E-19         0.00000E+00
    0.17572E-07         0.13039E-19         0.00000E+00
    0.17572E-07         0.46566E-20         0.00000E+00
    0.17572E-07        -0.65193E-20         0.00000E+00
    0.17572E-07        -0.13970E-19         0.00000E+00
    0.17572E-07        -0.24214E-19         0.00000E+00
    0.17572E-07        -0.14435E-19         0.00000E+00
    0.17572E-07        -0.17229E-19         0.00000E+00
    0.17572E-07        -0.13970E-19         0.00000E+00
    0.17572E-07        -0.27008E-19         0.00000E+00
    0.17572E-07        -0.28871E-19         0.00000E+00
    0.17572E-07        -0.28405E-19         0.00000E+00
    0.17572E-07        -0.24214E-19         0.00000E+00
    0.17572E-07        -0.16764E-19         0.00000E+00
    0.17572E-07        -0.14435E-19         0.00000E+00
    0.17572E-07        -0.15832E-19         0.00000E+00
    0.17572E-07        -0.17695E-19         0.00000E+00
    0.17572E-07        -0.32596E-20         0.00000E+00
    0.17572E-07         0.11642E-19         0.00000E+00
    0.17572E-07         0.15832E-19         0.00000E+00
    0.17572E-07         0.79162E-20         0.00000E+00
    0.17572E-07        -0.93132E-21         0.00000E+00
    0.17572E-07        -0.74506E-20         0.00000E+00
    0.17572E-07        -0.12573E-19         0.00000E+00
    0.17572E-07        -0.46566E-20         0.00000E+00
    0.17572E-07        -0.46566E-20         0.00000E+00
    0.17572E-07         0.65193E-20         0.00000E+00
    0.20593E-07         0.23283E-20         0.00000E+00
    0.20593E-07         0.69849E-20         0.00000E+00
    0.20593E-07         0.18626E-20         0.00000E+00
    0.20593E-07         0.55879E-20         0.00000E+00
    0.20593E-07         0.27940E-19         0.00000E+00
    0.20593E-07         0.48894E-19         0.00000E+00
    0.20593E-07         0.44936E-19         0.00000E+00
    0.20593E-07         0.33062E-19         0.00000E+00
    0.20593E-07         0.33993E-19         0.00000E+00
    0.20593E-07         0.31199E-19         0.00000E+00
    0.20593E-07         0.34925E-19         0.00000E+00
    0.20593E-07         0.27940E-19         0.00000E+00
    0.20593E-07         0.28871E-19         0.00000E+00
    0.20593E-07         0.21420E-19         0.00000E+00
    0.20593E-07         0.12806E-19         0.00000E+00
    0.20593E-07         0.41910E-20         0.00000E+00
    0.20593E-07         0.69849E-20         0.00000E+00
    0.20593E-07         0.00000E+00         0.00000E+00
    0.20593E-07         0.16764E-19         0.00000E+00
    0.20593E-07         0.10710E-19         0.00000E+00
    0.20593E-07         0.46566E-20         0.00000E+00
    0.20593E-07         0.41910E-20         0.00000E+00
    0.20593E-07         0.13504E-19         0.00000E+00
    0.20593E-07         0.14435E-19         0.00000E+00
    0.20593E-07         0.97789E-20         0.00000E+00
    0.20593E-07         0.60536E-20         0.00000E+00
    0.20593E-07        -0.41910E-20         0.00000E+00
    0.20593E-07        -0.10245E-19         0.00000E+00
    0.20593E-07        -0.23283E-19         0.00000E+00
    0.20593E-07        -0.16764E-19         0.00000E+00
    0.20593E-07        -0.20489E-19         0.00000E+00
    0.20593E-07        -0.15832E-19         0.00000E+00
    0.20593E-07        -0.30268E-19         0.00000E+00
    0.20593E-07        -0.34925E-19         0.00000E+00
    0.20593E-07        -0.34692E-19         0.00000E+00
    0.20593E-07        -0.26077E-19         0.00000E+00
    0.20593E-07        -0.14435E-19         0.00000E+00
    0.20593E-07        -0.14435E-19         0.00000E+00
    0.20593E-07        -0.10710E-19         0.00000E+00
    0.20593E-07        -0.14435E-19         0.00000E+00
    0.20593E-07        -0.18626E-20         0.00000E+00
    0.20593E-07         0.97789E-20         0.00000E+00
    0.20593E-07         0.97789E-20         0.00000E+00
    0.20593E-07         0.15832E-19         0.00000E+00
    0.20593E-07         0.65193E-20         0.00000E+00
    0.20593E-07         0.58208E-20         0.00000E+00
    0.20593E-07         0.93132E-21         0.00000E+00
    0.20593E-07         0.32596E-20         0.00000E+00
    0.20593E-07        -0.55879E-20         0.00000E+00
    0.20593E-07         0.93132E-21         0.00000E+00
    0.24082E-07         0.65193E-20         0.00000E+00
    0.24082E-07         0.12573E-19         0.00000E+00
    0.24082E-07         0.13504E-19         0.00000E+00
    0.24082E-07         0.13504E-19         0.00000E+00
    0.24082E-07         0.35390E-19         0.00000E+00
    0.24082E-07         0.51456E-19         0.00000E+00
    0.24082E-07         0.50059E-19         0.00000E+00
    0.24082E-07         0.39581E-19         0.00000E+00
    0.24082E-07         0.32131E-19         0.00000E+00
    0.24082E-07         0.22817E-19         0.00000E+00
    0.24082E-07         0.26077E-19         0.00000E+00
    0.24082E-07         0.27474E-19         0.00000E+00
    0.24082E-07         0.23283E-19         0.00000E+00
    0.24082E-07         0.21420E-19         0.00000E+00
    0.24082E-07         0.14203E-19         0.00000E+00
    0.24082E-07         0.13039E-19         0.00000E+00
    0.24082E-07         0.83819E-20         0.00000E+00
    0.24082E-07         0.23283E-20         0.00000E+00
    0.24082E-07         0.17229E-19         0.00000E+00
    0.24082E-07         0.10710E-19         0.00000E+00
    0.24082E-07         0.12573E-19         0.00000E+00
    0.24082E-07         0.65193E-20         0.00000E+00
    0.24082E-07         0.11642E-19         0.00000E+00
    0.24082E-07         0.10710E-19         0.00000E+00
    0.24082E-07         0.18626E-20         0.00000E+00
    0.24082E-07         0.41910E-20         0.00000E+00
    0.24082E-07        -0.65193E-20         0.00000E+00
    0.24082E-07        -0.12573E-19         0.00000E+00
    0.24082E-07        -0.27474E-19         0.00000E+00
    0.24082E-07        -0.16298E-19         0.00000E+00
    0.24082E-07        -0.25611E-19         0.00000E+00
    0.24082E-07        -0.27008E-19         0.00000E+00
    0.24082E-07        -0.36322E-19         0.00000E+00
    0.24082E-07        -0.26077E-19         0.00000E+00
    0.24082E-07        -0.33062E-19         0.00000E+00
    0.24082E-07        -0.21188E-19         0.00000E+00
    0.24082E-07        -0.10012E-19         0.00000E+00
    0.24082E-07        -0.11642E-19         0.00000E+00
    0.24082E-07        -0.97789E-20         0.00000E+00
    0.24082E-07        -0.97789E-20         0.00000E+00
    0.24082E-07        -0.18626E-20         0.00000E+00
    0.24082E-07         0.72177E-20         0.00000E+00
    0.24082E-07         0.13504E-19         0.00000E+00
    0.24082E-07         0.13970E-19         0.00000E+00
    0.24082E-07         0.88476E-20         0.00000E+00
    0.24082E-07         0.55879E-20         0.00000E+00
    0.24082E-07         0.37253E-20         0.00000E+00
    0.24082E-07         0.97789E-20         0.00000E+00
    0.24082E-07        -0.93132E-20         0.00000E+00
    0.24082E-07         0.27940E-20         0.00000E+00
    0.28101E-07         0.55879E-20         0.00000E+00
    0.28101E-07         0.16531E-19         0.00000E+00
    0.28101E-07         0.16298E-19         0.00000E+00
    0.28101E-07         0.21420E-19         0.00000E+00
    0.28101E-07         0.37253E-19         0.00000E+00
    0.28101E-07         0.45635E-19         0.00000E+00
    0.28101E-07         0.47497E-19         0.00000E+00
    0.28101E-07         0.41910E-19         0.00000E+00
    0.28101E-07         0.32829E-19         0.00000E+00
    0.28101E-07         0.23283E-19         0.00000E+00
    0.28101E-07         0.23283E-19         0.00000E+00
    0.28101E-07         0.31199E-19         0.00000E+00
    0.28101E-07         0.29337E-19         0.00000E+00
    0.28101E-07         0.28871E-19         0.00000E+00
    0.28101E-07         0.14668E-19         0.00000E+00
    0.28101E-07         0.14203E-19         0.00000E+00
    0.28101E-07         0.60536E-20         0.00000E+00
    0.28101E-07         0.18626E-20         0.00000E+00
    0.28101E-07         0.18161E-19         0.00000E+00
    0.28101E-07         0.60536E-20         0.00000E+00
    0.28101E-07         0.10245E-19         0.00000E+00
    0.28101E-07         0.32596E-20         0.00000E+00
    0.28101E-07         0.65193E-20         0.00000E+00
    0.28101E-07         0.79162E-20         0.00000E+00
    0.28101E-07         0.46566E-20         0.00000E+00
    0.28101E-07         0.00000E+00         0.00000E+00
    0.28101E-07        -0.88476E-20         0.00000E+00
    0.28101E-07        -0.13970E-19         0.00000E+00
    0.28101E-07        -0.33528E-19         0.00000E+00
    0.28101E-07        -0.14901E-19         0.00000E+00
    0.28101E-07        -0.24214E-19         0.00000E+00
    0.28101E-07        -0.17695E-19         0.00000E+00
    0.28101E-07        -0.28871E-19         0.00000E+00
    0.28101E-07        -0.26077E-19         0.00000E+00
    0.28101E-07        -0.26543E-19         0.00000E+00
    0.28101E-07        -0.18394E-19         0.00000E+00
    0.28101E-07        -0.13737E-19         0.00000E+00
    0.28101E-07        -0.11642E-19         0.00000E+00
    0.28101E-07        -0.32596E-20         0.00000E+00
    0.28101E-07        -0.15832E-19         0.00000E+00
    0.28101E-07        -0.27940E-20         0.00000E+00
    0.28101E-07        -0.23283E-21         0.00000E+00
    0.28101E-07         0.41910E-20         0.00000E+00
    0.28101E-07         0.95461E-20         0.00000E+00
    0.28101E-07        -0.46566E-21         0.00000E+00
    0.28101E-07        -0.25611E-20         0.00000E+00
    0.28101E-07        -0.37253E-20         0.00000E+00
    0.28101E-07        -0.41910E-20         0.00000E+00
    0.28101E-07        -0.88476E-20         0.00000E+00
    0.28101E-07        -0.30268E-20         0.00000E+00
    0.32711E-07         0.58208E-20         0.00000E+00
    0.32711E-07         0.12573E-19         0.00000E+00
    0.32711E-07         0.13504E-19         0.00000E+00
    0.32711E-07         0.16764E-19         0.00000E+00
    0.32711E-07         0.33062E-19         0.00000E+00
    0.32711E-07         0.43306E-19         0.00000E+00
    0.32711E-07         0.44703E-19         0.00000E+00
    0.32711E-07         0.41444E-19         0.00000E+00
    0.32711E-07         0.40047E-19         0.00000E+00
    0.32711E-07         0.27474E-19         0.00000E+00
    0.32711E-07         0.23283E-19         0.00000E+00
    0.32711E-07         0.34459E-19         0.00000E+00
    0.32711E-07         0.29802E-19         0.00000E+00
    0.32711E-07         0.30268E-19         0.00000E+00
    0.32711E-07         0.15367E-19         0.00000E+00
    0.32711E-07         0.46566E-20         0.00000E+00
    0.32711E-07         0.46566E-20         0.00000E+00
    0.32711E-07         0.41910E-20         0.00000E+00
    0.32711E-07         0.27940E-20         0.00000E+00
    0.32711E-07        -0.37253E-20         0.00000E+00
    0.32711E-07         0.93132E-21         0.00000E+00
    0.32711E-07        -0.23283E-20         0.00000E+00
    0.32711E-07         0.18626E-20         0.00000E+00
    0.32711E-07         0.13039E-19         0.00000E+00
    0.32711E-07         0.10710E-19         0.00000E+00
    0.32711E-07         0.27940E-20         0.00000E+00
    0.32711E-07        -0.74506E-20         0.00000E+00
    0.32711E-07        -0.65193E-20         0.00000E+00
    0.32711E-07        -0.30734E-19         0.00000E+00
    0.32711E-07        -0.21886E-19         0.00000E+00
    0.32711E-07        -0.14435E-19         0.00000E+00
    0.32711E-07        -0.13039E-19         0.00000E+00
    0.32711E-07        -0.30268E-19         0.00000E+00
    0.32711E-07        -0.32596E-19         0.00000E+00
    0.32711E-07        -0.23050E-19         0.00000E+00
    0.32711E-07        -0.20256E-19         0.00000E+00
    0.32711E-07        -0.19092E-19         0.00000E+00
    0.32711E-07        -0.14435E-19         0.00000E+00
    0.32711E-07        -0.18859E-19         0.00000E+00
    0.32711E-07        -0.18161E-19         0.00000E+00
    0.32711E-07        -0.60536E-20         0.00000E+00
    0.32711E-07         0.46566E-21         0.00000E+00
    0.32711E-07         0.60536E-20         0.00000E+00
    0.32711E-07         0.46566E-21         0.00000E+00
    0.32711E-07        -0.55879E-20         0.00000E+00
    0.32711E-07        -0.11176E-19         0.00000E+00
    0.32711E-07        -0.23283E-21         0.00000E+00
    0.32711E-07        -0.60536E-20         0.00000E+00
    0.32711E-07        -0.46566E-20         0.00000E+00
    0.32711E-07        -0.93132E-21         0.00000E+00
    0.37981E-07         0.60536E-20         0.00000E+00
    0.37981E-07         0.12340E-19         0.00000E+00
    0.37981E-07         0.10710E-19         0.00000E+00
    0.37981E-07         0.16764E-19         0.00000E+00
    0.37981E-07         0.24913E-19         0.00000E+00
    0.37981E-07         0.39348E-19         0.00000E+00
    0.37981E-07         0.45402E-19         0.00000E+00
    0.37981E-07         0.35390E-19         0.00000E+00
    0.37981E-07         0.33528E-19         0.00000E+00
    0.37981E-07         0.26077E-19         0.00000E+00
    0.37981E-07         0.27008E-19         0.00000E+00
    0.37981E-07         0.32131E-19         0.00000E+00
    0.37981E-07         0.34925E-19         0.00000E+00
    0.37981E-07         0.18394E-19         0.00000E+00
    0.37981E-07         0.88476E-20         0.00000E+00
    0.37981E-07         0.58208E-20         0.00000E+00
    0.37981E-07         0.37253E-20         0.00000E+00
    0.37981E-07         0.60536E-20         0.00000E+00
    0.37981E-07         0.27940E-20         0.00000E+00
    0.37981E-07        -0.39581E-20         0.00000E+00
    0.37981E-07        -0.37253E-20         0.00000E+00
    0.37981E-07        -0.41910E-20         0.00000E+00
    0.37981E-07         0.65193E-20         0.00000E+00
    0.37981E-07         0.16298E-19         0.00000E+00
    0.37981E-07         0.12573E-19         0.00000E+00
    0.37981E-07         0.83819E-20         0.00000E+00
    0.37981E-07         0.00000E+00         0.00000E+00
    0.37981E-07        -0.10710E-19         0.00000E+00
    0.37981E-07        -0.31665E-19         0.00000E+00
    0.37981E-07        -0.17229E-19         0.00000E+00
    0.37981E-07        -0.19325E-19         0.00000E+00
    0.37981E-07        -0.17462E-19         0.00000E+00
    0.37981E-07        -0.35390E-19         0.00000E+00
    0.37981E-07        -0.31432E-19         0.00000E+00
    0.37981E-07        -0.27008E-19         0.00000E+00
    0.37981E-07        -0.30734E-19         0.00000E+00
    0.37981E-07        -0.23749E-19         0.00000E+00
    0.37981E-07        -0.20955E-19         0.00000E+00
    0.37981E-07        -0.26077E-19         0.00000E+00
    0.37981E-07        -0.18626E-19         0.00000E+00
    0.37981E-07        -0.93132E-20         0.00000E+00
    0.37981E-07         0.23283E-20         0.00000E+00
    0.37981E-07         0.37253E-20         0.00000E+00
    0.37981E-07         0.23283E-20         0.00000E+00
    0.37981E-07        -0.48894E-20         0.00000E+00
    0.37981E-07        -0.53551E-20         0.00000E+00
    0.37981E-07         0.23283E-21         0.00000E+00
    0.37981E-07         0.27940E-20         0.00000E+00
    0.37981E-07         0.46566E-21         0.00000E+00
    0.37981E-07         0.16298E-20         0.00000E+00
    0.43980E-07         0.32596E-20         0.00000E+00
    0.43980E-07         0.13271E-19         0.00000E+00
    0.43980E-07         0.46566E-20         0.00000E+00
    0.43980E-07         0.74506E-20         0.00000E+00
    0.43980E-07         0.18161E-19         0.00000E+00
    0.43980E-07         0.36089E-19         0.00000E+00
    0.43980E-07         0.35157E-19         0.00000E+00
    0.43980E-07         0.24680E-19         0.00000E+00
    0.43980E-07         0.22352E-19         0.00000E+00
    0.43980E-07         0.11874E-19         0.00000E+00
    0.43980E-07         0.24680E-19         0.00000E+00
    0.43980E-07         0.25611E-19         0.00000E+00
    0.43980E-07         0.26543E-19         0.00000E+00
    0.43980E-07         0.17695E-19         0.00000E+00
    0.43980E-07         0.69849E-20         0.00000E+00
    0.43980E-07         0.10245E-19         0.00000E+00
    0.43980E-07         0.65193E-20         0.00000E+00
    0.43980E-07         0.30268E-20         0.00000E+00
    0.43980E-07         0.41910E-20         0.00000E+00
    0.43980E-07         0.23283E-20         0.00000E+00
    0.43980E-07         0.46566E-20         0.00000E+00
    0.43980E-07         0.65193E-20         0.00000E+00
    0.43980E-07         0.74506E-20         0.00000E+00
    0.43980E-07         0.12107E-19         0.00000E+00
    0.43980E-07         0.13970E-19         0.00000E+00
    0.43980E-07         0.60536E-20         0.00000E+00
    0.43980E-07        -0.93132E-20         0.00000E+00
    0.43980E-07        -0.17229E-19         0.00000E+00
    0.43980E-07        -0.33062E-19         0.00000E+00
    0.43980E-07        -0.13504E-19         0.00000E+00
    0.43980E-07        -0.20489E-19         0.00000E+00
    0.43980E-07        -0.17928E-19         0.00000E+00
    0.43980E-07        -0.34692E-19         0.00000E+00
    0.43980E-07        -0.39348E-19         0.00000E+00
    0.43980E-07        -0.38184E-19         0.00000E+00
    0.43980E-07        -0.27474E-19         0.00000E+00
    0.43980E-07        -0.23749E-19         0.00000E+00
    0.43980E-07        -0.18161E-19         0.00000E+00
    0.43980E-07        -0.21420E-19         0.00000E+00
    0.43980E-07        -0.19325E-19         0.00000E+00
    0.43980E-07        -0.27940E-20         0.00000E+00
    0.43980E-07         0.10012E-19         0.00000E+00
    0.43980E-07         0.13271E-19         0.00000E+00
    0.43980E-07         0.79162E-20         0.00000E+00
    0.43980E-07         0.23283E-20         0.00000E+00
    0.43980E-07        -0.37253E-20         0.00000E+00
    0.43980E-07         0.90804E-20         0.00000E+00
    0.43980E-07         0.60536E-20         0.00000E+00
    0.43980E-07         0.18626E-20         0.00000E+00
    0.43980E-07         0.30268E-20         0.00000E+00
    0.50777E-07         0.34925E-20         0.00000E+00
    0.50777E-07         0.95461E-20         0.00000E+00
    0.50777E-07         0.83819E-20         0.00000E+00
    0.50777E-07         0.32596E-20         0.00000E+00
    0.50777E-07         0.13737E-19         0.00000E+00
    0.50777E-07         0.37719E-19         0.00000E+00
    0.50777E-07         0.27008E-19         0.00000E+00
    0.50777E-07         0.20955E-19         0.00000E+00
    0.50777E-07         0.26077E-19         0.00000E+00
    0.50777E-07         0.12107E-19         0.00000E+00
    0.50777E-07         0.16764E-19         0.00000E+00
    0.50777E-07         0.21886E-19         0.00000E+00
    0.50777E-07         0.22352E-19         0.00000E+00
    0.50777E-07         0.24680E-19         0.00000E+00
    0.50777E-07         0.55879E-20         0.00000E+00
    0.50777E-07         0.37253E-20         0.00000E+00
    0.50777E-07         0.55879E-20         0.00000E+00
    0.50777E-07         0.32596E-20         0.00000E+00
    0.50777E-07         0.12573E-19         0.00000E+00
    0.50777E-07         0.18626E-20         0.00000E+00
    0.50777E-07         0.79162E-20         0.00000E+00
    0.50777E-07         0.27940E-20         0.00000E+00
    0.50777E-07         0.18626E-20         0.00000E+00
    0.50777E-07        -0.13970E-20         0.00000E+00
    0.50777E-07         0.46566E-21         0.00000E+00
    0.50777E-07        -0.46566E-20         0.00000E+00
    0.50777E-07        -0.16764E-19         0.00000E+00
    0.50777E-07        -0.16298E-19         0.00000E+00
    0.50777E-07        -0.29337E-19         0.00000E+00
    0.50777E-07        -0.18626E-19         0.00000E+00
    0.50777E-07        -0.18161E-19         0.00000E+00
    0.50777E-07        -0.17229E-19         0.00000E+00
    0.50777E-07        -0.30268E-19         0.00000E+00
    0.50777E-07        -0.38184E-19         0.00000E+00
    0.50777E-07        -0.35390E-19         0.00000E+00
    0.50777E-07        -0.27474E-19         0.00000E+00
    0.50777E-07        -0.21420E-19         0.00000E+00
    0.50777E-07        -0.13504E-19         0.00000E+00
    0.50777E-07        -0.18161E-19         0.00000E+00
    0.50777E-07        -0.18161E-19         0.00000E+00
    0.50777E-07         0.79162E-20         0.00000E+00
    0.50777E-07         0.20955E-19         0.00000E+00
    0.50777E-07         0.21420E-19         0.00000E+00
    0.50777E-07         0.16764E-19         0.00000E+00
    0.50777E-07         0.10710E-19         0.00000E+00
    0.50777E-07         0.46566E-20         0.00000E+00
    0.50777E-07         0.23283E-20         0.00000E+00
    0.50777E-07         0.18626E-20         0.00000E+00
    0.50777E-07        -0.23283E-20         0.00000E+00
    0.50777E-07         0.46566E-20         0.00000E+00
    0.58438E-07         0.65193E-20         0.00000E+00
    0.58438E-07         0.74506E-20         0.00000E+00
    0.58438E-07         0.37253E-20         0.00000E+00
    0.58438E-07         0.41910E-20         0.00000E+00
    0.58438E-07         0.16997E-19         0.00000E+00
    0.58438E-07         0.34459E-19         0.00000E+00
    0.58438E-07         0.30734E-19         0.00000E+00
    0.58438E-07         0.23982E-19         0.00000E+00
    0.58438E-07         0.22352E-19         0.00000E+00
    0.58438E-07         0.14435E-19         0.00000E+00
    0.58438E-07         0.13504E-19         0.00000E+00
    0.58438E-07         0.20955E-19         0.00000E+00
    0.58438E-07         0.14435E-19         0.00000E+00
    0.58438E-07         0.16298E-19         0.00000E+00
    0.58438E-07        -0.46566E-21         0.00000E+00
    0.58438E-07        -0.93132E-21         0.00000E+00
    0.58438E-07        -0.46566E-21         0.00000E+00
    0.58438E-07         0.41910E-20         0.00000E+00
    0.58438E-07         0.79162E-20         0.00000E+00
    0.58438E-07        -0.30268E-20         0.00000E+00
    0.58438E-07        -0.41910E-20         0.00000E+00
    0.58438E-07        -0.76834E-20         0.00000E+00
    0.58438E-07        -0.51223E-20         0.00000E+00
    0.58438E-07        -0.11642E-19         0.00000E+00
    0.58438E-07        -0.65193E-20         0.00000E+00
    0.58438E-07        -0.81491E-20         0.00000E+00
    0.58438E-07        -0.14435E-19         0.00000E+00
    0.58438E-07        -0.18626E-19         0.00000E+00
    0.58438E-07        -0.28871E-19         0.00000E+00
    0.58438E-07        -0.16764E-19         0.00000E+00
    0.58438E-07        -0.21886E-19         0.00000E+00
    0.58438E-07        -0.20489E-19         0.00000E+00
    0.58438E-07        -0.27940E-19         0.00000E+00
    0.58438E-07        -0.30734E-19         0.00000E+00
    0.58438E-07        -0.31665E-19         0.00000E+00
    0.58438E-07        -0.22119E-19         0.00000E+00
    0.58438E-07        -0.16298E-19         0.00000E+00
    0.58438E-07        -0.16764E-19         0.00000E+00
    0.58438E-07        -0.13039E-19         0.00000E+00
    0.58438E-07        -0.97789E-20         0.00000E+00
    0.58438E-07         0.12573E-19         0.00000E+00
    0.58438E-07         0.14203E-19         0.00000E+00
    0.58438E-07         0.25379E-19         0.00000E+00
    0.58438E-07         0.18626E-19         0.00000E+00
    0.58438E-07         0.12806E-19         0.00000E+00
    0.58438E-07         0.60536E-20         0.00000E+00
    0.58438E-07        -0.23283E-21         0.00000E+00
    0.58438E-07         0.69849E-21         0.00000E+00
    0.58438E-07        -0.41910E-20         0.00000E+00
    0.58438E-07         0.00000E+00         0.00000E+00
    0.67025E-07         0.12107E-19         0.00000E+00
    0.67025E-07         0.11874E-19         0.00000E+00
    0.67025E-07         0.65193E-20         0.00000E+00
    0.67025E-07         0.69849E-20         0.00000E+00
    0.67025E-07         0.22817E-19         0.00000E+00
    0.67025E-07         0.30734E-19         0.00000E+00
    0.67025E-07         0.31432E-19         0.00000E+00
    0.67025E-07         0.27940E-19         0.00000E+00
    0.67025E-07         0.16764E-19         0.00000E+00
    0.67025E-07         0.11642E-19         0.00000E+00
    0.67025E-07         0.79162E-20         0.00000E+00
    0.67025E-07         0.93132E-20         0.00000E+00
    0.67025E-07         0.14435E-19         0.00000E+00
    0.67025E-07         0.14901E-19         0.00000E+00
    0.67025E-07         0.93132E-21         0.00000E+00
    0.67025E-07         0.23283E-21         0.00000E+00
    0.67025E-07        -0.27940E-20         0.00000E+00
    0.67025E-07        -0.79162E-20         0.00000E+00
    0.67025E-07        -0.18626E-20         0.00000E+00
    0.67025E-07        -0.95461E-20         0.00000E+00
    0.67025E-07        -0.11176E-19         0.00000E+00
    0.67025E-07        -0.86147E-20         0.00000E+00
    0.67025E-07        -0.37253E-20         0.00000E+00
    0.67025E-07        -0.23283E-20         0.00000E+00
    0.67025E-07         0.27940E-20         0.00000E+00
    0.67025E-07        -0.46566E-20         0.00000E+00
    0.67025E-07        -0.79162E-20         0.00000E+00
    0.67025E-07        -0.15832E-19         0.00000E+00
    0.67025E-07        -0.18626E-19         0.00000E+00
    0.67025E-07        -0.16298E-19         0.00000E+00
    0.67025E-07        -0.24680E-19         0.00000E+00
    0.67025E-07        -0.16065E-19         0.00000E+00
    0.67025E-07        -0.32596E-19         0.00000E+00
    0.67025E-07        -0.32131E-19         0.00000E+00
    0.67025E-07        -0.27940E-19         0.00000E+00
    0.67025E-07        -0.19092E-19         0.00000E+00
    0.67025E-07        -0.10477E-19         0.00000E+00
    0.67025E-07        -0.97789E-20         0.00000E+00
    0.67025E-07        -0.55879E-20         0.00000E+00
    0.67025E-07        -0.15832E-19         0.00000E+00
    0.67025E-07         0.69849E-20         0.00000E+00
    0.67025E-07         0.74506E-20         0.00000E+00
    0.67025E-07         0.93132E-20         0.00000E+00
    0.67025E-07         0.12107E-19         0.00000E+00
    0.67025E-07         0.55879E-20         0.00000E+00
    0.67025E-07         0.12573E-19         0.00000E+00
    0.67025E-07         0.51223E-20         0.00000E+00
    0.67025E-07         0.65193E-20         0.00000E+00
    0.67025E-07        -0.23283E-20         0.00000E+00
    0.67025E-07         0.46566E-21         0.00000E+00
    0.76588E-07         0.60536E-20         0.00000E+00
    0.76588E-07         0.14435E-19         0.00000E+00
    0.76588E-07         0.16531E-19         0.00000E+00
    0.76588E-07         0.97789E-20         0.00000E+00
    0.76588E-07         0.21420E-19         0.00000E+00
    0.76588E-07         0.38650E-19         0.00000E+00
    0.76588E-07         0.37719E-19         0.00000E+00
    0.76588E-07         0.25379E-19         0.00000E+00
    0.76588E-07         0.27707E-19         0.00000E+00
    0.76588E-07         0.12806E-19         0.00000E+00
    0.76588E-07         0.46566E-20         0.00000E+00
    0.76588E-07         0.79162E-20         0.00000E+00
    0.76588E-07         0.79162E-20         0.00000E+00
    0.76588E-07         0.88476E-20         0.00000E+00
    0.76588E-07        -0.60536E-20         0.00000E+00
    0.76588E-07        -0.65193E-20         0.00000E+00
    0.76588E-07        -0.83819E-20         0.00000E+00
    0.76588E-07        -0.97789E-20         0.00000E+00
    0.76588E-07        -0.16298E-20         0.00000E+00
    0.76588E-07        -0.55879E-20         0.00000E+00
    0.76588E-07        -0.51223E-20         0.00000E+00
    0.76588E-07        -0.51223E-20         0.00000E+00
    0.76588E-07        -0.11642E-19         0.00000E+00
    0.76588E-07         0.18626E-20         0.00000E+00
    0.76588E-07         0.46566E-20         0.00000E+00
    0.76588E-07        -0.13970E-20         0.00000E+00
    0.76588E-07         0.23283E-20         0.00000E+00
    0.76588E-07        -0.74506E-20         0.00000E+00
    0.76588E-07        -0.11874E-19         0.00000E+00
    0.76588E-07        -0.51223E-20         0.00000E+00
    0.76588E-07        -0.18161E-19         0.00000E+00
    0.76588E-07        -0.17695E-19         0.00000E+00
    0.76588E-07        -0.26543E-19         0.00000E+00
    0.76588E-07        -0.29337E-19         0.00000E+00
    0.76588E-07        -0.25146E-19         0.00000E+00
    0.76588E-07        -0.17695E-19         0.00000E+00
    0.76588E-07        -0.12107E-19         0.00000E+00
    0.76588E-07        -0.10710E-19         0.00000E+00
    0.76588E-07        -0.12573E-19         0.00000E+00
    0.76588E-07        -0.20489E-19         0.00000E+00
    0.76588E-07        -0.25611E-20         0.00000E+00
    0.76588E-07         0.60536E-20         0.00000E+00
    0.76588E-07         0.93132E-20         0.00000E+00
    0.76588E-07         0.55879E-20         0.00000E+00
    0.76588E-07         0.32596E-20         0.00000E+00
    0.76588E-07         0.11874E-19         0.00000E+00
    0.76588E-07         0.46566E-20         0.00000E+00
    0.76588E-07         0.55879E-20         0.00000E+00
    0.76588E-07         0.69849E-21         0.00000E+00
    0.76588E-07         0.13970E-20         0.00000E+00
    0.87163E-07         0.65193E-20         0.00000E+00
    0.87163E-07         0.13504E-19         0.00000E+00
    0.87163E-07         0.90804E-20         0.00000E+00
    0.87163E-07         0.15832E-19         0.00000E+00
    0.87163E-07         0.27008E-19         0.00000E+00
    0.87163E-07         0.45635E-19         0.00000E+00
    0.87163E-07         0.44238E-19         0.00000E+00
    0.87163E-07         0.33993E-19         0.00000E+00
    0.87163E-07         0.21420E-19         0.00000E+00
    0.87163E-07         0.13970E-19         0.00000E+00
    0.87163E-07         0.55879E-20         0.00000E+00
    0.87163E-07         0.15134E-19         0.00000E+00
    0.87163E-07         0.88476E-20         0.00000E+00
    0.87163E-07         0.11642E-20         0.00000E+00
    0.87163E-07        -0.74506E-20         0.00000E+00
    0.87163E-07        -0.83819E-20         0.00000E+00
    0.87163E-07        -0.69849E-20         0.00000E+00
    0.87163E-07        -0.11409E-19         0.00000E+00
    0.87163E-07        -0.32596E-20         0.00000E+00
    0.87163E-07        -0.97789E-20         0.00000E+00
    0.87163E-07        -0.27940E-20         0.00000E+00
    0.87163E-07         0.27940E-20         0.00000E+00
    0.87163E-07        -0.67521E-20         0.00000E+00
    0.87163E-07        -0.62864E-20         0.00000E+00
    0.87163E-07         0.25611E-20         0.00000E+00
    0.87163E-07        -0.34925E-20         0.00000E+00
    0.87163E-07        -0.41910E-20         0.00000E+00
    0.87163E-07         0.93132E-21         0.00000E+00
    0.87163E-07        -0.14901E-19         0.00000E+00
    0.87163E-07         0.93132E-21         0.00000E+00
    0.87163E-07        -0.30268E-20         0.00000E+00
    0.87163E-07        -0.13970E-19         0.00000E+00
    0.87163E-07        -0.17695E-19         0.00000E+00
    0.87163E-07        -0.28405E-19         0.00000E+00
    0.87163E-07        -0.29104E-19         0.00000E+00
    0.87163E-07        -0.19558E-19         0.00000E+00
    0.87163E-07        -0.10710E-19         0.00000E+00
    0.87163E-07        -0.13504E-19         0.00000E+00
    0.87163E-07        -0.14901E-19         0.00000E+00
    0.87163E-07        -0.16298E-19         0.00000E+00
    0.87163E-07         0.13970E-20         0.00000E+00
    0.87163E-07         0.10943E-19         0.00000E+00
    0.87163E-07         0.18626E-19         0.00000E+00
    0.87163E-07         0.10710E-19         0.00000E+00
    0.87163E-07         0.74506E-20         0.00000E+00
    0.87163E-07         0.37253E-20         0.00000E+00
    0.87163E-07         0.27940E-20         0.00000E+00
    0.87163E-07         0.00000E+00         0.00000E+00
    0.87163E-07         0.18626E-20         0.00000E+00
    0.87163E-07        -0.69849E-21         0.00000E+00
    0.98763E-07         0.41910E-20         0.00000E+00
    0.98763E-07         0.41910E-20         0.00000E+00
    0.98763E-07         0.11176E-19         0.00000E+00
    0.98763E-07         0.16298E-19         0.00000E+00
    0.98763E-07         0.27474E-19         0.00000E+00
    0.98763E-07         0.41444E-19         0.00000E+00
    0.98763E-07         0.42841E-19         0.00000E+00
    0.98763E-07         0.32829E-19         0.00000E+00
    0.98763E-07         0.14901E-19         0.00000E+00
    0.98763E-07         0.55879E-20         0.00000E+00
    0.98763E-07         0.18626E-20         0.00000E+00
    0.98763E-07         0.10477E-19         0.00000E+00
    0.98763E-07         0.17229E-19         0.00000E+00
    0.98763E-07         0.95461E-20         0.00000E+00
    0.98763E-07         0.23283E-20         0.00000E+00
    0.98763E-07        -0.13039E-19         0.00000E+00
    0.98763E-07        -0.90804E-20         0.00000E+00
    0.98763E-07        -0.18859E-19         0.00000E+00
    0.98763E-07        -0.10710E-19         0.00000E+00
    0.98763E-07        -0.10477E-19         0.00000E+00
    0.98763E-07        -0.13039E-19         0.00000E+00
    0.98763E-07        -0.18626E-20         0.00000E+00
    0.98763E-07         0.93132E-21         0.00000E+00
    0.98763E-07         0.46566E-20         0.00000E+00
    0.98763E-07         0.41910E-20         0.00000E+00
    0.98763E-07        -0.95461E-20         0.00000E+00
    0.98763E-07        -0.12107E-19         0.00000E+00
    0.98763E-07        -0.88476E-20         0.00000E+00
    0.98763E-07        -0.20489E-19         0.00000E+00
    0.98763E-07        -0.37253E-20         0.00000E+00
    0.98763E-07        -0.60536E-20         0.00000E+00
    0.98763E-07        -0.16298E-20         0.00000E+00
    0.98763E-07        -0.13737E-19         0.00000E+00
    0.98763E-07        -0.25146E-19         0.00000E+00
    0.98763E-07        -0.24680E-19         0.00000E+00
    0.98763E-07        -0.22585E-19         0.00000E+00
    0.98763E-07        -0.13039E-19         0.00000E+00
    0.98763E-07        -0.93132E-20         0.00000E+00
    0.98763E-07        -0.44238E-20         0.00000E+00
    0.98763E-07        -0.79162E-20         0.00000E+00
    0.98763E-07         0.46566E-20         0.00000E+00
    0.98763E-07         0.12573E-19         0.00000E+00
    0.98763E-07         0.13271E-19         0.00000E+00
    0.98763E-07         0.13504E-19         0.00000E+00
    0.98763E-07         0.13970E-20         0.00000E+00
    0.98763E-07        -0.46566E-21         0.00000E+00
    0.98763E-07         0.55879E-20         0.00000E+00
    0.98763E-07         0.53551E-20         0.00000E+00
    0.98763E-07         0.93132E-21         0.00000E+00
    0.98763E-07         0.27940E-20         0.00000E+00
    0.11137E-06         0.41910E-20         0.00000E+00
    0.11137E-06         0.74506E-20         0.00000E+00
    0.11137E-06         0.10710E-19         0.00000E+00
    0.11137E-06         0.13970E-19         0.00000E+00
    0.11137E-06         0.24680E-19         0.00000E+00
    0.11137E-06         0.35390E-19         0.00000E+00
    0.11137E-06         0.27474E-19         0.00000E+00
    0.11137E-06         0.19092E-19         0.00000E+00
    0.11137E-06         0.12573E-19         0.00000E+00
    0.11137E-06         0.74506E-20         0.00000E+00
    0.11137E-06         0.58208E-20         0.00000E+00
    0.11137E-06         0.79162E-20         0.00000E+00
    0.11137E-06         0.10245E-19         0.00000E+00
    0.11137E-06         0.93132E-21         0.00000E+00
    0.11137E-06        -0.18626E-20         0.00000E+00
    0.11137E-06        -0.44238E-20         0.00000E+00
    0.11137E-06        -0.13504E-19         0.00000E+00
    0.11137E-06        -0.19558E-19         0.00000E+00
    0.11137E-06        -0.15832E-19         0.00000E+00
    0.11137E-06        -0.13271E-19         0.00000E+00
    0.11137E-06        -0.37253E-20         0.00000E+00
    0.11137E-06        -0.51223E-20         0.00000E+00
    0.11137E-06         0.93132E-21         0.00000E+00
    0.11137E-06         0.11176E-19         0.00000E+00
    0.11137E-06         0.10710E-19         0.00000E+00
    0.11137E-06        -0.44238E-20         0.00000E+00
    0.11137E-06        -0.79162E-20         0.00000E+00
    0.11137E-06        -0.10245E-19         0.00000E+00
    0.11137E-06        -0.20023E-19         0.00000E+00
    0.11137E-06        -0.83819E-20         0.00000E+00
    0.11137E-06        -0.14435E-19         0.00000E+00
    0.11137E-06        -0.60536E-20         0.00000E+00
    0.11137E-06        -0.16997E-19         0.00000E+00
    0.11137E-06        -0.29337E-19         0.00000E+00
    0.11137E-06        -0.20955E-19         0.00000E+00
    0.11137E-06        -0.16764E-19         0.00000E+00
    0.11137E-06        -0.11176E-19         0.00000E+00
    0.11137E-06        -0.81491E-20         0.00000E+00
    0.11137E-06        -0.15367E-19         0.00000E+00
    0.11137E-06        -0.69849E-20         0.00000E+00
    0.11137E-06         0.27940E-20         0.00000E+00
    0.11137E-06         0.14203E-19         0.00000E+00
    0.11137E-06         0.18161E-19         0.00000E+00
    0.11137E-06         0.11176E-19         0.00000E+00
    0.11137E-06         0.60536E-20         0.00000E+00
    0.11137E-06         0.81491E-20         0.00000E+00
    0.11137E-06         0.37253E-20         0.00000E+00
    0.11137E-06         0.13970E-20         0.00000E+00
    0.11137E-06        -0.37253E-20         0.00000E+00
    0.11137E-06        -0.18808E-36         0.00000E+00
    0.12492E-06         0.41910E-20         0.00000E+00
    0.12492E-06         0.11176E-19         0.00000E+00
    0.12492E-06         0.65193E-20         0.00000E+00
    0.12492E-06         0.97789E-20         0.00000E+00
    0.12492E-06         0.16764E-19         0.00000E+00
    0.12492E-06         0.27241E-19         0.00000E+00
    0.12492E-06         0.22817E-19         0.00000E+00
    0.12492E-06         0.11409E-19         0.00000E+00
    0.12492E-06         0.11642E-19         0.00000E+00
    0.12492E-06         0.39581E-20         0.00000E+00
    0.12492E-06         0.37253E-20         0.00000E+00
    0.12492E-06         0.10477E-19         0.00000E+00
    0.12492E-06         0.10710E-19         0.00000E+00
    0.12492E-06         0.18626E-20         0.00000E+00
    0.12492E-06        -0.51223E-20         0.00000E+00
    0.12492E-06        -0.51223E-20         0.00000E+00
    0.12492E-06        -0.69849E-20         0.00000E+00
    0.12492E-06        -0.11409E-19         0.00000E+00
    0.12492E-06        -0.23283E-20         0.00000E+00
    0.12492E-06        -0.93132E-21         0.00000E+00
    0.12492E-06         0.13970E-20         0.00000E+00
    0.12492E-06        -0.23283E-21         0.00000E+00
    0.12492E-06        -0.13970E-20         0.00000E+00
    0.12492E-06         0.44238E-20         0.00000E+00
    0.12492E-06         0.23283E-20         0.00000E+00
    0.12492E-06         0.94040E-37         0.00000E+00
    0.12492E-06        -0.62864E-20         0.00000E+00
    0.12492E-06        -0.51223E-20         0.00000E+00
    0.12492E-06        -0.17229E-19         0.00000E+00
    0.12492E-06        -0.13504E-19         0.00000E+00
    0.12492E-06        -0.17695E-19         0.00000E+00
    0.12492E-06        -0.15367E-19         0.00000E+00
    0.12492E-06        -0.25379E-19         0.00000E+00
    0.12492E-06        -0.29104E-19         0.00000E+00
    0.12492E-06        -0.24214E-19         0.00000E+00
    0.12492E-06        -0.18626E-19         0.00000E+00
    0.12492E-06        -0.93132E-20         0.00000E+00
    0.12492E-06        -0.93132E-20         0.00000E+00
    0.12492E-06        -0.12806E-19         0.00000E+00
    0.12492E-06        -0.15832E-19         0.00000E+00
    0.12492E-06        -0.55879E-20         0.00000E+00
    0.12492E-06         0.16531E-19         0.00000E+00
    0.12492E-06         0.17462E-19         0.00000E+00
    0.12492E-06         0.12107E-19         0.00000E+00
    0.12492E-06         0.83819E-20         0.00000E+00
    0.12492E-06         0.97789E-20         0.00000E+00
    0.12492E-06         0.46566E-20         0.00000E+00
    0.12492E-06         0.37253E-20         0.00000E+00
    0.12492E-06        -0.11642E-20         0.00000E+00
    0.12492E-06         0.18626E-20         0.00000E+00
    0.13931E-06         0.65193E-20         0.00000E+00
    0.13931E-06         0.89640E-20         0.00000E+00
    0.13931E-06         0.47730E-20         0.00000E+00
    0.13931E-06         0.39581E-20         0.00000E+00
    0.13931E-06         0.15949E-19         0.00000E+00
    0.13931E-06         0.26426E-19         0.00000E+00
    0.13931E-06         0.25029E-19         0.00000E+00
    0.13931E-06         0.11642E-19         0.00000E+00
    0.13931E-06         0.11991E-19         0.00000E+00
    0.13931E-06         0.73342E-20         0.00000E+00
    0.13931E-06         0.68685E-20         0.00000E+00
    0.13931E-06         0.15600E-19         0.00000E+00
    0.13931E-06         0.13737E-19         0.00000E+00
    0.13931E-06         0.12922E-19         0.00000E+00
    0.13931E-06         0.25611E-20         0.00000E+00
    0.13931E-06        -0.84983E-20         0.00000E+00
    0.13931E-06        -0.65193E-20         0.00000E+00
    0.13931E-06        -0.10012E-19         0.00000E+00
    0.13931E-06         0.20955E-20         0.00000E+00
    0.13931E-06         0.46566E-21         0.00000E+00
    0.13931E-06        -0.19791E-20         0.00000E+00
    0.13931E-06        -0.76834E-20         0.00000E+00
    0.13931E-06        -0.13970E-20         0.00000E+00
    0.13931E-06         0.93132E-21         0.00000E+00
    0.13931E-06        -0.62864E-20         0.00000E+00
    0.13931E-06        -0.69849E-20         0.00000E+00
    0.13931E-06        -0.16182E-19         0.00000E+00
    0.13931E-06        -0.86147E-20         0.00000E+00
    0.13931E-06        -0.16065E-19         0.00000E+00
    0.13931E-06        -0.10012E-19         0.00000E+00
    0.13931E-06        -0.13737E-19         0.00000E+00
    0.13931E-06        -0.16298E-19         0.00000E+00
    0.13931E-06        -0.24564E-19         0.00000E+00
    0.13931E-06        -0.25844E-19         0.00000E+00
    0.13931E-06        -0.26659E-19         0.00000E+00
    0.13931E-06        -0.20373E-19         0.00000E+00
    0.13931E-06        -0.13970E-19         0.00000E+00
    0.13931E-06        -0.12689E-19         0.00000E+00
    0.13931E-06        -0.74506E-20         0.00000E+00
    0.13931E-06        -0.11409E-19         0.00000E+00
    0.13931E-06         0.19791E-20         0.00000E+00
    0.13931E-06         0.17695E-19         0.00000E+00
    0.13931E-06         0.13737E-19         0.00000E+00
    0.13931E-06         0.83819E-20         0.00000E+00
    0.13931E-06         0.65193E-20         0.00000E+00
    0.13931E-06         0.73342E-20         0.00000E+00
    0.13931E-06        -0.69849E-21         0.00000E+00
    0.13931E-06         0.37253E-20         0.00000E+00
    0.13931E-06        -0.25611E-20         0.00000E+00
    0.13931E-06         0.61700E-20         0.00000E+00
    0.15435E-06         0.38417E-20         0.00000E+00
    0.15435E-06         0.89640E-20         0.00000E+00
    0.15435E-06         0.32596E-20         0.00000E+00
    0.15435E-06         0.53551E-20         0.00000E+00
    0.15435E-06         0.11874E-19         0.00000E+00
    0.15435E-06         0.22817E-19         0.00000E+00
    0.15435E-06         0.18394E-19         0.00000E+00
    0.15435E-06         0.19092E-19         0.00000E+00
    0.15435E-06         0.22352E-19         0.00000E+00
    0.15435E-06         0.15716E-19         0.00000E+00
    0.15435E-06         0.15600E-19         0.00000E+00
    0.15435E-06         0.14203E-19         0.00000E+00
    0.15435E-06         0.10943E-19         0.00000E+00
    0.15435E-06         0.13388E-19         0.00000E+00
    0.15435E-06         0.64028E-20         0.00000E+00
    0.15435E-06         0.15134E-20         0.00000E+00
    0.15435E-06        -0.44238E-20         0.00000E+00
    0.15435E-06        -0.94296E-20         0.00000E+00
    0.15435E-06        -0.10710E-19         0.00000E+00
    0.15435E-06        -0.14668E-19         0.00000E+00
    0.15435E-06        -0.77998E-20         0.00000E+00
    0.15435E-06        -0.12573E-19         0.00000E+00
    0.15435E-06        -0.44238E-20         0.00000E+00
    0.15435E-06        -0.12340E-19         0.00000E+00
    0.15435E-06        -0.25611E-20         0.00000E+00
    0.15435E-06        -0.71013E-20         0.00000E+00
    0.15435E-06        -0.13853E-19         0.00000E+00
    0.15435E-06        -0.90804E-20         0.00000E+00
    0.15435E-06        -0.17113E-19         0.00000E+00
    0.15435E-06        -0.74506E-20         0.00000E+00
    0.15435E-06        -0.11176E-19         0.00000E+00
    0.15435E-06        -0.10594E-19         0.00000E+00
    0.15435E-06        -0.24214E-19         0.00000E+00
    0.15435E-06        -0.29569E-19         0.00000E+00
    0.15435E-06        -0.26426E-19         0.00000E+00
    0.15435E-06        -0.27590E-19         0.00000E+00
    0.15435E-06        -0.14668E-19         0.00000E+00
    0.15435E-06        -0.11059E-19         0.00000E+00
    0.15435E-06        -0.11642E-19         0.00000E+00
    0.15435E-06        -0.90804E-20         0.00000E+00
    0.15435E-06         0.77998E-20         0.00000E+00
    0.15435E-06         0.93132E-20         0.00000E+00
    0.15435E-06         0.14435E-19         0.00000E+00
    0.15435E-06         0.16531E-19         0.00000E+00
    0.15435E-06         0.69849E-20         0.00000E+00
    0.15435E-06         0.37253E-20         0.00000E+00
    0.15435E-06        -0.69849E-21         0.00000E+00
    0.15435E-06         0.34925E-20         0.00000E+00
    0.15435E-06        -0.74506E-20         0.00000E+00
    0.15435E-06         0.46566E-21         0.00000E+00
    0.16981E-06         0.34925E-20         0.00000E+00
    0.16981E-06         0.98953E-20         0.00000E+00
    0.16981E-06         0.47730E-20         0.00000E+00
    0.16981E-06         0.51223E-20         0.00000E+00
    0.16981E-06         0.12573E-19         0.00000E+00
    0.16981E-06         0.21188E-19         0.00000E+00
    0.16981E-06         0.21886E-19         0.00000E+00
    0.16981E-06         0.20023E-19         0.00000E+00
    0.16981E-06         0.21071E-19         0.00000E+00
    0.16981E-06         0.82655E-20         0.00000E+00
    0.16981E-06         0.75670E-20         0.00000E+00
    0.16981E-06         0.13271E-19         0.00000E+00
    0.16981E-06         0.14435E-19         0.00000E+00
    0.16981E-06         0.11409E-19         0.00000E+00
    0.16981E-06         0.30268E-20         0.00000E+00
    0.16981E-06         0.10477E-20         0.00000E+00
    0.16981E-06         0.46566E-20         0.00000E+00
    0.16981E-06        -0.48894E-20         0.00000E+00
    0.16981E-06        -0.74506E-20         0.00000E+00
    0.16981E-06        -0.10943E-19         0.00000E+00
    0.16981E-06        -0.81491E-20         0.00000E+00
    0.16981E-06        -0.86147E-20         0.00000E+00
    0.16981E-06        -0.13039E-19         0.00000E+00
    0.16981E-06        -0.16065E-19         0.00000E+00
    0.16981E-06        -0.10477E-19         0.00000E+00
    0.16981E-06        -0.10361E-19         0.00000E+00
    0.16981E-06        -0.64028E-20         0.00000E+00
    0.16981E-06        -0.13039E-19         0.00000E+00
    0.16981E-06        -0.21886E-19         0.00000E+00
    0.16981E-06        -0.17928E-19         0.00000E+00
    0.16981E-06        -0.12456E-19         0.00000E+00
    0.16981E-06        -0.10012E-19         0.00000E+00
    0.16981E-06        -0.23516E-19         0.00000E+00
    0.16981E-06        -0.26776E-19         0.00000E+00
    0.16981E-06        -0.25379E-19         0.00000E+00
    0.16981E-06        -0.24913E-19         0.00000E+00
    0.16981E-06        -0.16764E-19         0.00000E+00
    0.16981E-06        -0.83819E-20         0.00000E+00
    0.16981E-06        -0.88476E-20         0.00000E+00
    0.16981E-06        -0.13737E-19         0.00000E+00
    0.16981E-06         0.27940E-20         0.00000E+00
    0.16981E-06         0.30268E-20         0.00000E+00
    0.16981E-06         0.11176E-19         0.00000E+00
    0.16981E-06         0.11642E-19         0.00000E+00
    0.16981E-06         0.33760E-20         0.00000E+00
    0.16981E-06        -0.11642E-20         0.00000E+00
    0.16981E-06         0.29104E-20         0.00000E+00
    0.16981E-06         0.81491E-20         0.00000E+00
    0.16981E-06        -0.37253E-20         0.00000E+00
    0.16981E-06         0.11642E-20         0.00000E+00
    0.18533E-06         0.36089E-20         0.00000E+00
    0.18533E-06         0.10012E-19         0.00000E+00
    0.18533E-06        -0.81491E-21         0.00000E+00
    0.18533E-06         0.48894E-20         0.00000E+00
    0.18533E-06         0.12107E-19         0.00000E+00
    0.18533E-06         0.19907E-19         0.00000E+00
    0.18533E-06         0.24680E-19         0.00000E+00
    0.18533E-06         0.19209E-19         0.00000E+00
    0.18533E-06         0.76834E-20         0.00000E+00
    0.18533E-06         0.11874E-19         0.00000E+00
    0.18533E-06         0.11991E-19         0.00000E+00
    0.18533E-06         0.14319E-19         0.00000E+00
    0.18533E-06         0.10710E-19         0.00000E+00
    0.18533E-06         0.62864E-20         0.00000E+00
    0.18533E-06        -0.55879E-20         0.00000E+00
    0.18533E-06        -0.62864E-20         0.00000E+00
    0.18533E-06        -0.25611E-20         0.00000E+00
    0.18533E-06        -0.13271E-19         0.00000E+00
    0.18533E-06        -0.23283E-20         0.00000E+00
    0.18533E-06        -0.74506E-20         0.00000E+00
    0.18533E-06        -0.90804E-20         0.00000E+00
    0.18533E-06        -0.67521E-20         0.00000E+00
    0.18533E-06        -0.60536E-20         0.00000E+00
    0.18533E-06        -0.95461E-20         0.00000E+00
    0.18533E-06        -0.11176E-19         0.00000E+00
    0.18533E-06        -0.13621E-19         0.00000E+00
    0.18533E-06        -0.13271E-19         0.00000E+00
    0.18533E-06        -0.11525E-19         0.00000E+00
    0.18533E-06        -0.23050E-19         0.00000E+00
    0.18533E-06        -0.18044E-19         0.00000E+00
    0.18533E-06        -0.15018E-19         0.00000E+00
    0.18533E-06        -0.13155E-19         0.00000E+00
    0.18533E-06        -0.21420E-19         0.00000E+00
    0.18533E-06        -0.25379E-19         0.00000E+00
    0.18533E-06        -0.20489E-19         0.00000E+00
    0.18533E-06        -0.18626E-19         0.00000E+00
    0.18533E-06        -0.15600E-19         0.00000E+00
    0.18533E-06        -0.11874E-19         0.00000E+00
    0.18533E-06        -0.14668E-19         0.00000E+00
    0.18533E-06        -0.14785E-19         0.00000E+00
    0.18533E-06        -0.47730E-20         0.00000E+00
    0.18533E-06         0.22119E-20         0.00000E+00
    0.18533E-06         0.97789E-20         0.00000E+00
    0.18533E-06         0.48894E-20         0.00000E+00
    0.18533E-06        -0.46566E-21         0.00000E+00
    0.18533E-06        -0.12806E-20         0.00000E+00
    0.18533E-06         0.13970E-20         0.00000E+00
    0.18533E-06         0.27940E-20         0.00000E+00
    0.18533E-06        -0.23283E-20         0.00000E+00
    0.18533E-06         0.40745E-20         0.00000E+00
    0.20048E-06         0.44238E-20         0.00000E+00
    0.20048E-06         0.53551E-20         0.00000E+00
    0.20048E-06         0.00000E+00         0.00000E+00
    0.20048E-06         0.18626E-20         0.00000E+00
    0.20048E-06         0.97789E-20         0.00000E+00
    0.20048E-06         0.20256E-19         0.00000E+00
    0.20048E-06         0.18161E-19         0.00000E+00
    0.20048E-06         0.15949E-19         0.00000E+00
    0.20048E-06         0.10710E-19         0.00000E+00
    0.20048E-06         0.51223E-20         0.00000E+00
    0.20048E-06         0.87311E-20         0.00000E+00
    0.20048E-06         0.69849E-20         0.00000E+00
    0.20048E-06         0.45402E-20         0.00000E+00
    0.20048E-06        -0.13970E-20         0.00000E+00
    0.20048E-06        -0.64028E-20         0.00000E+00
    0.20048E-06        -0.12573E-19         0.00000E+00
    0.20048E-06        -0.11758E-19         0.00000E+00
    0.20048E-06        -0.13737E-19         0.00000E+00
    0.20048E-06        -0.76834E-20         0.00000E+00
    0.20048E-06        -0.10943E-19         0.00000E+00
    0.20048E-06        -0.11409E-19         0.00000E+00
    0.20048E-06        -0.41910E-20         0.00000E+00
    0.20048E-06        -0.25611E-20         0.00000E+00
    0.20048E-06        -0.93132E-21         0.00000E+00
    0.20048E-06         0.58208E-21         0.00000E+00
    0.20048E-06        -0.50059E-20         0.00000E+00
    0.20048E-06        -0.10477E-19         0.00000E+00
    0.20048E-06        -0.48894E-20         0.00000E+00
    0.20048E-06        -0.15949E-19         0.00000E+00
    0.20048E-06        -0.14086E-19         0.00000E+00
    0.20048E-06        -0.15134E-19         0.00000E+00
    0.20048E-06        -0.18859E-19         0.00000E+00
    0.20048E-06        -0.27474E-19         0.00000E+00
    0.20048E-06        -0.34692E-19         0.00000E+00
    0.20048E-06        -0.27241E-19         0.00000E+00
    0.20048E-06        -0.20023E-19         0.00000E+00
    0.20048E-06        -0.20489E-19         0.00000E+00
    0.20048E-06        -0.10710E-19         0.00000E+00
    0.20048E-06        -0.18743E-19         0.00000E+00
    0.20048E-06        -0.10943E-19         0.00000E+00
    0.20048E-06        -0.41910E-20         0.00000E+00
    0.20048E-06         0.48894E-20         0.00000E+00
    0.20048E-06         0.80327E-20         0.00000E+00
    0.20048E-06         0.90804E-20         0.00000E+00
    0.20048E-06        -0.25611E-20         0.00000E+00
    0.20048E-06        -0.13970E-20         0.00000E+00
    0.20048E-06        -0.20955E-20         0.00000E+00
    0.20048E-06        -0.30268E-20         0.00000E+00
    0.20048E-06        -0.25611E-20         0.00000E+00
    0.20048E-06         0.32596E-20         0.00000E+00
    0.21472E-06         0.37253E-20         0.00000E+00
    0.21472E-06         0.67521E-20         0.00000E+00
    0.21472E-06         0.32596E-20         0.00000E+00
    0.21472E-06         0.32596E-20         0.00000E+00
    0.21472E-06         0.90804E-20         0.00000E+00
    0.21472E-06         0.24796E-19         0.00000E+00
    0.21472E-06         0.20722E-19         0.00000E+00
    0.21472E-06         0.16531E-19         0.00000E+00
    0.21472E-06         0.11874E-19         0.00000E+00
    0.21472E-06         0.48894E-20         0.00000E+00
    0.21472E-06         0.69849E-21         0.00000E+00
    0.21472E-06         0.81491E-20         0.00000E+00
    0.21472E-06         0.60536E-20         0.00000E+00
    0.21472E-06         0.20955E-20         0.00000E+00
    0.21472E-06        -0.97789E-20         0.00000E+00
    0.21472E-06        -0.16997E-19         0.00000E+00
    0.21472E-06        -0.13970E-19         0.00000E+00
    0.21472E-06        -0.16531E-19         0.00000E+00
    0.21472E-06        -0.67521E-20         0.00000E+00
    0.21472E-06        -0.97789E-20         0.00000E+00
    0.21472E-06        -0.65193E-20         0.00000E+00
    0.21472E-06         0.34925E-21         0.00000E+00
    0.21472E-06        -0.25611E-20         0.00000E+00
    0.21472E-06         0.37253E-20         0.00000E+00
    0.21472E-06         0.18626E-20         0.00000E+00
    0.21472E-06        -0.46566E-21         0.00000E+00
    0.21472E-06        -0.33760E-20         0.00000E+00
    0.21472E-06        -0.74506E-20         0.00000E+00
    0.21472E-06        -0.18394E-19         0.00000E+00
    0.21472E-06        -0.16764E-19         0.00000E+00
    0.21472E-06        -0.15134E-19         0.00000E+00
    0.21472E-06        -0.20023E-19         0.00000E+00
    0.21472E-06        -0.29104E-19         0.00000E+00
    0.21472E-06        -0.33760E-19         0.00000E+00
    0.21472E-06        -0.30501E-19         0.00000E+00
    0.21472E-06        -0.20256E-19         0.00000E+00
    0.21472E-06        -0.18859E-19         0.00000E+00
    0.21472E-06        -0.12922E-19         0.00000E+00
    0.21472E-06        -0.12107E-19         0.00000E+00
    0.21472E-06        -0.12573E-19         0.00000E+00
    0.21472E-06        -0.69849E-21         0.00000E+00
    0.21472E-06         0.47730E-20         0.00000E+00
    0.21472E-06         0.48894E-20         0.00000E+00
    0.21472E-06         0.74506E-20         0.00000E+00
    0.21472E-06         0.69849E-21         0.00000E+00
    0.21472E-06         0.19791E-20         0.00000E+00
    0.21472E-06        -0.27940E-20         0.00000E+00
    0.21472E-06         0.22119E-20         0.00000E+00
    0.21472E-06        -0.20955E-20         0.00000E+00
    0.21472E-06         0.19791E-20         0.00000E+00
    0.22742E-06         0.52387E-20         0.00000E+00
    0.22742E-06         0.74506E-20         0.00000E+00
    0.22742E-06         0.46566E-20         0.00000E+00
    0.22742E-06         0.25611E-20         0.00000E+00
    0.22742E-06         0.10943E-19         0.00000E+00
    0.22742E-06         0.21886E-19         0.00000E+00
    0.22742E-06         0.20140E-19         0.00000E+00
    0.22742E-06         0.15134E-19         0.00000E+00
    0.22742E-06         0.10710E-19         0.00000E+00
    0.22742E-06         0.34925E-20         0.00000E+00
    0.22742E-06         0.00000E+00         0.00000E+00
    0.22742E-06         0.10012E-19         0.00000E+00
    0.22742E-06         0.10943E-19         0.00000E+00
    0.22742E-06         0.68685E-20         0.00000E+00
    0.22742E-06         0.23283E-21         0.00000E+00
    0.22742E-06        -0.51223E-20         0.00000E+00
    0.22742E-06        -0.95461E-20         0.00000E+00
    0.22742E-06        -0.13039E-19         0.00000E+00
    0.22742E-06        -0.44238E-20         0.00000E+00
    0.22742E-06        -0.51223E-20         0.00000E+00
    0.22742E-06        -0.83819E-20         0.00000E+00
    0.22742E-06        -0.58208E-20         0.00000E+00
    0.22742E-06        -0.61700E-20         0.00000E+00
    0.22742E-06        -0.13970E-20         0.00000E+00
    0.22742E-06        -0.12806E-20         0.00000E+00
    0.22742E-06        -0.20955E-20         0.00000E+00
    0.22742E-06        -0.67521E-20         0.00000E+00
    0.22742E-06        -0.87311E-20         0.00000E+00
    0.22742E-06        -0.19209E-19         0.00000E+00
    0.22742E-06        -0.13737E-19         0.00000E+00
    0.22742E-06        -0.14668E-19         0.00000E+00
    0.22742E-06        -0.14203E-19         0.00000E+00
    0.22742E-06        -0.23749E-19         0.00000E+00
    0.22742E-06        -0.27008E-19         0.00000E+00
    0.22742E-06        -0.26077E-19         0.00000E+00
    0.22742E-06        -0.21653E-19         0.00000E+00
    0.22742E-06        -0.15600E-19         0.00000E+00
    0.22742E-06        -0.95461E-20         0.00000E+00
    0.22742E-06        -0.72177E-20         0.00000E+00
    0.22742E-06        -0.10245E-19         0.00000E+00
    0.22742E-06        -0.12806E-20         0.00000E+00
    0.22742E-06         0.23283E-21         0.00000E+00
    0.22742E-06         0.44238E-20         0.00000E+00
    0.22742E-06         0.12806E-20         0.00000E+00
    0.22742E-06        -0.93132E-21         0.00000E+00
    0.22742E-06        -0.93132E-21         0.00000E+00
    0.22742E-06         0.11642E-20         0.00000E+00
    0.22742E-06         0.23283E-20         0.00000E+00
    0.22742E-06        -0.36089E-20         0.00000E+00
    0.22742E-06         0.37253E-20         0.00000E+00
    0.23788E-06         0.36089E-20         0.00000E+00
    0.23788E-06         0.44238E-20         0.00000E+00
    0.23788E-06        -0.15134E-20         0.00000E+00
    0.23788E-06         0.20955E-20         0.00000E+00
    0.23788E-06         0.12689E-19         0.00000E+00
    0.23788E-06         0.17462E-19         0.00000E+00
    0.23788E-06         0.15483E-19         0.00000E+00
    0.23788E-06         0.11874E-19         0.00000E+00
    0.23788E-06         0.11642E-19         0.00000E+00
    0.23788E-06         0.52387E-20         0.00000E+00
    0.23788E-06         0.43074E-20         0.00000E+00
    0.23788E-06         0.71013E-20         0.00000E+00
    0.23788E-06         0.95461E-20         0.00000E+00
    0.23788E-06         0.60536E-20         0.00000E+00
    0.23788E-06        -0.69849E-21         0.00000E+00
    0.23788E-06        -0.55879E-20         0.00000E+00
    0.23788E-06        -0.33760E-20         0.00000E+00
    0.23788E-06        -0.46566E-20         0.00000E+00
    0.23788E-06        -0.25611E-20         0.00000E+00
    0.23788E-06        -0.62864E-20         0.00000E+00
    0.23788E-06        -0.53551E-20         0.00000E+00
    0.23788E-06        -0.55879E-20         0.00000E+00
    0.23788E-06        -0.60536E-20         0.00000E+00
    0.23788E-06         0.00000E+00         0.00000E+00
    0.23788E-06         0.11642E-20         0.00000E+00
    0.23788E-06        -0.34925E-20         0.00000E+00
    0.23788E-06        -0.59372E-20         0.00000E+00
    0.23788E-06        -0.74506E-20         0.00000E+00
    0.23788E-06        -0.14435E-19         0.00000E+00
    0.23788E-06        -0.10477E-19         0.00000E+00
    0.23788E-06        -0.98953E-20         0.00000E+00
    0.23788E-06        -0.13970E-19         0.00000E+00
    0.23788E-06        -0.24214E-19         0.00000E+00
    0.23788E-06        -0.20722E-19         0.00000E+00
    0.23788E-06        -0.22585E-19         0.00000E+00
    0.23788E-06        -0.16298E-19         0.00000E+00
    0.23788E-06        -0.12806E-19         0.00000E+00
    0.23788E-06        -0.67521E-20         0.00000E+00
    0.23788E-06        -0.13039E-19         0.00000E+00
    0.23788E-06        -0.12107E-19         0.00000E+00
    0.23788E-06        -0.25611E-20         0.00000E+00
    0.23788E-06        -0.23283E-21         0.00000E+00
    0.23788E-06         0.41910E-20         0.00000E+00
    0.23788E-06         0.13970E-20         0.00000E+00
    0.23788E-06        -0.32596E-20         0.00000E+00
    0.23788E-06        -0.16298E-20         0.00000E+00
    0.23788E-06         0.23283E-20         0.00000E+00
    0.23788E-06         0.46566E-20         0.00000E+00
    0.23788E-06        -0.27940E-20         0.00000E+00
    0.23788E-06         0.19791E-20         0.00000E+00
    0.24540E-06        -0.46566E-21         0.00000E+00
    0.24540E-06         0.16298E-20         0.00000E+00
    0.24540E-06        -0.52387E-20         0.00000E+00
    0.24540E-06         0.00000E+00         0.00000E+00
    0.24540E-06         0.38417E-20         0.00000E+00
    0.24540E-06         0.15832E-19         0.00000E+00
    0.24540E-06         0.14552E-19         0.00000E+00
    0.24540E-06         0.11409E-19         0.00000E+00
    0.24540E-06         0.58208E-20         0.00000E+00
    0.24540E-06         0.46566E-20         0.00000E+00
    0.24540E-06         0.69849E-21         0.00000E+00
    0.24540E-06         0.62864E-20         0.00000E+00
    0.24540E-06         0.23283E-20         0.00000E+00
    0.24540E-06         0.36089E-20         0.00000E+00
    0.24540E-06        -0.37253E-20         0.00000E+00
    0.24540E-06        -0.25611E-20         0.00000E+00
    0.24540E-06        -0.46566E-20         0.00000E+00
    0.24540E-06        -0.25611E-20         0.00000E+00
    0.24540E-06         0.32596E-20         0.00000E+00
    0.24540E-06        -0.27940E-20         0.00000E+00
    0.24540E-06        -0.23283E-21         0.00000E+00
    0.24540E-06        -0.23283E-20         0.00000E+00
    0.24540E-06         0.69849E-21         0.00000E+00
    0.24540E-06         0.34925E-20         0.00000E+00
    0.24540E-06         0.20955E-20         0.00000E+00
    0.24540E-06        -0.25611E-20         0.00000E+00
    0.24540E-06        -0.20955E-20         0.00000E+00
    0.24540E-06        -0.69849E-20         0.00000E+00
    0.24540E-06        -0.11409E-19         0.00000E+00
    0.24540E-06        -0.41910E-20         0.00000E+00
    0.24540E-06        -0.48894E-20         0.00000E+00
    0.24540E-06        -0.86147E-20         0.00000E+00
    0.24540E-06        -0.18394E-19         0.00000E+00
    0.24540E-06        -0.15832E-19         0.00000E+00
    0.24540E-06        -0.18161E-19         0.00000E+00
    0.24540E-06        -0.13970E-19         0.00000E+00
    0.24540E-06        -0.83819E-20         0.00000E+00
    0.24540E-06        -0.10943E-19         0.00000E+00
    0.24540E-06        -0.12573E-19         0.00000E+00
    0.24540E-06        -0.10012E-19         0.00000E+00
    0.24540E-06        -0.34925E-20         0.00000E+00
    0.24540E-06         0.16298E-20         0.00000E+00
    0.24540E-06         0.69849E-20         0.00000E+00
    0.24540E-06         0.47730E-20         0.00000E+00
    0.24540E-06        -0.11642E-20         0.00000E+00
    0.24540E-06         0.16298E-20         0.00000E+00
    0.24540E-06         0.00000E+00         0.00000E+00
    0.24540E-06         0.25611E-20         0.00000E+00
    0.24540E-06         0.38417E-20         0.00000E+00
    0.24540E-06        -0.58208E-21         0.00000E+00
    0.24936E-06        -0.93132E-21         0.00000E+00
    0.24936E-06         0.93132E-21         0.00000E+00
    0.24936E-06        -0.93132E-21         0.00000E+00
    0.24936E-06        -0.37253E-20         0.00000E+00
    0.24936E-06        -0.93132E-21         0.00000E+00
    0.24936E-06         0.69849E-20         0.00000E+00
    0.24936E-06         0.12456E-19         0.00000E+00
    0.24936E-06         0.37253E-20         0.00000E+00
    0.24936E-06         0.93132E-21         0.00000E+00
    0.24936E-06        -0.88476E-20         0.00000E+00
    0.24936E-06         0.73342E-20         0.00000E+00
    0.24936E-06         0.23283E-20         0.00000E+00
    0.24936E-06         0.13970E-20         0.00000E+00
    0.24936E-06         0.23283E-20         0.00000E+00
    0.24936E-06        -0.93132E-21         0.00000E+00
    0.24936E-06         0.93132E-21         0.00000E+00
    0.24936E-06        -0.93132E-21         0.00000E+00
    0.24936E-06         0.37253E-20         0.00000E+00
    0.24936E-06        -0.62864E-20         0.00000E+00
    0.24936E-06         0.00000E+00         0.00000E+00
    0.24936E-06        -0.13970E-20         0.00000E+00
    0.24936E-06        -0.13970E-20         0.00000E+00
    0.24936E-06         0.37253E-20         0.00000E+00
    0.24936E-06         0.37253E-20         0.00000E+00
    0.24936E-06         0.23283E-20         0.00000E+00
    0.24936E-06         0.23283E-20         0.00000E+00
    0.24936E-06        -0.93132E-21         0.00000E+00
    0.24936E-06        -0.23283E-20         0.00000E+00
    0.24936E-06        -0.55879E-20         0.00000E+00
    0.24936E-06        -0.13970E-20         0.00000E+00
    0.24936E-06         0.00000E+00         0.00000E+00
    0.24936E-06        -0.59372E-20         0.00000E+00
    0.24936E-06         0.58208E-21         0.00000E+00
    0.24936E-06        -0.83819E-20         0.00000E+00
    0.24936E-06        -0.74506E-20         0.00000E+00
    0.24936E-06        -0.83819E-20         0.00000E+00
    0.24936E-06        -0.46566E-20         0.00000E+00
    0.24936E-06        -0.60536E-20         0.00000E+00
    0.24936E-06        -0.37253E-20         0.00000E+00
    0.24936E-06        -0.11758E-19         0.00000E+00
    0.24936E-06        -0.23283E-20         0.00000E+00
    0.24936E-06         0.11642E-19         0.00000E+00
    0.24936E-06         0.55879E-20         0.00000E+00
    0.24936E-06         0.32596E-20         0.00000E+00
    0.24936E-06         0.00000E+00         0.00000E+00
    0.24936E-06         0.00000E+00         0.00000E+00
    0.24936E-06         0.00000E+00         0.00000E+00
    0.24936E-06         0.72177E-20         0.00000E+00
    0.24936E-06        -0.48894E-20         0.00000E+00
    0.24936E-06         0.72177E-20         0.00000E+00
POINT_DATA       5151
VECTORS vDarcyNodal double 
    0.20118E-13         0.00000E+00         0.00000E+00
    0.20118E-13         0.00000E+00         0.00000E+00
    0.20118E-13         0.00000E+00         0.00000E+00
    0.20118E-13         0.00000E+00         0.00000E+00
    0.20118E-13         0.00000E+00         0.00000E+00
    0.20118E-13         0.00000E+00         0.00000E+00
    0.20118E-13         0.00000E+00         0.00000E+00
    0.20118E-13         0.00000E+00         0.00000E+00
    0.20118E-13         0.00000E+00         0.00000E+00
    0.20118E-13         0.00000E+00         0.00000E+00
    0.20118E-13         0.00000E+00         0.00000E+00
    0.20118E-13         0.00000E+00         0.00000E+00
    0.20118E-13         0.00000E+00         0.00000E+00
    0.20118E-13        -0.18626E-20         0.00000E+00
    0.20118E-13         0.00000E+00         0.00000E+00
    0.20118E-13         0.18626E-20         0.00000E+00
    0.20118E-13         0.00000E+00         0.00000E+00
    0.20118E-13         0.00000E+00         0.00000E+00
    0.20118E-13         0.00000E+00         0.00000E+00
    0.20118E-13         0.00000E+00         0.00000E+00
    0.20118E-13         0.00000E+00         0.00000E+00
    0.20118E-13         0.00000E+00         0.00000E+00
    0.20118E-13         0.00000E+00         0.00000E+00
    0.20118E-13         0.00000E+00         0.00000E+00
    0.20118E-13         0.00000E+00         0.00000E+00
    0.20118E-13         0.00000E+00         0.00000E+00
    0.20118E-13         0.00000E+00         0.00000E+00
    0.20118E-13         0.00000E+00         0.00000E+00
    0.20118E-13         0.00000E+00         0.00000E+00
    0.20118E-13         0.00000E+00         0.00000E+00
    0.20118E-13         0.00000E+00         0.00000E+00
    0.20118E-13         0.00000E+00         0.00000E+00
    0.20118E-13         0.00000E+00         0.00000E+00
    0.20118E-13         0.00000E+00         0.00000E+00
    0.20118E-13         0.00000E+00         0.00000E+00
    0.20118E-13         0.00000E+00         0.00000E+00
    0.20118E-13         0.00000E+00         0.00000E+00
    0.20118E-13         0.00000E+00         0.00000E+00
    0.20118E-13         0.00000E+00         0.00000E+00
    0.20118E-13         0.00000E+00         0.00000E+00
    0.20118E-13         0.00000E+00         0.00000E+00
    0.20118E-13         0.00000E+00         0.00000E+00
    0.20118E-13         0.00000E+00         0.00000E+00
    0.20118E-13         0.00000E+00         0.00000E+00
    0.20118E-13         0.00000E+00         0.00000E+00
    0.20118E-13         0.00000E+00         0.00000E+00
    0.20118E-13         0.00000E+00         0.00000E+00
    0.20118E-13         0.00000E+00         0.00000E+00
    0.20118E-13         0.00000E+00         0.00000E+00
    0.20118E-13         0.18626E-20         0.00000E+00
    0.20118E-13         0.37253E-20         0.00000E+00
    0.20537E-13         0.00000E+00         0.00000E+00
    0.20537E-13         0.18626E-20         0.00000E+00
    0.20537E-13         0.55879E-20         0.00000E+00
    0.20537E-13         0.57668E-20         0.00000E+00
    0.20537E-13         0.55879E-20         0.00000E+00
    0.20537E-13         0.98867E-20         0.00000E+00
    0.20537E-13         0.13970E-19         0.00000E+00
    0.20537E-13         0.76295E-20         0.00000E+00
    0.20537E-13         0.55879E-20         0.00000E+00
    0.20537E-13         0.55879E-20         0.00000E+00
    0.20537E-13         0.00000E+00         0.00000E+00
    0.20537E-13        -0.75242E-21         0.00000E+00
    0.20537E-13        -0.55879E-20         0.00000E+00
    0.20537E-13         0.46566E-20         0.00000E+00
    0.20537E-13         0.83819E-20         0.00000E+00
    0.20537E-13        -0.29729E-20         0.00000E+00
    0.20537E-13         0.00000E+00         0.00000E+00
    0.20537E-13         0.55879E-20         0.00000E+00
    0.20537E-13         0.55879E-20         0.00000E+00
    0.20537E-13         0.00000E+00         0.00000E+00
    0.20537E-13        -0.18626E-20         0.00000E+00
    0.20537E-13        -0.37253E-20         0.00000E+00
    0.20537E-13        -0.37253E-20         0.00000E+00
    0.20537E-13         0.39042E-20         0.00000E+00
    0.20537E-13         0.26151E-20         0.00000E+00
    0.20537E-13         0.93132E-21         0.00000E+00
    0.20537E-13         0.11102E-20         0.00000E+00
    0.20537E-13         0.75242E-21         0.00000E+00
    0.20537E-13         0.18626E-20         0.00000E+00
    0.20537E-13         0.18626E-20         0.00000E+00
    0.20537E-13         0.18626E-20         0.00000E+00
    0.20537E-13         0.37253E-20         0.00000E+00
    0.20537E-13         0.37253E-20         0.00000E+00
    0.20537E-13        -0.18626E-20         0.00000E+00
    0.20537E-13         0.00000E+00         0.00000E+00
    0.20537E-13         0.18626E-20         0.00000E+00
    0.20537E-13        -0.18626E-20         0.00000E+00
    0.20537E-13         0.18626E-20         0.00000E+00
    0.20537E-13         0.37253E-20         0.00000E+00
    0.20537E-13         0.18626E-20         0.00000E+00
    0.20537E-13         0.72717E-20         0.00000E+00
    0.20537E-13         0.55879E-20         0.00000E+00
    0.20537E-13         0.20415E-20         0.00000E+00
    0.20537E-13         0.44777E-20         0.00000E+00
    0.20537E-13         0.48355E-20         0.00000E+00
    0.20537E-13         0.22204E-20         0.00000E+00
    0.20537E-13         0.26151E-20         0.00000E+00
    0.20537E-13         0.10066E-19         0.00000E+00
    0.20537E-13         0.93132E-20         0.00000E+00
    0.20537E-13         0.26151E-20         0.00000E+00
    0.20537E-13         0.52301E-20         0.00000E+00
    0.21811E-13         0.00000E+00         0.00000E+00
    0.21811E-13         0.93132E-20         0.00000E+00
    0.21811E-13         0.24214E-19         0.00000E+00
    0.21811E-13         0.32023E-19         0.00000E+00
    0.21811E-13         0.25146E-19         0.00000E+00
    0.21811E-13         0.12323E-19         0.00000E+00
    0.21811E-13         0.18626E-20         0.00000E+00
    0.21811E-13        -0.57352E-21         0.00000E+00
    0.21811E-13         0.18626E-20         0.00000E+00
    0.21811E-13         0.18626E-20         0.00000E+00
    0.21811E-13         0.18626E-20         0.00000E+00
    0.21811E-13        -0.24362E-20         0.00000E+00
    0.21811E-13         0.00000E+00         0.00000E+00
    0.21811E-13         0.37253E-20         0.00000E+00
    0.21811E-13         0.10245E-19         0.00000E+00
    0.21811E-13         0.18269E-19         0.00000E+00
    0.21811E-13         0.74506E-20         0.00000E+00
    0.21811E-13        -0.55879E-20         0.00000E+00
    0.21811E-13         0.00000E+00         0.00000E+00
    0.21811E-13         0.93132E-20         0.00000E+00
    0.21811E-13         0.24214E-19         0.00000E+00
    0.21811E-13         0.33528E-19         0.00000E+00
    0.21811E-13         0.14901E-19         0.00000E+00
    0.21811E-13        -0.42988E-20         0.00000E+00
    0.21811E-13         0.57352E-21         0.00000E+00
    0.21811E-13         0.27940E-20         0.00000E+00
    0.21811E-13         0.22204E-20         0.00000E+00
    0.21811E-13        -0.50144E-20         0.00000E+00
    0.21811E-13        -0.14901E-19         0.00000E+00
    0.21811E-13        -0.14901E-19         0.00000E+00
    0.21811E-13        -0.18626E-20         0.00000E+00
    0.21811E-13         0.37253E-20         0.00000E+00
    0.21811E-13         0.18626E-20         0.00000E+00
    0.21811E-13         0.37253E-20         0.00000E+00
    0.21811E-13         0.00000E+00         0.00000E+00
    0.21811E-13         0.00000E+00         0.00000E+00
    0.21811E-13         0.93132E-20         0.00000E+00
    0.21811E-13         0.74506E-20         0.00000E+00
    0.21811E-13        -0.18626E-20         0.00000E+00
    0.21811E-13        -0.18626E-20         0.00000E+00
    0.21811E-13        -0.87397E-20         0.00000E+00
    0.21811E-13        -0.93132E-21         0.00000E+00
    0.21811E-13        -0.15048E-20         0.00000E+00
    0.21811E-13        -0.13396E-19         0.00000E+00
    0.21811E-13        -0.70928E-20         0.00000E+00
    0.21811E-13         0.63035E-20         0.00000E+00
    0.21811E-13         0.13612E-19         0.00000E+00
    0.21811E-13         0.15475E-19         0.00000E+00
    0.21811E-13         0.11176E-19         0.00000E+00
    0.21811E-13         0.70928E-20         0.00000E+00
    0.21811E-13        -0.71560E-21         0.00000E+00
    0.23991E-13         0.37253E-20         0.00000E+00
    0.23991E-13         0.87397E-20         0.00000E+00
    0.23991E-13         0.14901E-19         0.00000E+00
    0.23991E-13         0.15475E-19         0.00000E+00
    0.23991E-13         0.22352E-19         0.00000E+00
    0.23991E-13         0.27366E-19         0.00000E+00
    0.23991E-13         0.18626E-19         0.00000E+00
    0.23991E-13         0.37253E-20         0.00000E+00
    0.23991E-13        -0.37253E-20         0.00000E+00
    0.23991E-13         0.37253E-20         0.00000E+00
    0.23991E-13         0.10602E-19         0.00000E+00
    0.23991E-13        -0.31518E-20         0.00000E+00
    0.23991E-13        -0.16406E-19         0.00000E+00
    0.23991E-13        -0.10818E-19         0.00000E+00
    0.23991E-13        -0.71560E-21         0.00000E+00
    0.23991E-13        -0.12465E-19         0.00000E+00
    0.23991E-13        -0.55879E-20         0.00000E+00
    0.23991E-13         0.20131E-19         0.00000E+00
    0.23991E-13         0.23283E-19         0.00000E+00
    0.23991E-13         0.10602E-19         0.00000E+00
    0.23991E-13        -0.24362E-20         0.00000E+00
    0.23991E-13        -0.11749E-19         0.00000E+00
    0.23991E-13        -0.13396E-19         0.00000E+00
    0.23991E-13        -0.18626E-20         0.00000E+00
    0.23991E-13        -0.93132E-21         0.00000E+00
    0.23991E-13         0.37253E-20         0.00000E+00
    0.23991E-13         0.93132E-21         0.00000E+00
    0.23991E-13         0.27940E-20         0.00000E+00
    0.23991E-13         0.14328E-19         0.00000E+00
    0.23991E-13         0.24362E-20         0.00000E+00
    0.23991E-13        -0.31518E-20         0.00000E+00
    0.23991E-13         0.31518E-20         0.00000E+00
    0.23991E-13         0.83819E-20         0.00000E+00
    0.23991E-13         0.70928E-20         0.00000E+00
    0.23991E-13         0.16764E-19         0.00000E+00
    0.23991E-13         0.93132E-20         0.00000E+00
    0.23991E-13        -0.10818E-19         0.00000E+00
    0.23991E-13        -0.93132E-20         0.00000E+00
    0.23991E-13         0.93132E-21         0.00000E+00
    0.23991E-13        -0.24362E-20         0.00000E+00
    0.23991E-13        -0.22204E-20         0.00000E+00
    0.23991E-13        -0.22204E-20         0.00000E+00
    0.23991E-13         0.55879E-20         0.00000E+00
    0.23991E-13         0.37253E-20         0.00000E+00
    0.23991E-13        -0.11176E-19         0.00000E+00
    0.23991E-13        -0.52301E-20         0.00000E+00
    0.23991E-13        -0.83819E-20         0.00000E+00
    0.23991E-13        -0.93132E-20         0.00000E+00
    0.23991E-13        -0.17695E-19         0.00000E+00
    0.23991E-13        -0.78084E-20         0.00000E+00
    0.23991E-13         0.74506E-20         0.00000E+00
    0.27167E-13        -0.11176E-19         0.00000E+00
    0.27167E-13        -0.13039E-19         0.00000E+00
    0.27167E-13        -0.37253E-20         0.00000E+00
    0.27167E-13         0.71560E-21         0.00000E+00
    0.27167E-13        -0.83819E-20         0.00000E+00
    0.27167E-13        -0.32938E-20         0.00000E+00
    0.27167E-13         0.93132E-21         0.00000E+00
    0.27167E-13         0.44409E-20         0.00000E+00
    0.27167E-13         0.00000E+00         0.00000E+00
    0.27167E-13        -0.18626E-20         0.00000E+00
    0.27167E-13        -0.74506E-20         0.00000E+00
    0.27167E-13        -0.95289E-20         0.00000E+00
    0.27167E-13         0.93132E-21         0.00000E+00
    0.27167E-13         0.46566E-20         0.00000E+00
    0.27167E-13         0.46566E-20         0.00000E+00
    0.27167E-13         0.17911E-19         0.00000E+00
    0.27167E-13         0.14901E-19         0.00000E+00
    0.27167E-13        -0.55879E-20         0.00000E+00
    0.27167E-13         0.00000E+00         0.00000E+00
    0.27167E-13         0.24214E-19         0.00000E+00
    0.27167E-13         0.22352E-19         0.00000E+00
    0.27167E-13         0.74506E-20         0.00000E+00
    0.27167E-13         0.00000E+00         0.00000E+00
    0.27167E-13        -0.58037E-20         0.00000E+00
    0.27167E-13        -0.25782E-20         0.00000E+00
    0.27167E-13        -0.83819E-20         0.00000E+00
    0.27167E-13        -0.58037E-20         0.00000E+00
    0.27167E-13        -0.16469E-20         0.00000E+00
    0.27167E-13         0.18626E-20         0.00000E+00
    0.27167E-13         0.16764E-19         0.00000E+00
    0.27167E-13         0.18626E-19         0.00000E+00
    0.27167E-13         0.11176E-19         0.00000E+00
    0.27167E-13         0.74506E-20         0.00000E+00
    0.27167E-13        -0.55879E-20         0.00000E+00
    0.27167E-13        -0.14901E-19         0.00000E+00
    0.27167E-13        -0.13039E-19         0.00000E+00
    0.27167E-13        -0.18626E-20         0.00000E+00
    0.27167E-13         0.93132E-20         0.00000E+00
    0.27167E-13         0.74506E-20         0.00000E+00
    0.27167E-13         0.74506E-20         0.00000E+00
    0.27167E-13         0.48723E-20         0.00000E+00
    0.27167E-13         0.11176E-19         0.00000E+00
    0.27167E-13         0.63035E-20         0.00000E+00
    0.27167E-13         0.21572E-21         0.00000E+00
    0.27167E-13         0.14685E-19         0.00000E+00
    0.27167E-13         0.14470E-19         0.00000E+00
    0.27167E-13         0.11470E-20         0.00000E+00
    0.27167E-13         0.67350E-20         0.00000E+00
    0.27167E-13         0.55879E-20         0.00000E+00
    0.27167E-13        -0.71560E-21         0.00000E+00
    0.27167E-13         0.22941E-20         0.00000E+00
    0.31468E-13        -0.37253E-20         0.00000E+00
    0.31468E-13        -0.11176E-19         0.00000E+00
    0.31468E-13        -0.18411E-19         0.00000E+00
    0.31468E-13        -0.20489E-19         0.00000E+00
    0.31468E-13        -0.95289E-20         0.00000E+00
    0.31468E-13         0.74506E-20         0.00000E+00
    0.31468E-13         0.93132E-20         0.00000E+00
    0.31468E-13         0.18626E-20         0.00000E+00
    0.31468E-13         0.00000E+00         0.00000E+00
    0.31468E-13        -0.55879E-20         0.00000E+00
    0.31468E-13        -0.13754E-19         0.00000E+00
    0.31468E-13        -0.22352E-19         0.00000E+00
    0.31468E-13        -0.23499E-19         0.00000E+00
    0.31468E-13        -0.11176E-19         0.00000E+00
    0.31468E-13         0.55879E-20         0.00000E+00
    0.31468E-13         0.55879E-20         0.00000E+00
    0.31468E-13         0.55879E-20         0.00000E+00
    0.31468E-13         0.14901E-19         0.00000E+00
    0.31468E-13         0.22352E-19         0.00000E+00
    0.31468E-13         0.13039E-19         0.00000E+00
    0.31468E-13        -0.18626E-20         0.00000E+00
    0.31468E-13         0.55879E-20         0.00000E+00
    0.31468E-13         0.11176E-19         0.00000E+00
    0.31468E-13         0.13039E-19         0.00000E+00
    0.31468E-13         0.22352E-19         0.00000E+00
    0.31468E-13         0.16764E-19         0.00000E+00
    0.31468E-13         0.55879E-20         0.00000E+00
    0.31468E-13        -0.37253E-20         0.00000E+00
    0.31468E-13        -0.18626E-20         0.00000E+00
    0.31468E-13        -0.18626E-20         0.00000E+00
    0.31468E-13        -0.37253E-20         0.00000E+00
    0.31468E-13        -0.37253E-20         0.00000E+00
    0.31468E-13        -0.14901E-19         0.00000E+00
    0.31468E-13        -0.18626E-20         0.00000E+00
    0.31468E-13         0.74506E-20         0.00000E+00
    0.31468E-13        -0.55879E-20         0.00000E+00
    0.31468E-13        -0.10029E-19         0.00000E+00
    0.31468E-13         0.48723E-20         0.00000E+00
    0.31468E-13         0.22136E-19         0.00000E+00
    0.31468E-13         0.18411E-19         0.00000E+00
    0.31468E-13         0.22352E-19         0.00000E+00
    0.31468E-13         0.18626E-19         0.00000E+00
    0.31468E-13         0.20489E-19         0.00000E+00
    0.31468E-13         0.27940E-19         0.00000E+00
    0.31468E-13         0.67350E-20         0.00000E+00
    0.31468E-13        -0.71560E-21         0.00000E+00
    0.31468E-13         0.63035E-20         0.00000E+00
    0.31468E-13         0.63035E-20         0.00000E+00
    0.31468E-13         0.00000E+00         0.00000E+00
    0.31468E-13        -0.44409E-20         0.00000E+00
    0.31468E-13        -0.51565E-20         0.00000E+00
    0.37069E-13        -0.37253E-20         0.00000E+00
    0.37069E-13         0.81662E-20         0.00000E+00
    0.37069E-13         0.20489E-19         0.00000E+00
    0.37069E-13         0.17911E-19         0.00000E+00
    0.37069E-13         0.14901E-19         0.00000E+00
    0.37069E-13        -0.76663E-20         0.00000E+00
    0.37069E-13        -0.16764E-19         0.00000E+00
    0.37069E-13        -0.93132E-20         0.00000E+00
    0.37069E-13        -0.16764E-19         0.00000E+00
    0.37069E-13        -0.32596E-19         0.00000E+00
    0.37069E-13        -0.19773E-19         0.00000E+00
    0.37069E-13         0.21572E-21         0.00000E+00
    0.37069E-13        -0.30097E-20         0.00000E+00
    0.37069E-13        -0.95289E-20         0.00000E+00
    0.37069E-13        -0.20989E-19         0.00000E+00
    0.37069E-13        -0.23999E-19         0.00000E+00
    0.37069E-13        -0.20489E-19         0.00000E+00
    0.37069E-13        -0.15617E-19         0.00000E+00
    0.37069E-13        -0.16764E-19         0.00000E+00
    0.37069E-13        -0.67350E-20         0.00000E+00
    0.37069E-13        -0.39410E-20         0.00000E+00
    0.37069E-13        -0.58037E-20         0.00000E+00
    0.37069E-13         0.48723E-20         0.00000E+00
    0.37069E-13        -0.46566E-20         0.00000E+00
    0.37069E-13        -0.13970E-19         0.00000E+00
    0.37069E-13         0.74506E-20         0.00000E+00
    0.37069E-13         0.17695E-19         0.00000E+00
    0.37069E-13         0.10245E-19         0.00000E+00
    0.37069E-13         0.25782E-20         0.00000E+00
    0.37069E-13         0.85976E-20         0.00000E+00
    0.37069E-13         0.10460E-19         0.00000E+00
    0.37069E-13         0.10029E-19         0.00000E+00
    0.37069E-13         0.12107E-19         0.00000E+00
    0.37069E-13         0.21572E-21         0.00000E+00
    0.37069E-13        -0.74506E-20         0.00000E+00
    0.37069E-13         0.37253E-20         0.00000E+00
    0.37069E-13         0.19342E-19         0.00000E+00
    0.37069E-13         0.93132E-20         0.00000E+00
    0.37069E-13        -0.37253E-20         0.00000E+00
    0.37069E-13         0.71560E-21         0.00000E+00
    0.37069E-13         0.95289E-20         0.00000E+00
    0.37069E-13         0.16980E-19         0.00000E+00
    0.37069E-13         0.16764E-19         0.00000E+00
    0.37069E-13         0.11176E-19         0.00000E+00
    0.37069E-13         0.24214E-19         0.00000E+00
    0.37069E-13         0.23067E-19         0.00000E+00
    0.37069E-13         0.18626E-20         0.00000E+00
    0.37069E-13         0.37253E-20         0.00000E+00
    0.37069E-13        -0.18626E-20         0.00000E+00
    0.37069E-13        -0.44409E-20         0.00000E+00
    0.37069E-13         0.00000E+00         0.00000E+00
    0.44198E-13         0.13901E-19         0.00000E+00
    0.44198E-13         0.18626E-20         0.00000E+00
    0.44198E-13         0.42252E-20         0.00000E+00
    0.44198E-13        -0.74506E-20         0.00000E+00
    0.44198E-13        -0.32165E-19         0.00000E+00
    0.44198E-13        -0.24714E-19         0.00000E+00
    0.44198E-13        -0.60194E-20         0.00000E+00
    0.44198E-13        -0.13470E-19         0.00000E+00
    0.44198E-13        -0.33528E-19         0.00000E+00
    0.44198E-13        -0.33528E-19         0.00000E+00
    0.44198E-13        -0.26077E-19         0.00000E+00
    0.44198E-13        -0.24214E-19         0.00000E+00
    0.44198E-13        -0.14901E-19         0.00000E+00
    0.44198E-13        -0.93132E-20         0.00000E+00
    0.44198E-13        -0.93132E-20         0.00000E+00
    0.44198E-13        -0.13039E-19         0.00000E+00
    0.44198E-13        -0.14901E-19         0.00000E+00
    0.44198E-13        -0.20489E-19         0.00000E+00
    0.44198E-13        -0.24214E-19         0.00000E+00
    0.44198E-13        -0.33528E-19         0.00000E+00
    0.44198E-13        -0.29802E-19         0.00000E+00
    0.44198E-13        -0.55879E-20         0.00000E+00
    0.44198E-13         0.37253E-20         0.00000E+00
    0.44198E-13         0.55879E-20         0.00000E+00
    0.44198E-13         0.55879E-20         0.00000E+00
    0.44198E-13        -0.74506E-20         0.00000E+00
    0.44198E-13        -0.55879E-20         0.00000E+00
    0.44198E-13         0.14901E-19         0.00000E+00
    0.44198E-13         0.18626E-19         0.00000E+00
    0.44198E-13         0.55879E-20         0.00000E+00
    0.44198E-13        -0.18626E-20         0.00000E+00
    0.44198E-13         0.18626E-20         0.00000E+00
    0.44198E-13         0.18626E-20         0.00000E+00
    0.44198E-13        -0.74506E-20         0.00000E+00
    0.44198E-13        -0.37253E-20         0.00000E+00
    0.44198E-13         0.93132E-20         0.00000E+00
    0.44198E-13         0.55879E-20         0.00000E+00
    0.44198E-13         0.93132E-20         0.00000E+00
    0.44198E-13         0.16764E-19         0.00000E+00
    0.44198E-13         0.24646E-19         0.00000E+00
    0.44198E-13         0.26077E-19         0.00000E+00
    0.44198E-13         0.12607E-19         0.00000E+00
    0.44198E-13         0.74506E-20         0.00000E+00
    0.44198E-13         0.13039E-19         0.00000E+00
    0.44198E-13         0.18626E-20         0.00000E+00
    0.44198E-13        -0.93132E-20         0.00000E+00
    0.44198E-13        -0.23625E-20         0.00000E+00
    0.44198E-13         0.37253E-20         0.00000E+00
    0.44198E-13        -0.13628E-20         0.00000E+00
    0.44198E-13        -0.13039E-19         0.00000E+00
    0.44198E-13        -0.22352E-19         0.00000E+00
    0.53145E-13        -0.37253E-20         0.00000E+00
    0.53145E-13        -0.14901E-19         0.00000E+00
    0.53145E-13        -0.27940E-19         0.00000E+00
    0.53145E-13        -0.25577E-19         0.00000E+00
    0.53145E-13        -0.11176E-19         0.00000E+00
    0.53145E-13        -0.11244E-19         0.00000E+00
    0.53145E-13        -0.19558E-19         0.00000E+00
    0.53145E-13        -0.18127E-19         0.00000E+00
    0.53145E-13        -0.13039E-19         0.00000E+00
    0.53145E-13        -0.14901E-19         0.00000E+00
    0.53145E-13        -0.13039E-19         0.00000E+00
    0.53145E-13        -0.16264E-19         0.00000E+00
    0.53145E-13        -0.16764E-19         0.00000E+00
    0.53145E-13        -0.93132E-21         0.00000E+00
    0.53145E-13         0.65193E-20         0.00000E+00
    0.53145E-13        -0.98131E-20         0.00000E+00
    0.53145E-13        -0.16764E-19         0.00000E+00
    0.53145E-13        -0.55879E-20         0.00000E+00
    0.53145E-13        -0.18626E-20         0.00000E+00
    0.53145E-13        -0.18626E-20         0.00000E+00
    0.53145E-13        -0.55879E-20         0.00000E+00
    0.53145E-13        -0.16764E-19         0.00000E+00
    0.53145E-13        -0.14901E-19         0.00000E+00
    0.53145E-13        -0.50881E-20         0.00000E+00
    0.53145E-13         0.41567E-20         0.00000E+00
    0.53145E-13         0.18626E-19         0.00000E+00
    0.53145E-13         0.13538E-19         0.00000E+00
    0.53145E-13        -0.88818E-20         0.00000E+00
    0.53145E-13        -0.20489E-19         0.00000E+00
    0.53145E-13        -0.14901E-19         0.00000E+00
    0.53145E-13         0.00000E+00         0.00000E+00
    0.53145E-13         0.74506E-20         0.00000E+00
    0.53145E-13         0.16764E-19         0.00000E+00
    0.53145E-13         0.22352E-19         0.00000E+00
    0.53145E-13         0.11176E-19         0.00000E+00
    0.53145E-13         0.37253E-20         0.00000E+00
    0.53145E-13         0.11176E-19         0.00000E+00
    0.53145E-13         0.55879E-20         0.00000E+00
    0.53145E-13         0.00000E+00         0.00000E+00
    0.53145E-13         0.18626E-20         0.00000E+00
    0.53145E-13        -0.23625E-20         0.00000E+00
    0.53145E-13        -0.83819E-20         0.00000E+00
    0.53145E-13        -0.13470E-19         0.00000E+00
    0.53145E-13        -0.13538E-19         0.00000E+00
    0.53145E-13        -0.60194E-20         0.00000E+00
    0.53145E-13        -0.73821E-20         0.00000E+00
    0.53145E-13        -0.49988E-21         0.00000E+00
    0.53145E-13         0.88133E-20         0.00000E+00
    0.53145E-13         0.93132E-20         0.00000E+00
    0.53145E-13         0.13628E-20         0.00000E+00
    0.53145E-13        -0.12176E-19         0.00000E+00
    0.64273E-13         0.47251E-20         0.00000E+00
    0.64273E-13         0.00000E+00         0.00000E+00
    0.64273E-13         0.93132E-20         0.00000E+00
    0.64273E-13         0.74506E-20         0.00000E+00
    0.64273E-13        -0.13039E-19         0.00000E+00
    0.64273E-13        -0.74506E-20         0.00000E+00
    0.64273E-13        -0.10245E-19         0.00000E+00
    0.64273E-13        -0.24646E-19         0.00000E+00
    0.64273E-13        -0.20489E-19         0.00000E+00
    0.64273E-13         0.13628E-20         0.00000E+00
    0.64273E-13        -0.49988E-21         0.00000E+00
    0.64273E-13         0.00000E+00         0.00000E+00
    0.64273E-13         0.18626E-20         0.00000E+00
    0.64273E-13        -0.14901E-19         0.00000E+00
    0.64273E-13        -0.20489E-19         0.00000E+00
    0.64273E-13        -0.37253E-20         0.00000E+00
    0.64273E-13         0.74506E-20         0.00000E+00
    0.64273E-13        -0.18626E-20         0.00000E+00
    0.64273E-13        -0.37253E-20         0.00000E+00
    0.64273E-13        -0.18626E-20         0.00000E+00
    0.64273E-13        -0.18626E-20         0.00000E+00
    0.64273E-13         0.55879E-20         0.00000E+00
    0.64273E-13         0.13039E-19         0.00000E+00
    0.64273E-13         0.93132E-20         0.00000E+00
    0.64273E-13         0.14901E-19         0.00000E+00
    0.64273E-13         0.11676E-19         0.00000E+00
    0.64273E-13         0.00000E+00         0.00000E+00
    0.64273E-13         0.13628E-20         0.00000E+00
    0.64273E-13         0.18626E-20         0.00000E+00
    0.64273E-13         0.55879E-20         0.00000E+00
    0.64273E-13        -0.18626E-20         0.00000E+00
    0.64273E-13         0.49988E-21         0.00000E+00
    0.64273E-13         0.93132E-21         0.00000E+00
    0.64273E-13        -0.32938E-20         0.00000E+00
    0.64273E-13         0.55879E-20         0.00000E+00
    0.64273E-13         0.14901E-19         0.00000E+00
    0.64273E-13         0.74506E-20         0.00000E+00
    0.64273E-13         0.37253E-20         0.00000E+00
    0.64273E-13         0.37253E-20         0.00000E+00
    0.64273E-13        -0.32254E-20         0.00000E+00
    0.64273E-13        -0.74506E-20         0.00000E+00
    0.64273E-13        -0.12107E-19         0.00000E+00
    0.64273E-13        -0.93132E-21         0.00000E+00
    0.64273E-13         0.74506E-20         0.00000E+00
    0.64273E-13        -0.82755E-35         0.00000E+00
    0.64273E-13        -0.23625E-20         0.00000E+00
    0.64273E-13        -0.37253E-20         0.00000E+00
    0.64273E-13        -0.55879E-20         0.00000E+00
    0.64273E-13         0.00000E+00         0.00000E+00
    0.64273E-13         0.69507E-20         0.00000E+00
    0.64273E-13         0.64508E-20         0.00000E+00
    0.78031E-13         0.11176E-19         0.00000E+00
    0.78031E-13         0.11176E-19         0.00000E+00
    0.78031E-13         0.32254E-20         0.00000E+00
    0.78031E-13         0.93132E-20         0.00000E+00
    0.78031E-13         0.13538E-19         0.00000E+00
    0.78031E-13         0.18626E-20         0.00000E+00
    0.78031E-13        -0.93132E-20         0.00000E+00
    0.78031E-13        -0.55879E-20         0.00000E+00
    0.78031E-13         0.55879E-20         0.00000E+00
    0.78031E-13         0.37253E-20         0.00000E+00
    0.78031E-13        -0.32938E-20         0.00000E+00
    0.78031E-13        -0.65193E-20         0.00000E+00
    0.78031E-13        -0.32254E-20         0.00000E+00
    0.78031E-13         0.55879E-20         0.00000E+00
    0.78031E-13         0.55879E-20         0.00000E+00
    0.78031E-13         0.00000E+00         0.00000E+00
    0.78031E-13        -0.74506E-20         0.00000E+00
    0.78031E-13        -0.11176E-19         0.00000E+00
    0.78031E-13        -0.37253E-20         0.00000E+00
    0.78031E-13         0.11176E-19         0.00000E+00
    0.78031E-13         0.16764E-19         0.00000E+00
    0.78031E-13         0.18626E-19         0.00000E+00
    0.78031E-13         0.14901E-19         0.00000E+00
    0.78031E-13         0.93132E-20         0.00000E+00
    0.78031E-13         0.00000E+00         0.00000E+00
    0.78031E-13         0.93132E-20         0.00000E+00
    0.78031E-13         0.74506E-20         0.00000E+00
    0.78031E-13        -0.55879E-20         0.00000E+00
    0.78031E-13        -0.55879E-20         0.00000E+00
    0.78031E-13        -0.20489E-19         0.00000E+00
    0.78031E-13        -0.11176E-19         0.00000E+00
    0.78031E-13         0.00000E+00         0.00000E+00
    0.78031E-13         0.18626E-20         0.00000E+00
    0.78031E-13         0.13039E-19         0.00000E+00
    0.78031E-13         0.11176E-19         0.00000E+00
    0.78031E-13         0.11176E-19         0.00000E+00
    0.78031E-13         0.13470E-19         0.00000E+00
    0.78031E-13         0.41567E-20         0.00000E+00
    0.78031E-13        -0.43144E-21         0.00000E+00
    0.78031E-13        -0.22941E-20         0.00000E+00
    0.78031E-13        -0.93132E-20         0.00000E+00
    0.78031E-13         0.37253E-20         0.00000E+00
    0.78031E-13         0.55879E-20         0.00000E+00
    0.78031E-13        -0.93132E-20         0.00000E+00
    0.78031E-13         0.43144E-21         0.00000E+00
    0.78031E-13         0.11607E-19         0.00000E+00
    0.78031E-13         0.19126E-19         0.00000E+00
    0.78031E-13         0.19126E-19         0.00000E+00
    0.78031E-13         0.13039E-19         0.00000E+00
    0.78031E-13         0.50881E-20         0.00000E+00
    0.78031E-13        -0.47251E-20         0.00000E+00
    0.94974E-13        -0.74506E-20         0.00000E+00
    0.94974E-13        -0.55879E-20         0.00000E+00
    0.94974E-13         0.93132E-20         0.00000E+00
    0.94974E-13         0.11176E-19         0.00000E+00
    0.94974E-13         0.42252E-20         0.00000E+00
    0.94974E-13        -0.14312E-20         0.00000E+00
    0.94974E-13        -0.19311E-20         0.00000E+00
    0.94974E-13        -0.32254E-20         0.00000E+00
    0.94974E-13        -0.32254E-20         0.00000E+00
    0.94974E-13        -0.49988E-21         0.00000E+00
    0.94974E-13        -0.93132E-20         0.00000E+00
    0.94974E-13        -0.50881E-20         0.00000E+00
    0.94974E-13        -0.37253E-20         0.00000E+00
    0.94974E-13        -0.93132E-20         0.00000E+00
    0.94974E-13        -0.18626E-20         0.00000E+00
    0.94974E-13         0.13628E-20         0.00000E+00
    0.94974E-13        -0.41567E-20         0.00000E+00
    0.94974E-13         0.23625E-20         0.00000E+00
    0.94974E-13         0.36569E-20         0.00000E+00
    0.94974E-13         0.23625E-20         0.00000E+00
    0.94974E-13         0.23625E-20         0.00000E+00
    0.94974E-13        -0.79505E-20         0.00000E+00
    0.94974E-13         0.79505E-20         0.00000E+00
    0.94974E-13         0.15401E-19         0.00000E+00
    0.94974E-13         0.10176E-19         0.00000E+00
    0.94974E-13         0.93132E-21         0.00000E+00
    0.94974E-13        -0.32254E-20         0.00000E+00
    0.94974E-13         0.43144E-21         0.00000E+00
    0.94974E-13         0.55879E-20         0.00000E+00
    0.94974E-13         0.88133E-20         0.00000E+00
    0.94974E-13         0.23625E-20         0.00000E+00
    0.94974E-13         0.10313E-19         0.00000E+00
    0.94974E-13         0.21852E-19         0.00000E+00
    0.94974E-13         0.14401E-19         0.00000E+00
    0.94974E-13         0.12607E-19         0.00000E+00
    0.94974E-13         0.37253E-20         0.00000E+00
    0.94974E-13         0.37253E-20         0.00000E+00
    0.94974E-13         0.18626E-19         0.00000E+00
    0.94974E-13         0.25146E-19         0.00000E+00
    0.94974E-13         0.79505E-20         0.00000E+00
    0.94974E-13        -0.51565E-20         0.00000E+00
    0.94974E-13        -0.16332E-19         0.00000E+00
    0.94974E-13        -0.50881E-20         0.00000E+00
    0.94974E-13         0.74506E-20         0.00000E+00
    0.94974E-13        -0.60878E-20         0.00000E+00
    0.94974E-13        -0.74506E-20         0.00000E+00
    0.94974E-13        -0.55879E-20         0.00000E+00
    0.94974E-13        -0.55879E-20         0.00000E+00
    0.94974E-13         0.14312E-20         0.00000E+00
    0.94974E-13         0.13628E-20         0.00000E+00
    0.94974E-13         0.35884E-20         0.00000E+00
    0.11579E-12         0.74506E-20         0.00000E+00
    0.11579E-12        -0.43144E-21         0.00000E+00
    0.11579E-12        -0.10245E-19         0.00000E+00
    0.11579E-12        -0.60878E-20         0.00000E+00
    0.11579E-12        -0.37253E-20         0.00000E+00
    0.11579E-12        -0.69507E-20         0.00000E+00
    0.11579E-12         0.55879E-20         0.00000E+00
    0.11579E-12         0.00000E+00         0.00000E+00
    0.11579E-12        -0.93132E-20         0.00000E+00
    0.11579E-12        -0.93132E-20         0.00000E+00
    0.11579E-12        -0.32254E-20         0.00000E+00
    0.11579E-12         0.88133E-20         0.00000E+00
    0.11579E-12         0.88818E-20         0.00000E+00
    0.11579E-12         0.88818E-20         0.00000E+00
    0.11579E-12        -0.37937E-20         0.00000E+00
    0.11579E-12        -0.10744E-19         0.00000E+00
    0.11579E-12        -0.37253E-20         0.00000E+00
    0.11579E-12         0.50881E-20         0.00000E+00
    0.11579E-12         0.12107E-19         0.00000E+00
    0.11579E-12         0.14470E-19         0.00000E+00
    0.11579E-12         0.98131E-20         0.00000E+00
    0.11579E-12        -0.50881E-20         0.00000E+00
    0.11579E-12        -0.98131E-20         0.00000E+00
    0.11579E-12        -0.27940E-20         0.00000E+00
    0.11579E-12         0.37253E-20         0.00000E+00
    0.11579E-12         0.65193E-20         0.00000E+00
    0.11579E-12         0.18626E-20         0.00000E+00
    0.11579E-12         0.55879E-20         0.00000E+00
    0.11579E-12         0.13538E-19         0.00000E+00
    0.11579E-12         0.16264E-19         0.00000E+00
    0.11579E-12         0.14401E-19         0.00000E+00
    0.11579E-12         0.70191E-20         0.00000E+00
    0.11579E-12         0.46566E-20         0.00000E+00
    0.11579E-12         0.10676E-19         0.00000E+00
    0.11579E-12         0.93132E-20         0.00000E+00
    0.11579E-12         0.55879E-20         0.00000E+00
    0.11579E-12         0.10744E-19         0.00000E+00
    0.11579E-12         0.14901E-19         0.00000E+00
    0.11579E-12         0.10245E-19         0.00000E+00
    0.11579E-12         0.23625E-20         0.00000E+00
    0.11579E-12         0.60194E-20         0.00000E+00
    0.11579E-12         0.19058E-19         0.00000E+00
    0.11579E-12         0.26077E-19         0.00000E+00
    0.11579E-12         0.93132E-20         0.00000E+00
    0.11579E-12        -0.93132E-20         0.00000E+00
    0.11579E-12        -0.14401E-19         0.00000E+00
    0.11579E-12        -0.74506E-20         0.00000E+00
    0.11579E-12        -0.93132E-20         0.00000E+00
    0.11579E-12        -0.13970E-19         0.00000E+00
    0.11579E-12        -0.16332E-19         0.00000E+00
    0.11579E-12        -0.37253E-20         0.00000E+00
    0.14130E-12         0.37253E-20         0.00000E+00
    0.14130E-12         0.37253E-20         0.00000E+00
    0.14130E-12         0.55879E-20         0.00000E+00
    0.14130E-12         0.00000E+00         0.00000E+00
    0.14130E-12        -0.11176E-19         0.00000E+00
    0.14130E-12        -0.14901E-19         0.00000E+00
    0.14130E-12        -0.74506E-20         0.00000E+00
    0.14130E-12         0.00000E+00         0.00000E+00
    0.14130E-12         0.55879E-20         0.00000E+00
    0.14130E-12         0.37253E-20         0.00000E+00
    0.14130E-12        -0.37253E-20         0.00000E+00
    0.14130E-12         0.37253E-20         0.00000E+00
    0.14130E-12         0.37253E-20         0.00000E+00
    0.14130E-12        -0.74506E-20         0.00000E+00
    0.14130E-12         0.18626E-20         0.00000E+00
    0.14130E-12         0.93132E-20         0.00000E+00
    0.14130E-12         0.00000E+00         0.00000E+00
    0.14130E-12         0.18626E-20         0.00000E+00
    0.14130E-12         0.45882E-20         0.00000E+00
    0.14130E-12         0.18626E-20         0.00000E+00
    0.14130E-12         0.99976E-21         0.00000E+00
    0.14130E-12        -0.37253E-20         0.00000E+00
    0.14130E-12        -0.18626E-20         0.00000E+00
    0.14130E-12        -0.18626E-20         0.00000E+00
    0.14130E-12         0.37253E-20         0.00000E+00
    0.14130E-12         0.74506E-20         0.00000E+00
    0.14130E-12         0.13039E-19         0.00000E+00
    0.14130E-12         0.20489E-19         0.00000E+00
    0.14130E-12         0.20489E-19         0.00000E+00
    0.14130E-12         0.14901E-19         0.00000E+00
    0.14130E-12         0.11176E-19         0.00000E+00
    0.14130E-12         0.00000E+00         0.00000E+00
    0.14130E-12        -0.74506E-20         0.00000E+00
    0.14130E-12        -0.18626E-20         0.00000E+00
    0.14130E-12         0.37253E-20         0.00000E+00
    0.14130E-12         0.18626E-20         0.00000E+00
    0.14130E-12         0.18626E-20         0.00000E+00
    0.14130E-12         0.18626E-19         0.00000E+00
    0.14130E-12         0.27940E-19         0.00000E+00
    0.14130E-12         0.20489E-19         0.00000E+00
    0.14130E-12         0.93132E-20         0.00000E+00
    0.14130E-12        -0.55879E-20         0.00000E+00
    0.14130E-12        -0.11176E-19         0.00000E+00
    0.14130E-12         0.55879E-20         0.00000E+00
    0.14130E-12         0.11176E-19         0.00000E+00
    0.14130E-12         0.55879E-20         0.00000E+00
    0.14130E-12         0.37253E-20         0.00000E+00
    0.14130E-12         0.00000E+00         0.00000E+00
    0.14130E-12         0.74506E-20         0.00000E+00
    0.14130E-12         0.74506E-20         0.00000E+00
    0.14130E-12         0.00000E+00         0.00000E+00
    0.17254E-12        -0.38622E-20         0.00000E+00
    0.17254E-12         0.00000E+00         0.00000E+00
    0.17254E-12        -0.36569E-20         0.00000E+00
    0.17254E-12        -0.13039E-19         0.00000E+00
    0.17254E-12        -0.13107E-19         0.00000E+00
    0.17254E-12        -0.37937E-20         0.00000E+00
    0.17254E-12        -0.55195E-20         0.00000E+00
    0.17254E-12        -0.11107E-19         0.00000E+00
    0.17254E-12        -0.11176E-19         0.00000E+00
    0.17254E-12        -0.74506E-20         0.00000E+00
    0.17254E-12         0.18626E-20         0.00000E+00
    0.17254E-12         0.37253E-20         0.00000E+00
    0.17254E-12         0.13039E-19         0.00000E+00
    0.17254E-12         0.14901E-19         0.00000E+00
    0.17254E-12         0.00000E+00         0.00000E+00
    0.17254E-12         0.00000E+00         0.00000E+00
    0.17254E-12         0.93132E-20         0.00000E+00
    0.17254E-12         0.18626E-20         0.00000E+00
    0.17254E-12        -0.55879E-20         0.00000E+00
    0.17254E-12        -0.37253E-20         0.00000E+00
    0.17254E-12        -0.18626E-20         0.00000E+00
    0.17254E-12        -0.18626E-20         0.00000E+00
    0.17254E-12        -0.74506E-20         0.00000E+00
    0.17254E-12        -0.93132E-20         0.00000E+00
    0.17254E-12        -0.55879E-20         0.00000E+00
    0.17254E-12         0.93132E-20         0.00000E+00
    0.17254E-12         0.22352E-19         0.00000E+00
    0.17254E-12         0.20489E-19         0.00000E+00
    0.17254E-12         0.16764E-19         0.00000E+00
    0.17254E-12         0.13039E-19         0.00000E+00
    0.17254E-12         0.37253E-20         0.00000E+00
    0.17254E-12        -0.18626E-20         0.00000E+00
    0.17254E-12         0.00000E+00         0.00000E+00
    0.17254E-12         0.00000E+00         0.00000E+00
    0.17254E-12         0.00000E+00         0.00000E+00
    0.17254E-12         0.00000E+00         0.00000E+00
    0.17254E-12        -0.18626E-20         0.00000E+00
    0.17254E-12        -0.18626E-20         0.00000E+00
    0.17254E-12         0.93132E-20         0.00000E+00
    0.17254E-12         0.22283E-19         0.00000E+00
    0.17254E-12         0.20489E-19         0.00000E+00
    0.17254E-12         0.93817E-20         0.00000E+00
    0.17254E-12         0.18626E-19         0.00000E+00
    0.17254E-12         0.14901E-19         0.00000E+00
    0.17254E-12        -0.74506E-20         0.00000E+00
    0.17254E-12        -0.55879E-20         0.00000E+00
    0.17254E-12        -0.37937E-20         0.00000E+00
    0.17254E-12        -0.65193E-20         0.00000E+00
    0.17254E-12        -0.83135E-20         0.00000E+00
    0.17254E-12        -0.37253E-20         0.00000E+00
    0.17254E-12         0.00000E+00         0.00000E+00
    0.21076E-12         0.00000E+00         0.00000E+00
    0.21076E-12        -0.55195E-20         0.00000E+00
    0.21076E-12        -0.65193E-20         0.00000E+00
    0.21076E-12        -0.28624E-20         0.00000E+00
    0.21076E-12        -0.11176E-19         0.00000E+00
    0.21076E-12        -0.21352E-19         0.00000E+00
    0.21076E-12        -0.15764E-19         0.00000E+00
    0.21076E-12        -0.11176E-19         0.00000E+00
    0.21076E-12        -0.75190E-20         0.00000E+00
    0.21076E-12         0.17942E-20         0.00000E+00
    0.21076E-12         0.19311E-20         0.00000E+00
    0.21076E-12         0.37253E-20         0.00000E+00
    0.21076E-12        -0.19311E-20         0.00000E+00
    0.21076E-12         0.68435E-22         0.00000E+00
    0.21076E-12         0.93132E-20         0.00000E+00
    0.21076E-12        -0.27940E-20         0.00000E+00
    0.21076E-12        -0.10176E-19         0.00000E+00
    0.21076E-12        -0.28624E-20         0.00000E+00
    0.21076E-12         0.45882E-20         0.00000E+00
    0.21076E-12         0.14901E-19         0.00000E+00
    0.21076E-12         0.14038E-19         0.00000E+00
    0.21076E-12         0.10313E-19         0.00000E+00
    0.21076E-12         0.00000E+00         0.00000E+00
    0.21076E-12        -0.18626E-20         0.00000E+00
    0.21076E-12        -0.37937E-20         0.00000E+00
    0.21076E-12        -0.27940E-20         0.00000E+00
    0.21076E-12         0.84503E-20         0.00000E+00
    0.21076E-12         0.93132E-20         0.00000E+00
    0.21076E-12         0.55879E-20         0.00000E+00
    0.21076E-12        -0.68435E-22         0.00000E+00
    0.21076E-12        -0.18626E-20         0.00000E+00
    0.21076E-12         0.11244E-19         0.00000E+00
    0.21076E-12         0.15764E-19         0.00000E+00
    0.21076E-12        -0.99976E-21         0.00000E+00
    0.21076E-12        -0.93132E-20         0.00000E+00
    0.21076E-12        -0.11176E-19         0.00000E+00
    0.21076E-12        -0.55879E-20         0.00000E+00
    0.21076E-12         0.37937E-20         0.00000E+00
    0.21076E-12         0.68435E-22         0.00000E+00
    0.21076E-12        -0.93817E-20         0.00000E+00
    0.21076E-12         0.17942E-20         0.00000E+00
    0.21076E-12         0.16764E-19         0.00000E+00
    0.21076E-12         0.14970E-19         0.00000E+00
    0.21076E-12         0.14970E-19         0.00000E+00
    0.21076E-12         0.33528E-19         0.00000E+00
    0.21076E-12         0.37253E-19         0.00000E+00
    0.21076E-12         0.22283E-19         0.00000E+00
    0.21076E-12         0.17942E-20         0.00000E+00
    0.21076E-12        -0.55879E-20         0.00000E+00
    0.21076E-12        -0.74506E-20         0.00000E+00
    0.21076E-12        -0.11176E-19         0.00000E+00
    0.25748E-12        -0.74506E-20         0.00000E+00
    0.25748E-12         0.18626E-20         0.00000E+00
    0.25748E-12         0.18626E-20         0.00000E+00
    0.25748E-12        -0.10176E-19         0.00000E+00
    0.25748E-12        -0.13039E-19         0.00000E+00
    0.25748E-12        -0.14107E-19         0.00000E+00
    0.25748E-12        -0.74506E-20         0.00000E+00
    0.25748E-12         0.68434E-22         0.00000E+00
    0.25748E-12        -0.11176E-19         0.00000E+00
    0.25748E-12        -0.74506E-20         0.00000E+00
    0.25748E-12         0.00000E+00         0.00000E+00
    0.25748E-12         0.99976E-21         0.00000E+00
    0.25748E-12         0.55879E-20         0.00000E+00
    0.25748E-12        -0.27940E-20         0.00000E+00
    0.25748E-12        -0.13970E-19         0.00000E+00
    0.25748E-12         0.27255E-20         0.00000E+00
    0.25748E-12         0.11176E-19         0.00000E+00
    0.25748E-12         0.13039E-19         0.00000E+00
    0.25748E-12         0.13039E-19         0.00000E+00
    0.25748E-12         0.37253E-20         0.00000E+00
    0.25748E-12        -0.18626E-20         0.00000E+00
    0.25748E-12        -0.14901E-19         0.00000E+00
    0.25748E-12        -0.37253E-20         0.00000E+00
    0.25748E-12         0.15901E-19         0.00000E+00
    0.25748E-12         0.92448E-20         0.00000E+00
    0.25748E-12         0.55879E-20         0.00000E+00
    0.25748E-12         0.12176E-19         0.00000E+00
    0.25748E-12         0.11107E-19         0.00000E+00
    0.25748E-12         0.37253E-20         0.00000E+00
    0.25748E-12        -0.18626E-19         0.00000E+00
    0.25748E-12        -0.18626E-19         0.00000E+00
    0.25748E-12        -0.37253E-20         0.00000E+00
    0.25748E-12         0.55879E-20         0.00000E+00
    0.25748E-12         0.74506E-20         0.00000E+00
    0.25748E-12         0.55879E-20         0.00000E+00
    0.25748E-12         0.11176E-19         0.00000E+00
    0.25748E-12         0.11176E-19         0.00000E+00
    0.25748E-12         0.00000E+00         0.00000E+00
    0.25748E-12        -0.11176E-19         0.00000E+00
    0.25748E-12        -0.55879E-20         0.00000E+00
    0.25748E-12        -0.68434E-22         0.00000E+00
    0.25748E-12        -0.37253E-20         0.00000E+00
    0.25748E-12         0.75190E-20         0.00000E+00
    0.25748E-12         0.11107E-19         0.00000E+00
    0.25748E-12         0.28624E-20         0.00000E+00
    0.25748E-12         0.29308E-20         0.00000E+00
    0.25748E-12        -0.37937E-20         0.00000E+00
    0.25748E-12        -0.19311E-20         0.00000E+00
    0.25748E-12         0.74506E-20         0.00000E+00
    0.25748E-12         0.92448E-20         0.00000E+00
    0.25748E-12         0.73137E-20         0.00000E+00
    0.31455E-12         0.00000E+00         0.00000E+00
    0.31455E-12         0.27255E-20         0.00000E+00
    0.31455E-12        -0.10245E-19         0.00000E+00
    0.31455E-12        -0.20421E-19         0.00000E+00
    0.31455E-12        -0.24214E-19         0.00000E+00
    0.31455E-12        -0.16764E-19         0.00000E+00
    0.31455E-12        -0.13039E-19         0.00000E+00
    0.31455E-12        -0.22352E-19         0.00000E+00
    0.31455E-12        -0.56564E-20         0.00000E+00
    0.31455E-12         0.55879E-20         0.00000E+00
    0.31455E-12         0.56564E-20         0.00000E+00
    0.31455E-12         0.11176E-19         0.00000E+00
    0.31455E-12         0.64508E-20         0.00000E+00
    0.31455E-12         0.74506E-20         0.00000E+00
    0.31455E-12         0.12176E-19         0.00000E+00
    0.31455E-12        -0.68433E-22         0.00000E+00
    0.31455E-12        -0.46566E-20         0.00000E+00
    0.31455E-12        -0.37253E-20         0.00000E+00
    0.31455E-12        -0.15901E-19         0.00000E+00
    0.31455E-12        -0.17627E-19         0.00000E+00
    0.31455E-12        -0.10245E-19         0.00000E+00
    0.31455E-12         0.37253E-20         0.00000E+00
    0.31455E-12        -0.18626E-20         0.00000E+00
    0.31455E-12        -0.16832E-19         0.00000E+00
    0.31455E-12        -0.74506E-20         0.00000E+00
    0.31455E-12         0.00000E+00         0.00000E+00
    0.31455E-12         0.14038E-19         0.00000E+00
    0.31455E-12         0.13970E-19         0.00000E+00
    0.31455E-12         0.73821E-20         0.00000E+00
    0.31455E-12         0.84503E-20         0.00000E+00
    0.31455E-12         0.37253E-20         0.00000E+00
    0.31455E-12        -0.93132E-21         0.00000E+00
    0.31455E-12        -0.55195E-20         0.00000E+00
    0.31455E-12         0.17942E-20         0.00000E+00
    0.31455E-12        -0.74506E-20         0.00000E+00
    0.31455E-12        -0.11176E-19         0.00000E+00
    0.31455E-12        -0.75190E-20         0.00000E+00
    0.31455E-12        -0.11176E-19         0.00000E+00
    0.31455E-12        -0.73821E-20         0.00000E+00
    0.31455E-12        -0.14833E-19         0.00000E+00
    0.31455E-12        -0.22420E-19         0.00000E+00
    0.31455E-12        -0.14901E-19         0.00000E+00
    0.31455E-12        -0.55195E-20         0.00000E+00
    0.31455E-12        -0.37253E-20         0.00000E+00
    0.31455E-12         0.74506E-20         0.00000E+00
    0.31455E-12         0.26077E-19         0.00000E+00
    0.31455E-12         0.37253E-19         0.00000E+00
    0.31455E-12         0.29734E-19         0.00000E+00
    0.31455E-12         0.46566E-20         0.00000E+00
    0.31455E-12        -0.10245E-19         0.00000E+00
    0.31455E-12        -0.75874E-20         0.00000E+00
    0.38425E-12        -0.11039E-19         0.00000E+00
    0.38425E-12        -0.74506E-20         0.00000E+00
    0.38425E-12         0.37253E-20         0.00000E+00
    0.38425E-12         0.16764E-19         0.00000E+00
    0.38425E-12         0.14901E-19         0.00000E+00
    0.38425E-12         0.00000E+00         0.00000E+00
    0.38425E-12        -0.46566E-20         0.00000E+00
    0.38425E-12        -0.86289E-21         0.00000E+00
    0.38425E-12        -0.74506E-20         0.00000E+00
    0.38425E-12        -0.17764E-19         0.00000E+00
    0.38425E-12        -0.14038E-19         0.00000E+00
    0.38425E-12        -0.14901E-19         0.00000E+00
    0.38425E-12        -0.37253E-20         0.00000E+00
    0.38425E-12        -0.37253E-20         0.00000E+00
    0.38425E-12        -0.74506E-20         0.00000E+00
    0.38425E-12         0.11176E-19         0.00000E+00
    0.38425E-12         0.11176E-19         0.00000E+00
    0.38425E-12         0.74506E-20         0.00000E+00
    0.38425E-12         0.74506E-20         0.00000E+00
    0.38425E-12        -0.37253E-20         0.00000E+00
    0.38425E-12        -0.74506E-20         0.00000E+00
    0.38425E-12        -0.37253E-20         0.00000E+00
    0.38425E-12         0.37253E-20         0.00000E+00
    0.38425E-12        -0.18626E-20         0.00000E+00
    0.38425E-12        -0.37253E-20         0.00000E+00
    0.38425E-12         0.19311E-20         0.00000E+00
    0.38425E-12        -0.55879E-20         0.00000E+00
    0.38425E-12        -0.56564E-20         0.00000E+00
    0.38425E-12        -0.18626E-20         0.00000E+00
    0.38425E-12        -0.37253E-20         0.00000E+00
    0.38425E-12        -0.18626E-20         0.00000E+00
    0.38425E-12         0.13107E-19         0.00000E+00
    0.38425E-12         0.21420E-19         0.00000E+00
    0.38425E-12         0.27255E-20         0.00000E+00
    0.38425E-12         0.00000E+00         0.00000E+00
    0.38425E-12        -0.18626E-20         0.00000E+00
    0.38425E-12        -0.16764E-19         0.00000E+00
    0.38425E-12        -0.24214E-19         0.00000E+00
    0.38425E-12        -0.27940E-19         0.00000E+00
    0.38425E-12        -0.22283E-19         0.00000E+00
    0.38425E-12        -0.16764E-19         0.00000E+00
    0.38425E-12        -0.13039E-19         0.00000E+00
    0.38425E-12        -0.13039E-19         0.00000E+00
    0.38425E-12        -0.18626E-20         0.00000E+00
    0.38425E-12         0.37253E-20         0.00000E+00
    0.38425E-12        -0.75190E-20         0.00000E+00
    0.38425E-12        -0.55879E-20         0.00000E+00
    0.38425E-12         0.37253E-20         0.00000E+00
    0.38425E-12         0.93132E-20         0.00000E+00
    0.38425E-12         0.73821E-20         0.00000E+00
    0.38425E-12         0.73137E-20         0.00000E+00
    0.46931E-12        -0.74506E-20         0.00000E+00
    0.46931E-12        -0.37253E-20         0.00000E+00
    0.46931E-12         0.55879E-20         0.00000E+00
    0.46931E-12         0.93132E-20         0.00000E+00
    0.46931E-12         0.99975E-21         0.00000E+00
    0.46931E-12        -0.93132E-21         0.00000E+00
    0.46931E-12        -0.19311E-20         0.00000E+00
    0.46931E-12        -0.11176E-19         0.00000E+00
    0.46931E-12        -0.14901E-19         0.00000E+00
    0.46931E-12        -0.55879E-20         0.00000E+00
    0.46931E-12        -0.36569E-20         0.00000E+00
    0.46931E-12        -0.12107E-19         0.00000E+00
    0.46931E-12        -0.21489E-19         0.00000E+00
    0.46931E-12        -0.12970E-19         0.00000E+00
    0.46931E-12         0.93132E-21         0.00000E+00
    0.46931E-12         0.17258E-20         0.00000E+00
    0.46931E-12         0.12107E-19         0.00000E+00
    0.46931E-12         0.56564E-20         0.00000E+00
    0.46931E-12         0.37253E-20         0.00000E+00
    0.46931E-12         0.14901E-19         0.00000E+00
    0.46931E-12         0.18626E-19         0.00000E+00
    0.46931E-12         0.13039E-19         0.00000E+00
    0.46931E-12         0.00000E+00         0.00000E+00
    0.46931E-12        -0.93132E-20         0.00000E+00
    0.46931E-12        -0.16764E-19         0.00000E+00
    0.46931E-12        -0.14901E-19         0.00000E+00
    0.46931E-12         0.00000E+00         0.00000E+00
    0.46931E-12         0.74506E-20         0.00000E+00
    0.46931E-12         0.18626E-20         0.00000E+00
    0.46931E-12        -0.37253E-20         0.00000E+00
    0.46931E-12        -0.74506E-20         0.00000E+00
    0.46931E-12        -0.37253E-20         0.00000E+00
    0.46931E-12        -0.13039E-19         0.00000E+00
    0.46931E-12        -0.93132E-20         0.00000E+00
    0.46931E-12        -0.18626E-20         0.00000E+00
    0.46931E-12        -0.16832E-19         0.00000E+00
    0.46931E-12        -0.17695E-19         0.00000E+00
    0.46931E-12        -0.15764E-19         0.00000E+00
    0.46931E-12        -0.20489E-19         0.00000E+00
    0.46931E-12        -0.22352E-19         0.00000E+00
    0.46931E-12        -0.73822E-20         0.00000E+00
    0.46931E-12        -0.37253E-20         0.00000E+00
    0.46931E-12         0.36569E-20         0.00000E+00
    0.46931E-12         0.13039E-19         0.00000E+00
    0.46931E-12         0.14901E-19         0.00000E+00
    0.46931E-12         0.13039E-19         0.00000E+00
    0.46931E-12         0.68429E-22         0.00000E+00
    0.46931E-12        -0.46566E-20         0.00000E+00
    0.46931E-12        -0.10313E-19         0.00000E+00
    0.46931E-12        -0.68429E-22         0.00000E+00
    0.46931E-12         0.11039E-19         0.00000E+00
    0.57310E-12         0.74506E-20         0.00000E+00
    0.57310E-12         0.74506E-20         0.00000E+00
    0.57310E-12         0.55195E-20         0.00000E+00
    0.57310E-12         0.93132E-20         0.00000E+00
    0.57310E-12         0.11244E-19         0.00000E+00
    0.57310E-12         0.13039E-19         0.00000E+00
    0.57310E-12         0.14901E-19         0.00000E+00
    0.57310E-12         0.37253E-20         0.00000E+00
    0.57310E-12        -0.11176E-19         0.00000E+00
    0.57310E-12        -0.14901E-19         0.00000E+00
    0.57310E-12        -0.99975E-21         0.00000E+00
    0.57310E-12         0.83819E-20         0.00000E+00
    0.57310E-12         0.75190E-20         0.00000E+00
    0.57310E-12         0.11176E-19         0.00000E+00
    0.57310E-12         0.37253E-20         0.00000E+00
    0.57310E-12        -0.11176E-19         0.00000E+00
    0.57310E-12        -0.13039E-19         0.00000E+00
    0.57310E-12        -0.18626E-20         0.00000E+00
    0.57310E-12         0.18626E-20         0.00000E+00
    0.57310E-12         0.00000E+00         0.00000E+00
    0.57310E-12        -0.37253E-20         0.00000E+00
    0.57310E-12         0.00000E+00         0.00000E+00
    0.57310E-12         0.18626E-20         0.00000E+00
    0.57310E-12        -0.37253E-20         0.00000E+00
    0.57310E-12         0.55879E-20         0.00000E+00
    0.57310E-12         0.37253E-20         0.00000E+00
    0.57310E-12        -0.14901E-19         0.00000E+00
    0.57310E-12        -0.22352E-19         0.00000E+00
    0.57310E-12        -0.13039E-19         0.00000E+00
    0.57310E-12         0.55879E-20         0.00000E+00
    0.57310E-12         0.13039E-19         0.00000E+00
    0.57310E-12         0.18626E-20         0.00000E+00
    0.57310E-12        -0.74506E-20         0.00000E+00
    0.57310E-12        -0.14901E-19         0.00000E+00
    0.57310E-12        -0.11176E-19         0.00000E+00
    0.57310E-12        -0.18626E-20         0.00000E+00
    0.57310E-12        -0.93817E-20         0.00000E+00
    0.57310E-12        -0.20558E-19         0.00000E+00
    0.57310E-12        -0.20421E-19         0.00000E+00
    0.57310E-12        -0.36569E-20         0.00000E+00
    0.57310E-12         0.55879E-20         0.00000E+00
    0.57310E-12         0.11176E-19         0.00000E+00
    0.57310E-12         0.55879E-20         0.00000E+00
    0.57310E-12        -0.74506E-20         0.00000E+00
    0.57310E-12        -0.75190E-20         0.00000E+00
    0.57310E-12        -0.75190E-20         0.00000E+00
    0.57310E-12        -0.36569E-20         0.00000E+00
    0.57310E-12         0.37937E-20         0.00000E+00
    0.57310E-12        -0.37253E-20         0.00000E+00
    0.57310E-12        -0.75190E-20         0.00000E+00
    0.57310E-12        -0.13685E-21         0.00000E+00
    0.69970E-12         0.37253E-20         0.00000E+00
    0.69970E-12         0.47250E-20         0.00000E+00
    0.69970E-12         0.84503E-20         0.00000E+00
    0.69970E-12         0.73822E-20         0.00000E+00
    0.69970E-12         0.74506E-20         0.00000E+00
    0.69970E-12         0.13107E-19         0.00000E+00
    0.69970E-12         0.93132E-20         0.00000E+00
    0.69970E-12         0.83135E-20         0.00000E+00
    0.69970E-12         0.10176E-19         0.00000E+00
    0.69970E-12         0.15901E-19         0.00000E+00
    0.69970E-12         0.18626E-19         0.00000E+00
    0.69970E-12         0.86290E-21         0.00000E+00
    0.69970E-12        -0.55879E-20         0.00000E+00
    0.69970E-12        -0.11107E-19         0.00000E+00
    0.69970E-12        -0.37253E-20         0.00000E+00
    0.69970E-12         0.13970E-19         0.00000E+00
    0.69970E-12         0.15901E-19         0.00000E+00
    0.69970E-12         0.55879E-20         0.00000E+00
    0.69970E-12        -0.85188E-20         0.00000E+00
    0.69970E-12        -0.37253E-20         0.00000E+00
    0.69970E-12         0.66561E-20         0.00000E+00
    0.69970E-12         0.37253E-20         0.00000E+00
    0.69970E-12         0.55195E-20         0.00000E+00
    0.69970E-12        -0.93132E-21         0.00000E+00
    0.69970E-12        -0.19489E-19         0.00000E+00
    0.69970E-12        -0.20489E-19         0.00000E+00
    0.69970E-12        -0.11176E-19         0.00000E+00
    0.69970E-12        -0.93132E-20         0.00000E+00
    0.69970E-12        -0.11176E-19         0.00000E+00
    0.69970E-12        -0.21489E-19         0.00000E+00
    0.69970E-12        -0.21420E-19         0.00000E+00
    0.69970E-12        -0.11107E-19         0.00000E+00
    0.69970E-12         0.00000E+00         0.00000E+00
    0.69970E-12         0.55879E-20         0.00000E+00
    0.69970E-12         0.00000E+00         0.00000E+00
    0.69970E-12         0.00000E+00         0.00000E+00
    0.69970E-12         0.13039E-19         0.00000E+00
    0.69970E-12         0.74506E-20         0.00000E+00
    0.69970E-12        -0.19311E-20         0.00000E+00
    0.69970E-12        -0.11176E-19         0.00000E+00
    0.69970E-12        -0.16695E-19         0.00000E+00
    0.69970E-12        -0.16832E-19         0.00000E+00
    0.69970E-12        -0.13039E-19         0.00000E+00
    0.69970E-12        -0.12970E-19         0.00000E+00
    0.69970E-12        -0.14970E-19         0.00000E+00
    0.69970E-12        -0.37937E-20         0.00000E+00
    0.69970E-12        -0.93132E-20         0.00000E+00
    0.69970E-12        -0.14901E-19         0.00000E+00
    0.69970E-12         0.55879E-20         0.00000E+00
    0.69970E-12         0.13039E-19         0.00000E+00
    0.69970E-12         0.37253E-20         0.00000E+00
    0.85405E-12         0.00000E+00         0.00000E+00
    0.85405E-12         0.00000E+00         0.00000E+00
    0.85405E-12        -0.37253E-20         0.00000E+00
    0.85405E-12         0.18626E-20         0.00000E+00
    0.85405E-12         0.84503E-20         0.00000E+00
    0.85405E-12         0.14833E-19         0.00000E+00
    0.85405E-12         0.21284E-19         0.00000E+00
    0.85405E-12         0.18695E-19         0.00000E+00
    0.85405E-12         0.26145E-19         0.00000E+00
    0.85405E-12         0.15764E-19         0.00000E+00
    0.85405E-12        -0.55879E-20         0.00000E+00
    0.85405E-12        -0.64508E-20         0.00000E+00
    0.85405E-12         0.74506E-20         0.00000E+00
    0.85405E-12         0.93132E-20         0.00000E+00
    0.85405E-12        -0.18626E-20         0.00000E+00
    0.85405E-12        -0.13107E-19         0.00000E+00
    0.85405E-12         0.68421E-22         0.00000E+00
    0.85405E-12         0.23351E-19         0.00000E+00
    0.85405E-12         0.23146E-19         0.00000E+00
    0.85405E-12         0.14038E-19         0.00000E+00
    0.85405E-12         0.68421E-22         0.00000E+00
    0.85405E-12        -0.10313E-19         0.00000E+00
    0.85405E-12        -0.64508E-20         0.00000E+00
    0.85405E-12        -0.27255E-20         0.00000E+00
    0.85405E-12         0.79448E-21         0.00000E+00
    0.85405E-12        -0.93132E-20         0.00000E+00
    0.85405E-12        -0.25077E-19         0.00000E+00
    0.85405E-12        -0.24283E-19         0.00000E+00
    0.85405E-12        -0.18626E-19         0.00000E+00
    0.85405E-12        -0.19626E-19         0.00000E+00
    0.85405E-12        -0.16695E-19         0.00000E+00
    0.85405E-12        -0.63824E-20         0.00000E+00
    0.85405E-12        -0.47250E-20         0.00000E+00
    0.85405E-12        -0.15901E-19         0.00000E+00
    0.85405E-12        -0.27871E-19         0.00000E+00
    0.85405E-12        -0.16764E-19         0.00000E+00
    0.85405E-12        -0.55879E-20         0.00000E+00
    0.85405E-12        -0.55879E-20         0.00000E+00
    0.85405E-12        -0.13039E-19         0.00000E+00
    0.85405E-12        -0.16695E-19         0.00000E+00
    0.85405E-12        -0.19311E-20         0.00000E+00
    0.85405E-12         0.11107E-19         0.00000E+00
    0.85405E-12         0.13107E-19         0.00000E+00
    0.85405E-12        -0.55879E-20         0.00000E+00
    0.85405E-12        -0.14970E-19         0.00000E+00
    0.85405E-12        -0.11176E-19         0.00000E+00
    0.85405E-12         0.18626E-20         0.00000E+00
    0.85405E-12         0.16764E-19         0.00000E+00
    0.85405E-12         0.18695E-19         0.00000E+00
    0.85405E-12         0.64508E-20         0.00000E+00
    0.85405E-12        -0.58616E-20         0.00000E+00
    0.10422E-11        -0.35885E-20         0.00000E+00
    0.10422E-11        -0.37253E-20         0.00000E+00
    0.10422E-11         0.55879E-20         0.00000E+00
    0.10422E-11         0.18626E-19         0.00000E+00
    0.10422E-11         0.19558E-19         0.00000E+00
    0.10422E-11         0.18558E-19         0.00000E+00
    0.10422E-11        -0.68417E-22         0.00000E+00
    0.10422E-11        -0.55879E-20         0.00000E+00
    0.10422E-11        -0.84503E-20         0.00000E+00
    0.10422E-11        -0.74506E-20         0.00000E+00
    0.10422E-11         0.13107E-19         0.00000E+00
    0.10422E-11         0.14970E-19         0.00000E+00
    0.10422E-11         0.00000E+00         0.00000E+00
    0.10422E-11        -0.17942E-20         0.00000E+00
    0.10422E-11         0.45882E-20         0.00000E+00
    0.10422E-11         0.64508E-20         0.00000E+00
    0.10422E-11         0.00000E+00         0.00000E+00
    0.10422E-11        -0.11244E-19         0.00000E+00
    0.10422E-11        -0.12039E-19         0.00000E+00
    0.10422E-11        -0.86291E-21         0.00000E+00
    0.10422E-11         0.28624E-20         0.00000E+00
    0.10422E-11        -0.86291E-21         0.00000E+00
    0.10422E-11        -0.84503E-20         0.00000E+00
    0.10422E-11        -0.11176E-19         0.00000E+00
    0.10422E-11        -0.16832E-19         0.00000E+00
    0.10422E-11        -0.93132E-20         0.00000E+00
    0.10422E-11        -0.12039E-19         0.00000E+00
    0.10422E-11        -0.29008E-19         0.00000E+00
    0.10422E-11        -0.26077E-19         0.00000E+00
    0.10422E-11        -0.24214E-19         0.00000E+00
    0.10422E-11        -0.23283E-19         0.00000E+00
    0.10422E-11        -0.12902E-19         0.00000E+00
    0.10422E-11        -0.17942E-20         0.00000E+00
    0.10422E-11         0.17942E-20         0.00000E+00
    0.10422E-11         0.55879E-20         0.00000E+00
    0.10422E-11        -0.84503E-20         0.00000E+00
    0.10422E-11        -0.12244E-19         0.00000E+00
    0.10422E-11        -0.73822E-20         0.00000E+00
    0.10422E-11         0.74506E-20         0.00000E+00
    0.10422E-11         0.10245E-19         0.00000E+00
    0.10422E-11         0.46566E-20         0.00000E+00
    0.10422E-11         0.37253E-20         0.00000E+00
    0.10422E-11        -0.74506E-20         0.00000E+00
    0.10422E-11        -0.45882E-20         0.00000E+00
    0.10422E-11         0.84503E-20         0.00000E+00
    0.10422E-11         0.14833E-19         0.00000E+00
    0.10422E-11         0.74506E-20         0.00000E+00
    0.10422E-11        -0.93132E-20         0.00000E+00
    0.10422E-11        -0.93132E-20         0.00000E+00
    0.10422E-11        -0.19311E-20         0.00000E+00
    0.10422E-11         0.35885E-20         0.00000E+00
    0.12714E-11         0.37253E-20         0.00000E+00
    0.12714E-11         0.93816E-20         0.00000E+00
    0.12714E-11         0.74506E-20         0.00000E+00
    0.12714E-11         0.92448E-20         0.00000E+00
    0.12714E-11         0.74506E-20         0.00000E+00
    0.12714E-11        -0.64508E-20         0.00000E+00
    0.12714E-11         0.93132E-21         0.00000E+00
    0.12714E-11         0.11176E-19         0.00000E+00
    0.12714E-11         0.15832E-19         0.00000E+00
    0.12714E-11         0.93132E-20         0.00000E+00
    0.12714E-11         0.28624E-20         0.00000E+00
    0.12714E-11        -0.99973E-21         0.00000E+00
    0.12714E-11        -0.64508E-20         0.00000E+00
    0.12714E-11        -0.14833E-19         0.00000E+00
    0.12714E-11        -0.11313E-19         0.00000E+00
    0.12714E-11        -0.37937E-20         0.00000E+00
    0.12714E-11         0.00000E+00         0.00000E+00
    0.12714E-11         0.45882E-20         0.00000E+00
    0.12714E-11        -0.74506E-20         0.00000E+00
    0.12714E-11        -0.12039E-19         0.00000E+00
    0.12714E-11        -0.16695E-19         0.00000E+00
    0.12714E-11        -0.16695E-19         0.00000E+00
    0.12714E-11        -0.24283E-19         0.00000E+00
    0.12714E-11        -0.27008E-19         0.00000E+00
    0.12714E-11        -0.20489E-19         0.00000E+00
    0.12714E-11        -0.22352E-19         0.00000E+00
    0.12714E-11        -0.11176E-19         0.00000E+00
    0.12714E-11        -0.27940E-20         0.00000E+00
    0.12714E-11         0.19311E-20         0.00000E+00
    0.12714E-11        -0.28624E-20         0.00000E+00
    0.12714E-11        -0.15901E-19         0.00000E+00
    0.12714E-11        -0.21352E-19         0.00000E+00
    0.12714E-11        -0.15832E-19         0.00000E+00
    0.12714E-11        -0.68412E-22         0.00000E+00
    0.12714E-11        -0.18626E-20         0.00000E+00
    0.12714E-11        -0.74506E-20         0.00000E+00
    0.12714E-11        -0.17942E-20         0.00000E+00
    0.12714E-11         0.37253E-20         0.00000E+00
    0.12714E-11         0.93132E-20         0.00000E+00
    0.12714E-11         0.11244E-19         0.00000E+00
    0.12714E-11         0.17942E-20         0.00000E+00
    0.12714E-11        -0.11244E-19         0.00000E+00
    0.12714E-11        -0.74506E-20         0.00000E+00
    0.12714E-11        -0.18626E-20         0.00000E+00
    0.12714E-11        -0.93132E-20         0.00000E+00
    0.12714E-11        -0.10176E-19         0.00000E+00
    0.12714E-11        -0.18626E-20         0.00000E+00
    0.12714E-11         0.65193E-20         0.00000E+00
    0.12714E-11         0.83819E-20         0.00000E+00
    0.12714E-11         0.73822E-20         0.00000E+00
    0.12714E-11         0.00000E+00         0.00000E+00
    0.15506E-11        -0.37253E-20         0.00000E+00
    0.15506E-11        -0.37937E-20         0.00000E+00
    0.15506E-11         0.37253E-20         0.00000E+00
    0.15506E-11         0.10681E-20         0.00000E+00
    0.15506E-11         0.27940E-20         0.00000E+00
    0.15506E-11         0.14833E-19         0.00000E+00
    0.15506E-11         0.13039E-19         0.00000E+00
    0.15506E-11        -0.37253E-20         0.00000E+00
    0.15506E-11        -0.13039E-19         0.00000E+00
    0.15506E-11        -0.73822E-20         0.00000E+00
    0.15506E-11        -0.55879E-20         0.00000E+00
    0.15506E-11        -0.56563E-20         0.00000E+00
    0.15506E-11        -0.74506E-20         0.00000E+00
    0.15506E-11        -0.74506E-20         0.00000E+00
    0.15506E-11        -0.13039E-19         0.00000E+00
    0.15506E-11        -0.25077E-19         0.00000E+00
    0.15506E-11        -0.30665E-19         0.00000E+00
    0.15506E-11        -0.37321E-19         0.00000E+00
    0.15506E-11        -0.24283E-19         0.00000E+00
    0.15506E-11        -0.11176E-19         0.00000E+00
    0.15506E-11        -0.13039E-19         0.00000E+00
    0.15506E-11        -0.18558E-19         0.00000E+00
    0.15506E-11        -0.22283E-19         0.00000E+00
    0.15506E-11        -0.26077E-19         0.00000E+00
    0.15506E-11        -0.25214E-19         0.00000E+00
    0.15506E-11        -0.14038E-19         0.00000E+00
    0.15506E-11        -0.17942E-20         0.00000E+00
    0.15506E-11        -0.55195E-20         0.00000E+00
    0.15506E-11        -0.93816E-20         0.00000E+00
    0.15506E-11        -0.56563E-20         0.00000E+00
    0.15506E-11        -0.11176E-19         0.00000E+00
    0.15506E-11        -0.14901E-19         0.00000E+00
    0.15506E-11        -0.14833E-19         0.00000E+00
    0.15506E-11        -0.24146E-19         0.00000E+00
    0.15506E-11        -0.14970E-19         0.00000E+00
    0.15506E-11        -0.19311E-20         0.00000E+00
    0.15506E-11         0.74506E-20         0.00000E+00
    0.15506E-11         0.14901E-19         0.00000E+00
    0.15506E-11         0.55879E-20         0.00000E+00
    0.15506E-11         0.68406E-22         0.00000E+00
    0.15506E-11        -0.93132E-20         0.00000E+00
    0.15506E-11        -0.13107E-19         0.00000E+00
    0.15506E-11        -0.14901E-19         0.00000E+00
    0.15506E-11        -0.14901E-19         0.00000E+00
    0.15506E-11        -0.11176E-19         0.00000E+00
    0.15506E-11        -0.36569E-20         0.00000E+00
    0.15506E-11         0.27940E-20         0.00000E+00
    0.15506E-11         0.17942E-20         0.00000E+00
    0.15506E-11         0.14901E-19         0.00000E+00
    0.15506E-11         0.73822E-20         0.00000E+00
    0.15506E-11        -0.38621E-20         0.00000E+00
    0.18906E-11        -0.11176E-19         0.00000E+00
    0.18906E-11         0.00000E+00         0.00000E+00
    0.18906E-11         0.93132E-20         0.00000E+00
    0.18906E-11         0.37253E-20         0.00000E+00
    0.18906E-11        -0.93132E-20         0.00000E+00
    0.18906E-11        -0.18626E-19         0.00000E+00
    0.18906E-11        -0.18626E-19         0.00000E+00
    0.18906E-11        -0.13039E-19         0.00000E+00
    0.18906E-11        -0.55879E-20         0.00000E+00
    0.18906E-11        -0.37253E-20         0.00000E+00
    0.18906E-11        -0.55879E-20         0.00000E+00
    0.18906E-11        -0.93132E-20         0.00000E+00
    0.18906E-11        -0.11176E-19         0.00000E+00
    0.18906E-11        -0.16764E-19         0.00000E+00
    0.18906E-11        -0.29802E-19         0.00000E+00
    0.18906E-11        -0.35390E-19         0.00000E+00
    0.18906E-11        -0.22352E-19         0.00000E+00
    0.18906E-11        -0.18626E-19         0.00000E+00
    0.18906E-11        -0.19695E-19         0.00000E+00
    0.18906E-11        -0.14901E-19         0.00000E+00
    0.18906E-11        -0.21284E-19         0.00000E+00
    0.18906E-11        -0.20489E-19         0.00000E+00
    0.18906E-11        -0.93132E-20         0.00000E+00
    0.18906E-11        -0.37253E-20         0.00000E+00
    0.18906E-11        -0.74506E-20         0.00000E+00
    0.18906E-11        -0.14901E-19         0.00000E+00
    0.18906E-11        -0.20489E-19         0.00000E+00
    0.18906E-11        -0.29802E-19         0.00000E+00
    0.18906E-11        -0.39116E-19         0.00000E+00
    0.18906E-11        -0.29802E-19         0.00000E+00
    0.18906E-11        -0.16764E-19         0.00000E+00
    0.18906E-11        -0.11176E-19         0.00000E+00
    0.18906E-11        -0.11176E-19         0.00000E+00
    0.18906E-11        -0.14901E-19         0.00000E+00
    0.18906E-11        -0.24214E-19         0.00000E+00
    0.18906E-11        -0.24214E-19         0.00000E+00
    0.18906E-11        -0.20489E-19         0.00000E+00
    0.18906E-11        -0.11176E-19         0.00000E+00
    0.18906E-11         0.74506E-20         0.00000E+00
    0.18906E-11         0.74506E-20         0.00000E+00
    0.18906E-11         0.93132E-20         0.00000E+00
    0.18906E-11         0.14901E-19         0.00000E+00
    0.18906E-11         0.11176E-19         0.00000E+00
    0.18906E-11        -0.93132E-20         0.00000E+00
    0.18906E-11        -0.31665E-19         0.00000E+00
    0.18906E-11        -0.31665E-19         0.00000E+00
    0.18906E-11        -0.22352E-19         0.00000E+00
    0.18906E-11        -0.22352E-19         0.00000E+00
    0.18906E-11        -0.24214E-19         0.00000E+00
    0.18906E-11        -0.74506E-20         0.00000E+00
    0.18906E-11         0.74506E-20         0.00000E+00
    0.23045E-11         0.14628E-19         0.00000E+00
    0.23045E-11         0.10245E-19         0.00000E+00
    0.23045E-11        -0.63825E-20         0.00000E+00
    0.23045E-11        -0.16764E-19         0.00000E+00
    0.23045E-11        -0.16764E-19         0.00000E+00
    0.23045E-11        -0.16764E-19         0.00000E+00
    0.23045E-11        -0.93132E-20         0.00000E+00
    0.23045E-11        -0.11313E-19         0.00000E+00
    0.23045E-11        -0.15832E-19         0.00000E+00
    0.23045E-11        -0.15696E-19         0.00000E+00
    0.23045E-11        -0.22352E-19         0.00000E+00
    0.23045E-11        -0.22352E-19         0.00000E+00
    0.23045E-11        -0.74506E-20         0.00000E+00
    0.23045E-11        -0.55879E-20         0.00000E+00
    0.23045E-11        -0.16764E-19         0.00000E+00
    0.23045E-11        -0.17832E-19         0.00000E+00
    0.23045E-11        -0.24214E-19         0.00000E+00
    0.23045E-11        -0.25009E-19         0.00000E+00
    0.23045E-11        -0.24214E-19         0.00000E+00
    0.23045E-11        -0.14901E-19         0.00000E+00
    0.23045E-11        -0.93132E-20         0.00000E+00
    0.23045E-11        -0.22352E-19         0.00000E+00
    0.23045E-11        -0.35390E-19         0.00000E+00
    0.23045E-11        -0.33528E-19         0.00000E+00
    0.23045E-11        -0.29802E-19         0.00000E+00
    0.23045E-11        -0.24214E-19         0.00000E+00
    0.23045E-11        -0.18626E-19         0.00000E+00
    0.23045E-11        -0.14901E-19         0.00000E+00
    0.23045E-11        -0.18626E-19         0.00000E+00
    0.23045E-11        -0.16764E-19         0.00000E+00
    0.23045E-11         0.00000E+00         0.00000E+00
    0.23045E-11        -0.14901E-19         0.00000E+00
    0.23045E-11        -0.26077E-19         0.00000E+00
    0.23045E-11        -0.18626E-19         0.00000E+00
    0.23045E-11        -0.26077E-19         0.00000E+00
    0.23045E-11        -0.24214E-19         0.00000E+00
    0.23045E-11        -0.14901E-19         0.00000E+00
    0.23045E-11        -0.93132E-20         0.00000E+00
    0.23045E-11        -0.93132E-20         0.00000E+00
    0.23045E-11        -0.10381E-19         0.00000E+00
    0.23045E-11        -0.16764E-19         0.00000E+00
    0.23045E-11        -0.15696E-19         0.00000E+00
    0.23045E-11        -0.55879E-20         0.00000E+00
    0.23045E-11        -0.37253E-20         0.00000E+00
    0.23045E-11        -0.18626E-20         0.00000E+00
    0.23045E-11         0.00000E+00         0.00000E+00
    0.23045E-11        -0.18626E-20         0.00000E+00
    0.23045E-11         0.73138E-20         0.00000E+00
    0.23045E-11         0.83819E-20         0.00000E+00
    0.23045E-11        -0.26572E-20         0.00000E+00
    0.23045E-11        -0.74506E-20         0.00000E+00
    0.28080E-11        -0.17037E-19         0.00000E+00
    0.28080E-11        -0.74506E-20         0.00000E+00
    0.28080E-11         0.29307E-20         0.00000E+00
    0.28080E-11        -0.18626E-20         0.00000E+00
    0.28080E-11        -0.10381E-19         0.00000E+00
    0.28080E-11        -0.15969E-19         0.00000E+00
    0.28080E-11        -0.23146E-19         0.00000E+00
    0.28080E-11        -0.28734E-19         0.00000E+00
    0.28080E-11        -0.29802E-19         0.00000E+00
    0.28080E-11        -0.22352E-19         0.00000E+00
    0.28080E-11        -0.13039E-19         0.00000E+00
    0.28080E-11        -0.93132E-20         0.00000E+00
    0.28080E-11        -0.24214E-19         0.00000E+00
    0.28080E-11        -0.20489E-19         0.00000E+00
    0.28080E-11        -0.93132E-20         0.00000E+00
    0.28080E-11        -0.93132E-20         0.00000E+00
    0.28080E-11        -0.37253E-20         0.00000E+00
    0.28080E-11        -0.18626E-20         0.00000E+00
    0.28080E-11        -0.37253E-20         0.00000E+00
    0.28080E-11        -0.14901E-19         0.00000E+00
    0.28080E-11        -0.35390E-19         0.00000E+00
    0.28080E-11        -0.35390E-19         0.00000E+00
    0.28080E-11        -0.31665E-19         0.00000E+00
    0.28080E-11        -0.27940E-19         0.00000E+00
    0.28080E-11        -0.18626E-19         0.00000E+00
    0.28080E-11        -0.14901E-19         0.00000E+00
    0.28080E-11        -0.13039E-19         0.00000E+00
    0.28080E-11        -0.24214E-19         0.00000E+00
    0.28080E-11        -0.29802E-19         0.00000E+00
    0.28080E-11        -0.27940E-19         0.00000E+00
    0.28080E-11        -0.29802E-19         0.00000E+00
    0.28080E-11        -0.18626E-19         0.00000E+00
    0.28080E-11        -0.55879E-20         0.00000E+00
    0.28080E-11        -0.74506E-20         0.00000E+00
    0.28080E-11        -0.93132E-20         0.00000E+00
    0.28080E-11        -0.14901E-19         0.00000E+00
    0.28080E-11        -0.29802E-19         0.00000E+00
    0.28080E-11        -0.37253E-19         0.00000E+00
    0.28080E-11        -0.24214E-19         0.00000E+00
    0.28080E-11        -0.15969E-19         0.00000E+00
    0.28080E-11        -0.16764E-19         0.00000E+00
    0.28080E-11        -0.19421E-19         0.00000E+00
    0.28080E-11        -0.31665E-19         0.00000E+00
    0.28080E-11        -0.31665E-19         0.00000E+00
    0.28080E-11        -0.14901E-19         0.00000E+00
    0.28080E-11        -0.37253E-20         0.00000E+00
    0.28080E-11        -0.94500E-20         0.00000E+00
    0.28080E-11        -0.14901E-19         0.00000E+00
    0.28080E-11        -0.11039E-19         0.00000E+00
    0.28080E-11         0.00000E+00         0.00000E+00
    0.28080E-11         0.74506E-20         0.00000E+00
    0.34205E-11         0.13312E-19         0.00000E+00
    0.34205E-11         0.55879E-20         0.00000E+00
    0.34205E-11        -0.12244E-19         0.00000E+00
    0.34205E-11        -0.11039E-19         0.00000E+00
    0.34205E-11        -0.27940E-20         0.00000E+00
    0.34205E-11        -0.29307E-20         0.00000E+00
    0.34205E-11        -0.82452E-20         0.00000E+00
    0.34205E-11        -0.21284E-19         0.00000E+00
    0.34205E-11        -0.15969E-19         0.00000E+00
    0.34205E-11        -0.65193E-20         0.00000E+00
    0.34205E-11        -0.19558E-19         0.00000E+00
    0.34205E-11        -0.93132E-20         0.00000E+00
    0.34205E-11         0.74506E-20         0.00000E+00
    0.34205E-11        -0.18626E-20         0.00000E+00
    0.34205E-11        -0.82452E-20         0.00000E+00
    0.34205E-11        -0.10381E-19         0.00000E+00
    0.34205E-11        -0.47933E-20         0.00000E+00
    0.34205E-11        -0.74506E-20         0.00000E+00
    0.34205E-11        -0.29802E-19         0.00000E+00
    0.34205E-11        -0.45498E-19         0.00000E+00
    0.34205E-11        -0.30597E-19         0.00000E+00
    0.34205E-11        -0.11176E-19         0.00000E+00
    0.34205E-11        -0.93132E-20         0.00000E+00
    0.34205E-11        -0.22352E-19         0.00000E+00
    0.34205E-11        -0.26077E-19         0.00000E+00
    0.34205E-11        -0.31665E-19         0.00000E+00
    0.34205E-11        -0.26077E-19         0.00000E+00
    0.34205E-11         0.00000E+00         0.00000E+00
    0.34205E-11         0.63825E-20         0.00000E+00
    0.34205E-11        -0.13241E-33         0.00000E+00
    0.34205E-11        -0.10108E-19         0.00000E+00
    0.34205E-11        -0.24214E-19         0.00000E+00
    0.34205E-11        -0.37253E-19         0.00000E+00
    0.34205E-11        -0.33528E-19         0.00000E+00
    0.34205E-11        -0.27940E-19         0.00000E+00
    0.34205E-11        -0.30870E-19         0.00000E+00
    0.34205E-11        -0.13039E-19         0.00000E+00
    0.34205E-11         0.10681E-20         0.00000E+00
    0.34205E-11        -0.15969E-19         0.00000E+00
    0.34205E-11        -0.25282E-19         0.00000E+00
    0.34205E-11        -0.20489E-19         0.00000E+00
    0.34205E-11        -0.26872E-19         0.00000E+00
    0.34205E-11        -0.24214E-19         0.00000E+00
    0.34205E-11        -0.19695E-19         0.00000E+00
    0.34205E-11        -0.26872E-19         0.00000E+00
    0.34205E-11        -0.28734E-19         0.00000E+00
    0.34205E-11        -0.19695E-19         0.00000E+00
    0.34205E-11        -0.46566E-20         0.00000E+00
    0.34205E-11        -0.54512E-20         0.00000E+00
    0.34205E-11        -0.55879E-20         0.00000E+00
    0.34205E-11        -0.74506E-20         0.00000E+00
    0.41652E-11        -0.74506E-20         0.00000E+00
    0.41652E-11        -0.63826E-20         0.00000E+00
    0.41652E-11        -0.18626E-20         0.00000E+00
    0.41652E-11         0.45199E-20         0.00000E+00
    0.41652E-11         0.37253E-20         0.00000E+00
    0.41652E-11         0.66560E-20         0.00000E+00
    0.41652E-11         0.15969E-19         0.00000E+00
    0.41652E-11         0.14901E-19         0.00000E+00
    0.41652E-11         0.26573E-20         0.00000E+00
    0.41652E-11        -0.66560E-20         0.00000E+00
    0.41652E-11        -0.10108E-19         0.00000E+00
    0.41652E-11        -0.18626E-19         0.00000E+00
    0.41652E-11        -0.21557E-19         0.00000E+00
    0.41652E-11        -0.23146E-19         0.00000E+00
    0.41652E-11        -0.11176E-19         0.00000E+00
    0.41652E-11        -0.93132E-20         0.00000E+00
    0.41652E-11        -0.17558E-19         0.00000E+00
    0.41652E-11        -0.25282E-19         0.00000E+00
    0.41652E-11        -0.14107E-19         0.00000E+00
    0.41652E-11         0.00000E+00         0.00000E+00
    0.41652E-11        -0.15696E-19         0.00000E+00
    0.41652E-11        -0.28734E-19         0.00000E+00
    0.41652E-11        -0.31665E-19         0.00000E+00
    0.41652E-11        -0.22352E-19         0.00000E+00
    0.41652E-11        -0.47933E-20         0.00000E+00
    0.41652E-11        -0.25127E-33         0.00000E+00
    0.41652E-11        -0.82452E-20         0.00000E+00
    0.41652E-11        -0.13039E-19         0.00000E+00
    0.41652E-11        -0.16764E-19         0.00000E+00
    0.41652E-11        -0.25282E-19         0.00000E+00
    0.41652E-11        -0.22352E-19         0.00000E+00
    0.41652E-11        -0.26573E-20         0.00000E+00
    0.41652E-11        -0.47933E-20         0.00000E+00
    0.41652E-11        -0.29008E-19         0.00000E+00
    0.41652E-11        -0.27940E-19         0.00000E+00
    0.41652E-11        -0.74506E-20         0.00000E+00
    0.41652E-11        -0.55879E-20         0.00000E+00
    0.41652E-11        -0.82452E-20         0.00000E+00
    0.41652E-11         0.66560E-20         0.00000E+00
    0.41652E-11         0.10108E-19         0.00000E+00
    0.41652E-11        -0.10680E-20         0.00000E+00
    0.41652E-11        -0.14901E-19         0.00000E+00
    0.41652E-11        -0.26872E-19         0.00000E+00
    0.41652E-11        -0.23146E-19         0.00000E+00
    0.41652E-11        -0.18626E-19         0.00000E+00
    0.41652E-11        -0.13039E-19         0.00000E+00
    0.41652E-11        -0.15969E-19         0.00000E+00
    0.41652E-11        -0.10381E-19         0.00000E+00
    0.41652E-11         0.00000E+00         0.00000E+00
    0.41652E-11         0.74506E-20         0.00000E+00
    0.41652E-11         0.14901E-19         0.00000E+00
    0.50703E-11        -0.37253E-20         0.00000E+00
    0.50703E-11        -0.55879E-20         0.00000E+00
    0.50703E-11        -0.55879E-20         0.00000E+00
    0.50703E-11        -0.74506E-20         0.00000E+00
    0.50703E-11        -0.74506E-20         0.00000E+00
    0.50703E-11        -0.26573E-20         0.00000E+00
    0.50703E-11         0.82452E-20         0.00000E+00
    0.50703E-11         0.79466E-21         0.00000E+00
    0.50703E-11        -0.93132E-20         0.00000E+00
    0.50703E-11        -0.93132E-21         0.00000E+00
    0.50703E-11         0.19993E-20         0.00000E+00
    0.50703E-11         0.00000E+00         0.00000E+00
    0.50703E-11        -0.55879E-20         0.00000E+00
    0.50703E-11        -0.13039E-19         0.00000E+00
    0.50703E-11        -0.13039E-19         0.00000E+00
    0.50703E-11        -0.12902E-19         0.00000E+00
    0.50703E-11        -0.35886E-20         0.00000E+00
    0.50703E-11        -0.10381E-19         0.00000E+00
    0.50703E-11        -0.22625E-19         0.00000E+00
    0.50703E-11        -0.16764E-19         0.00000E+00
    0.50703E-11        -0.17558E-19         0.00000E+00
    0.50703E-11        -0.19421E-19         0.00000E+00
    0.50703E-11        -0.11971E-19         0.00000E+00
    0.50703E-11        -0.21557E-19         0.00000E+00
    0.50703E-11        -0.29008E-19         0.00000E+00
    0.50703E-11        -0.17558E-19         0.00000E+00
    0.50703E-11        -0.45200E-20         0.00000E+00
    0.50703E-11        -0.47933E-20         0.00000E+00
    0.50703E-11         0.82452E-20         0.00000E+00
    0.50703E-11         0.13039E-19         0.00000E+00
    0.50703E-11         0.55879E-20         0.00000E+00
    0.50703E-11        -0.10108E-19         0.00000E+00
    0.50703E-11        -0.74506E-20         0.00000E+00
    0.50703E-11         0.82452E-20         0.00000E+00
    0.50703E-11         0.00000E+00         0.00000E+00
    0.50703E-11        -0.13039E-19         0.00000E+00
    0.50703E-11        -0.13039E-19         0.00000E+00
    0.50703E-11        -0.55879E-20         0.00000E+00
    0.50703E-11        -0.18626E-20         0.00000E+00
    0.50703E-11        -0.55879E-20         0.00000E+00
    0.50703E-11        -0.37253E-20         0.00000E+00
    0.50703E-11        -0.55879E-20         0.00000E+00
    0.50703E-11        -0.55879E-20         0.00000E+00
    0.50703E-11        -0.82452E-20         0.00000E+00
    0.50703E-11        -0.11971E-19         0.00000E+00
    0.50703E-11        -0.94499E-20         0.00000E+00
    0.50703E-11        -0.27940E-20         0.00000E+00
    0.50703E-11        -0.46566E-20         0.00000E+00
    0.50703E-11        -0.18763E-19         0.00000E+00
    0.50703E-11        -0.24214E-19         0.00000E+00
    0.50703E-11        -0.26077E-19         0.00000E+00
    0.61700E-11        -0.22352E-19         0.00000E+00
    0.61700E-11        -0.14901E-19         0.00000E+00
    0.61700E-11         0.00000E+00         0.00000E+00
    0.61700E-11         0.12244E-19         0.00000E+00
    0.61700E-11         0.17695E-19         0.00000E+00
    0.61700E-11         0.19285E-19         0.00000E+00
    0.61700E-11         0.46566E-20         0.00000E+00
    0.61700E-11         0.13661E-21         0.00000E+00
    0.61700E-11        -0.37253E-20         0.00000E+00
    0.61700E-11        -0.16764E-19         0.00000E+00
    0.61700E-11        -0.24214E-19         0.00000E+00
    0.61700E-11        -0.25009E-19         0.00000E+00
    0.61700E-11        -0.11176E-19         0.00000E+00
    0.61700E-11         0.00000E+00         0.00000E+00
    0.61700E-11        -0.55879E-20         0.00000E+00
    0.61700E-11        -0.66559E-20         0.00000E+00
    0.61700E-11        -0.18626E-20         0.00000E+00
    0.61700E-11        -0.55879E-20         0.00000E+00
    0.61700E-11        -0.55879E-20         0.00000E+00
    0.61700E-11        -0.20489E-19         0.00000E+00
    0.61700E-11        -0.27940E-19         0.00000E+00
    0.61700E-11        -0.20489E-19         0.00000E+00
    0.61700E-11        -0.18626E-19         0.00000E+00
    0.61700E-11        -0.15696E-19         0.00000E+00
    0.61700E-11        -0.47932E-20         0.00000E+00
    0.61700E-11         0.00000E+00         0.00000E+00
    0.61700E-11        -0.26574E-20         0.00000E+00
    0.61700E-11        -0.47932E-20         0.00000E+00
    0.61700E-11        -0.16764E-19         0.00000E+00
    0.61700E-11        -0.18626E-19         0.00000E+00
    0.61700E-11        -0.11176E-19         0.00000E+00
    0.61700E-11        -0.18626E-20         0.00000E+00
    0.61700E-11        -0.37253E-20         0.00000E+00
    0.61700E-11        -0.18626E-19         0.00000E+00
    0.61700E-11        -0.11176E-19         0.00000E+00
    0.61700E-11         0.55879E-20         0.00000E+00
    0.61700E-11         0.20489E-19         0.00000E+00
    0.61700E-11         0.27940E-19         0.00000E+00
    0.61700E-11         0.16764E-19         0.00000E+00
    0.61700E-11         0.74506E-20         0.00000E+00
    0.61700E-11         0.79471E-21         0.00000E+00
    0.61700E-11         0.66157E-34         0.00000E+00
    0.61700E-11         0.10381E-19         0.00000E+00
    0.61700E-11         0.45200E-20         0.00000E+00
    0.61700E-11        -0.11971E-19         0.00000E+00
    0.61700E-11        -0.16491E-19         0.00000E+00
    0.61700E-11        -0.16900E-19         0.00000E+00
    0.61700E-11        -0.75872E-20         0.00000E+00
    0.61700E-11         0.37253E-20         0.00000E+00
    0.61700E-11         0.11971E-19         0.00000E+00
    0.61700E-11         0.27666E-19         0.00000E+00
    0.75056E-11         0.53148E-20         0.00000E+00
    0.75056E-11         0.46566E-20         0.00000E+00
    0.75056E-11        -0.54514E-20         0.00000E+00
    0.75056E-11        -0.13039E-19         0.00000E+00
    0.75056E-11        -0.93132E-20         0.00000E+00
    0.75056E-11        -0.55879E-20         0.00000E+00
    0.75056E-11         0.79477E-21         0.00000E+00
    0.75056E-11         0.10108E-19         0.00000E+00
    0.75056E-11        -0.45201E-20         0.00000E+00
    0.75056E-11        -0.21284E-19         0.00000E+00
    0.75056E-11        -0.14106E-19         0.00000E+00
    0.75056E-11         0.83819E-20         0.00000E+00
    0.75056E-11         0.19992E-20         0.00000E+00
    0.75056E-11        -0.82454E-20         0.00000E+00
    0.75056E-11        -0.18626E-20         0.00000E+00
    0.75056E-11        -0.15969E-19         0.00000E+00
    0.75056E-11        -0.22352E-19         0.00000E+00
    0.75056E-11        -0.17832E-19         0.00000E+00
    0.75056E-11        -0.12244E-19         0.00000E+00
    0.75056E-11        -0.63827E-20         0.00000E+00
    0.75056E-11        -0.11971E-19         0.00000E+00
    0.75056E-11        -0.26077E-19         0.00000E+00
    0.75056E-11        -0.31665E-19         0.00000E+00
    0.75056E-11        -0.22215E-19         0.00000E+00
    0.75056E-11        -0.38618E-20         0.00000E+00
    0.75056E-11        -0.55879E-20         0.00000E+00
    0.75056E-11        -0.26574E-20         0.00000E+00
    0.75056E-11         0.10108E-19         0.00000E+00
    0.75056E-11         0.11176E-19         0.00000E+00
    0.75056E-11         0.37253E-20         0.00000E+00
    0.75056E-11         0.00000E+00         0.00000E+00
    0.75056E-11         0.85185E-20         0.00000E+00
    0.75056E-11         0.22352E-19         0.00000E+00
    0.75056E-11         0.25009E-19         0.00000E+00
    0.75056E-11         0.55879E-20         0.00000E+00
    0.75056E-11        -0.10679E-20         0.00000E+00
    0.75056E-11         0.00000E+00         0.00000E+00
    0.75056E-11        -0.10108E-19         0.00000E+00
    0.75056E-11        -0.15969E-19         0.00000E+00
    0.75056E-11        -0.74506E-20         0.00000E+00
    0.75056E-11         0.47932E-20         0.00000E+00
    0.75056E-11        -0.47932E-20         0.00000E+00
    0.75056E-11        -0.17832E-19         0.00000E+00
    0.75056E-11        -0.13833E-19         0.00000E+00
    0.75056E-11         0.10679E-20         0.00000E+00
    0.75056E-11         0.37253E-20         0.00000E+00
    0.75056E-11        -0.38618E-20         0.00000E+00
    0.75056E-11        -0.55879E-20         0.00000E+00
    0.75056E-11        -0.27940E-20         0.00000E+00
    0.75056E-11        -0.85185E-20         0.00000E+00
    0.75056E-11        -0.18626E-19         0.00000E+00
    0.91269E-11        -0.74506E-20         0.00000E+00
    0.91269E-11        -0.10381E-19         0.00000E+00
    0.91269E-11         0.37253E-20         0.00000E+00
    0.91269E-11         0.15969E-19         0.00000E+00
    0.91269E-11         0.93132E-20         0.00000E+00
    0.91269E-11         0.18626E-20         0.00000E+00
    0.91269E-11        -0.37253E-20         0.00000E+00
    0.91269E-11        -0.18626E-20         0.00000E+00
    0.91269E-11         0.26575E-20         0.00000E+00
    0.91269E-11         0.55879E-20         0.00000E+00
    0.91269E-11        -0.63828E-20         0.00000E+00
    0.91269E-11        -0.31665E-19         0.00000E+00
    0.91269E-11        -0.30870E-19         0.00000E+00
    0.91269E-11        -0.13039E-19         0.00000E+00
    0.91269E-11        -0.13833E-19         0.00000E+00
    0.91269E-11        -0.66557E-20         0.00000E+00
    0.91269E-11         0.93132E-21         0.00000E+00
    0.91269E-11        -0.65193E-20         0.00000E+00
    0.91269E-11        -0.85184E-20         0.00000E+00
    0.91269E-11        -0.15696E-19         0.00000E+00
    0.91269E-11        -0.26077E-19         0.00000E+00
    0.91269E-11        -0.20489E-19         0.00000E+00
    0.91269E-11        -0.55879E-20         0.00000E+00
    0.91269E-11         0.79484E-21         0.00000E+00
    0.91269E-11        -0.18626E-20         0.00000E+00
    0.91269E-11         0.18626E-20         0.00000E+00
    0.91269E-11         0.47931E-20         0.00000E+00
    0.91269E-11         0.55879E-20         0.00000E+00
    0.91269E-11         0.10108E-19         0.00000E+00
    0.91269E-11         0.85184E-20         0.00000E+00
    0.91269E-11        -0.37253E-20         0.00000E+00
    0.91269E-11        -0.37253E-20         0.00000E+00
    0.91269E-11         0.12244E-19         0.00000E+00
    0.91269E-11         0.11971E-19         0.00000E+00
    0.91269E-11         0.14901E-19         0.00000E+00
    0.91269E-11         0.55879E-20         0.00000E+00
    0.91269E-11        -0.66557E-20         0.00000E+00
    0.91269E-11        -0.74506E-20         0.00000E+00
    0.91269E-11        -0.82454E-20         0.00000E+00
    0.91269E-11        -0.45201E-20         0.00000E+00
    0.91269E-11        -0.66557E-20         0.00000E+00
    0.91269E-11         0.37253E-20         0.00000E+00
    0.91269E-11         0.66557E-20         0.00000E+00
    0.91269E-11        -0.93132E-20         0.00000E+00
    0.91269E-11        -0.29802E-19         0.00000E+00
    0.91269E-11        -0.22352E-19         0.00000E+00
    0.91269E-11         0.00000E+00         0.00000E+00
    0.91269E-11        -0.38618E-20         0.00000E+00
    0.91269E-11        -0.19558E-19         0.00000E+00
    0.91269E-11        -0.16764E-19         0.00000E+00
    0.91269E-11        -0.21356E-20         0.00000E+00
    0.11094E-10        -0.11176E-19         0.00000E+00
    0.11094E-10         0.18626E-20         0.00000E+00
    0.11094E-10         0.63829E-20         0.00000E+00
    0.11094E-10        -0.10677E-20         0.00000E+00
    0.11094E-10         0.11312E-19         0.00000E+00
    0.11094E-10         0.28076E-19         0.00000E+00
    0.11094E-10         0.82455E-20         0.00000E+00
    0.11094E-10        -0.19694E-19         0.00000E+00
    0.11094E-10        -0.24214E-19         0.00000E+00
    0.11094E-10        -0.13833E-19         0.00000E+00
    0.11094E-10        -0.37253E-20         0.00000E+00
    0.11094E-10         0.45202E-20         0.00000E+00
    0.11094E-10        -0.37253E-20         0.00000E+00
    0.11094E-10        -0.19421E-19         0.00000E+00
    0.11094E-10        -0.93132E-20         0.00000E+00
    0.11094E-10        -0.93132E-20         0.00000E+00
    0.11094E-10        -0.83819E-20         0.00000E+00
    0.11094E-10        -0.94496E-20         0.00000E+00
    0.11094E-10        -0.11176E-19         0.00000E+00
    0.11094E-10        -0.16764E-19         0.00000E+00
    0.11094E-10        -0.22352E-19         0.00000E+00
    0.11094E-10        -0.24214E-19         0.00000E+00
    0.11094E-10        -0.24214E-19         0.00000E+00
    0.11094E-10        -0.91768E-20         0.00000E+00
    0.11094E-10         0.83819E-20         0.00000E+00
    0.11094E-10         0.15696E-19         0.00000E+00
    0.11094E-10         0.14901E-19         0.00000E+00
    0.11094E-10         0.18626E-19         0.00000E+00
    0.11094E-10         0.14901E-19         0.00000E+00
    0.11094E-10        -0.35889E-20         0.00000E+00
    0.11094E-10         0.65193E-20         0.00000E+00
    0.11094E-10         0.13833E-19         0.00000E+00
    0.11094E-10        -0.55879E-20         0.00000E+00
    0.11094E-10        -0.11971E-19         0.00000E+00
    0.11094E-10        -0.18626E-20         0.00000E+00
    0.11094E-10         0.45202E-20         0.00000E+00
    0.11094E-10         0.00000E+00         0.00000E+00
    0.11094E-10        -0.18626E-20         0.00000E+00
    0.11094E-10        -0.55879E-20         0.00000E+00
    0.11094E-10        -0.21284E-19         0.00000E+00
    0.11094E-10        -0.32460E-19         0.00000E+00
    0.11094E-10        -0.25282E-19         0.00000E+00
    0.11094E-10        -0.22352E-19         0.00000E+00
    0.11094E-10        -0.21284E-19         0.00000E+00
    0.11094E-10        -0.12244E-19         0.00000E+00
    0.11094E-10        -0.15969E-19         0.00000E+00
    0.11094E-10        -0.16764E-19         0.00000E+00
    0.11094E-10        -0.26576E-20         0.00000E+00
    0.11094E-10         0.47930E-20         0.00000E+00
    0.11094E-10        -0.29304E-20         0.00000E+00
    0.11094E-10        -0.58607E-20         0.00000E+00
    0.13480E-10         0.95858E-20         0.00000E+00
    0.13480E-10         0.74506E-20         0.00000E+00
    0.13480E-10         0.74506E-20         0.00000E+00
    0.13480E-10         0.74506E-20         0.00000E+00
    0.13480E-10         0.27940E-20         0.00000E+00
    0.13480E-10         0.65193E-20         0.00000E+00
    0.13480E-10         0.65193E-20         0.00000E+00
    0.13480E-10        -0.17264E-20         0.00000E+00
    0.13480E-10        -0.93132E-20         0.00000E+00
    0.13480E-10        -0.12243E-19         0.00000E+00
    0.13480E-10        -0.10381E-19         0.00000E+00
    0.13480E-10        -0.11176E-19         0.00000E+00
    0.13480E-10        -0.13039E-19         0.00000E+00
    0.13480E-10        -0.55879E-20         0.00000E+00
    0.13480E-10        -0.11176E-19         0.00000E+00
    0.13480E-10        -0.22352E-19         0.00000E+00
    0.13480E-10        -0.22352E-19         0.00000E+00
    0.13480E-10        -0.16764E-19         0.00000E+00
    0.13480E-10        -0.93132E-20         0.00000E+00
    0.13480E-10         0.55879E-20         0.00000E+00
    0.13480E-10         0.55879E-20         0.00000E+00
    0.13480E-10        -0.55879E-20         0.00000E+00
    0.13480E-10        -0.37253E-20         0.00000E+00
    0.13480E-10         0.18626E-20         0.00000E+00
    0.13480E-10        -0.74506E-20         0.00000E+00
    0.13480E-10        -0.63830E-20         0.00000E+00
    0.13480E-10         0.14901E-19         0.00000E+00
    0.13480E-10         0.10108E-19         0.00000E+00
    0.13480E-10        -0.18626E-20         0.00000E+00
    0.13480E-10         0.37253E-20         0.00000E+00
    0.13480E-10        -0.37253E-20         0.00000E+00
    0.13480E-10        -0.45203E-20         0.00000E+00
    0.13480E-10         0.93132E-20         0.00000E+00
    0.13480E-10         0.17559E-19         0.00000E+00
    0.13480E-10         0.11176E-19         0.00000E+00
    0.13480E-10         0.00000E+00         0.00000E+00
    0.13480E-10        -0.14901E-19         0.00000E+00
    0.13480E-10        -0.31665E-19         0.00000E+00
    0.13480E-10        -0.26077E-19         0.00000E+00
    0.13480E-10        -0.21284E-19         0.00000E+00
    0.13480E-10        -0.14901E-19         0.00000E+00
    0.13480E-10        -0.74506E-20         0.00000E+00
    0.13480E-10        -0.74506E-20         0.00000E+00
    0.13480E-10        -0.22352E-19         0.00000E+00
    0.13480E-10        -0.29802E-19         0.00000E+00
    0.13480E-10        -0.23419E-19         0.00000E+00
    0.13480E-10        -0.18626E-19         0.00000E+00
    0.13480E-10        -0.93132E-20         0.00000E+00
    0.13480E-10        -0.74506E-20         0.00000E+00
    0.13480E-10         0.26577E-20         0.00000E+00
    0.13480E-10         0.16491E-19         0.00000E+00
    0.16373E-10        -0.37253E-20         0.00000E+00
    0.16373E-10        -0.45205E-20         0.00000E+00
    0.16373E-10         0.00000E+00         0.00000E+00
    0.16373E-10         0.45205E-20         0.00000E+00
    0.16373E-10         0.38615E-20         0.00000E+00
    0.16373E-10        -0.46566E-20         0.00000E+00
    0.16373E-10        -0.19694E-19         0.00000E+00
    0.16373E-10        -0.13039E-19         0.00000E+00
    0.16373E-10        -0.74506E-20         0.00000E+00
    0.16373E-10        -0.13039E-19         0.00000E+00
    0.16373E-10        -0.55879E-20         0.00000E+00
    0.16373E-10         0.93132E-20         0.00000E+00
    0.16373E-10         0.11176E-19         0.00000E+00
    0.16373E-10         0.55879E-20         0.00000E+00
    0.16373E-10         0.00000E+00         0.00000E+00
    0.16373E-10         0.18626E-20         0.00000E+00
    0.16373E-10         0.55879E-20         0.00000E+00
    0.16373E-10        -0.13039E-19         0.00000E+00
    0.16373E-10        -0.35390E-19         0.00000E+00
    0.16373E-10        -0.33528E-19         0.00000E+00
    0.16373E-10        -0.11176E-19         0.00000E+00
    0.16373E-10         0.37253E-20         0.00000E+00
    0.16373E-10         0.37253E-20         0.00000E+00
    0.16373E-10         0.10675E-20         0.00000E+00
    0.16373E-10         0.93132E-20         0.00000E+00
    0.16373E-10         0.11176E-19         0.00000E+00
    0.16373E-10        -0.18626E-20         0.00000E+00
    0.16373E-10         0.45205E-20         0.00000E+00
    0.16373E-10         0.13039E-19         0.00000E+00
    0.16373E-10         0.55879E-20         0.00000E+00
    0.16373E-10         0.00000E+00         0.00000E+00
    0.16373E-10        -0.11176E-19         0.00000E+00
    0.16373E-10        -0.13039E-19         0.00000E+00
    0.16373E-10         0.74506E-20         0.00000E+00
    0.16373E-10         0.14901E-19         0.00000E+00
    0.16373E-10        -0.55879E-20         0.00000E+00
    0.16373E-10        -0.17559E-19         0.00000E+00
    0.16373E-10        -0.26578E-20         0.00000E+00
    0.16373E-10        -0.10675E-20         0.00000E+00
    0.16373E-10         0.79516E-21         0.00000E+00
    0.16373E-10         0.18626E-20         0.00000E+00
    0.16373E-10        -0.37253E-20         0.00000E+00
    0.16373E-10        -0.93132E-20         0.00000E+00
    0.16373E-10        -0.74506E-20         0.00000E+00
    0.16373E-10        -0.93132E-20         0.00000E+00
    0.16373E-10        -0.16764E-19         0.00000E+00
    0.16373E-10        -0.14901E-19         0.00000E+00
    0.16373E-10        -0.19422E-19         0.00000E+00
    0.16373E-10        -0.19422E-19         0.00000E+00
    0.16373E-10        -0.95855E-20         0.00000E+00
    0.16373E-10        -0.42699E-20         0.00000E+00
    0.19879E-10         0.18626E-19         0.00000E+00
    0.19879E-10         0.20489E-19         0.00000E+00
    0.19879E-10         0.11176E-19         0.00000E+00
    0.19879E-10         0.00000E+00         0.00000E+00
    0.19879E-10        -0.73146E-20         0.00000E+00
    0.19879E-10        -0.27940E-20         0.00000E+00
    0.19879E-10         0.11971E-19         0.00000E+00
    0.19879E-10         0.93132E-20         0.00000E+00
    0.19879E-10         0.37253E-20         0.00000E+00
    0.19879E-10         0.13039E-19         0.00000E+00
    0.19879E-10         0.15968E-19         0.00000E+00
    0.19879E-10         0.18626E-20         0.00000E+00
    0.19879E-10        -0.12243E-19         0.00000E+00
    0.19879E-10        -0.82459E-20         0.00000E+00
    0.19879E-10        -0.18626E-20         0.00000E+00
    0.19879E-10        -0.19830E-19         0.00000E+00
    0.19879E-10        -0.30734E-19         0.00000E+00
    0.19879E-10        -0.11971E-19         0.00000E+00
    0.19879E-10         0.55879E-20         0.00000E+00
    0.19879E-10        -0.18626E-20         0.00000E+00
    0.19879E-10        -0.18626E-19         0.00000E+00
    0.19879E-10        -0.18626E-19         0.00000E+00
    0.19879E-10        -0.93132E-20         0.00000E+00
    0.19879E-10         0.00000E+00         0.00000E+00
    0.19879E-10         0.18626E-20         0.00000E+00
    0.19879E-10        -0.18626E-20         0.00000E+00
    0.19879E-10         0.55879E-20         0.00000E+00
    0.19879E-10         0.18626E-20         0.00000E+00
    0.19879E-10         0.00000E+00         0.00000E+00
    0.19879E-10         0.18626E-19         0.00000E+00
    0.19879E-10         0.20489E-19         0.00000E+00
    0.19879E-10         0.74506E-20         0.00000E+00
    0.19879E-10        -0.55879E-20         0.00000E+00
    0.19879E-10        -0.11176E-19         0.00000E+00
    0.19879E-10         0.00000E+00         0.00000E+00
    0.19879E-10         0.10109E-19         0.00000E+00
    0.19879E-10         0.11176E-19         0.00000E+00
    0.19879E-10         0.85179E-20         0.00000E+00
    0.19879E-10        -0.55879E-20         0.00000E+00
    0.19879E-10        -0.93132E-20         0.00000E+00
    0.19879E-10        -0.10109E-19         0.00000E+00
    0.19879E-10        -0.37253E-20         0.00000E+00
    0.19879E-10         0.63833E-20         0.00000E+00
    0.19879E-10        -0.18626E-20         0.00000E+00
    0.19879E-10        -0.11176E-19         0.00000E+00
    0.19879E-10        -0.13039E-19         0.00000E+00
    0.19879E-10        -0.63833E-20         0.00000E+00
    0.19879E-10         0.65193E-20         0.00000E+00
    0.19879E-10         0.73146E-20         0.00000E+00
    0.19879E-10        -0.47926E-20         0.00000E+00
    0.19879E-10        -0.58599E-20         0.00000E+00
    0.24125E-10        -0.11176E-19         0.00000E+00
    0.24125E-10        -0.55879E-20         0.00000E+00
    0.24125E-10         0.37253E-20         0.00000E+00
    0.24125E-10         0.74506E-20         0.00000E+00
    0.24125E-10         0.11176E-19         0.00000E+00
    0.24125E-10         0.26077E-19         0.00000E+00
    0.24125E-10         0.27940E-19         0.00000E+00
    0.24125E-10         0.93132E-20         0.00000E+00
    0.24125E-10         0.10671E-20         0.00000E+00
    0.24125E-10         0.00000E+00         0.00000E+00
    0.24125E-10         0.79550E-21         0.00000E+00
    0.24125E-10         0.37253E-20         0.00000E+00
    0.24125E-10        -0.47924E-20         0.00000E+00
    0.24125E-10        -0.93132E-20         0.00000E+00
    0.24125E-10        -0.63834E-20         0.00000E+00
    0.24125E-10        -0.74506E-20         0.00000E+00
    0.24125E-10        -0.37253E-20         0.00000E+00
    0.24125E-10        -0.12243E-19         0.00000E+00
    0.24125E-10        -0.27940E-19         0.00000E+00
    0.24125E-10        -0.23147E-19         0.00000E+00
    0.24125E-10        -0.55879E-20         0.00000E+00
    0.24125E-10        -0.18626E-20         0.00000E+00
    0.24125E-10        -0.11176E-19         0.00000E+00
    0.24125E-10        -0.16764E-19         0.00000E+00
    0.24125E-10        -0.18626E-19         0.00000E+00
    0.24125E-10        -0.93132E-20         0.00000E+00
    0.24125E-10        -0.55879E-20         0.00000E+00
    0.24125E-10        -0.18626E-20         0.00000E+00
    0.24125E-10         0.55879E-20         0.00000E+00
    0.24125E-10        -0.37253E-20         0.00000E+00
    0.24125E-10        -0.55879E-20         0.00000E+00
    0.24125E-10         0.37253E-20         0.00000E+00
    0.24125E-10         0.16764E-19         0.00000E+00
    0.24125E-10         0.25010E-19         0.00000E+00
    0.24125E-10         0.22352E-19         0.00000E+00
    0.24125E-10         0.55879E-20         0.00000E+00
    0.24125E-10        -0.18626E-20         0.00000E+00
    0.24125E-10         0.66551E-20         0.00000E+00
    0.24125E-10         0.16764E-19         0.00000E+00
    0.24125E-10         0.13039E-19         0.00000E+00
    0.24125E-10         0.37253E-20         0.00000E+00
    0.24125E-10         0.37253E-20         0.00000E+00
    0.24125E-10        -0.37253E-20         0.00000E+00
    0.24125E-10        -0.18626E-20         0.00000E+00
    0.24125E-10         0.93132E-20         0.00000E+00
    0.24125E-10         0.13039E-19         0.00000E+00
    0.24125E-10         0.16764E-19         0.00000E+00
    0.24125E-10         0.11176E-19         0.00000E+00
    0.24125E-10        -0.47924E-20         0.00000E+00
    0.24125E-10        -0.47924E-20         0.00000E+00
    0.24125E-10        -0.37253E-20         0.00000E+00
    0.29265E-10         0.37253E-20         0.00000E+00
    0.29265E-10         0.74506E-20         0.00000E+00
    0.29265E-10         0.63837E-20         0.00000E+00
    0.29265E-10         0.26584E-20         0.00000E+00
    0.29265E-10         0.13559E-21         0.00000E+00
    0.29265E-10         0.15037E-19         0.00000E+00
    0.29265E-10         0.22352E-19         0.00000E+00
    0.29265E-10         0.18626E-19         0.00000E+00
    0.29265E-10         0.16764E-19         0.00000E+00
    0.29265E-10         0.16764E-19         0.00000E+00
    0.29265E-10         0.82463E-20         0.00000E+00
    0.29265E-10        -0.29296E-20         0.00000E+00
    0.29265E-10         0.13039E-19         0.00000E+00
    0.29265E-10         0.14105E-19         0.00000E+00
    0.29265E-10        -0.12767E-19         0.00000E+00
    0.29265E-10        -0.11176E-19         0.00000E+00
    0.29265E-10        -0.10669E-20         0.00000E+00
    0.29265E-10        -0.12243E-19         0.00000E+00
    0.29265E-10        -0.14105E-19         0.00000E+00
    0.29265E-10        -0.74506E-20         0.00000E+00
    0.29265E-10        -0.13834E-19         0.00000E+00
    0.29265E-10        -0.32461E-19         0.00000E+00
    0.29265E-10        -0.34595E-19         0.00000E+00
    0.29265E-10        -0.14901E-19         0.00000E+00
    0.29265E-10        -0.13039E-19         0.00000E+00
    0.29265E-10        -0.25010E-19         0.00000E+00
    0.29265E-10        -0.16764E-19         0.00000E+00
    0.29265E-10        -0.13310E-19         0.00000E+00
    0.29265E-10        -0.10109E-19         0.00000E+00
    0.29265E-10         0.19693E-19         0.00000E+00
    0.29265E-10         0.25010E-19         0.00000E+00
    0.29265E-10         0.26077E-19         0.00000E+00
    0.29265E-10         0.31936E-19         0.00000E+00
    0.29265E-10         0.21556E-19         0.00000E+00
    0.29265E-10        -0.27118E-21         0.00000E+00
    0.29265E-10        -0.39965E-20         0.00000E+00
    0.29265E-10         0.00000E+00         0.00000E+00
    0.29265E-10        -0.55879E-20         0.00000E+00
    0.29265E-10        -0.10109E-19         0.00000E+00
    0.29265E-10        -0.63837E-20         0.00000E+00
    0.29265E-10         0.18626E-20         0.00000E+00
    0.29265E-10         0.26584E-20         0.00000E+00
    0.29265E-10         0.37253E-20         0.00000E+00
    0.29265E-10         0.47922E-20         0.00000E+00
    0.29265E-10         0.82463E-20         0.00000E+00
    0.29265E-10         0.11972E-19         0.00000E+00
    0.29265E-10        -0.26584E-20         0.00000E+00
    0.29265E-10         0.47922E-20         0.00000E+00
    0.29265E-10         0.18626E-19         0.00000E+00
    0.29265E-10         0.10109E-19         0.00000E+00
    0.29265E-10         0.15915E-20         0.00000E+00
    0.35484E-10        -0.37253E-20         0.00000E+00
    0.35484E-10        -0.47919E-20         0.00000E+00
    0.35484E-10        -0.37253E-20         0.00000E+00
    0.35484E-10         0.13970E-19         0.00000E+00
    0.35484E-10         0.18626E-19         0.00000E+00
    0.35484E-10         0.93132E-21         0.00000E+00
    0.35484E-10         0.93132E-21         0.00000E+00
    0.35484E-10         0.93132E-20         0.00000E+00
    0.35484E-10         0.15832E-19         0.00000E+00
    0.35484E-10         0.21556E-19         0.00000E+00
    0.35484E-10         0.18626E-19         0.00000E+00
    0.35484E-10         0.16764E-19         0.00000E+00
    0.35484E-10         0.55879E-20         0.00000E+00
    0.35484E-10        -0.18626E-20         0.00000E+00
    0.35484E-10        -0.66546E-20         0.00000E+00
    0.35484E-10        -0.15968E-19         0.00000E+00
    0.35484E-10        -0.16764E-19         0.00000E+00
    0.35484E-10        -0.93132E-20         0.00000E+00
    0.35484E-10        -0.18626E-20         0.00000E+00
    0.35484E-10        -0.55879E-20         0.00000E+00
    0.35484E-10        -0.16764E-19         0.00000E+00
    0.35484E-10         0.00000E+00         0.00000E+00
    0.35484E-10         0.00000E+00         0.00000E+00
    0.35484E-10        -0.12903E-19         0.00000E+00
    0.35484E-10        -0.17695E-19         0.00000E+00
    0.35484E-10        -0.12243E-19         0.00000E+00
    0.35484E-10         0.00000E+00         0.00000E+00
    0.35484E-10        -0.37253E-20         0.00000E+00
    0.35484E-10        -0.74506E-20         0.00000E+00
    0.35484E-10        -0.11176E-19         0.00000E+00
    0.35484E-10        -0.26587E-20         0.00000E+00
    0.35484E-10        -0.26587E-20         0.00000E+00
    0.35484E-10        -0.14105E-19         0.00000E+00
    0.35484E-10         0.26587E-20         0.00000E+00
    0.35484E-10         0.26077E-19         0.00000E+00
    0.35484E-10         0.25281E-19         0.00000E+00
    0.35484E-10         0.66546E-20         0.00000E+00
    0.35484E-10        -0.37253E-20         0.00000E+00
    0.35484E-10         0.63839E-20         0.00000E+00
    0.35484E-10         0.13039E-19         0.00000E+00
    0.35484E-10         0.37253E-20         0.00000E+00
    0.35484E-10         0.18626E-20         0.00000E+00
    0.35484E-10         0.93132E-20         0.00000E+00
    0.35484E-10         0.18626E-19         0.00000E+00
    0.35484E-10         0.74506E-20         0.00000E+00
    0.35484E-10        -0.37253E-20         0.00000E+00
    0.35484E-10         0.11176E-19         0.00000E+00
    0.35484E-10         0.15697E-19         0.00000E+00
    0.35484E-10         0.57232E-20         0.00000E+00
    0.35484E-10         0.27940E-20         0.00000E+00
    0.35484E-10         0.53173E-20         0.00000E+00
    0.43006E-10        -0.37253E-20         0.00000E+00
    0.43006E-10        -0.63843E-20         0.00000E+00
    0.43006E-10        -0.63843E-20         0.00000E+00
    0.43006E-10        -0.12242E-19         0.00000E+00
    0.43006E-10         0.00000E+00         0.00000E+00
    0.43006E-10         0.11176E-19         0.00000E+00
    0.43006E-10        -0.29289E-20         0.00000E+00
    0.43006E-10        -0.55879E-20         0.00000E+00
    0.43006E-10         0.74506E-20         0.00000E+00
    0.43006E-10         0.55879E-20         0.00000E+00
    0.43006E-10        -0.37253E-20         0.00000E+00
    0.43006E-10        -0.37253E-20         0.00000E+00
    0.43006E-10         0.00000E+00         0.00000E+00
    0.43006E-10         0.10663E-20         0.00000E+00
    0.43006E-10        -0.18626E-20         0.00000E+00
    0.43006E-10         0.13835E-19         0.00000E+00
    0.43006E-10         0.17830E-19         0.00000E+00
    0.43006E-10         0.17830E-19         0.00000E+00
    0.43006E-10         0.17560E-19         0.00000E+00
    0.43006E-10         0.18626E-19         0.00000E+00
    0.43006E-10         0.22352E-19         0.00000E+00
    0.43006E-10        -0.29289E-20         0.00000E+00
    0.43006E-10        -0.16764E-19         0.00000E+00
    0.43006E-10        -0.45216E-20         0.00000E+00
    0.43006E-10        -0.37253E-20         0.00000E+00
    0.43006E-10        -0.10663E-20         0.00000E+00
    0.43006E-10        -0.55879E-20         0.00000E+00
    0.43006E-10        -0.55879E-20         0.00000E+00
    0.43006E-10        -0.18626E-20         0.00000E+00
    0.43006E-10        -0.93132E-20         0.00000E+00
    0.43006E-10        -0.20489E-19         0.00000E+00
    0.43006E-10        -0.10906E-19         0.00000E+00
    0.43006E-10         0.11176E-19         0.00000E+00
    0.43006E-10         0.16494E-19         0.00000E+00
    0.43006E-10         0.14901E-19         0.00000E+00
    0.43006E-10         0.14901E-19         0.00000E+00
    0.43006E-10         0.11176E-19         0.00000E+00
    0.43006E-10         0.55879E-20         0.00000E+00
    0.43006E-10         0.37253E-20         0.00000E+00
    0.43006E-10        -0.26590E-20         0.00000E+00
    0.43006E-10         0.10663E-20         0.00000E+00
    0.43006E-10         0.10110E-19         0.00000E+00
    0.43006E-10         0.37253E-20         0.00000E+00
    0.43006E-10        -0.26590E-20         0.00000E+00
    0.43006E-10         0.63843E-20         0.00000E+00
    0.43006E-10         0.15698E-19         0.00000E+00
    0.43006E-10         0.55879E-20         0.00000E+00
    0.43006E-10        -0.37253E-20         0.00000E+00
    0.43006E-10         0.18626E-20         0.00000E+00
    0.43006E-10         0.82469E-20         0.00000E+00
    0.43006E-10         0.12769E-19         0.00000E+00
    0.52097E-10         0.00000E+00         0.00000E+00
    0.52097E-10         0.00000E+00         0.00000E+00
    0.52097E-10        -0.82473E-20         0.00000E+00
    0.52097E-10        -0.18626E-19         0.00000E+00
    0.52097E-10        -0.29006E-19         0.00000E+00
    0.52097E-10        -0.26077E-19         0.00000E+00
    0.52097E-10        -0.93132E-20         0.00000E+00
    0.52097E-10        -0.18626E-20         0.00000E+00
    0.52097E-10        -0.63847E-20         0.00000E+00
    0.52097E-10        -0.45220E-20         0.00000E+00
    0.52097E-10         0.79675E-21         0.00000E+00
    0.52097E-10         0.18626E-20         0.00000E+00
    0.52097E-10         0.37253E-20         0.00000E+00
    0.52097E-10         0.37253E-20         0.00000E+00
    0.52097E-10         0.12242E-19         0.00000E+00
    0.52097E-10         0.93132E-20         0.00000E+00
    0.52097E-10         0.11973E-19         0.00000E+00
    0.52097E-10         0.31665E-19         0.00000E+00
    0.52097E-10         0.17561E-19         0.00000E+00
    0.52097E-10         0.55879E-20         0.00000E+00
    0.52097E-10        -0.10907E-19         0.00000E+00
    0.52097E-10        -0.37253E-20         0.00000E+00
    0.52097E-10         0.82473E-20         0.00000E+00
    0.52097E-10        -0.11176E-19         0.00000E+00
    0.52097E-10        -0.93132E-20         0.00000E+00
    0.52097E-10        -0.18626E-20         0.00000E+00
    0.52097E-10        -0.37253E-20         0.00000E+00
    0.52097E-10        -0.47912E-20         0.00000E+00
    0.52097E-10        -0.74506E-20         0.00000E+00
    0.52097E-10         0.47912E-20         0.00000E+00
    0.52097E-10         0.17561E-19         0.00000E+00
    0.52097E-10         0.11176E-19         0.00000E+00
    0.52097E-10         0.13308E-19         0.00000E+00
    0.52097E-10         0.19423E-19         0.00000E+00
    0.52097E-10         0.11973E-19         0.00000E+00
    0.52097E-10         0.13039E-19         0.00000E+00
    0.52097E-10         0.27940E-19         0.00000E+00
    0.52097E-10         0.15967E-19         0.00000E+00
    0.52097E-10         0.55879E-20         0.00000E+00
    0.52097E-10         0.19423E-19         0.00000E+00
    0.52097E-10         0.24214E-19         0.00000E+00
    0.52097E-10         0.19692E-19         0.00000E+00
    0.52097E-10         0.10379E-19         0.00000E+00
    0.52097E-10        -0.58571E-20         0.00000E+00
    0.52097E-10        -0.14104E-19         0.00000E+00
    0.52097E-10        -0.10110E-19         0.00000E+00
    0.52097E-10        -0.74506E-20         0.00000E+00
    0.52097E-10        -0.37253E-20         0.00000E+00
    0.52097E-10        -0.63847E-20         0.00000E+00
    0.52097E-10        -0.13039E-19         0.00000E+00
    0.52097E-10        -0.13308E-19         0.00000E+00
    0.63079E-10         0.74506E-20         0.00000E+00
    0.63079E-10        -0.37253E-20         0.00000E+00
    0.63079E-10        -0.74506E-20         0.00000E+00
    0.63079E-10        -0.37253E-20         0.00000E+00
    0.63079E-10        -0.11973E-19         0.00000E+00
    0.63079E-10        -0.18626E-19         0.00000E+00
    0.63079E-10        -0.21555E-19         0.00000E+00
    0.63079E-10        -0.26874E-19         0.00000E+00
    0.63079E-10        -0.13039E-19         0.00000E+00
    0.63079E-10        -0.10654E-20         0.00000E+00
    0.63079E-10        -0.79724E-21         0.00000E+00
    0.63079E-10         0.13836E-19         0.00000E+00
    0.63079E-10         0.45225E-20         0.00000E+00
    0.63079E-10         0.26817E-21         0.00000E+00
    0.63079E-10         0.85160E-20         0.00000E+00
    0.63079E-10         0.14633E-19         0.00000E+00
    0.63079E-10         0.93132E-20         0.00000E+00
    0.63079E-10         0.18626E-20         0.00000E+00
    0.63079E-10         0.23946E-19         0.00000E+00
    0.63079E-10         0.19692E-19         0.00000E+00
    0.63079E-10        -0.63852E-20         0.00000E+00
    0.63079E-10        -0.14901E-19         0.00000E+00
    0.63079E-10         0.29281E-20         0.00000E+00
    0.63079E-10         0.19692E-19         0.00000E+00
    0.63079E-10         0.53198E-20         0.00000E+00
    0.63079E-10         0.37253E-20         0.00000E+00
    0.63079E-10         0.85160E-20         0.00000E+00
    0.63079E-10         0.10110E-19         0.00000E+00
    0.63079E-10         0.15698E-19         0.00000E+00
    0.63079E-10         0.12241E-19         0.00000E+00
    0.63079E-10        -0.15945E-20         0.00000E+00
    0.63079E-10         0.55879E-20         0.00000E+00
    0.63079E-10         0.18358E-19         0.00000E+00
    0.63079E-10         0.26077E-19         0.00000E+00
    0.63079E-10         0.30868E-19         0.00000E+00
    0.63079E-10         0.22084E-19         0.00000E+00
    0.63079E-10         0.74506E-20         0.00000E+00
    0.63079E-10         0.12241E-19         0.00000E+00
    0.63079E-10         0.93132E-20         0.00000E+00
    0.63079E-10        -0.10654E-20         0.00000E+00
    0.63079E-10         0.18626E-20         0.00000E+00
    0.63079E-10         0.10654E-20         0.00000E+00
    0.63079E-10        -0.10379E-19         0.00000E+00
    0.63079E-10        -0.55879E-20         0.00000E+00
    0.63079E-10        -0.63852E-20         0.00000E+00
    0.63079E-10        -0.15035E-19         0.00000E+00
    0.63079E-10        -0.75847E-20         0.00000E+00
    0.63079E-10        -0.25258E-20         0.00000E+00
    0.63079E-10         0.10654E-20         0.00000E+00
    0.63079E-10         0.25258E-20         0.00000E+00
    0.63079E-10         0.90451E-20         0.00000E+00
    0.76337E-10        -0.37253E-20         0.00000E+00
    0.76337E-10         0.18626E-20         0.00000E+00
    0.76337E-10         0.45231E-20         0.00000E+00
    0.76337E-10         0.79783E-21         0.00000E+00
    0.76337E-10         0.21296E-20         0.00000E+00
    0.76337E-10         0.13305E-19         0.00000E+00
    0.76337E-10         0.11974E-19         0.00000E+00
    0.76337E-10         0.26605E-20         0.00000E+00
    0.76337E-10        -0.13039E-19         0.00000E+00
    0.76337E-10        -0.23417E-19         0.00000E+00
    0.76337E-10        -0.66527E-20         0.00000E+00
    0.76337E-10        -0.45231E-20         0.00000E+00
    0.76337E-10        -0.63858E-20         0.00000E+00
    0.76337E-10        -0.74506E-20         0.00000E+00
    0.76337E-10        -0.45231E-20         0.00000E+00
    0.76337E-10         0.55879E-20         0.00000E+00
    0.76337E-10         0.62523E-20         0.00000E+00
    0.76337E-10        -0.38588E-20         0.00000E+00
    0.76337E-10        -0.11974E-19         0.00000E+00
    0.76337E-10         0.00000E+00         0.00000E+00
    0.76337E-10         0.25012E-19         0.00000E+00
    0.76337E-10         0.18626E-19         0.00000E+00
    0.76337E-10        -0.79783E-21         0.00000E+00
    0.76337E-10        -0.10909E-19         0.00000E+00
    0.76337E-10        -0.12241E-19         0.00000E+00
    0.76337E-10        -0.93132E-20         0.00000E+00
    0.76337E-10         0.18626E-20         0.00000E+00
    0.76337E-10         0.82484E-20         0.00000E+00
    0.76337E-10         0.77176E-20         0.00000E+00
    0.76337E-10         0.25279E-19         0.00000E+00
    0.76337E-10         0.32463E-19         0.00000E+00
    0.76337E-10         0.27940E-19         0.00000E+00
    0.76337E-10         0.32463E-19         0.00000E+00
    0.76337E-10         0.25810E-19         0.00000E+00
    0.76337E-10         0.14103E-19         0.00000E+00
    0.76337E-10         0.22352E-19         0.00000E+00
    0.76337E-10         0.29004E-19         0.00000E+00
    0.76337E-10         0.22619E-19         0.00000E+00
    0.76337E-10         0.21287E-19         0.00000E+00
    0.76337E-10         0.18359E-19         0.00000E+00
    0.76337E-10         0.13836E-19         0.00000E+00
    0.76337E-10         0.55879E-20         0.00000E+00
    0.76337E-10         0.66527E-20         0.00000E+00
    0.76337E-10         0.85154E-20         0.00000E+00
    0.76337E-10        -0.37253E-20         0.00000E+00
    0.76337E-10        -0.91797E-20         0.00000E+00
    0.76337E-10        -0.16764E-19         0.00000E+00
    0.76337E-10        -0.11309E-19         0.00000E+00
    0.76337E-10        -0.47901E-20         0.00000E+00
    0.76337E-10        -0.29275E-20         0.00000E+00
    0.76337E-10        -0.37253E-20         0.00000E+00
    0.92334E-10         0.95788E-20         0.00000E+00
    0.92334E-10         0.18626E-19         0.00000E+00
    0.92334E-10         0.16764E-19         0.00000E+00
    0.92334E-10         0.11176E-19         0.00000E+00
    0.92334E-10         0.63865E-20         0.00000E+00
    0.92334E-10        -0.75834E-20         0.00000E+00
    0.92334E-10        -0.93132E-21         0.00000E+00
    0.92334E-10         0.11176E-19         0.00000E+00
    0.92334E-10         0.14901E-19         0.00000E+00
    0.92334E-10         0.18626E-19         0.00000E+00
    0.92334E-10         0.27940E-20         0.00000E+00
    0.92334E-10        -0.73178E-20         0.00000E+00
    0.92334E-10        -0.93132E-20         0.00000E+00
    0.92334E-10        -0.11974E-19         0.00000E+00
    0.92334E-10         0.10641E-20         0.00000E+00
    0.92334E-10        -0.10377E-19         0.00000E+00
    0.92334E-10        -0.14901E-19         0.00000E+00
    0.92334E-10        -0.10641E-20         0.00000E+00
    0.92334E-10         0.90477E-20         0.00000E+00
    0.92334E-10         0.37253E-20         0.00000E+00
    0.92334E-10        -0.19425E-19         0.00000E+00
    0.92334E-10        -0.17562E-19         0.00000E+00
    0.92334E-10         0.37253E-20         0.00000E+00
    0.92334E-10         0.75834E-20         0.00000E+00
    0.92334E-10        -0.13277E-21         0.00000E+00
    0.92334E-10         0.37253E-20         0.00000E+00
    0.92334E-10         0.37253E-20         0.00000E+00
    0.92334E-10         0.13039E-19         0.00000E+00
    0.92334E-10         0.25278E-19         0.00000E+00
    0.92334E-10         0.22352E-19         0.00000E+00
    0.92334E-10         0.27940E-19         0.00000E+00
    0.92334E-10         0.32464E-19         0.00000E+00
    0.92334E-10         0.18626E-19         0.00000E+00
    0.92334E-10         0.19425E-19         0.00000E+00
    0.92334E-10         0.27940E-19         0.00000E+00
    0.92334E-10         0.16764E-19         0.00000E+00
    0.92334E-10         0.13039E-19         0.00000E+00
    0.92334E-10         0.29802E-19         0.00000E+00
    0.92334E-10         0.27940E-19         0.00000E+00
    0.92334E-10         0.13039E-19         0.00000E+00
    0.92334E-10         0.74506E-20         0.00000E+00
    0.92334E-10         0.55879E-20         0.00000E+00
    0.92334E-10         0.45238E-20         0.00000E+00
    0.92334E-10         0.00000E+00         0.00000E+00
    0.92334E-10         0.13304E-19         0.00000E+00
    0.92334E-10         0.17828E-19         0.00000E+00
    0.92334E-10         0.63865E-20         0.00000E+00
    0.92334E-10        -0.11176E-19         0.00000E+00
    0.92334E-10        -0.14901E-19         0.00000E+00
    0.92334E-10        -0.85147E-20         0.00000E+00
    0.92334E-10        -0.58535E-20         0.00000E+00
    0.11162E-09        -0.58517E-20         0.00000E+00
    0.11162E-09        -0.74506E-20         0.00000E+00
    0.11162E-09        -0.79942E-21         0.00000E+00
    0.11162E-09         0.93132E-20         0.00000E+00
    0.11162E-09         0.13039E-19         0.00000E+00
    0.11162E-09         0.15701E-19         0.00000E+00
    0.11162E-09         0.11975E-19         0.00000E+00
    0.11162E-09         0.66512E-20         0.00000E+00
    0.11162E-09         0.55879E-20         0.00000E+00
    0.11162E-09         0.82500E-20         0.00000E+00
    0.11162E-09         0.10632E-20         0.00000E+00
    0.11162E-09        -0.15701E-19         0.00000E+00
    0.11162E-09        -0.25278E-19         0.00000E+00
    0.11162E-09        -0.14901E-19         0.00000E+00
    0.11162E-09         0.39891E-20         0.00000E+00
    0.11162E-09         0.66512E-20         0.00000E+00
    0.11162E-09        -0.47885E-20         0.00000E+00
    0.11162E-09        -0.15165E-19         0.00000E+00
    0.11162E-09        -0.15964E-19         0.00000E+00
    0.11162E-09        -0.74506E-20         0.00000E+00
    0.11162E-09         0.18626E-20         0.00000E+00
    0.11162E-09        -0.74506E-20         0.00000E+00
    0.11162E-09        -0.19426E-19         0.00000E+00
    0.11162E-09        -0.13838E-19         0.00000E+00
    0.11162E-09        -0.12239E-19         0.00000E+00
    0.11162E-09        -0.74506E-20         0.00000E+00
    0.11162E-09         0.66512E-20         0.00000E+00
    0.11162E-09         0.17563E-19         0.00000E+00
    0.11162E-09         0.21289E-19         0.00000E+00
    0.11162E-09         0.22616E-19         0.00000E+00
    0.11162E-09         0.29934E-19         0.00000E+00
    0.11162E-09         0.40047E-19         0.00000E+00
    0.11162E-09         0.42841E-19         0.00000E+00
    0.11162E-09         0.36190E-19         0.00000E+00
    0.11162E-09         0.22352E-19         0.00000E+00
    0.11162E-09         0.10113E-19         0.00000E+00
    0.11162E-09         0.45247E-20         0.00000E+00
    0.11162E-09        -0.63874E-20         0.00000E+00
    0.11162E-09         0.18626E-20         0.00000E+00
    0.11162E-09         0.19426E-19         0.00000E+00
    0.11162E-09         0.16764E-19         0.00000E+00
    0.11162E-09         0.37253E-20         0.00000E+00
    0.11162E-09        -0.63874E-20         0.00000E+00
    0.11162E-09         0.29259E-20         0.00000E+00
    0.11162E-09         0.79942E-21         0.00000E+00
    0.11162E-09        -0.39873E-34         0.00000E+00
    0.11162E-09         0.10376E-19         0.00000E+00
    0.11162E-09         0.17563E-19         0.00000E+00
    0.11162E-09         0.26876E-19         0.00000E+00
    0.11162E-09         0.22352E-19         0.00000E+00
    0.11162E-09         0.18626E-19         0.00000E+00
    0.13487E-09         0.00000E+00         0.00000E+00
    0.13487E-09         0.85128E-20         0.00000E+00
    0.13487E-09         0.55879E-20         0.00000E+00
    0.13487E-09        -0.47875E-20         0.00000E+00
    0.13487E-09         0.10622E-20         0.00000E+00
    0.13487E-09         0.12238E-19         0.00000E+00
    0.13487E-09         0.91824E-20         0.00000E+00
    0.13487E-09        -0.46566E-20         0.00000E+00
    0.13487E-09        -0.10245E-19         0.00000E+00
    0.13487E-09        -0.11307E-19         0.00000E+00
    0.13487E-09        -0.18626E-20         0.00000E+00
    0.13487E-09         0.85128E-20         0.00000E+00
    0.13487E-09        -0.26631E-20         0.00000E+00
    0.13487E-09        -0.17826E-19         0.00000E+00
    0.13487E-09        -0.82510E-20         0.00000E+00
    0.13487E-09        -0.74506E-20         0.00000E+00
    0.13487E-09        -0.77123E-20         0.00000E+00
    0.13487E-09        -0.11176E-19         0.00000E+00
    0.13487E-09        -0.26077E-19         0.00000E+00
    0.13487E-09        -0.24214E-19         0.00000E+00
    0.13487E-09        -0.13839E-19         0.00000E+00
    0.13487E-09        -0.13839E-19         0.00000E+00
    0.13487E-09        -0.15963E-19         0.00000E+00
    0.13487E-09        -0.14901E-19         0.00000E+00
    0.13487E-09        -0.74506E-20         0.00000E+00
    0.13487E-09         0.45258E-20         0.00000E+00
    0.13487E-09         0.55879E-20         0.00000E+00
    0.13487E-09         0.10375E-19         0.00000E+00
    0.13487E-09         0.22352E-19         0.00000E+00
    0.13487E-09         0.26878E-19         0.00000E+00
    0.13487E-09         0.20489E-19         0.00000E+00
    0.13487E-09         0.16764E-19         0.00000E+00
    0.13487E-09         0.13039E-19         0.00000E+00
    0.13487E-09         0.55879E-20         0.00000E+00
    0.13487E-09         0.00000E+00         0.00000E+00
    0.13487E-09         0.00000E+00         0.00000E+00
    0.13487E-09         0.37253E-20         0.00000E+00
    0.13487E-09         0.22352E-19         0.00000E+00
    0.13487E-09         0.30064E-19         0.00000E+00
    0.13487E-09         0.20489E-19         0.00000E+00
    0.13487E-09         0.22090E-19         0.00000E+00
    0.13487E-09         0.17826E-19         0.00000E+00
    0.13487E-09         0.13039E-19         0.00000E+00
    0.13487E-09         0.93132E-20         0.00000E+00
    0.13487E-09         0.00000E+00         0.00000E+00
    0.13487E-09        -0.66501E-20         0.00000E+00
    0.13487E-09        -0.55879E-20         0.00000E+00
    0.13487E-09         0.38561E-20         0.00000E+00
    0.13487E-09         0.27940E-20         0.00000E+00
    0.13487E-09        -0.47875E-20         0.00000E+00
    0.13487E-09        -0.11176E-19         0.00000E+00
    0.16286E-09        -0.53288E-20         0.00000E+00
    0.16286E-09        -0.74506E-20         0.00000E+00
    0.16286E-09        -0.10609E-20         0.00000E+00
    0.16286E-09        -0.80173E-21         0.00000E+00
    0.16286E-09        -0.63897E-20         0.00000E+00
    0.16286E-09        -0.15962E-19         0.00000E+00
    0.16286E-09        -0.10374E-19         0.00000E+00
    0.16286E-09        -0.74506E-20         0.00000E+00
    0.16286E-09        -0.85115E-20         0.00000E+00
    0.16286E-09        -0.93132E-21         0.00000E+00
    0.16286E-09        -0.14772E-19         0.00000E+00
    0.16286E-09        -0.24214E-19         0.00000E+00
    0.16286E-09        -0.16764E-19         0.00000E+00
    0.16286E-09         0.18626E-20         0.00000E+00
    0.16286E-09         0.20489E-19         0.00000E+00
    0.16286E-09         0.27940E-19         0.00000E+00
    0.16286E-09         0.18626E-19         0.00000E+00
    0.16286E-09        -0.37253E-20         0.00000E+00
    0.16286E-09        -0.55879E-20         0.00000E+00
    0.16286E-09        -0.74506E-20         0.00000E+00
    0.16286E-09        -0.16764E-19         0.00000E+00
    0.16286E-09        -0.16764E-19         0.00000E+00
    0.16286E-09        -0.14901E-19         0.00000E+00
    0.16286E-09        -0.13039E-19         0.00000E+00
    0.16286E-09        -0.14901E-19         0.00000E+00
    0.16286E-09        -0.16764E-19         0.00000E+00
    0.16286E-09        -0.74506E-20         0.00000E+00
    0.16286E-09         0.74506E-20         0.00000E+00
    0.16286E-09         0.11176E-19         0.00000E+00
    0.16286E-09         0.55879E-20         0.00000E+00
    0.16286E-09         0.18626E-20         0.00000E+00
    0.16286E-09         0.10609E-20         0.00000E+00
    0.16286E-09         0.93132E-20         0.00000E+00
    0.16286E-09         0.20489E-19         0.00000E+00
    0.16286E-09         0.18626E-19         0.00000E+00
    0.16286E-09         0.10115E-19         0.00000E+00
    0.16286E-09         0.00000E+00         0.00000E+00
    0.16286E-09         0.10609E-20         0.00000E+00
    0.16286E-09         0.55879E-20         0.00000E+00
    0.16286E-09         0.11978E-19         0.00000E+00
    0.16286E-09         0.12237E-19         0.00000E+00
    0.16286E-09         0.14901E-19         0.00000E+00
    0.16286E-09         0.19428E-19         0.00000E+00
    0.16286E-09         0.55879E-20         0.00000E+00
    0.16286E-09        -0.11176E-19         0.00000E+00
    0.16286E-09        -0.26644E-20         0.00000E+00
    0.16286E-09         0.18626E-19         0.00000E+00
    0.16286E-09         0.25016E-19         0.00000E+00
    0.16286E-09         0.17825E-19         0.00000E+00
    0.16286E-09         0.82523E-20         0.00000E+00
    0.16286E-09         0.32069E-20         0.00000E+00
    0.19654E-09         0.74506E-20         0.00000E+00
    0.19654E-09         0.80326E-21         0.00000E+00
    0.19654E-09        -0.16764E-19         0.00000E+00
    0.19654E-09        -0.10116E-19         0.00000E+00
    0.19654E-09         0.11304E-19         0.00000E+00
    0.19654E-09         0.15832E-19         0.00000E+00
    0.19654E-09        -0.10594E-20         0.00000E+00
    0.19654E-09        -0.16764E-19         0.00000E+00
    0.19654E-09        -0.18626E-20         0.00000E+00
    0.19654E-09        -0.55879E-20         0.00000E+00
    0.19654E-09        -0.93132E-20         0.00000E+00
    0.19654E-09         0.18626E-20         0.00000E+00
    0.19654E-09         0.37253E-20         0.00000E+00
    0.19654E-09         0.85100E-20         0.00000E+00
    0.19654E-09         0.13039E-19         0.00000E+00
    0.19654E-09        -0.66473E-20         0.00000E+00
    0.19654E-09        -0.20489E-19         0.00000E+00
    0.19654E-09        -0.74506E-20         0.00000E+00
    0.19654E-09        -0.29220E-20         0.00000E+00
    0.19654E-09        -0.55879E-20         0.00000E+00
    0.19654E-09         0.29220E-20         0.00000E+00
    0.19654E-09         0.85100E-20         0.00000E+00
    0.19654E-09         0.37253E-20         0.00000E+00
    0.19654E-09        -0.55879E-20         0.00000E+00
    0.19654E-09        -0.25146E-33         0.00000E+00
    0.19654E-09         0.10116E-19         0.00000E+00
    0.19654E-09        -0.18626E-20         0.00000E+00
    0.19654E-09        -0.17567E-19         0.00000E+00
    0.19654E-09        -0.55879E-20         0.00000E+00
    0.19654E-09         0.10116E-19         0.00000E+00
    0.19654E-09         0.16764E-19         0.00000E+00
    0.19654E-09         0.26077E-19         0.00000E+00
    0.19654E-09         0.20489E-19         0.00000E+00
    0.19654E-09         0.14901E-19         0.00000E+00
    0.19654E-09         0.14901E-19         0.00000E+00
    0.19654E-09         0.37253E-20         0.00000E+00
    0.19654E-09        -0.74506E-20         0.00000E+00
    0.19654E-09        -0.16764E-19         0.00000E+00
    0.19654E-09        -0.93132E-20         0.00000E+00
    0.19654E-09        -0.55879E-20         0.00000E+00
    0.19654E-09        -0.93132E-20         0.00000E+00
    0.19654E-09        -0.93132E-20         0.00000E+00
    0.19654E-09        -0.11176E-19         0.00000E+00
    0.19654E-09         0.00000E+00         0.00000E+00
    0.19654E-09         0.11176E-19         0.00000E+00
    0.19654E-09         0.93132E-20         0.00000E+00
    0.19654E-09         0.55879E-20         0.00000E+00
    0.19654E-09         0.14901E-19         0.00000E+00
    0.19654E-09         0.22352E-19         0.00000E+00
    0.19654E-09         0.10116E-19         0.00000E+00
    0.19654E-09         0.53318E-20         0.00000E+00
    0.23704E-09        -0.74506E-20         0.00000E+00
    0.23704E-09        -0.18626E-20         0.00000E+00
    0.23704E-09         0.14096E-19         0.00000E+00
    0.23704E-09         0.24214E-19         0.00000E+00
    0.23704E-09         0.11176E-19         0.00000E+00
    0.23704E-09         0.18626E-20         0.00000E+00
    0.23704E-09         0.11981E-19         0.00000E+00
    0.23704E-09         0.93132E-20         0.00000E+00
    0.23704E-09         0.29202E-20         0.00000E+00
    0.23704E-09         0.13970E-19         0.00000E+00
    0.23704E-09         0.20363E-19         0.00000E+00
    0.23704E-09         0.15706E-19         0.00000E+00
    0.23704E-09         0.13970E-19         0.00000E+00
    0.23704E-09         0.94394E-20         0.00000E+00
    0.23704E-09         0.00000E+00         0.00000E+00
    0.23704E-09         0.73244E-20         0.00000E+00
    0.23704E-09         0.17695E-19         0.00000E+00
    0.23704E-09         0.14901E-19         0.00000E+00
    0.23704E-09         0.74506E-20         0.00000E+00
    0.23704E-09         0.85081E-20         0.00000E+00
    0.23704E-09        -0.18626E-20         0.00000E+00
    0.23704E-09        -0.18626E-19         0.00000E+00
    0.23704E-09        -0.13039E-19         0.00000E+00
    0.23704E-09         0.66455E-20         0.00000E+00
    0.23704E-09         0.11176E-19         0.00000E+00
    0.23704E-09         0.63930E-20         0.00000E+00
    0.23704E-09         0.00000E+00         0.00000E+00
    0.23704E-09        -0.18626E-20         0.00000E+00
    0.23704E-09        -0.18626E-20         0.00000E+00
    0.23704E-09         0.37253E-20         0.00000E+00
    0.23704E-09         0.93132E-20         0.00000E+00
    0.23704E-09         0.00000E+00         0.00000E+00
    0.23704E-09        -0.18626E-20         0.00000E+00
    0.23704E-09         0.63930E-20         0.00000E+00
    0.23704E-09         0.14901E-19         0.00000E+00
    0.23704E-09         0.13844E-19         0.00000E+00
    0.23704E-09        -0.11915E-33         0.00000E+00
    0.23704E-09         0.39777E-20         0.00000E+00
    0.23704E-09         0.29202E-20         0.00000E+00
    0.23704E-09        -0.18626E-20         0.00000E+00
    0.23704E-09        -0.29202E-20         0.00000E+00
    0.23704E-09        -0.13039E-19         0.00000E+00
    0.23704E-09        -0.11981E-19         0.00000E+00
    0.23704E-09        -0.11176E-19         0.00000E+00
    0.23704E-09        -0.93132E-20         0.00000E+00
    0.23704E-09         0.27940E-20         0.00000E+00
    0.23704E-09        -0.27940E-20         0.00000E+00
    0.23704E-09        -0.11176E-19         0.00000E+00
    0.23704E-09        -0.66455E-20         0.00000E+00
    0.23704E-09         0.26677E-20         0.00000E+00
    0.23704E-09         0.90608E-20         0.00000E+00
    0.28571E-09         0.37253E-20         0.00000E+00
    0.28571E-09         0.37253E-20         0.00000E+00
    0.28571E-09         0.37253E-20         0.00000E+00
    0.28571E-09         0.55879E-20         0.00000E+00
    0.28571E-09        -0.18626E-20         0.00000E+00
    0.28571E-09        -0.18626E-20         0.00000E+00
    0.28571E-09         0.74506E-20         0.00000E+00
    0.28571E-09         0.93132E-20         0.00000E+00
    0.28571E-09         0.22352E-19         0.00000E+00
    0.28571E-09         0.29802E-19         0.00000E+00
    0.28571E-09         0.20489E-19         0.00000E+00
    0.28571E-09         0.13039E-19         0.00000E+00
    0.28571E-09         0.93132E-20         0.00000E+00
    0.28571E-09         0.11176E-19         0.00000E+00
    0.28571E-09         0.93132E-20         0.00000E+00
    0.28571E-09         0.18626E-20         0.00000E+00
    0.28571E-09        -0.55879E-20         0.00000E+00
    0.28571E-09        -0.18626E-20         0.00000E+00
    0.28571E-09        -0.18626E-20         0.00000E+00
    0.28571E-09        -0.11176E-19         0.00000E+00
    0.28571E-09        -0.93132E-20         0.00000E+00
    0.28571E-09        -0.18626E-20         0.00000E+00
    0.28571E-09        -0.11176E-19         0.00000E+00
    0.28571E-09        -0.24214E-19         0.00000E+00
    0.28571E-09        -0.74506E-20         0.00000E+00
    0.28571E-09         0.37253E-20         0.00000E+00
    0.28571E-09         0.37253E-20         0.00000E+00
    0.28571E-09         0.74506E-20         0.00000E+00
    0.28571E-09         0.16764E-19         0.00000E+00
    0.28571E-09         0.18378E-19         0.00000E+00
    0.28571E-09         0.53399E-20         0.00000E+00
    0.28571E-09         0.79466E-20         0.00000E+00
    0.28571E-09         0.76986E-20         0.00000E+00
    0.28571E-09         0.34773E-20         0.00000E+00
    0.28571E-09        -0.93132E-20         0.00000E+00
    0.28571E-09        -0.14901E-19         0.00000E+00
    0.28571E-09         0.37253E-20         0.00000E+00
    0.28571E-09         0.11176E-19         0.00000E+00
    0.28571E-09         0.93132E-20         0.00000E+00
    0.28571E-09         0.00000E+00         0.00000E+00
    0.28571E-09        -0.37253E-20         0.00000E+00
    0.28571E-09         0.37253E-20         0.00000E+00
    0.28571E-09        -0.74506E-20         0.00000E+00
    0.28571E-09        -0.13287E-19         0.00000E+00
    0.28571E-09        -0.55879E-20         0.00000E+00
    0.28571E-09        -0.10928E-19         0.00000E+00
    0.28571E-09        -0.11176E-19         0.00000E+00
    0.28571E-09        -0.37253E-20         0.00000E+00
    0.28571E-09        -0.37253E-20         0.00000E+00
    0.28571E-09        -0.74506E-20         0.00000E+00
    0.28571E-09        -0.11176E-19         0.00000E+00
    0.34414E-09         0.00000E+00         0.00000E+00
    0.34414E-09         0.00000E+00         0.00000E+00
    0.34414E-09        -0.37253E-20         0.00000E+00
    0.34414E-09         0.00000E+00         0.00000E+00
    0.34414E-09         0.13039E-19         0.00000E+00
    0.34414E-09         0.14901E-19         0.00000E+00
    0.34414E-09         0.11176E-19         0.00000E+00
    0.34414E-09         0.11176E-19         0.00000E+00
    0.34414E-09         0.18626E-20         0.00000E+00
    0.34414E-09        -0.95559E-20         0.00000E+00
    0.34414E-09        -0.55879E-20         0.00000E+00
    0.34414E-09        -0.72079E-20         0.00000E+00
    0.34414E-09        -0.15144E-19         0.00000E+00
    0.34414E-09        -0.22109E-19         0.00000E+00
    0.34414E-09        -0.22109E-19         0.00000E+00
    0.34414E-09         0.16200E-20         0.00000E+00
    0.34414E-09         0.20489E-19         0.00000E+00
    0.34414E-09         0.11176E-19         0.00000E+00
    0.34414E-09        -0.58306E-20         0.00000E+00
    0.34414E-09        -0.21053E-20         0.00000E+00
    0.34414E-09         0.58306E-20         0.00000E+00
    0.34414E-09         0.24266E-21         0.00000E+00
    0.34414E-09         0.37253E-20         0.00000E+00
    0.34414E-09         0.18626E-20         0.00000E+00
    0.34414E-09        -0.74506E-20         0.00000E+00
    0.34414E-09         0.18626E-20         0.00000E+00
    0.34414E-09         0.37253E-20         0.00000E+00
    0.34414E-09         0.74506E-20         0.00000E+00
    0.34414E-09         0.14901E-19         0.00000E+00
    0.34414E-09         0.10933E-19         0.00000E+00
    0.34414E-09         0.16200E-20         0.00000E+00
    0.34414E-09        -0.12553E-19         0.00000E+00
    0.34414E-09        -0.74506E-20         0.00000E+00
    0.34414E-09         0.90706E-20         0.00000E+00
    0.34414E-09         0.95559E-20         0.00000E+00
    0.34414E-09         0.34826E-20         0.00000E+00
    0.34414E-09        -0.74506E-20         0.00000E+00
    0.34414E-09         0.39679E-20         0.00000E+00
    0.34414E-09         0.18626E-19         0.00000E+00
    0.34414E-09         0.16764E-19         0.00000E+00
    0.34414E-09         0.37253E-20         0.00000E+00
    0.34414E-09        -0.13281E-19         0.00000E+00
    0.34414E-09        -0.55879E-20         0.00000E+00
    0.34414E-09         0.39679E-20         0.00000E+00
    0.34414E-09         0.18626E-20         0.00000E+00
    0.34414E-09         0.00000E+00         0.00000E+00
    0.34414E-09        -0.37253E-20         0.00000E+00
    0.34414E-09        -0.37253E-20         0.00000E+00
    0.34414E-09         0.55879E-20         0.00000E+00
    0.34414E-09         0.55879E-20         0.00000E+00
    0.34414E-09         0.00000E+00         0.00000E+00
    0.41424E-09        -0.15374E-19         0.00000E+00
    0.41424E-09        -0.13039E-19         0.00000E+00
    0.41424E-09         0.39615E-20         0.00000E+00
    0.41424E-09         0.24214E-19         0.00000E+00
    0.41424E-09         0.35154E-19         0.00000E+00
    0.41424E-09         0.22352E-19         0.00000E+00
    0.41424E-09         0.23623E-21         0.00000E+00
    0.41424E-09        -0.74506E-20         0.00000E+00
    0.41424E-09         0.00000E+00         0.00000E+00
    0.41424E-09         0.93132E-20         0.00000E+00
    0.41424E-09         0.37253E-20         0.00000E+00
    0.41424E-09         0.00000E+00         0.00000E+00
    0.41424E-09        -0.74506E-20         0.00000E+00
    0.41424E-09        -0.93132E-20         0.00000E+00
    0.41424E-09        -0.11176E-19         0.00000E+00
    0.41424E-09        -0.93132E-20         0.00000E+00
    0.41424E-09        -0.18626E-20         0.00000E+00
    0.41424E-09        -0.10481E-19         0.00000E+00
    0.41424E-09        -0.11676E-20         0.00000E+00
    0.41424E-09         0.13275E-19         0.00000E+00
    0.41424E-09         0.58242E-20         0.00000E+00
    0.41424E-09         0.18626E-20         0.00000E+00
    0.41424E-09         0.55879E-20         0.00000E+00
    0.41424E-09         0.37253E-20         0.00000E+00
    0.41424E-09        -0.37253E-20         0.00000E+00
    0.41424E-09        -0.11176E-19         0.00000E+00
    0.41424E-09        -0.11176E-19         0.00000E+00
    0.41424E-09        -0.55879E-20         0.00000E+00
    0.41424E-09        -0.11176E-19         0.00000E+00
    0.41424E-09        -0.55879E-20         0.00000E+00
    0.41424E-09         0.93132E-20         0.00000E+00
    0.41424E-09         0.13039E-19         0.00000E+00
    0.41424E-09         0.11176E-19         0.00000E+00
    0.41424E-09        -0.18626E-20         0.00000E+00
    0.41424E-09        -0.74506E-20         0.00000E+00
    0.41424E-09        -0.74506E-20         0.00000E+00
    0.41424E-09        -0.74506E-20         0.00000E+00
    0.41424E-09        -0.11176E-19         0.00000E+00
    0.41424E-09        -0.74506E-20         0.00000E+00
    0.41424E-09         0.37253E-20         0.00000E+00
    0.41424E-09         0.11176E-19         0.00000E+00
    0.41424E-09         0.12802E-19         0.00000E+00
    0.41424E-09         0.13039E-19         0.00000E+00
    0.41424E-09         0.95495E-20         0.00000E+00
    0.41424E-09         0.53517E-20         0.00000E+00
    0.41424E-09         0.37253E-20         0.00000E+00
    0.41424E-09        -0.34891E-20         0.00000E+00
    0.41424E-09        -0.74506E-20         0.00000E+00
    0.41424E-09        -0.12343E-19         0.00000E+00
    0.41424E-09        -0.12107E-19         0.00000E+00
    0.41424E-09        -0.32528E-20         0.00000E+00
    0.49827E-09         0.37253E-20         0.00000E+00
    0.49827E-09         0.37253E-20         0.00000E+00
    0.49827E-09         0.37253E-20         0.00000E+00
    0.49827E-09         0.00000E+00         0.00000E+00
    0.49827E-09        -0.95417E-20         0.00000E+00
    0.49827E-09        -0.15219E-32         0.00000E+00
    0.49827E-09         0.39538E-20         0.00000E+00
    0.49827E-09         0.74506E-20         0.00000E+00
    0.49827E-09         0.14901E-19         0.00000E+00
    0.49827E-09         0.18626E-20         0.00000E+00
    0.49827E-09        -0.11176E-19         0.00000E+00
    0.49827E-09        -0.18626E-19         0.00000E+00
    0.49827E-09        -0.18626E-19         0.00000E+00
    0.49827E-09        -0.22352E-19         0.00000E+00
    0.49827E-09        -0.16764E-19         0.00000E+00
    0.49827E-09        -0.37253E-20         0.00000E+00
    0.49827E-09         0.93132E-20         0.00000E+00
    0.49827E-09         0.14901E-19         0.00000E+00
    0.49827E-09         0.93132E-20         0.00000E+00
    0.49827E-09         0.74506E-20         0.00000E+00
    0.49827E-09         0.55879E-20         0.00000E+00
    0.49827E-09         0.11176E-19         0.00000E+00
    0.49827E-09         0.13039E-19         0.00000E+00
    0.49827E-09         0.18626E-20         0.00000E+00
    0.49827E-09        -0.74506E-20         0.00000E+00
    0.49827E-09        -0.37253E-20         0.00000E+00
    0.49827E-09        -0.37253E-20         0.00000E+00
    0.49827E-09        -0.93132E-20         0.00000E+00
    0.49827E-09        -0.74506E-20         0.00000E+00
    0.49827E-09        -0.37253E-20         0.00000E+00
    0.49827E-09         0.55879E-20         0.00000E+00
    0.49827E-09         0.93132E-20         0.00000E+00
    0.49827E-09         0.00000E+00         0.00000E+00
    0.49827E-09        -0.74506E-20         0.00000E+00
    0.49827E-09        -0.74506E-20         0.00000E+00
    0.49827E-09        -0.13039E-19         0.00000E+00
    0.49827E-09        -0.13039E-19         0.00000E+00
    0.49827E-09        -0.74506E-20         0.00000E+00
    0.49827E-09        -0.93132E-20         0.00000E+00
    0.49827E-09        -0.11176E-19         0.00000E+00
    0.49827E-09        -0.74506E-20         0.00000E+00
    0.49827E-09         0.00000E+00         0.00000E+00
    0.49827E-09         0.18626E-20         0.00000E+00
    0.49827E-09         0.53594E-20         0.00000E+00
    0.49827E-09         0.55879E-20         0.00000E+00
    0.49827E-09         0.76791E-20         0.00000E+00
    0.49827E-09         0.72221E-20         0.00000E+00
    0.49827E-09        -0.20911E-20         0.00000E+00
    0.49827E-09         0.37253E-20         0.00000E+00
    0.49827E-09         0.58164E-20         0.00000E+00
    0.49827E-09         0.45700E-21         0.00000E+00
    0.59889E-09        -0.41637E-20         0.00000E+00
    0.59889E-09        -0.55879E-20         0.00000E+00
    0.59889E-09        -0.16545E-19         0.00000E+00
    0.59889E-09        -0.16764E-19         0.00000E+00
    0.59889E-09         0.16434E-20         0.00000E+00
    0.59889E-09        -0.18626E-20         0.00000E+00
    0.59889E-09        -0.74506E-20         0.00000E+00
    0.59889E-09         0.18626E-20         0.00000E+00
    0.59889E-09         0.18626E-20         0.00000E+00
    0.59889E-09         0.18626E-20         0.00000E+00
    0.59889E-09        -0.55879E-20         0.00000E+00
    0.59889E-09        -0.14901E-19         0.00000E+00
    0.59889E-09        -0.10957E-19         0.00000E+00
    0.59889E-09        -0.16764E-19         0.00000E+00
    0.59889E-09        -0.18626E-19         0.00000E+00
    0.59889E-09        -0.55879E-20         0.00000E+00
    0.59889E-09        -0.37253E-20         0.00000E+00
    0.59889E-09        -0.13039E-19         0.00000E+00
    0.59889E-09        -0.76698E-20         0.00000E+00
    0.59889E-09         0.37253E-20         0.00000E+00
    0.59889E-09        -0.16434E-20         0.00000E+00
    0.59889E-09        -0.93132E-20         0.00000E+00
    0.59889E-09        -0.74506E-20         0.00000E+00
    0.59889E-09         0.37253E-20         0.00000E+00
    0.59889E-09         0.18626E-19         0.00000E+00
    0.59889E-09         0.13039E-19         0.00000E+00
    0.59889E-09         0.18626E-20         0.00000E+00
    0.59889E-09        -0.37253E-20         0.00000E+00
    0.59889E-09        -0.11176E-19         0.00000E+00
    0.59889E-09         0.00000E+00         0.00000E+00
    0.59889E-09         0.74506E-20         0.00000E+00
    0.59889E-09         0.74506E-20         0.00000E+00
    0.59889E-09         0.74506E-20         0.00000E+00
    0.59889E-09         0.93132E-20         0.00000E+00
    0.59889E-09         0.18626E-19         0.00000E+00
    0.59889E-09         0.74506E-20         0.00000E+00
    0.59889E-09        -0.18626E-20         0.00000E+00
    0.59889E-09         0.18626E-20         0.00000E+00
    0.59889E-09        -0.93132E-20         0.00000E+00
    0.59889E-09        -0.13039E-19         0.00000E+00
    0.59889E-09        -0.74506E-20         0.00000E+00
    0.59889E-09        -0.74506E-20         0.00000E+00
    0.59889E-09        -0.76698E-20         0.00000E+00
    0.59889E-09        -0.74506E-20         0.00000E+00
    0.59889E-09         0.39445E-20         0.00000E+00
    0.59889E-09         0.11176E-19         0.00000E+00
    0.59889E-09         0.12819E-19         0.00000E+00
    0.59889E-09         0.16764E-19         0.00000E+00
    0.59889E-09         0.58071E-20         0.00000E+00
    0.59889E-09        -0.18626E-20         0.00000E+00
    0.59889E-09         0.00000E+00         0.00000E+00
    0.71928E-09        -0.41611E-21         0.00000E+00
    0.71928E-09        -0.20707E-20         0.00000E+00
    0.71928E-09        -0.93132E-20         0.00000E+00
    0.71928E-09        -0.12830E-19         0.00000E+00
    0.71928E-09         0.37253E-20         0.00000E+00
    0.71928E-09         0.16764E-19         0.00000E+00
    0.71928E-09         0.74506E-20         0.00000E+00
    0.71928E-09         0.53799E-20         0.00000E+00
    0.71928E-09         0.76586E-20         0.00000E+00
    0.71928E-09         0.95213E-20         0.00000E+00
    0.71928E-09         0.74506E-20         0.00000E+00
    0.71928E-09        -0.57960E-20         0.00000E+00
    0.71928E-09        -0.37253E-20         0.00000E+00
    0.71928E-09         0.39333E-20         0.00000E+00
    0.71928E-09        -0.37253E-20         0.00000E+00
    0.71928E-09        -0.95213E-20         0.00000E+00
    0.71928E-09        -0.74506E-20         0.00000E+00
    0.71928E-09        -0.74506E-20         0.00000E+00
    0.71928E-09        -0.15109E-19         0.00000E+00
    0.71928E-09        -0.22144E-19         0.00000E+00
    0.71928E-09        -0.14693E-19         0.00000E+00
    0.71928E-09        -0.55879E-20         0.00000E+00
    0.71928E-09         0.00000E+00         0.00000E+00
    0.71928E-09        -0.74506E-20         0.00000E+00
    0.71928E-09        -0.14901E-19         0.00000E+00
    0.71928E-09        -0.93132E-20         0.00000E+00
    0.71928E-09        -0.37253E-20         0.00000E+00
    0.71928E-09         0.55879E-20         0.00000E+00
    0.71928E-09         0.18418E-19         0.00000E+00
    0.71928E-09         0.18626E-19         0.00000E+00
    0.71928E-09         0.37253E-20         0.00000E+00
    0.71928E-09        -0.74506E-20         0.00000E+00
    0.71928E-09        -0.74506E-20         0.00000E+00
    0.71928E-09         0.18626E-20         0.00000E+00
    0.71928E-09         0.15109E-19         0.00000E+00
    0.71928E-09         0.16556E-19         0.00000E+00
    0.71928E-09         0.10968E-19         0.00000E+00
    0.71928E-09         0.93132E-20         0.00000E+00
    0.71928E-09         0.39333E-20         0.00000E+00
    0.71928E-09        -0.14693E-19         0.00000E+00
    0.71928E-09        -0.20489E-19         0.00000E+00
    0.71928E-09        -0.11176E-19         0.00000E+00
    0.71928E-09         0.00000E+00         0.00000E+00
    0.71928E-09         0.16764E-19         0.00000E+00
    0.71928E-09         0.18626E-19         0.00000E+00
    0.71928E-09         0.91052E-20         0.00000E+00
    0.71928E-09         0.55879E-20         0.00000E+00
    0.71928E-09         0.11176E-19         0.00000E+00
    0.71928E-09         0.12830E-19         0.00000E+00
    0.71928E-09         0.95213E-20         0.00000E+00
    0.71928E-09         0.78667E-20         0.00000E+00
    0.86319E-09         0.38935E-21         0.00000E+00
    0.86319E-09         0.18626E-20         0.00000E+00
    0.86319E-09         0.16680E-20         0.00000E+00
    0.86319E-09        -0.16680E-20         0.00000E+00
    0.86319E-09         0.37253E-20         0.00000E+00
    0.86319E-09         0.12844E-19         0.00000E+00
    0.86319E-09         0.16764E-19         0.00000E+00
    0.86319E-09         0.13039E-19         0.00000E+00
    0.86319E-09         0.76453E-20         0.00000E+00
    0.86319E-09         0.13233E-19         0.00000E+00
    0.86319E-09         0.16680E-20         0.00000E+00
    0.86319E-09        -0.18626E-20         0.00000E+00
    0.86319E-09        -0.51609E-33         0.00000E+00
    0.86319E-09        -0.14901E-19         0.00000E+00
    0.86319E-09        -0.35306E-20         0.00000E+00
    0.86319E-09        -0.18626E-20         0.00000E+00
    0.86319E-09        -0.55879E-20         0.00000E+00
    0.86319E-09         0.16680E-20         0.00000E+00
    0.86319E-09        -0.19467E-21         0.00000E+00
    0.86319E-09        -0.18626E-20         0.00000E+00
    0.86319E-09        -0.16680E-20         0.00000E+00
    0.86319E-09         0.57826E-20         0.00000E+00
    0.86319E-09         0.18626E-20         0.00000E+00
    0.86319E-09        -0.74506E-20         0.00000E+00
    0.86319E-09        -0.11371E-19         0.00000E+00
    0.86319E-09        -0.93132E-20         0.00000E+00
    0.86319E-09        -0.72559E-20         0.00000E+00
    0.86319E-09        -0.18626E-20         0.00000E+00
    0.86319E-09         0.18626E-20         0.00000E+00
    0.86319E-09         0.74506E-20         0.00000E+00
    0.86319E-09         0.14901E-19         0.00000E+00
    0.86319E-09         0.55879E-20         0.00000E+00
    0.86319E-09        -0.18626E-20         0.00000E+00
    0.86319E-09        -0.20573E-20         0.00000E+00
    0.86319E-09        -0.13234E-33         0.00000E+00
    0.86319E-09         0.76453E-20         0.00000E+00
    0.86319E-09         0.10981E-19         0.00000E+00
    0.86319E-09         0.74506E-20         0.00000E+00
    0.86319E-09         0.18626E-20         0.00000E+00
    0.86319E-09        -0.55879E-20         0.00000E+00
    0.86319E-09        -0.55879E-20         0.00000E+00
    0.86319E-09        -0.18626E-20         0.00000E+00
    0.86319E-09        -0.35306E-20         0.00000E+00
    0.86319E-09        -0.76453E-20         0.00000E+00
    0.86319E-09         0.00000E+00         0.00000E+00
    0.86319E-09         0.95079E-20         0.00000E+00
    0.86319E-09         0.10981E-19         0.00000E+00
    0.86319E-09         0.17695E-19         0.00000E+00
    0.86319E-09         0.17890E-19         0.00000E+00
    0.86319E-09         0.72559E-20         0.00000E+00
    0.86319E-09        -0.38935E-21         0.00000E+00
    0.10350E-08         0.00000E+00         0.00000E+00
    0.10350E-08         0.57666E-20         0.00000E+00
    0.10350E-08         0.13039E-19         0.00000E+00
    0.10350E-08         0.16585E-19         0.00000E+00
    0.10350E-08         0.16764E-19         0.00000E+00
    0.10350E-08         0.22352E-19         0.00000E+00
    0.10350E-08         0.27940E-19         0.00000E+00
    0.10350E-08         0.29981E-19         0.00000E+00
    0.10350E-08         0.31665E-19         0.00000E+00
    0.10350E-08         0.22352E-19         0.00000E+00
    0.10350E-08         0.76292E-20         0.00000E+00
    0.10350E-08         0.00000E+00         0.00000E+00
    0.10350E-08         0.18626E-20         0.00000E+00
    0.10350E-08         0.93132E-20         0.00000E+00
    0.10350E-08         0.54093E-20         0.00000E+00
    0.10350E-08        -0.13039E-19         0.00000E+00
    0.10350E-08        -0.18626E-19         0.00000E+00
    0.10350E-08        -0.16942E-19         0.00000E+00
    0.10350E-08        -0.16764E-19         0.00000E+00
    0.10350E-08        -0.13039E-19         0.00000E+00
    0.10350E-08         0.20413E-20         0.00000E+00
    0.10350E-08         0.11355E-19         0.00000E+00
    0.10350E-08         0.00000E+00         0.00000E+00
    0.10350E-08        -0.55879E-20         0.00000E+00
    0.10350E-08         0.16840E-20         0.00000E+00
    0.10350E-08         0.93132E-20         0.00000E+00
    0.10350E-08         0.13217E-19         0.00000E+00
    0.10350E-08         0.72719E-20         0.00000E+00
    0.10350E-08         0.18626E-20         0.00000E+00
    0.10350E-08         0.14901E-19         0.00000E+00
    0.10350E-08         0.20489E-19         0.00000E+00
    0.10350E-08         0.76292E-20         0.00000E+00
    0.10350E-08        -0.76292E-20         0.00000E+00
    0.10350E-08        -0.18626E-19         0.00000E+00
    0.10350E-08        -0.72719E-20         0.00000E+00
    0.10350E-08         0.16840E-20         0.00000E+00
    0.10350E-08         0.55879E-20         0.00000E+00
    0.10350E-08         0.93132E-20         0.00000E+00
    0.10350E-08        -0.17864E-21         0.00000E+00
    0.10350E-08         0.17864E-21         0.00000E+00
    0.10350E-08         0.11905E-33         0.00000E+00
    0.10350E-08        -0.17864E-21         0.00000E+00
    0.10350E-08         0.93132E-20         0.00000E+00
    0.10350E-08         0.18805E-19         0.00000E+00
    0.10350E-08         0.18805E-19         0.00000E+00
    0.10350E-08         0.93132E-20         0.00000E+00
    0.10350E-08         0.54093E-20         0.00000E+00
    0.10350E-08         0.13039E-19         0.00000E+00
    0.10350E-08         0.83819E-20         0.00000E+00
    0.10350E-08        -0.29726E-20         0.00000E+00
    0.10350E-08         0.00000E+00         0.00000E+00
    0.12400E-08         0.00000E+00         0.00000E+00
    0.12400E-08         0.00000E+00         0.00000E+00
    0.12400E-08         0.38847E-20         0.00000E+00
    0.12400E-08         0.74506E-20         0.00000E+00
    0.12400E-08         0.11016E-19         0.00000E+00
    0.12400E-08         0.14901E-19         0.00000E+00
    0.12400E-08         0.22352E-19         0.00000E+00
    0.12400E-08         0.26077E-19         0.00000E+00
    0.12400E-08         0.20489E-19         0.00000E+00
    0.12400E-08         0.16764E-19         0.00000E+00
    0.12400E-08         0.11335E-19         0.00000E+00
    0.12400E-08         0.11176E-19         0.00000E+00
    0.12400E-08         0.11016E-19         0.00000E+00
    0.12400E-08        -0.35659E-20         0.00000E+00
    0.12400E-08        -0.20489E-19         0.00000E+00
    0.12400E-08        -0.18626E-19         0.00000E+00
    0.12400E-08        -0.16604E-19         0.00000E+00
    0.12400E-08        -0.18786E-19         0.00000E+00
    0.12400E-08        -0.20221E-20         0.00000E+00
    0.12400E-08         0.37253E-20         0.00000E+00
    0.12400E-08         0.18626E-20         0.00000E+00
    0.12400E-08         0.11335E-19         0.00000E+00
    0.12400E-08         0.13198E-19         0.00000E+00
    0.12400E-08         0.55879E-20         0.00000E+00
    0.12400E-08        -0.15943E-21         0.00000E+00
    0.12400E-08         0.18626E-20         0.00000E+00
    0.12400E-08         0.20221E-20         0.00000E+00
    0.12400E-08         0.55879E-20         0.00000E+00
    0.12400E-08         0.55879E-20         0.00000E+00
    0.12400E-08         0.35659E-20         0.00000E+00
    0.12400E-08         0.91538E-20         0.00000E+00
    0.12400E-08         0.94727E-20         0.00000E+00
    0.12400E-08        -0.18626E-20         0.00000E+00
    0.12400E-08        -0.13039E-19         0.00000E+00
    0.12400E-08        -0.74506E-20         0.00000E+00
    0.12400E-08        -0.20221E-20         0.00000E+00
    0.12400E-08        -0.18626E-20         0.00000E+00
    0.12400E-08         0.20221E-20         0.00000E+00
    0.12400E-08         0.94727E-20         0.00000E+00
    0.12400E-08         0.72911E-20         0.00000E+00
    0.12400E-08        -0.15943E-21         0.00000E+00
    0.12400E-08        -0.17032E-20         0.00000E+00
    0.12400E-08         0.94727E-20         0.00000E+00
    0.12400E-08         0.31665E-19         0.00000E+00
    0.12400E-08         0.33368E-19         0.00000E+00
    0.12400E-08         0.20330E-19         0.00000E+00
    0.12400E-08         0.16764E-19         0.00000E+00
    0.12400E-08         0.11176E-19         0.00000E+00
    0.12400E-08        -0.18626E-20         0.00000E+00
    0.12400E-08         0.00000E+00         0.00000E+00
    0.12400E-08         0.74506E-20         0.00000E+00
    0.14842E-08         0.74506E-20         0.00000E+00
    0.14842E-08         0.13175E-19         0.00000E+00
    0.14842E-08         0.15038E-19         0.00000E+00
    0.14842E-08         0.35888E-20         0.00000E+00
    0.14842E-08         0.73141E-20         0.00000E+00
    0.14842E-08         0.22488E-19         0.00000E+00
    0.14842E-08         0.16900E-19         0.00000E+00
    0.14842E-08         0.35888E-20         0.00000E+00
    0.14842E-08         0.17262E-20         0.00000E+00
    0.14842E-08        -0.55879E-20         0.00000E+00
    0.14842E-08        -0.74506E-20         0.00000E+00
    0.14842E-08        -0.74506E-20         0.00000E+00
    0.14842E-08        -0.14901E-19         0.00000E+00
    0.14842E-08        -0.11176E-19         0.00000E+00
    0.14842E-08        -0.74506E-20         0.00000E+00
    0.14842E-08        -0.18626E-19         0.00000E+00
    0.14842E-08        -0.33528E-19         0.00000E+00
    0.14842E-08        -0.22352E-19         0.00000E+00
    0.14842E-08        -0.13645E-21         0.00000E+00
    0.14842E-08         0.74506E-20         0.00000E+00
    0.14842E-08         0.15038E-19         0.00000E+00
    0.14842E-08         0.18626E-19         0.00000E+00
    0.14842E-08         0.20489E-19         0.00000E+00
    0.14842E-08         0.24351E-19         0.00000E+00
    0.14842E-08         0.11176E-19         0.00000E+00
    0.14842E-08        -0.38617E-20         0.00000E+00
    0.14842E-08        -0.37253E-20         0.00000E+00
    0.14842E-08        -0.18626E-20         0.00000E+00
    0.14842E-08        -0.74506E-20         0.00000E+00
    0.14842E-08        -0.74506E-20         0.00000E+00
    0.14842E-08        -0.74506E-20         0.00000E+00
    0.14842E-08        -0.93132E-20         0.00000E+00
    0.14842E-08        -0.74506E-20         0.00000E+00
    0.14842E-08        -0.55879E-20         0.00000E+00
    0.14842E-08        -0.18626E-20         0.00000E+00
    0.14842E-08         0.17262E-20         0.00000E+00
    0.14842E-08         0.74506E-20         0.00000E+00
    0.14842E-08         0.13175E-19         0.00000E+00
    0.14842E-08         0.16764E-19         0.00000E+00
    0.14842E-08         0.14901E-19         0.00000E+00
    0.14842E-08         0.16627E-19         0.00000E+00
    0.14842E-08         0.16764E-19         0.00000E+00
    0.14842E-08         0.13311E-19         0.00000E+00
    0.14842E-08         0.22352E-19         0.00000E+00
    0.14842E-08         0.24078E-19         0.00000E+00
    0.14842E-08         0.13039E-19         0.00000E+00
    0.14842E-08         0.19991E-20         0.00000E+00
    0.14842E-08         0.65193E-20         0.00000E+00
    0.14842E-08         0.82454E-20         0.00000E+00
    0.14842E-08         0.55879E-20         0.00000E+00
    0.14842E-08         0.74506E-20         0.00000E+00
    0.17749E-08         0.37253E-20         0.00000E+00
    0.17749E-08         0.55879E-20         0.00000E+00
    0.17749E-08         0.93132E-20         0.00000E+00
    0.17749E-08         0.16873E-19         0.00000E+00
    0.17749E-08         0.22352E-19         0.00000E+00
    0.17749E-08         0.20380E-19         0.00000E+00
    0.17749E-08         0.21311E-19         0.00000E+00
    0.17749E-08         0.16764E-19         0.00000E+00
    0.17749E-08         0.14079E-19         0.00000E+00
    0.17749E-08         0.55879E-20         0.00000E+00
    0.17749E-08        -0.74506E-20         0.00000E+00
    0.17749E-08        -0.13039E-19         0.00000E+00
    0.17749E-08        -0.55879E-20         0.00000E+00
    0.17749E-08        -0.36163E-20         0.00000E+00
    0.17749E-08        -0.18626E-19         0.00000E+00
    0.17749E-08        -0.35499E-19         0.00000E+00
    0.17749E-08        -0.31665E-19         0.00000E+00
    0.17749E-08        -0.16764E-19         0.00000E+00
    0.17749E-08        -0.55879E-20         0.00000E+00
    0.17749E-08        -0.18626E-20         0.00000E+00
    0.17749E-08         0.74506E-20         0.00000E+00
    0.17749E-08         0.24323E-19         0.00000E+00
    0.17749E-08         0.26077E-19         0.00000E+00
    0.17749E-08         0.26077E-19         0.00000E+00
    0.17749E-08         0.29802E-19         0.00000E+00
    0.17749E-08         0.20489E-19         0.00000E+00
    0.17749E-08         0.56969E-20         0.00000E+00
    0.17749E-08        -0.56969E-20         0.00000E+00
    0.17749E-08        -0.13148E-19         0.00000E+00
    0.17749E-08        -0.74506E-20         0.00000E+00
    0.17749E-08        -0.18626E-20         0.00000E+00
    0.17749E-08         0.10899E-21         0.00000E+00
    0.17749E-08        -0.36163E-20         0.00000E+00
    0.17749E-08        -0.18735E-19         0.00000E+00
    0.17749E-08        -0.18735E-19         0.00000E+00
    0.17749E-08        -0.13039E-19         0.00000E+00
    0.17749E-08        -0.13039E-19         0.00000E+00
    0.17749E-08        -0.55879E-20         0.00000E+00
    0.17749E-08         0.37253E-20         0.00000E+00
    0.17749E-08         0.55879E-20         0.00000E+00
    0.17749E-08         0.37253E-20         0.00000E+00
    0.17749E-08         0.11176E-19         0.00000E+00
    0.17749E-08         0.24105E-19         0.00000E+00
    0.17749E-08         0.28049E-19         0.00000E+00
    0.17749E-08         0.20598E-19         0.00000E+00
    0.17749E-08         0.14792E-19         0.00000E+00
    0.17749E-08         0.12216E-19         0.00000E+00
    0.17749E-08         0.12107E-19         0.00000E+00
    0.17749E-08         0.92042E-20         0.00000E+00
    0.17749E-08         0.55879E-20         0.00000E+00
    0.17749E-08         0.37253E-20         0.00000E+00
    0.21203E-08         0.00000E+00         0.00000E+00
    0.21203E-08         0.00000E+00         0.00000E+00
    0.21203E-08         0.55879E-20         0.00000E+00
    0.21203E-08         0.55879E-20         0.00000E+00
    0.21203E-08         0.11176E-19         0.00000E+00
    0.21203E-08         0.29802E-19         0.00000E+00
    0.21203E-08         0.33528E-19         0.00000E+00
    0.21203E-08         0.23207E-19         0.00000E+00
    0.21203E-08         0.16764E-19         0.00000E+00
    0.21203E-08         0.12260E-19         0.00000E+00
    0.21203E-08         0.19388E-20         0.00000E+00
    0.21203E-08        -0.76190E-22         0.00000E+00
    0.21203E-08         0.36491E-20         0.00000E+00
    0.21203E-08         0.55879E-20         0.00000E+00
    0.21203E-08        -0.74506E-20         0.00000E+00
    0.21203E-08        -0.13039E-19         0.00000E+00
    0.21203E-08        -0.22352E-19         0.00000E+00
    0.21203E-08        -0.22352E-19         0.00000E+00
    0.21203E-08        -0.37253E-20         0.00000E+00
    0.21203E-08         0.93132E-20         0.00000E+00
    0.21203E-08         0.93132E-20         0.00000E+00
    0.21203E-08         0.74506E-20         0.00000E+00
    0.21203E-08         0.14901E-19         0.00000E+00
    0.21203E-08         0.13039E-19         0.00000E+00
    0.21203E-08         0.73744E-20         0.00000E+00
    0.21203E-08         0.93132E-20         0.00000E+00
    0.21203E-08         0.75268E-20         0.00000E+00
    0.21203E-08         0.55879E-20         0.00000E+00
    0.21203E-08         0.18626E-20         0.00000E+00
    0.21203E-08         0.18626E-20         0.00000E+00
    0.21203E-08         0.00000E+00         0.00000E+00
    0.21203E-08        -0.73744E-20         0.00000E+00
    0.21203E-08        -0.24214E-19         0.00000E+00
    0.21203E-08        -0.37329E-19         0.00000E+00
    0.21203E-08        -0.35390E-19         0.00000E+00
    0.21203E-08        -0.27940E-19         0.00000E+00
    0.21203E-08        -0.93132E-20         0.00000E+00
    0.21203E-08         0.00000E+00         0.00000E+00
    0.21203E-08        -0.55879E-20         0.00000E+00
    0.21203E-08        -0.74506E-20         0.00000E+00
    0.21203E-08         0.18626E-20         0.00000E+00
    0.21203E-08         0.11100E-19         0.00000E+00
    0.21203E-08         0.14901E-19         0.00000E+00
    0.21203E-08         0.14977E-19         0.00000E+00
    0.21203E-08         0.13039E-19         0.00000E+00
    0.21203E-08         0.74506E-20         0.00000E+00
    0.21203E-08         0.55879E-20         0.00000E+00
    0.21203E-08         0.74506E-20         0.00000E+00
    0.21203E-08         0.55879E-20         0.00000E+00
    0.21203E-08         0.36491E-20         0.00000E+00
    0.21203E-08         0.35729E-20         0.00000E+00
    0.25305E-08         0.74506E-20         0.00000E+00
    0.25305E-08         0.74506E-20         0.00000E+00
    0.25305E-08         0.37253E-20         0.00000E+00
    0.25305E-08        -0.37253E-20         0.00000E+00
    0.25305E-08         0.74135E-20         0.00000E+00
    0.25305E-08         0.26077E-19         0.00000E+00
    0.25305E-08         0.29839E-19         0.00000E+00
    0.25305E-08         0.27977E-19         0.00000E+00
    0.25305E-08         0.21420E-19         0.00000E+00
    0.25305E-08         0.13039E-19         0.00000E+00
    0.25305E-08         0.13039E-19         0.00000E+00
    0.25305E-08         0.12070E-19         0.00000E+00
    0.25305E-08         0.14901E-19         0.00000E+00
    0.25305E-08         0.13039E-19         0.00000E+00
    0.25305E-08         0.37253E-20         0.00000E+00
    0.25305E-08        -0.84190E-20         0.00000E+00
    0.25305E-08        -0.13039E-19         0.00000E+00
    0.25305E-08        -0.74506E-20         0.00000E+00
    0.25305E-08        -0.65193E-20         0.00000E+00
    0.25305E-08        -0.18256E-20         0.00000E+00
    0.25305E-08         0.18626E-20         0.00000E+00
    0.25305E-08         0.11176E-19         0.00000E+00
    0.25305E-08         0.14901E-19         0.00000E+00
    0.25305E-08         0.16764E-19         0.00000E+00
    0.25305E-08         0.16727E-19         0.00000E+00
    0.25305E-08         0.11213E-19         0.00000E+00
    0.25305E-08        -0.55509E-20         0.00000E+00
    0.25305E-08        -0.74876E-20         0.00000E+00
    0.25305E-08        -0.74506E-20         0.00000E+00
    0.25305E-08        -0.93132E-20         0.00000E+00
    0.25305E-08        -0.37253E-20         0.00000E+00
    0.25305E-08        -0.74506E-20         0.00000E+00
    0.25305E-08        -0.16764E-19         0.00000E+00
    0.25305E-08        -0.20526E-19         0.00000E+00
    0.25305E-08        -0.24214E-19         0.00000E+00
    0.25305E-08        -0.29765E-19         0.00000E+00
    0.25305E-08        -0.27940E-19         0.00000E+00
    0.25305E-08        -0.22352E-19         0.00000E+00
    0.25305E-08        -0.18626E-19         0.00000E+00
    0.25305E-08        -0.18626E-19         0.00000E+00
    0.25305E-08        -0.13039E-19         0.00000E+00
    0.25305E-08         0.00000E+00         0.00000E+00
    0.25305E-08         0.11176E-19         0.00000E+00
    0.25305E-08         0.14864E-19         0.00000E+00
    0.25305E-08         0.93132E-20         0.00000E+00
    0.25305E-08         0.37994E-20         0.00000E+00
    0.25305E-08         0.27940E-20         0.00000E+00
    0.25305E-08        -0.37624E-20         0.00000E+00
    0.25305E-08        -0.37253E-20         0.00000E+00
    0.25305E-08         0.18256E-20         0.00000E+00
    0.25305E-08         0.73764E-20         0.00000E+00
    0.30167E-08         0.37253E-20         0.00000E+00
    0.30167E-08         0.74506E-20         0.00000E+00
    0.30167E-08         0.93228E-20         0.00000E+00
    0.30167E-08         0.11185E-19         0.00000E+00
    0.30167E-08         0.22352E-19         0.00000E+00
    0.30167E-08         0.31665E-19         0.00000E+00
    0.30167E-08         0.29793E-19         0.00000E+00
    0.30167E-08         0.23264E-19         0.00000E+00
    0.30167E-08         0.26999E-19         0.00000E+00
    0.30167E-08         0.22361E-19         0.00000E+00
    0.30167E-08         0.14911E-19         0.00000E+00
    0.30167E-08         0.18626E-19         0.00000E+00
    0.30167E-08         0.22352E-19         0.00000E+00
    0.30167E-08         0.19548E-19         0.00000E+00
    0.30167E-08         0.46566E-20         0.00000E+00
    0.30167E-08        -0.37157E-20         0.00000E+00
    0.30167E-08        -0.93132E-20         0.00000E+00
    0.30167E-08        -0.74410E-20         0.00000E+00
    0.30167E-08         0.18626E-20         0.00000E+00
    0.30167E-08        -0.95485E-23         0.00000E+00
    0.30167E-08        -0.74506E-20         0.00000E+00
    0.30167E-08        -0.37253E-20         0.00000E+00
    0.30167E-08         0.55975E-20         0.00000E+00
    0.30167E-08         0.74506E-20         0.00000E+00
    0.30167E-08         0.11176E-19         0.00000E+00
    0.30167E-08         0.10235E-19         0.00000E+00
    0.30167E-08         0.65097E-20         0.00000E+00
    0.30167E-08         0.56070E-20         0.00000E+00
    0.30167E-08        -0.11176E-19         0.00000E+00
    0.30167E-08        -0.11185E-19         0.00000E+00
    0.30167E-08        -0.37253E-20         0.00000E+00
    0.30167E-08        -0.74506E-20         0.00000E+00
    0.30167E-08        -0.18626E-19         0.00000E+00
    0.30167E-08        -0.37253E-19         0.00000E+00
    0.30167E-08        -0.42841E-19         0.00000E+00
    0.30167E-08        -0.33528E-19         0.00000E+00
    0.30167E-08        -0.22352E-19         0.00000E+00
    0.30167E-08        -0.22352E-19         0.00000E+00
    0.30167E-08        -0.27940E-19         0.00000E+00
    0.30167E-08        -0.26077E-19         0.00000E+00
    0.30167E-08        -0.11176E-19         0.00000E+00
    0.30167E-08         0.37157E-20         0.00000E+00
    0.30167E-08         0.13039E-19         0.00000E+00
    0.30167E-08         0.16773E-19         0.00000E+00
    0.30167E-08         0.13048E-19         0.00000E+00
    0.30167E-08         0.74601E-20         0.00000E+00
    0.30167E-08         0.18626E-20         0.00000E+00
    0.30167E-08         0.37157E-20         0.00000E+00
    0.30167E-08         0.74410E-20         0.00000E+00
    0.30167E-08         0.18722E-20         0.00000E+00
    0.30167E-08        -0.37062E-20         0.00000E+00
    0.35922E-08         0.57180E-20         0.00000E+00
    0.35922E-08         0.46566E-20         0.00000E+00
    0.35922E-08         0.92482E-20         0.00000E+00
    0.35922E-08         0.74506E-20         0.00000E+00
    0.35922E-08         0.11241E-19         0.00000E+00
    0.35922E-08         0.36322E-19         0.00000E+00
    0.35922E-08         0.51158E-19         0.00000E+00
    0.35922E-08         0.44703E-19         0.00000E+00
    0.35922E-08         0.33593E-19         0.00000E+00
    0.35922E-08         0.27940E-19         0.00000E+00
    0.35922E-08         0.21420E-19         0.00000E+00
    0.35922E-08         0.17695E-19         0.00000E+00
    0.35922E-08         0.18561E-19         0.00000E+00
    0.35922E-08         0.11176E-19         0.00000E+00
    0.35922E-08        -0.74506E-20         0.00000E+00
    0.35922E-08        -0.93132E-20         0.00000E+00
    0.35922E-08        -0.37253E-20         0.00000E+00
    0.35922E-08        -0.74506E-20         0.00000E+00
    0.35922E-08        -0.73856E-20         0.00000E+00
    0.35922E-08        -0.55879E-20         0.00000E+00
    0.35922E-08        -0.65030E-22         0.00000E+00
    0.35922E-08         0.37253E-20         0.00000E+00
    0.35922E-08         0.00000E+00         0.00000E+00
    0.35922E-08         0.36603E-20         0.00000E+00
    0.35922E-08         0.84469E-20         0.00000E+00
    0.35922E-08         0.93132E-20         0.00000E+00
    0.35922E-08         0.73856E-20         0.00000E+00
    0.35922E-08         0.99635E-21         0.00000E+00
    0.35922E-08        -0.74506E-20         0.00000E+00
    0.35922E-08        -0.74506E-20         0.00000E+00
    0.35922E-08        -0.37253E-20         0.00000E+00
    0.35922E-08        -0.13039E-19         0.00000E+00
    0.35922E-08        -0.26077E-19         0.00000E+00
    0.35922E-08        -0.31665E-19         0.00000E+00
    0.35922E-08        -0.29802E-19         0.00000E+00
    0.35922E-08        -0.23218E-19         0.00000E+00
    0.35922E-08        -0.20489E-19         0.00000E+00
    0.35922E-08        -0.21485E-19         0.00000E+00
    0.35922E-08        -0.22287E-19         0.00000E+00
    0.35922E-08        -0.24214E-19         0.00000E+00
    0.35922E-08        -0.13039E-19         0.00000E+00
    0.35922E-08         0.37253E-20         0.00000E+00
    0.35922E-08         0.14836E-19         0.00000E+00
    0.35922E-08         0.16764E-19         0.00000E+00
    0.35922E-08         0.13104E-19         0.00000E+00
    0.35922E-08         0.74506E-20         0.00000E+00
    0.35922E-08        -0.19277E-20         0.00000E+00
    0.35922E-08        -0.55879E-20         0.00000E+00
    0.35922E-08        -0.45916E-20         0.00000E+00
    0.35922E-08        -0.86629E-21         0.00000E+00
    0.35922E-08         0.74506E-20         0.00000E+00
    0.42726E-08         0.00000E+00         0.00000E+00
    0.42726E-08         0.00000E+00         0.00000E+00
    0.42726E-08         0.75816E-20         0.00000E+00
    0.42726E-08         0.13169E-19         0.00000E+00
    0.42726E-08         0.20489E-19         0.00000E+00
    0.42726E-08         0.39916E-19         0.00000E+00
    0.42726E-08         0.46566E-19         0.00000E+00
    0.42726E-08         0.40978E-19         0.00000E+00
    0.42726E-08         0.26877E-19         0.00000E+00
    0.42726E-08         0.14901E-19         0.00000E+00
    0.42726E-08         0.93132E-20         0.00000E+00
    0.42726E-08         0.18626E-19         0.00000E+00
    0.42726E-08         0.22352E-19         0.00000E+00
    0.42726E-08         0.16764E-19         0.00000E+00
    0.42726E-08         0.37253E-20         0.00000E+00
    0.42726E-08         0.00000E+00         0.00000E+00
    0.42726E-08        -0.37253E-20         0.00000E+00
    0.42726E-08        -0.11976E-19         0.00000E+00
    0.42726E-08        -0.82509E-20         0.00000E+00
    0.42726E-08        -0.10376E-19         0.00000E+00
    0.42726E-08        -0.11176E-19         0.00000E+00
    0.42726E-08         0.10623E-20         0.00000E+00
    0.42726E-08         0.55879E-20         0.00000E+00
    0.42726E-08         0.25320E-20         0.00000E+00
    0.42726E-08         0.18626E-20         0.00000E+00
    0.42726E-08         0.29250E-20         0.00000E+00
    0.42726E-08         0.18626E-20         0.00000E+00
    0.42726E-08         0.57189E-20         0.00000E+00
    0.42726E-08        -0.13098E-21         0.00000E+00
    0.42726E-08        -0.19936E-20         0.00000E+00
    0.42726E-08        -0.37253E-20         0.00000E+00
    0.42726E-08        -0.11176E-19         0.00000E+00
    0.42726E-08        -0.24214E-19         0.00000E+00
    0.42726E-08        -0.39116E-19         0.00000E+00
    0.42726E-08        -0.33528E-19         0.00000E+00
    0.42726E-08        -0.25015E-19         0.00000E+00
    0.42726E-08        -0.18626E-19         0.00000E+00
    0.42726E-08        -0.12238E-19         0.00000E+00
    0.42726E-08        -0.13039E-19         0.00000E+00
    0.42726E-08        -0.16764E-19         0.00000E+00
    0.42726E-08        -0.74506E-20         0.00000E+00
    0.42726E-08         0.55879E-20         0.00000E+00
    0.42726E-08         0.11307E-19         0.00000E+00
    0.42726E-08         0.13970E-19         0.00000E+00
    0.42726E-08         0.65193E-20         0.00000E+00
    0.42726E-08        -0.73196E-20         0.00000E+00
    0.42726E-08        -0.74506E-20         0.00000E+00
    0.42726E-08        -0.13098E-21         0.00000E+00
    0.42726E-08        -0.19936E-20         0.00000E+00
    0.42726E-08        -0.35943E-20         0.00000E+00
    0.42726E-08         0.26197E-21         0.00000E+00
    0.50755E-08         0.74506E-20         0.00000E+00
    0.50755E-08         0.67285E-20         0.00000E+00
    0.50755E-08         0.93132E-20         0.00000E+00
    0.50755E-08         0.15623E-19         0.00000E+00
    0.50755E-08         0.23492E-19         0.00000E+00
    0.50755E-08         0.30943E-19         0.00000E+00
    0.50755E-08         0.37975E-19         0.00000E+00
    0.50755E-08         0.35390E-19         0.00000E+00
    0.50755E-08         0.38394E-19         0.00000E+00
    0.50755E-08         0.32387E-19         0.00000E+00
    0.50755E-08         0.13039E-19         0.00000E+00
    0.50755E-08         0.85912E-20         0.00000E+00
    0.50755E-08         0.13761E-19         0.00000E+00
    0.50755E-08         0.15623E-19         0.00000E+00
    0.50755E-08         0.14901E-19         0.00000E+00
    0.50755E-08         0.76599E-20         0.00000E+00
    0.50755E-08         0.39346E-20         0.00000E+00
    0.50755E-08         0.00000E+00         0.00000E+00
    0.50755E-08         0.37253E-20         0.00000E+00
    0.50755E-08         0.35160E-20         0.00000E+00
    0.50755E-08         0.00000E+00         0.00000E+00
    0.50755E-08        -0.18626E-20         0.00000E+00
    0.50755E-08        -0.55879E-20         0.00000E+00
    0.50755E-08         0.39346E-20         0.00000E+00
    0.50755E-08         0.18626E-20         0.00000E+00
    0.50755E-08         0.37253E-20         0.00000E+00
    0.50755E-08         0.74506E-20         0.00000E+00
    0.50755E-08        -0.55879E-20         0.00000E+00
    0.50755E-08        -0.14901E-19         0.00000E+00
    0.50755E-08        -0.13248E-19         0.00000E+00
    0.50755E-08        -0.11176E-19         0.00000E+00
    0.50755E-08        -0.16764E-19         0.00000E+00
    0.50755E-08        -0.16764E-19         0.00000E+00
    0.50755E-08        -0.20280E-19         0.00000E+00
    0.50755E-08        -0.28149E-19         0.00000E+00
    0.50755E-08        -0.28871E-19         0.00000E+00
    0.50755E-08        -0.20489E-19         0.00000E+00
    0.50755E-08        -0.13039E-19         0.00000E+00
    0.50755E-08        -0.81726E-20         0.00000E+00
    0.50755E-08        -0.13248E-19         0.00000E+00
    0.50755E-08        -0.11176E-19         0.00000E+00
    0.50755E-08         0.20719E-20         0.00000E+00
    0.50755E-08         0.63100E-20         0.00000E+00
    0.50755E-08         0.81726E-20         0.00000E+00
    0.50755E-08         0.30033E-20         0.00000E+00
    0.50755E-08         0.93132E-21         0.00000E+00
    0.50755E-08         0.72204E-21         0.00000E+00
    0.50755E-08         0.11406E-20         0.00000E+00
    0.50755E-08         0.18626E-20         0.00000E+00
    0.50755E-08        -0.13354E-34         0.00000E+00
    0.50755E-08         0.97318E-20         0.00000E+00
    0.60215E-08         0.13643E-19         0.00000E+00
    0.60215E-08         0.13970E-19         0.00000E+00
    0.60215E-08         0.16462E-19         0.00000E+00
    0.60215E-08         0.11478E-19         0.00000E+00
    0.60215E-08         0.15203E-19         0.00000E+00
    0.60215E-08         0.27940E-19         0.00000E+00
    0.60215E-08         0.29500E-19         0.00000E+00
    0.60215E-08         0.30734E-19         0.00000E+00
    0.60215E-08         0.23283E-19         0.00000E+00
    0.60215E-08         0.10874E-19         0.00000E+00
    0.60215E-08         0.13039E-19         0.00000E+00
    0.60215E-08         0.18929E-19         0.00000E+00
    0.60215E-08         0.28242E-19         0.00000E+00
    0.60215E-08         0.29500E-19         0.00000E+00
    0.60215E-08         0.16462E-19         0.00000E+00
    0.60215E-08         0.96154E-20         0.00000E+00
    0.60215E-08         0.77527E-20         0.00000E+00
    0.60215E-08         0.37253E-20         0.00000E+00
    0.60215E-08         0.74506E-20         0.00000E+00
    0.60215E-08         0.14901E-19         0.00000E+00
    0.60215E-08         0.74506E-20         0.00000E+00
    0.60215E-08         0.11176E-19         0.00000E+00
    0.60215E-08         0.16764E-19         0.00000E+00
    0.60215E-08         0.34232E-20         0.00000E+00
    0.60215E-08         0.18626E-20         0.00000E+00
    0.60215E-08        -0.18626E-20         0.00000E+00
    0.60215E-08        -0.13039E-19         0.00000E+00
    0.60215E-08        -0.12736E-19         0.00000E+00
    0.60215E-08        -0.20489E-19         0.00000E+00
    0.60215E-08        -0.24517E-19         0.00000E+00
    0.60215E-08        -0.25146E-19         0.00000E+00
    0.60215E-08        -0.22352E-19         0.00000E+00
    0.60215E-08        -0.23283E-19         0.00000E+00
    0.60215E-08        -0.31363E-19         0.00000E+00
    0.60215E-08        -0.31665E-19         0.00000E+00
    0.60215E-08        -0.20489E-19         0.00000E+00
    0.60215E-08        -0.11176E-19         0.00000E+00
    0.60215E-08        -0.93132E-20         0.00000E+00
    0.60215E-08        -0.12409E-19         0.00000E+00
    0.60215E-08        -0.16135E-19         0.00000E+00
    0.60215E-08        -0.18626E-20         0.00000E+00
    0.60215E-08         0.12409E-19         0.00000E+00
    0.60215E-08         0.15832E-19         0.00000E+00
    0.60215E-08         0.14599E-19         0.00000E+00
    0.60215E-08         0.12409E-19         0.00000E+00
    0.60215E-08         0.14272E-19         0.00000E+00
    0.60215E-08         0.80798E-20         0.00000E+00
    0.60215E-08         0.80798E-20         0.00000E+00
    0.60215E-08         0.49587E-20         0.00000E+00
    0.60215E-08         0.12334E-20         0.00000E+00
    0.60215E-08         0.74506E-20         0.00000E+00
    0.71340E-08         0.66265E-20         0.00000E+00
    0.71340E-08         0.16352E-19         0.00000E+00
    0.71340E-08         0.22764E-19         0.00000E+00
    0.71340E-08         0.15313E-19         0.00000E+00
    0.71340E-08         0.22352E-19         0.00000E+00
    0.71340E-08         0.40978E-19         0.00000E+00
    0.71340E-08         0.41497E-19         0.00000E+00
    0.71340E-08         0.30734E-19         0.00000E+00
    0.71340E-08         0.30214E-19         0.00000E+00
    0.71340E-08         0.26596E-19         0.00000E+00
    0.71340E-08         0.17283E-19         0.00000E+00
    0.71340E-08         0.22352E-19         0.00000E+00
    0.71340E-08         0.27420E-19         0.00000E+00
    0.71340E-08         0.19558E-19         0.00000E+00
    0.71340E-08         0.13970E-19         0.00000E+00
    0.71340E-08         0.14382E-19         0.00000E+00
    0.71340E-08         0.13558E-19         0.00000E+00
    0.71340E-08         0.10245E-19         0.00000E+00
    0.71340E-08         0.97253E-20         0.00000E+00
    0.71340E-08         0.55879E-20         0.00000E+00
    0.71340E-08         0.55879E-20         0.00000E+00
    0.71340E-08         0.55879E-20         0.00000E+00
    0.71340E-08         0.93132E-20         0.00000E+00
    0.71340E-08         0.14489E-19         0.00000E+00
    0.71340E-08         0.10245E-19         0.00000E+00
    0.71340E-08         0.69313E-20         0.00000E+00
    0.71340E-08         0.55879E-20         0.00000E+00
    0.71340E-08        -0.37253E-20         0.00000E+00
    0.71340E-08        -0.11176E-19         0.00000E+00
    0.71340E-08        -0.13039E-19         0.00000E+00
    0.71340E-08        -0.14901E-19         0.00000E+00
    0.71340E-08        -0.21832E-19         0.00000E+00
    0.71340E-08        -0.24214E-19         0.00000E+00
    0.71340E-08        -0.27008E-19         0.00000E+00
    0.71340E-08        -0.31665E-19         0.00000E+00
    0.71340E-08        -0.36841E-19         0.00000E+00
    0.71340E-08        -0.25558E-19         0.00000E+00
    0.71340E-08        -0.16245E-19         0.00000E+00
    0.71340E-08        -0.74506E-20         0.00000E+00
    0.71340E-08        -0.11176E-19         0.00000E+00
    0.71340E-08        -0.13558E-19         0.00000E+00
    0.71340E-08         0.50687E-20         0.00000E+00
    0.71340E-08         0.18626E-19         0.00000E+00
    0.71340E-08         0.18626E-19         0.00000E+00
    0.71340E-08         0.74506E-20         0.00000E+00
    0.71340E-08         0.18626E-20         0.00000E+00
    0.71340E-08         0.00000E+00         0.00000E+00
    0.71340E-08        -0.50687E-20         0.00000E+00
    0.71340E-08        -0.50687E-20         0.00000E+00
    0.71340E-08         0.41373E-20         0.00000E+00
    0.71340E-08         0.82747E-20         0.00000E+00
    0.84398E-08         0.00000E+00         0.00000E+00
    0.84398E-08         0.74506E-20         0.00000E+00
    0.84398E-08         0.14359E-19         0.00000E+00
    0.84398E-08         0.93132E-20         0.00000E+00
    0.84398E-08         0.11718E-19         0.00000E+00
    0.84398E-08         0.29802E-19         0.00000E+00
    0.84398E-08         0.39116E-19         0.00000E+00
    0.84398E-08         0.27940E-19         0.00000E+00
    0.84398E-08         0.20489E-19         0.00000E+00
    0.84398E-08         0.24214E-19         0.00000E+00
    0.84398E-08         0.33528E-19         0.00000E+00
    0.84398E-08         0.34848E-19         0.00000E+00
    0.84398E-08         0.29260E-19         0.00000E+00
    0.84398E-08         0.22352E-19         0.00000E+00
    0.84398E-08         0.42673E-20         0.00000E+00
    0.84398E-08        -0.69086E-20         0.00000E+00
    0.84398E-08        -0.55879E-20         0.00000E+00
    0.84398E-08         0.37253E-20         0.00000E+00
    0.84398E-08         0.20489E-19         0.00000E+00
    0.84398E-08         0.16764E-19         0.00000E+00
    0.84398E-08         0.37253E-20         0.00000E+00
    0.84398E-08         0.37253E-20         0.00000E+00
    0.84398E-08         0.74506E-20         0.00000E+00
    0.84398E-08         0.13039E-19         0.00000E+00
    0.84398E-08         0.13039E-19         0.00000E+00
    0.84398E-08         0.55879E-20         0.00000E+00
    0.84398E-08         0.00000E+00         0.00000E+00
    0.84398E-08        -0.74506E-20         0.00000E+00
    0.84398E-08        -0.24214E-19         0.00000E+00
    0.84398E-08        -0.24214E-19         0.00000E+00
    0.84398E-08        -0.14901E-19         0.00000E+00
    0.84398E-08        -0.14512E-19         0.00000E+00
    0.84398E-08        -0.19558E-19         0.00000E+00
    0.84398E-08        -0.31123E-19         0.00000E+00
    0.84398E-08        -0.33528E-19         0.00000E+00
    0.84398E-08        -0.22352E-19         0.00000E+00
    0.84398E-08        -0.11176E-19         0.00000E+00
    0.84398E-08        -0.37253E-20         0.00000E+00
    0.84398E-08        -0.74506E-20         0.00000E+00
    0.84398E-08        -0.61299E-20         0.00000E+00
    0.84398E-08         0.37253E-20         0.00000E+00
    0.84398E-08         0.93132E-20         0.00000E+00
    0.84398E-08         0.10634E-19         0.00000E+00
    0.84398E-08         0.93132E-20         0.00000E+00
    0.84398E-08         0.79926E-20         0.00000E+00
    0.84398E-08         0.42673E-20         0.00000E+00
    0.84398E-08        -0.42673E-20         0.00000E+00
    0.84398E-08         0.46566E-20         0.00000E+00
    0.84398E-08         0.70613E-20         0.00000E+00
    0.84398E-08         0.24046E-20         0.00000E+00
    0.84398E-08         0.48093E-20         0.00000E+00
    0.99695E-08         0.11176E-19         0.00000E+00
    0.99695E-08         0.13039E-19         0.00000E+00
    0.99695E-08         0.13039E-19         0.00000E+00
    0.99695E-08         0.13039E-19         0.00000E+00
    0.99695E-08         0.22352E-19         0.00000E+00
    0.99695E-08         0.34695E-19         0.00000E+00
    0.99695E-08         0.42841E-19         0.00000E+00
    0.99695E-08         0.37253E-19         0.00000E+00
    0.99695E-08         0.22352E-19         0.00000E+00
    0.99695E-08         0.10009E-19         0.00000E+00
    0.99695E-08         0.37253E-20         0.00000E+00
    0.99695E-08         0.13039E-19         0.00000E+00
    0.99695E-08         0.26077E-19         0.00000E+00
    0.99695E-08         0.21656E-19         0.00000E+00
    0.99695E-08         0.14901E-19         0.00000E+00
    0.99695E-08         0.15597E-19         0.00000E+00
    0.99695E-08         0.14206E-19         0.00000E+00
    0.99695E-08         0.65193E-20         0.00000E+00
    0.99695E-08        -0.76865E-20         0.00000E+00
    0.99695E-08        -0.37253E-20         0.00000E+00
    0.99695E-08         0.00000E+00         0.00000E+00
    0.99695E-08        -0.18626E-20         0.00000E+00
    0.99695E-08         0.37253E-20         0.00000E+00
    0.99695E-08         0.93132E-20         0.00000E+00
    0.99695E-08         0.11176E-19         0.00000E+00
    0.99695E-08         0.86178E-20         0.00000E+00
    0.99695E-08         0.46566E-20         0.00000E+00
    0.99695E-08         0.16267E-20         0.00000E+00
    0.99695E-08        -0.74506E-20         0.00000E+00
    0.99695E-08        -0.18626E-19         0.00000E+00
    0.99695E-08        -0.22352E-19         0.00000E+00
    0.99695E-08        -0.18626E-19         0.00000E+00
    0.99695E-08        -0.20489E-19         0.00000E+00
    0.99695E-08        -0.27940E-19         0.00000E+00
    0.99695E-08        -0.24214E-19         0.00000E+00
    0.99695E-08        -0.24214E-19         0.00000E+00
    0.99695E-08        -0.22352E-19         0.00000E+00
    0.99695E-08        -0.16764E-19         0.00000E+00
    0.99695E-08        -0.11176E-19         0.00000E+00
    0.99695E-08        -0.74506E-20         0.00000E+00
    0.99695E-08        -0.44207E-20         0.00000E+00
    0.99695E-08         0.67552E-20         0.00000E+00
    0.99695E-08         0.15597E-19         0.00000E+00
    0.99695E-08         0.16764E-19         0.00000E+00
    0.99695E-08         0.74506E-20         0.00000E+00
    0.99695E-08        -0.55879E-20         0.00000E+00
    0.99695E-08        -0.27940E-20         0.00000E+00
    0.99695E-08         0.72147E-20         0.00000E+00
    0.99695E-08         0.55879E-20         0.00000E+00
    0.99695E-08         0.25580E-20         0.00000E+00
    0.99695E-08         0.13908E-20         0.00000E+00
    0.11758E-07         0.38356E-20         0.00000E+00
    0.11758E-07         0.74506E-20         0.00000E+00
    0.11758E-07         0.11121E-19         0.00000E+00
    0.11758E-07         0.93132E-20         0.00000E+00
    0.11758E-07         0.14901E-19         0.00000E+00
    0.11758E-07         0.27940E-19         0.00000E+00
    0.11758E-07         0.29802E-19         0.00000E+00
    0.11758E-07         0.24214E-19         0.00000E+00
    0.11758E-07         0.24214E-19         0.00000E+00
    0.11758E-07         0.22352E-19         0.00000E+00
    0.11758E-07         0.20489E-19         0.00000E+00
    0.11758E-07         0.22352E-19         0.00000E+00
    0.11758E-07         0.18626E-19         0.00000E+00
    0.11758E-07         0.18626E-19         0.00000E+00
    0.11758E-07         0.13039E-19         0.00000E+00
    0.11758E-07         0.00000E+00         0.00000E+00
    0.11758E-07        -0.37253E-20         0.00000E+00
    0.11758E-07        -0.55879E-20         0.00000E+00
    0.11758E-07         0.18626E-20         0.00000E+00
    0.11758E-07         0.37253E-20         0.00000E+00
    0.11758E-07         0.37253E-20         0.00000E+00
    0.11758E-07         0.93132E-20         0.00000E+00
    0.11758E-07         0.13039E-19         0.00000E+00
    0.11758E-07         0.18682E-19         0.00000E+00
    0.11758E-07         0.93132E-20         0.00000E+00
    0.11758E-07         0.00000E+00         0.00000E+00
    0.11758E-07        -0.93132E-21         0.00000E+00
    0.11758E-07         0.87617E-21         0.00000E+00
    0.11758E-07        -0.55879E-20         0.00000E+00
    0.11758E-07        -0.13039E-19         0.00000E+00
    0.11758E-07        -0.74506E-20         0.00000E+00
    0.11758E-07        -0.12052E-19         0.00000E+00
    0.11758E-07        -0.25146E-19         0.00000E+00
    0.11758E-07        -0.29857E-19         0.00000E+00
    0.11758E-07        -0.35390E-19         0.00000E+00
    0.11758E-07        -0.31665E-19         0.00000E+00
    0.11758E-07        -0.18626E-19         0.00000E+00
    0.11758E-07        -0.13039E-19         0.00000E+00
    0.11758E-07        -0.18626E-19         0.00000E+00
    0.11758E-07        -0.22352E-19         0.00000E+00
    0.11758E-07        -0.11176E-19         0.00000E+00
    0.11758E-07         0.55879E-20         0.00000E+00
    0.11758E-07         0.14901E-19         0.00000E+00
    0.11758E-07         0.11176E-19         0.00000E+00
    0.11758E-07         0.55879E-20         0.00000E+00
    0.11758E-07         0.37804E-20         0.00000E+00
    0.11758E-07        -0.18626E-20         0.00000E+00
    0.11758E-07        -0.28491E-20         0.00000E+00
    0.11758E-07         0.37253E-20         0.00000E+00
    0.11758E-07         0.55328E-20         0.00000E+00
    0.11758E-07         0.36150E-20         0.00000E+00
    0.13843E-07         0.37253E-20         0.00000E+00
    0.13843E-07         0.11018E-19         0.00000E+00
    0.13843E-07         0.14901E-19         0.00000E+00
    0.13843E-07         0.11176E-19         0.00000E+00
    0.13843E-07         0.14901E-19         0.00000E+00
    0.13843E-07         0.26235E-19         0.00000E+00
    0.13843E-07         0.33528E-19         0.00000E+00
    0.13843E-07         0.31665E-19         0.00000E+00
    0.13843E-07         0.29802E-19         0.00000E+00
    0.13843E-07         0.24214E-19         0.00000E+00
    0.13843E-07         0.22352E-19         0.00000E+00
    0.13843E-07         0.24057E-19         0.00000E+00
    0.13843E-07         0.31822E-19         0.00000E+00
    0.13843E-07         0.28097E-19         0.00000E+00
    0.13843E-07         0.35678E-20         0.00000E+00
    0.13843E-07        -0.55879E-20         0.00000E+00
    0.13843E-07        -0.18626E-20         0.00000E+00
    0.13843E-07        -0.18626E-20         0.00000E+00
    0.13843E-07         0.93132E-20         0.00000E+00
    0.13843E-07         0.18626E-19         0.00000E+00
    0.13843E-07         0.11176E-19         0.00000E+00
    0.13843E-07         0.18626E-20         0.00000E+00
    0.13843E-07         0.00000E+00         0.00000E+00
    0.13843E-07        -0.15751E-21         0.00000E+00
    0.13843E-07         0.74506E-20         0.00000E+00
    0.13843E-07         0.11176E-19         0.00000E+00
    0.13843E-07         0.55879E-20         0.00000E+00
    0.13843E-07        -0.17051E-20         0.00000E+00
    0.13843E-07        -0.16764E-19         0.00000E+00
    0.13843E-07        -0.18626E-19         0.00000E+00
    0.13843E-07        -0.11176E-19         0.00000E+00
    0.13843E-07        -0.11176E-19         0.00000E+00
    0.13843E-07        -0.20489E-19         0.00000E+00
    0.13843E-07        -0.33528E-19         0.00000E+00
    0.13843E-07        -0.29802E-19         0.00000E+00
    0.13843E-07        -0.23126E-19         0.00000E+00
    0.13843E-07        -0.22352E-19         0.00000E+00
    0.13843E-07        -0.14127E-19         0.00000E+00
    0.13843E-07        -0.13039E-19         0.00000E+00
    0.13843E-07        -0.13039E-19         0.00000E+00
    0.13843E-07        -0.48141E-20         0.00000E+00
    0.13843E-07         0.83819E-20         0.00000E+00
    0.13843E-07         0.94707E-20         0.00000E+00
    0.13843E-07         0.72931E-20         0.00000E+00
    0.13843E-07        -0.65193E-20         0.00000E+00
    0.13843E-07        -0.11950E-19         0.00000E+00
    0.13843E-07        -0.11018E-19         0.00000E+00
    0.13843E-07        -0.15751E-21         0.00000E+00
    0.13843E-07        -0.31090E-20         0.00000E+00
    0.13843E-07        -0.61631E-21         0.00000E+00
    0.13843E-07         0.24927E-20         0.00000E+00
    0.16268E-07         0.11176E-19         0.00000E+00
    0.16268E-07         0.93132E-20         0.00000E+00
    0.16268E-07         0.97204E-20         0.00000E+00
    0.16268E-07         0.16764E-19         0.00000E+00
    0.16268E-07         0.25670E-19         0.00000E+00
    0.16268E-07         0.35390E-19         0.00000E+00
    0.16268E-07         0.42434E-19         0.00000E+00
    0.16268E-07         0.41910E-19         0.00000E+00
    0.16268E-07         0.40454E-19         0.00000E+00
    0.16268E-07         0.31665E-19         0.00000E+00
    0.16268E-07         0.27940E-19         0.00000E+00
    0.16268E-07         0.35390E-19         0.00000E+00
    0.16268E-07         0.31665E-19         0.00000E+00
    0.16268E-07         0.24738E-19         0.00000E+00
    0.16268E-07         0.20489E-19         0.00000E+00
    0.16268E-07         0.65193E-20         0.00000E+00
    0.16268E-07         0.74506E-20         0.00000E+00
    0.16268E-07         0.40721E-21         0.00000E+00
    0.16268E-07         0.18626E-20         0.00000E+00
    0.16268E-07         0.37253E-20         0.00000E+00
    0.16268E-07        -0.18626E-20         0.00000E+00
    0.16268E-07         0.37253E-20         0.00000E+00
    0.16268E-07         0.13039E-19         0.00000E+00
    0.16268E-07         0.18626E-19         0.00000E+00
    0.16268E-07         0.13039E-19         0.00000E+00
    0.16268E-07         0.55879E-20         0.00000E+00
    0.16268E-07         0.00000E+00         0.00000E+00
    0.16268E-07        -0.13039E-19         0.00000E+00
    0.16268E-07        -0.24214E-19         0.00000E+00
    0.16268E-07        -0.18626E-19         0.00000E+00
    0.16268E-07        -0.11176E-19         0.00000E+00
    0.16268E-07        -0.14901E-19         0.00000E+00
    0.16268E-07        -0.24214E-19         0.00000E+00
    0.16268E-07        -0.26077E-19         0.00000E+00
    0.16268E-07        -0.24214E-19         0.00000E+00
    0.16268E-07        -0.18626E-19         0.00000E+00
    0.16268E-07        -0.10652E-19         0.00000E+00
    0.16268E-07        -0.14377E-19         0.00000E+00
    0.16268E-07        -0.19151E-19         0.00000E+00
    0.16268E-07        -0.21013E-19         0.00000E+00
    0.16268E-07        -0.16764E-19         0.00000E+00
    0.16268E-07         0.18626E-20         0.00000E+00
    0.16268E-07         0.20489E-19         0.00000E+00
    0.16268E-07         0.13039E-19         0.00000E+00
    0.16268E-07        -0.55879E-20         0.00000E+00
    0.16268E-07        -0.13039E-19         0.00000E+00
    0.16268E-07        -0.14901E-19         0.00000E+00
    0.16268E-07        -0.37253E-20         0.00000E+00
    0.16268E-07         0.37253E-20         0.00000E+00
    0.16268E-07         0.32012E-20         0.00000E+00
    0.16268E-07         0.10128E-19         0.00000E+00
    0.19082E-07         0.37253E-20         0.00000E+00
    0.19082E-07         0.55879E-20         0.00000E+00
    0.19082E-07         0.11628E-20         0.00000E+00
    0.19082E-07         0.00000E+00         0.00000E+00
    0.19082E-07         0.13738E-19         0.00000E+00
    0.19082E-07         0.31665E-19         0.00000E+00
    0.19082E-07         0.40978E-19         0.00000E+00
    0.19082E-07         0.29802E-19         0.00000E+00
    0.19082E-07         0.26309E-19         0.00000E+00
    0.19082E-07         0.38184E-19         0.00000E+00
    0.19082E-07         0.39815E-19         0.00000E+00
    0.19082E-07         0.34227E-19         0.00000E+00
    0.19082E-07         0.30734E-19         0.00000E+00
    0.19082E-07         0.30034E-19         0.00000E+00
    0.19082E-07         0.20489E-19         0.00000E+00
    0.19082E-07         0.13039E-19         0.00000E+00
    0.19082E-07         0.55879E-20         0.00000E+00
    0.19082E-07         0.18626E-20         0.00000E+00
    0.19082E-07         0.93132E-20         0.00000E+00
    0.19082E-07         0.14901E-19         0.00000E+00
    0.19082E-07         0.37253E-20         0.00000E+00
    0.19082E-07         0.37253E-20         0.00000E+00
    0.19082E-07         0.93132E-20         0.00000E+00
    0.19082E-07         0.11176E-19         0.00000E+00
    0.19082E-07         0.14901E-19         0.00000E+00
    0.19082E-07         0.11176E-19         0.00000E+00
    0.19082E-07         0.00000E+00         0.00000E+00
    0.19082E-07        -0.93132E-20         0.00000E+00
    0.19082E-07        -0.14901E-19         0.00000E+00
    0.19082E-07        -0.16764E-19         0.00000E+00
    0.19082E-07        -0.18626E-19         0.00000E+00
    0.19082E-07        -0.14901E-19         0.00000E+00
    0.19082E-07        -0.16764E-19         0.00000E+00
    0.19082E-07        -0.27240E-19         0.00000E+00
    0.19082E-07        -0.31665E-19         0.00000E+00
    0.19082E-07        -0.34227E-19         0.00000E+00
    0.19082E-07        -0.26077E-19         0.00000E+00
    0.19082E-07        -0.16764E-19         0.00000E+00
    0.19082E-07        -0.13039E-19         0.00000E+00
    0.19082E-07        -0.11176E-19         0.00000E+00
    0.19082E-07        -0.37253E-20         0.00000E+00
    0.19082E-07         0.37253E-20         0.00000E+00
    0.19082E-07         0.30254E-20         0.00000E+00
    0.19082E-07         0.11176E-19         0.00000E+00
    0.19082E-07         0.13738E-19         0.00000E+00
    0.19082E-07         0.37253E-20         0.00000E+00
    0.19082E-07        -0.44251E-20         0.00000E+00
    0.19082E-07        -0.10245E-19         0.00000E+00
    0.19082E-07        -0.11407E-19         0.00000E+00
    0.19082E-07        -0.11628E-20         0.00000E+00
    0.19082E-07         0.51250E-20         0.00000E+00
    0.22337E-07         0.37253E-20         0.00000E+00
    0.22337E-07         0.74506E-20         0.00000E+00
    0.22337E-07         0.11176E-19         0.00000E+00
    0.22337E-07         0.93132E-20         0.00000E+00
    0.22337E-07         0.20489E-19         0.00000E+00
    0.22337E-07         0.44703E-19         0.00000E+00
    0.22337E-07         0.53196E-19         0.00000E+00
    0.22337E-07         0.46566E-19         0.00000E+00
    0.22337E-07         0.38073E-19         0.00000E+00
    0.22337E-07         0.27940E-19         0.00000E+00
    0.22337E-07         0.26077E-19         0.00000E+00
    0.22337E-07         0.26077E-19         0.00000E+00
    0.22337E-07         0.22352E-19         0.00000E+00
    0.22337E-07         0.21310E-19         0.00000E+00
    0.22337E-07         0.16764E-19         0.00000E+00
    0.22337E-07         0.10355E-19         0.00000E+00
    0.22337E-07         0.93132E-20         0.00000E+00
    0.22337E-07         0.55879E-20         0.00000E+00
    0.22337E-07         0.74506E-20         0.00000E+00
    0.22337E-07         0.13039E-19         0.00000E+00
    0.22337E-07         0.11176E-19         0.00000E+00
    0.22337E-07         0.74506E-20         0.00000E+00
    0.22337E-07         0.11176E-19         0.00000E+00
    0.22337E-07         0.14901E-19         0.00000E+00
    0.22337E-07         0.74506E-20         0.00000E+00
    0.22337E-07         0.55879E-20         0.00000E+00
    0.22337E-07         0.18626E-20         0.00000E+00
    0.22337E-07        -0.74506E-20         0.00000E+00
    0.22337E-07        -0.18626E-19         0.00000E+00
    0.22337E-07        -0.22352E-19         0.00000E+00
    0.22337E-07        -0.18626E-19         0.00000E+00
    0.22337E-07        -0.22352E-19         0.00000E+00
    0.22337E-07        -0.33528E-19         0.00000E+00
    0.22337E-07        -0.40978E-19         0.00000E+00
    0.22337E-07        -0.37253E-19         0.00000E+00
    0.22337E-07        -0.26077E-19         0.00000E+00
    0.22337E-07        -0.14901E-19         0.00000E+00
    0.22337E-07        -0.13039E-19         0.00000E+00
    0.22337E-07        -0.13039E-19         0.00000E+00
    0.22337E-07        -0.13039E-19         0.00000E+00
    0.22337E-07        -0.11176E-19         0.00000E+00
    0.22337E-07         0.55879E-20         0.00000E+00
    0.22337E-07         0.19669E-19         0.00000E+00
    0.22337E-07         0.14901E-19         0.00000E+00
    0.22337E-07         0.82711E-20         0.00000E+00
    0.22337E-07         0.64085E-20         0.00000E+00
    0.22337E-07         0.10245E-19         0.00000E+00
    0.22337E-07         0.18737E-19         0.00000E+00
    0.22337E-07         0.93132E-20         0.00000E+00
    0.22337E-07        -0.82056E-21         0.00000E+00
    0.22337E-07        -0.16411E-20         0.00000E+00
    0.26091E-07         0.11176E-19         0.00000E+00
    0.26091E-07         0.13039E-19         0.00000E+00
    0.26091E-07         0.16764E-19         0.00000E+00
    0.26091E-07         0.20489E-19         0.00000E+00
    0.26091E-07         0.30312E-19         0.00000E+00
    0.26091E-07         0.41910E-19         0.00000E+00
    0.26091E-07         0.45125E-19         0.00000E+00
    0.26091E-07         0.40557E-19         0.00000E+00
    0.26091E-07         0.33528E-19         0.00000E+00
    0.26091E-07         0.24636E-19         0.00000E+00
    0.26091E-07         0.20489E-19         0.00000E+00
    0.26091E-07         0.26077E-19         0.00000E+00
    0.26091E-07         0.29802E-19         0.00000E+00
    0.26091E-07         0.26077E-19         0.00000E+00
    0.26091E-07         0.18626E-19         0.00000E+00
    0.26091E-07         0.13039E-19         0.00000E+00
    0.26091E-07         0.11176E-19         0.00000E+00
    0.26091E-07         0.55879E-20         0.00000E+00
    0.26091E-07         0.11176E-19         0.00000E+00
    0.26091E-07         0.14901E-19         0.00000E+00
    0.26091E-07         0.13039E-19         0.00000E+00
    0.26091E-07         0.13039E-19         0.00000E+00
    0.26091E-07         0.74506E-20         0.00000E+00
    0.26091E-07         0.74506E-20         0.00000E+00
    0.26091E-07         0.55879E-20         0.00000E+00
    0.26091E-07         0.18626E-20         0.00000E+00
    0.26091E-07        -0.18626E-20         0.00000E+00
    0.26091E-07        -0.11176E-19         0.00000E+00
    0.26091E-07        -0.22352E-19         0.00000E+00
    0.26091E-07        -0.22352E-19         0.00000E+00
    0.26091E-07        -0.22352E-19         0.00000E+00
    0.26091E-07        -0.27940E-19         0.00000E+00
    0.26091E-07        -0.27940E-19         0.00000E+00
    0.26091E-07        -0.24214E-19         0.00000E+00
    0.26091E-07        -0.24214E-19         0.00000E+00
    0.26091E-07        -0.25567E-19         0.00000E+00
    0.26091E-07        -0.14901E-19         0.00000E+00
    0.26091E-07        -0.60980E-20         0.00000E+00
    0.26091E-07        -0.32152E-20         0.00000E+00
    0.26091E-07        -0.65193E-20         0.00000E+00
    0.26091E-07        -0.33041E-20         0.00000E+00
    0.26091E-07         0.51009E-21         0.00000E+00
    0.26091E-07         0.23727E-20         0.00000E+00
    0.26091E-07         0.97345E-20         0.00000E+00
    0.26091E-07         0.15322E-19         0.00000E+00
    0.26091E-07         0.79607E-20         0.00000E+00
    0.26091E-07        -0.46566E-20         0.00000E+00
    0.26091E-07        -0.33041E-20         0.00000E+00
    0.26091E-07        -0.41465E-20         0.00000E+00
    0.26091E-07        -0.41465E-20         0.00000E+00
    0.26091E-07         0.74506E-20         0.00000E+00
    0.30406E-07         0.19499E-20         0.00000E+00
    0.30406E-07         0.74506E-20         0.00000E+00
    0.30406E-07         0.13926E-19         0.00000E+00
    0.30406E-07         0.15789E-19         0.00000E+00
    0.30406E-07         0.27983E-19         0.00000E+00
    0.30406E-07         0.43859E-19         0.00000E+00
    0.30406E-07         0.47454E-19         0.00000E+00
    0.30406E-07         0.43729E-19         0.00000E+00
    0.30406E-07         0.40978E-19         0.00000E+00
    0.30406E-07         0.31665E-19         0.00000E+00
    0.30406E-07         0.26077E-19         0.00000E+00
    0.30406E-07         0.27940E-19         0.00000E+00
    0.30406E-07         0.29802E-19         0.00000E+00
    0.30406E-07         0.27940E-19         0.00000E+00
    0.30406E-07         0.19514E-19         0.00000E+00
    0.30406E-07         0.13082E-19         0.00000E+00
    0.30406E-07         0.66065E-20         0.00000E+00
    0.30406E-07         0.18626E-20         0.00000E+00
    0.30406E-07         0.64756E-20         0.00000E+00
    0.30406E-07         0.83383E-20         0.00000E+00
    0.30406E-07         0.55879E-20         0.00000E+00
    0.30406E-07         0.18626E-20         0.00000E+00
    0.30406E-07         0.18626E-20         0.00000E+00
    0.30406E-07         0.74506E-20         0.00000E+00
    0.30406E-07         0.74506E-20         0.00000E+00
    0.30406E-07         0.37253E-20         0.00000E+00
    0.30406E-07        -0.74506E-20         0.00000E+00
    0.30406E-07        -0.11176E-19         0.00000E+00
    0.30406E-07        -0.20489E-19         0.00000E+00
    0.30406E-07        -0.26077E-19         0.00000E+00
    0.30406E-07        -0.16764E-19         0.00000E+00
    0.30406E-07        -0.11176E-19         0.00000E+00
    0.30406E-07        -0.16764E-19         0.00000E+00
    0.30406E-07        -0.31665E-19         0.00000E+00
    0.30406E-07        -0.29802E-19         0.00000E+00
    0.30406E-07        -0.20445E-19         0.00000E+00
    0.30406E-07        -0.14858E-19         0.00000E+00
    0.30406E-07        -0.16764E-19         0.00000E+00
    0.30406E-07        -0.12151E-19         0.00000E+00
    0.30406E-07        -0.10245E-19         0.00000E+00
    0.30406E-07        -0.13039E-19         0.00000E+00
    0.30406E-07        -0.74942E-20         0.00000E+00
    0.30406E-07         0.18626E-20         0.00000E+00
    0.30406E-07         0.55879E-20         0.00000E+00
    0.30406E-07        -0.18190E-20         0.00000E+00
    0.30406E-07        -0.10245E-19         0.00000E+00
    0.30406E-07        -0.93132E-21         0.00000E+00
    0.30406E-07         0.19063E-20         0.00000E+00
    0.30406E-07        -0.56752E-20         0.00000E+00
    0.30406E-07        -0.65193E-20         0.00000E+00
    0.30406E-07        -0.12864E-19         0.00000E+00
    0.35346E-07         0.11176E-19         0.00000E+00
    0.35346E-07         0.13039E-19         0.00000E+00
    0.35346E-07         0.13622E-19         0.00000E+00
    0.35346E-07         0.15485E-19         0.00000E+00
    0.35346E-07         0.24214E-19         0.00000E+00
    0.35346E-07         0.32944E-19         0.00000E+00
    0.35346E-07         0.40395E-19         0.00000E+00
    0.35346E-07         0.40978E-19         0.00000E+00
    0.35346E-07         0.40978E-19         0.00000E+00
    0.35346E-07         0.37253E-19         0.00000E+00
    0.35346E-07         0.27940E-19         0.00000E+00
    0.35346E-07         0.33528E-19         0.00000E+00
    0.35346E-07         0.37836E-19         0.00000E+00
    0.35346E-07         0.34459E-19         0.00000E+00
    0.35346E-07         0.27704E-19         0.00000E+00
    0.35346E-07         0.65193E-20         0.00000E+00
    0.35346E-07        -0.34795E-21         0.00000E+00
    0.35346E-07         0.74506E-20         0.00000E+00
    0.35346E-07         0.58337E-21         0.00000E+00
    0.35346E-07        -0.93132E-20         0.00000E+00
    0.35346E-07        -0.98966E-20         0.00000E+00
    0.35346E-07        -0.55879E-20         0.00000E+00
    0.35346E-07        -0.18626E-20         0.00000E+00
    0.35346E-07         0.93132E-20         0.00000E+00
    0.35346E-07         0.14901E-19         0.00000E+00
    0.35346E-07         0.93132E-20         0.00000E+00
    0.35346E-07         0.37253E-20         0.00000E+00
    0.35346E-07        -0.55879E-20         0.00000E+00
    0.35346E-07        -0.18626E-19         0.00000E+00
    0.35346E-07        -0.27940E-19         0.00000E+00
    0.35346E-07        -0.22352E-19         0.00000E+00
    0.35346E-07        -0.16764E-19         0.00000E+00
    0.35346E-07        -0.27940E-19         0.00000E+00
    0.35346E-07        -0.31665E-19         0.00000E+00
    0.35346E-07        -0.26077E-19         0.00000E+00
    0.35346E-07        -0.24214E-19         0.00000E+00
    0.35346E-07        -0.22352E-19         0.00000E+00
    0.35346E-07        -0.16764E-19         0.00000E+00
    0.35346E-07        -0.20489E-19         0.00000E+00
    0.35346E-07        -0.25494E-19         0.00000E+00
    0.35346E-07        -0.12455E-19         0.00000E+00
    0.35346E-07        -0.58337E-21         0.00000E+00
    0.35346E-07         0.31419E-20         0.00000E+00
    0.35346E-07         0.15147E-20         0.00000E+00
    0.35346E-07        -0.22106E-20         0.00000E+00
    0.35346E-07        -0.55879E-20         0.00000E+00
    0.35346E-07        -0.12691E-19         0.00000E+00
    0.35346E-07        -0.89653E-20         0.00000E+00
    0.35346E-07        -0.74506E-20         0.00000E+00
    0.35346E-07        -0.34795E-21         0.00000E+00
    0.35346E-07         0.10480E-19         0.00000E+00
    0.40981E-07         0.24167E-20         0.00000E+00
    0.40981E-07         0.37253E-20         0.00000E+00
    0.40981E-07         0.43796E-20         0.00000E+00
    0.40981E-07         0.93132E-20         0.00000E+00
    0.40981E-07         0.17972E-19         0.00000E+00
    0.40981E-07         0.31665E-19         0.00000E+00
    0.40981E-07         0.44703E-19         0.00000E+00
    0.40981E-07         0.39116E-19         0.00000E+00
    0.40981E-07         0.24869E-19         0.00000E+00
    0.40981E-07         0.18626E-19         0.00000E+00
    0.40981E-07         0.25423E-19         0.00000E+00
    0.40981E-07         0.27285E-19         0.00000E+00
    0.40981E-07         0.26731E-19         0.00000E+00
    0.40981E-07         0.19281E-19         0.00000E+00
    0.40981E-07         0.55879E-20         0.00000E+00
    0.40981E-07         0.74506E-20         0.00000E+00
    0.40981E-07         0.74506E-20         0.00000E+00
    0.40981E-07         0.37253E-20         0.00000E+00
    0.40981E-07         0.67963E-20         0.00000E+00
    0.40981E-07         0.74506E-20         0.00000E+00
    0.40981E-07         0.25169E-20         0.00000E+00
    0.40981E-07        -0.18626E-20         0.00000E+00
    0.40981E-07         0.37253E-20         0.00000E+00
    0.40981E-07         0.13039E-19         0.00000E+00
    0.40981E-07         0.14901E-19         0.00000E+00
    0.40981E-07         0.11176E-19         0.00000E+00
    0.40981E-07         0.37253E-20         0.00000E+00
    0.40981E-07        -0.55879E-20         0.00000E+00
    0.40981E-07        -0.24214E-19         0.00000E+00
    0.40981E-07        -0.20489E-19         0.00000E+00
    0.40981E-07        -0.11830E-19         0.00000E+00
    0.40981E-07        -0.20489E-19         0.00000E+00
    0.40981E-07        -0.27285E-19         0.00000E+00
    0.40981E-07        -0.34182E-19         0.00000E+00
    0.40981E-07        -0.33528E-19         0.00000E+00
    0.40981E-07        -0.35390E-19         0.00000E+00
    0.40981E-07        -0.33528E-19         0.00000E+00
    0.40981E-07        -0.29148E-19         0.00000E+00
    0.40981E-07        -0.24214E-19         0.00000E+00
    0.40981E-07        -0.17418E-19         0.00000E+00
    0.40981E-07        -0.15555E-19         0.00000E+00
    0.40981E-07        -0.67963E-20         0.00000E+00
    0.40981E-07         0.43796E-20         0.00000E+00
    0.40981E-07         0.55879E-20         0.00000E+00
    0.40981E-07        -0.65428E-21         0.00000E+00
    0.40981E-07        -0.46566E-20         0.00000E+00
    0.40981E-07         0.74506E-20         0.00000E+00
    0.40981E-07         0.13970E-19         0.00000E+00
    0.40981E-07         0.62422E-20         0.00000E+00
    0.40981E-07         0.12084E-20         0.00000E+00
    0.40981E-07        -0.13086E-20         0.00000E+00
    0.47378E-07         0.94478E-20         0.00000E+00
    0.47378E-07         0.15900E-19         0.00000E+00
    0.47378E-07         0.14901E-19         0.00000E+00
    0.47378E-07         0.37253E-20         0.00000E+00
    0.47378E-07         0.93132E-20         0.00000E+00
    0.47378E-07         0.23216E-19         0.00000E+00
    0.47378E-07         0.27940E-19         0.00000E+00
    0.47378E-07         0.21420E-19         0.00000E+00
    0.47378E-07         0.24214E-19         0.00000E+00
    0.47378E-07         0.14901E-19         0.00000E+00
    0.47378E-07         0.12107E-19         0.00000E+00
    0.47378E-07         0.22352E-19         0.00000E+00
    0.47378E-07         0.26941E-19         0.00000E+00
    0.47378E-07         0.27940E-19         0.00000E+00
    0.47378E-07         0.20489E-19         0.00000E+00
    0.47378E-07         0.12174E-19         0.00000E+00
    0.47378E-07         0.83819E-20         0.00000E+00
    0.47378E-07         0.55879E-20         0.00000E+00
    0.47378E-07         0.37253E-20         0.00000E+00
    0.47378E-07        -0.19299E-20         0.00000E+00
    0.47378E-07         0.37253E-20         0.00000E+00
    0.47378E-07         0.93132E-20         0.00000E+00
    0.47378E-07         0.74506E-20         0.00000E+00
    0.47378E-07         0.74506E-20         0.00000E+00
    0.47378E-07         0.11176E-19         0.00000E+00
    0.47378E-07         0.74506E-20         0.00000E+00
    0.47378E-07        -0.74506E-20         0.00000E+00
    0.47378E-07        -0.20489E-19         0.00000E+00
    0.47378E-07        -0.26077E-19         0.00000E+00
    0.47378E-07        -0.26077E-19         0.00000E+00
    0.47378E-07        -0.22352E-19         0.00000E+00
    0.47378E-07        -0.18626E-19         0.00000E+00
    0.47378E-07        -0.25078E-19         0.00000E+00
    0.47378E-07        -0.39116E-19         0.00000E+00
    0.47378E-07        -0.41977E-19         0.00000E+00
    0.47378E-07        -0.29802E-19         0.00000E+00
    0.47378E-07        -0.18626E-19         0.00000E+00
    0.47378E-07        -0.92459E-20         0.00000E+00
    0.47378E-07        -0.14901E-19         0.00000E+00
    0.47378E-07        -0.25146E-19         0.00000E+00
    0.47378E-07        -0.65193E-20         0.00000E+00
    0.47378E-07         0.12107E-19         0.00000E+00
    0.47378E-07         0.19558E-19         0.00000E+00
    0.47378E-07         0.15832E-19         0.00000E+00
    0.47378E-07         0.12174E-19         0.00000E+00
    0.47378E-07         0.86402E-21         0.00000E+00
    0.47378E-07        -0.27940E-20         0.00000E+00
    0.47378E-07         0.27940E-20         0.00000E+00
    0.47378E-07         0.86402E-21         0.00000E+00
    0.47378E-07         0.28613E-20         0.00000E+00
    0.47378E-07         0.57225E-20         0.00000E+00
    0.54607E-07        -0.17955E-20         0.00000E+00
    0.54607E-07        -0.93132E-21         0.00000E+00
    0.54607E-07         0.55544E-20         0.00000E+00
    0.54607E-07         0.56215E-20         0.00000E+00
    0.54607E-07         0.93132E-20         0.00000E+00
    0.54607E-07         0.27906E-19         0.00000E+00
    0.54607E-07         0.32630E-19         0.00000E+00
    0.54607E-07         0.25179E-19         0.00000E+00
    0.54607E-07         0.27906E-19         0.00000E+00
    0.54607E-07         0.23283E-19         0.00000E+00
    0.54607E-07         0.14003E-19         0.00000E+00
    0.54607E-07         0.16730E-19         0.00000E+00
    0.54607E-07         0.15832E-19         0.00000E+00
    0.54607E-07         0.17729E-19         0.00000E+00
    0.54607E-07         0.11176E-19         0.00000E+00
    0.54607E-07         0.89775E-21         0.00000E+00
    0.54607E-07         0.37253E-20         0.00000E+00
    0.54607E-07         0.18626E-20         0.00000E+00
    0.54607E-07         0.16764E-19         0.00000E+00
    0.54607E-07         0.12141E-19         0.00000E+00
    0.54607E-07         0.37253E-20         0.00000E+00
    0.54607E-07        -0.37253E-20         0.00000E+00
    0.54607E-07        -0.55879E-20         0.00000E+00
    0.54607E-07        -0.55879E-20         0.00000E+00
    0.54607E-07        -0.74841E-20         0.00000E+00
    0.54607E-07        -0.11176E-19         0.00000E+00
    0.54607E-07        -0.16730E-19         0.00000E+00
    0.54607E-07        -0.14901E-19         0.00000E+00
    0.54607E-07        -0.22352E-19         0.00000E+00
    0.54607E-07        -0.22352E-19         0.00000E+00
    0.54607E-07        -0.14901E-19         0.00000E+00
    0.54607E-07        -0.18626E-19         0.00000E+00
    0.54607E-07        -0.22385E-19         0.00000E+00
    0.54607E-07        -0.29802E-19         0.00000E+00
    0.54607E-07        -0.30734E-19         0.00000E+00
    0.54607E-07        -0.30801E-19         0.00000E+00
    0.54607E-07        -0.29769E-19         0.00000E+00
    0.54607E-07        -0.24181E-19         0.00000E+00
    0.54607E-07        -0.14935E-19         0.00000E+00
    0.54607E-07        -0.11176E-19         0.00000E+00
    0.54607E-07        -0.18626E-20         0.00000E+00
    0.54607E-07         0.14901E-19         0.00000E+00
    0.54607E-07         0.24214E-19         0.00000E+00
    0.54607E-07         0.22352E-19         0.00000E+00
    0.54607E-07         0.16764E-19         0.00000E+00
    0.54607E-07         0.11176E-19         0.00000E+00
    0.54607E-07         0.55879E-20         0.00000E+00
    0.54607E-07         0.18626E-20         0.00000E+00
    0.54607E-07        -0.37253E-20         0.00000E+00
    0.54607E-07         0.00000E+00         0.00000E+00
    0.54607E-07         0.74506E-20         0.00000E+00
    0.62731E-07         0.11176E-19         0.00000E+00
    0.62731E-07         0.11188E-19         0.00000E+00
    0.62731E-07         0.56003E-20         0.00000E+00
    0.62731E-07         0.18626E-20         0.00000E+00
    0.62731E-07         0.14889E-19         0.00000E+00
    0.62731E-07         0.26065E-19         0.00000E+00
    0.62731E-07         0.27952E-19         0.00000E+00
    0.62731E-07         0.29802E-19         0.00000E+00
    0.62731E-07         0.20489E-19         0.00000E+00
    0.62731E-07         0.13051E-19         0.00000E+00
    0.62731E-07         0.13026E-19         0.00000E+00
    0.62731E-07         0.18626E-19         0.00000E+00
    0.62731E-07         0.20502E-19         0.00000E+00
    0.62731E-07         0.11188E-19         0.00000E+00
    0.62731E-07         0.37253E-20         0.00000E+00
    0.62731E-07         0.18378E-20         0.00000E+00
    0.62731E-07        -0.12414E-22         0.00000E+00
    0.62731E-07         0.18626E-20         0.00000E+00
    0.62731E-07        -0.12414E-22         0.00000E+00
    0.62731E-07        -0.93008E-20         0.00000E+00
    0.62731E-07        -0.93008E-20         0.00000E+00
    0.62731E-07        -0.74506E-20         0.00000E+00
    0.62731E-07        -0.74506E-20         0.00000E+00
    0.62731E-07        -0.93132E-20         0.00000E+00
    0.62731E-07        -0.74506E-20         0.00000E+00
    0.62731E-07        -0.37253E-20         0.00000E+00
    0.62731E-07        -0.74382E-20         0.00000E+00
    0.62731E-07        -0.14901E-19         0.00000E+00
    0.62731E-07        -0.22352E-19         0.00000E+00
    0.62731E-07        -0.22352E-19         0.00000E+00
    0.62731E-07        -0.22364E-19         0.00000E+00
    0.62731E-07        -0.24214E-19         0.00000E+00
    0.62731E-07        -0.27927E-19         0.00000E+00
    0.62731E-07        -0.31665E-19         0.00000E+00
    0.62731E-07        -0.29815E-19         0.00000E+00
    0.62731E-07        -0.22364E-19         0.00000E+00
    0.62731E-07        -0.11163E-19         0.00000E+00
    0.62731E-07        -0.93132E-20         0.00000E+00
    0.62731E-07        -0.13051E-19         0.00000E+00
    0.62731E-07        -0.11176E-19         0.00000E+00
    0.62731E-07         0.37377E-20         0.00000E+00
    0.62731E-07         0.10245E-19         0.00000E+00
    0.62731E-07         0.16764E-19         0.00000E+00
    0.62731E-07         0.19570E-19         0.00000E+00
    0.62731E-07         0.14889E-19         0.00000E+00
    0.62731E-07         0.74382E-20         0.00000E+00
    0.62731E-07        -0.18502E-20         0.00000E+00
    0.62731E-07        -0.18626E-20         0.00000E+00
    0.62731E-07        -0.12414E-22         0.00000E+00
    0.62731E-07        -0.28064E-20         0.00000E+00
    0.62731E-07        -0.56128E-20         0.00000E+00
    0.71806E-07         0.74506E-20         0.00000E+00
    0.71806E-07         0.91686E-20         0.00000E+00
    0.71806E-07         0.13039E-19         0.00000E+00
    0.71806E-07         0.13183E-19         0.00000E+00
    0.71806E-07         0.16764E-19         0.00000E+00
    0.71806E-07         0.27795E-19         0.00000E+00
    0.71806E-07         0.33383E-19         0.00000E+00
    0.71806E-07         0.28084E-19         0.00000E+00
    0.71806E-07         0.24359E-19         0.00000E+00
    0.71806E-07         0.16619E-19         0.00000E+00
    0.71806E-07         0.54433E-20         0.00000E+00
    0.71806E-07         0.14465E-21         0.00000E+00
    0.71806E-07         0.57326E-20         0.00000E+00
    0.71806E-07         0.16764E-19         0.00000E+00
    0.71806E-07         0.11031E-19         0.00000E+00
    0.71806E-07        -0.14465E-21         0.00000E+00
    0.71806E-07        -0.55879E-20         0.00000E+00
    0.71806E-07        -0.11963E-19         0.00000E+00
    0.71806E-07        -0.82373E-20         0.00000E+00
    0.71806E-07        -0.20073E-20         0.00000E+00
    0.71806E-07        -0.12107E-19         0.00000E+00
    0.71806E-07        -0.11963E-19         0.00000E+00
    0.71806E-07        -0.75952E-20         0.00000E+00
    0.71806E-07         0.35806E-20         0.00000E+00
    0.71806E-07         0.85265E-20         0.00000E+00
    0.71806E-07         0.18626E-20         0.00000E+00
    0.71806E-07        -0.66639E-20         0.00000E+00
    0.71806E-07        -0.74506E-20         0.00000E+00
    0.71806E-07        -0.12894E-19         0.00000E+00
    0.71806E-07        -0.15832E-19         0.00000E+00
    0.71806E-07        -0.17840E-19         0.00000E+00
    0.71806E-07        -0.16764E-19         0.00000E+00
    0.71806E-07        -0.20489E-19         0.00000E+00
    0.71806E-07        -0.31520E-19         0.00000E+00
    0.71806E-07        -0.29658E-19         0.00000E+00
    0.71806E-07        -0.24214E-19         0.00000E+00
    0.71806E-07        -0.17840E-19         0.00000E+00
    0.71806E-07        -0.14114E-19         0.00000E+00
    0.71806E-07        -0.37253E-20         0.00000E+00
    0.71806E-07        -0.91686E-20         0.00000E+00
    0.71806E-07        -0.13970E-19         0.00000E+00
    0.71806E-07         0.27940E-20         0.00000E+00
    0.71806E-07         0.38699E-20         0.00000E+00
    0.71806E-07         0.37253E-20         0.00000E+00
    0.71806E-07         0.37253E-20         0.00000E+00
    0.71806E-07         0.91686E-20         0.00000E+00
    0.71806E-07         0.18482E-19         0.00000E+00
    0.71806E-07         0.14901E-19         0.00000E+00
    0.71806E-07         0.48013E-20         0.00000E+00
    0.71806E-07         0.40146E-20         0.00000E+00
    0.71806E-07         0.21519E-20         0.00000E+00
    0.81876E-07         0.37253E-20         0.00000E+00
    0.81876E-07         0.13039E-19         0.00000E+00
    0.81876E-07         0.20037E-19         0.00000E+00
    0.81876E-07         0.14901E-19         0.00000E+00
    0.81876E-07         0.19078E-19         0.00000E+00
    0.81876E-07         0.37253E-19         0.00000E+00
    0.81876E-07         0.44703E-19         0.00000E+00
    0.81876E-07         0.33528E-19         0.00000E+00
    0.81876E-07         0.28419E-19         0.00000E+00
    0.81876E-07         0.22831E-19         0.00000E+00
    0.81876E-07         0.13491E-19         0.00000E+00
    0.81876E-07         0.12107E-19         0.00000E+00
    0.81876E-07         0.74506E-20         0.00000E+00
    0.81876E-07         0.18626E-20         0.00000E+00
    0.81876E-07        -0.88339E-20         0.00000E+00
    0.81876E-07        -0.93132E-20         0.00000E+00
    0.81876E-07        -0.88612E-20         0.00000E+00
    0.81876E-07        -0.55879E-20         0.00000E+00
    0.81876E-07        -0.23420E-20         0.00000E+00
    0.81876E-07        -0.55879E-20         0.00000E+00
    0.81876E-07        -0.18353E-20         0.00000E+00
    0.81876E-07         0.37253E-20         0.00000E+00
    0.81876E-07        -0.60673E-20         0.00000E+00
    0.81876E-07        -0.12107E-19         0.00000E+00
    0.81876E-07        -0.46566E-20         0.00000E+00
    0.81876E-07         0.43672E-33         0.00000E+00
    0.81876E-07         0.65193E-20         0.00000E+00
    0.81876E-07         0.41773E-20         0.00000E+00
    0.81876E-07        -0.37253E-20         0.00000E+00
    0.81876E-07        -0.32460E-20         0.00000E+00
    0.81876E-07        -0.32733E-20         0.00000E+00
    0.81876E-07        -0.18626E-19         0.00000E+00
    0.81876E-07        -0.22324E-19         0.00000E+00
    0.81876E-07        -0.22831E-19         0.00000E+00
    0.81876E-07        -0.28419E-19         0.00000E+00
    0.81876E-07        -0.18626E-19         0.00000E+00
    0.81876E-07        -0.93132E-20         0.00000E+00
    0.81876E-07        -0.88339E-20         0.00000E+00
    0.81876E-07        -0.15832E-19         0.00000E+00
    0.81876E-07        -0.21900E-19         0.00000E+00
    0.81876E-07        -0.11176E-19         0.00000E+00
    0.81876E-07         0.23420E-20         0.00000E+00
    0.81876E-07         0.11655E-19         0.00000E+00
    0.81876E-07         0.11149E-19         0.00000E+00
    0.81876E-07         0.23146E-20         0.00000E+00
    0.81876E-07         0.79299E-20         0.00000E+00
    0.81876E-07         0.00000E+00         0.00000E+00
    0.81876E-07        -0.37253E-20         0.00000E+00
    0.81876E-07         0.47933E-21         0.00000E+00
    0.81876E-07        -0.18626E-20         0.00000E+00
    0.81876E-07        -0.46840E-20         0.00000E+00
    0.92963E-07         0.74506E-20         0.00000E+00
    0.92963E-07         0.74506E-20         0.00000E+00
    0.92963E-07         0.55879E-20         0.00000E+00
    0.92963E-07         0.11176E-19         0.00000E+00
    0.92963E-07         0.22352E-19         0.00000E+00
    0.92963E-07         0.33528E-19         0.00000E+00
    0.92963E-07         0.46566E-19         0.00000E+00
    0.92963E-07         0.46573E-19         0.00000E+00
    0.92963E-07         0.26077E-19         0.00000E+00
    0.92963E-07         0.13031E-19         0.00000E+00
    0.92963E-07         0.65121E-20         0.00000E+00
    0.92963E-07         0.83819E-20         0.00000E+00
    0.92963E-07         0.14901E-19         0.00000E+00
    0.92963E-07         0.11183E-19         0.00000E+00
    0.92963E-07         0.56022E-20         0.00000E+00
    0.92963E-07        -0.46638E-20         0.00000E+00
    0.92963E-07        -0.74506E-20         0.00000E+00
    0.92963E-07        -0.12114E-19         0.00000E+00
    0.92963E-07        -0.16771E-19         0.00000E+00
    0.92963E-07        -0.83676E-20         0.00000E+00
    0.92963E-07        -0.10237E-19         0.00000E+00
    0.92963E-07        -0.28011E-20         0.00000E+00
    0.92963E-07         0.92417E-21         0.00000E+00
    0.92963E-07         0.00000E+00         0.00000E+00
    0.92963E-07         0.00000E+00         0.00000E+00
    0.92963E-07        -0.65121E-20         0.00000E+00
    0.92963E-07        -0.13039E-19         0.00000E+00
    0.92963E-07        -0.74506E-20         0.00000E+00
    0.92963E-07        -0.10237E-19         0.00000E+00
    0.92963E-07        -0.11176E-19         0.00000E+00
    0.92963E-07        -0.28011E-20         0.00000E+00
    0.92963E-07        -0.18626E-20         0.00000E+00
    0.92963E-07        -0.93132E-20         0.00000E+00
    0.92963E-07        -0.22352E-19         0.00000E+00
    0.92963E-07        -0.27940E-19         0.00000E+00
    0.92963E-07        -0.27016E-19         0.00000E+00
    0.92963E-07        -0.20489E-19         0.00000E+00
    0.92963E-07        -0.14908E-19         0.00000E+00
    0.92963E-07        -0.13039E-19         0.00000E+00
    0.92963E-07        -0.11169E-19         0.00000E+00
    0.92963E-07        -0.46495E-20         0.00000E+00
    0.92963E-07         0.83819E-20         0.00000E+00
    0.92963E-07         0.14901E-19         0.00000E+00
    0.92963E-07         0.13970E-19         0.00000E+00
    0.92963E-07         0.10237E-19         0.00000E+00
    0.92963E-07         0.18626E-20         0.00000E+00
    0.92963E-07         0.18626E-20         0.00000E+00
    0.92963E-07         0.37253E-20         0.00000E+00
    0.92963E-07         0.37253E-20         0.00000E+00
    0.92963E-07         0.55879E-20         0.00000E+00
    0.92963E-07         0.37253E-20         0.00000E+00
    0.10507E-06         0.37253E-20         0.00000E+00
    0.10507E-06         0.55879E-20         0.00000E+00
    0.10507E-06         0.13039E-19         0.00000E+00
    0.10507E-06         0.14901E-19         0.00000E+00
    0.10507E-06         0.18914E-19         0.00000E+00
    0.10507E-06         0.36322E-19         0.00000E+00
    0.10507E-06         0.37897E-19         0.00000E+00
    0.10507E-06         0.30089E-19         0.00000E+00
    0.10507E-06         0.21420E-19         0.00000E+00
    0.10507E-06         0.62321E-20         0.00000E+00
    0.10507E-06        -0.15755E-20         0.00000E+00
    0.10507E-06         0.64416E-21         0.00000E+00
    0.10507E-06         0.10889E-19         0.00000E+00
    0.10507E-06         0.14544E-19         0.00000E+00
    0.10507E-06         0.58751E-20         0.00000E+00
    0.10507E-06        -0.52309E-20         0.00000E+00
    0.10507E-06        -0.13039E-19         0.00000E+00
    0.10507E-06        -0.14901E-19         0.00000E+00
    0.10507E-06        -0.16407E-19         0.00000E+00
    0.10507E-06        -0.11820E-19         0.00000E+00
    0.10507E-06        -0.99574E-20         0.00000E+00
    0.10507E-06        -0.11176E-19         0.00000E+00
    0.10507E-06        -0.43695E-20         0.00000E+00
    0.10507E-06         0.30811E-20         0.00000E+00
    0.10507E-06         0.96702E-20         0.00000E+00
    0.10507E-06         0.00000E+00         0.00000E+00
    0.10507E-06        -0.80947E-20         0.00000E+00
    0.10507E-06        -0.11463E-19         0.00000E+00
    0.10507E-06        -0.18914E-19         0.00000E+00
    0.10507E-06        -0.12751E-19         0.00000E+00
    0.10507E-06        -0.10602E-19         0.00000E+00
    0.10507E-06        -0.74506E-20         0.00000E+00
    0.10507E-06        -0.52309E-20         0.00000E+00
    0.10507E-06        -0.15832E-19         0.00000E+00
    0.10507E-06        -0.22065E-19         0.00000E+00
    0.10507E-06        -0.17338E-19         0.00000E+00
    0.10507E-06        -0.14901E-19         0.00000E+00
    0.10507E-06        -0.10889E-19         0.00000E+00
    0.10507E-06        -0.37253E-20         0.00000E+00
    0.10507E-06        -0.28716E-21         0.00000E+00
    0.10507E-06         0.37253E-20         0.00000E+00
    0.10507E-06         0.77377E-20         0.00000E+00
    0.10507E-06         0.10889E-19         0.00000E+00
    0.10507E-06         0.13039E-19         0.00000E+00
    0.10507E-06         0.40124E-20         0.00000E+00
    0.10507E-06         0.15755E-20         0.00000E+00
    0.10507E-06         0.34381E-20         0.00000E+00
    0.10507E-06         0.52309E-20         0.00000E+00
    0.10507E-06         0.40124E-20         0.00000E+00
    0.10507E-06        -0.15056E-20         0.00000E+00
    0.10507E-06         0.31510E-20         0.00000E+00
    0.11814E-06         0.37253E-20         0.00000E+00
    0.11814E-06         0.74506E-20         0.00000E+00
    0.11814E-06         0.74506E-20         0.00000E+00
    0.11814E-06         0.93132E-20         0.00000E+00
    0.11814E-06         0.17138E-19         0.00000E+00
    0.11814E-06         0.24771E-19         0.00000E+00
    0.11814E-06         0.24397E-19         0.00000E+00
    0.11814E-06         0.17138E-19         0.00000E+00
    0.11814E-06         0.11550E-19         0.00000E+00
    0.11814E-06         0.13039E-19         0.00000E+00
    0.11814E-06         0.14901E-19         0.00000E+00
    0.11814E-06         0.11550E-19         0.00000E+00
    0.11814E-06         0.40999E-20         0.00000E+00
    0.11814E-06        -0.37253E-20         0.00000E+00
    0.11814E-06        -0.93132E-20         0.00000E+00
    0.11814E-06        -0.37253E-20         0.00000E+00
    0.11814E-06        -0.22372E-20         0.00000E+00
    0.11814E-06        -0.15650E-19         0.00000E+00
    0.11814E-06        -0.19001E-19         0.00000E+00
    0.11814E-06        -0.16764E-19         0.00000E+00
    0.11814E-06        -0.57701E-20         0.00000E+00
    0.11814E-06         0.13059E-20         0.00000E+00
    0.11814E-06         0.14881E-20         0.00000E+00
    0.11814E-06         0.59625E-20         0.00000E+00
    0.11814E-06         0.98700E-20         0.00000E+00
    0.11814E-06         0.80073E-20         0.00000E+00
    0.11814E-06         0.37458E-21         0.00000E+00
    0.11814E-06        -0.74506E-20         0.00000E+00
    0.11814E-06        -0.12664E-19         0.00000E+00
    0.11814E-06        -0.14527E-19         0.00000E+00
    0.11814E-06        -0.13039E-19         0.00000E+00
    0.11814E-06        -0.13039E-19         0.00000E+00
    0.11814E-06        -0.18626E-19         0.00000E+00
    0.11814E-06        -0.28314E-19         0.00000E+00
    0.11814E-06        -0.26452E-19         0.00000E+00
    0.11814E-06        -0.19001E-19         0.00000E+00
    0.11814E-06        -0.11176E-19         0.00000E+00
    0.11814E-06        -0.70760E-20         0.00000E+00
    0.11814E-06        -0.19001E-19         0.00000E+00
    0.11814E-06        -0.22726E-19         0.00000E+00
    0.11814E-06        -0.89386E-20         0.00000E+00
    0.11814E-06         0.81997E-20         0.00000E+00
    0.11814E-06         0.20489E-19         0.00000E+00
    0.11814E-06         0.16389E-19         0.00000E+00
    0.11814E-06         0.13039E-19         0.00000E+00
    0.11814E-06         0.13039E-19         0.00000E+00
    0.11814E-06         0.93132E-20         0.00000E+00
    0.11814E-06         0.37253E-20         0.00000E+00
    0.11814E-06        -0.18626E-20         0.00000E+00
    0.11814E-06        -0.40999E-20         0.00000E+00
    0.11814E-06        -0.44745E-20         0.00000E+00
    0.13211E-06         0.37253E-20         0.00000E+00
    0.13211E-06         0.74506E-20         0.00000E+00
    0.13211E-06         0.14644E-19         0.00000E+00
    0.13211E-06         0.10918E-19         0.00000E+00
    0.13211E-06         0.61030E-20         0.00000E+00
    0.13211E-06         0.15416E-19         0.00000E+00
    0.13211E-06         0.25819E-19         0.00000E+00
    0.13211E-06         0.18369E-19         0.00000E+00
    0.13211E-06         0.11176E-19         0.00000E+00
    0.13211E-06         0.53304E-20         0.00000E+00
    0.13211E-06        -0.39828E-20         0.00000E+00
    0.13211E-06         0.25755E-21         0.00000E+00
    0.13211E-06         0.15159E-19         0.00000E+00
    0.13211E-06         0.16764E-19         0.00000E+00
    0.13211E-06         0.58455E-20         0.00000E+00
    0.13211E-06        -0.55879E-20         0.00000E+00
    0.13211E-06        -0.61030E-20         0.00000E+00
    0.13211E-06        -0.21202E-20         0.00000E+00
    0.13211E-06         0.25755E-21         0.00000E+00
    0.13211E-06         0.13039E-19         0.00000E+00
    0.13211E-06         0.12781E-19         0.00000E+00
    0.13211E-06         0.00000E+00         0.00000E+00
    0.13211E-06        -0.90557E-20         0.00000E+00
    0.13211E-06        -0.69355E-20         0.00000E+00
    0.13211E-06        -0.21202E-20         0.00000E+00
    0.13211E-06        -0.11176E-19         0.00000E+00
    0.13211E-06        -0.55879E-20         0.00000E+00
    0.13211E-06        -0.39828E-20         0.00000E+00
    0.13211E-06        -0.11592E-19         0.00000E+00
    0.13211E-06        -0.15575E-19         0.00000E+00
    0.13211E-06        -0.17021E-19         0.00000E+00
    0.13211E-06        -0.20489E-19         0.00000E+00
    0.13211E-06        -0.17021E-19         0.00000E+00
    0.13211E-06        -0.22867E-19         0.00000E+00
    0.13211E-06        -0.32339E-19         0.00000E+00
    0.13211E-06        -0.23283E-19         0.00000E+00
    0.13211E-06        -0.16506E-19         0.00000E+00
    0.13211E-06        -0.16249E-19         0.00000E+00
    0.13211E-06        -0.39828E-20         0.00000E+00
    0.13211E-06        -0.42404E-20         0.00000E+00
    0.13211E-06        -0.95708E-20         0.00000E+00
    0.13211E-06         0.37253E-20         0.00000E+00
    0.13211E-06         0.10502E-19         0.00000E+00
    0.13211E-06         0.10502E-19         0.00000E+00
    0.13211E-06         0.74506E-20         0.00000E+00
    0.13211E-06         0.58455E-20         0.00000E+00
    0.13211E-06         0.46566E-20         0.00000E+00
    0.13211E-06         0.62617E-20         0.00000E+00
    0.13211E-06         0.90557E-20         0.00000E+00
    0.13211E-06         0.90557E-20         0.00000E+00
    0.13211E-06         0.74506E-20         0.00000E+00
    0.14683E-06         0.15048E-19         0.00000E+00
    0.14683E-06         0.74506E-20         0.00000E+00
    0.14683E-06         0.37253E-20         0.00000E+00
    0.14683E-06         0.18626E-20         0.00000E+00
    0.14683E-06         0.73040E-20         0.00000E+00
    0.14683E-06         0.22352E-19         0.00000E+00
    0.14683E-06         0.24288E-19         0.00000E+00
    0.14683E-06         0.20562E-19         0.00000E+00
    0.14683E-06         0.12965E-19         0.00000E+00
    0.14683E-06         0.16764E-19         0.00000E+00
    0.14683E-06         0.20562E-19         0.00000E+00
    0.14683E-06         0.14828E-19         0.00000E+00
    0.14683E-06         0.11176E-19         0.00000E+00
    0.14683E-06         0.14974E-19         0.00000E+00
    0.14683E-06         0.11103E-19         0.00000E+00
    0.14683E-06        -0.57345E-20         0.00000E+00
    0.14683E-06        -0.17160E-20         0.00000E+00
    0.14683E-06        -0.11103E-19         0.00000E+00
    0.14683E-06        -0.11176E-19         0.00000E+00
    0.14683E-06        -0.73773E-20         0.00000E+00
    0.14683E-06        -0.14974E-19         0.00000E+00
    0.14683E-06        -0.13112E-19         0.00000E+00
    0.14683E-06        -0.37253E-20         0.00000E+00
    0.14683E-06         0.36520E-20         0.00000E+00
    0.14683E-06         0.75239E-20         0.00000E+00
    0.14683E-06        -0.18626E-20         0.00000E+00
    0.14683E-06        -0.22425E-19         0.00000E+00
    0.14683E-06        -0.20416E-19         0.00000E+00
    0.14683E-06        -0.10171E-19         0.00000E+00
    0.14683E-06        -0.12180E-19         0.00000E+00
    0.14683E-06        -0.74506E-20         0.00000E+00
    0.14683E-06        -0.93132E-20         0.00000E+00
    0.14683E-06        -0.24288E-19         0.00000E+00
    0.14683E-06        -0.26077E-19         0.00000E+00
    0.14683E-06        -0.24214E-19         0.00000E+00
    0.14683E-06        -0.18480E-19         0.00000E+00
    0.14683E-06        -0.15832E-19         0.00000E+00
    0.14683E-06        -0.15832E-19         0.00000E+00
    0.14683E-06        -0.16764E-19         0.00000E+00
    0.14683E-06        -0.12107E-19         0.00000E+00
    0.14683E-06         0.46566E-20         0.00000E+00
    0.14683E-06         0.11103E-19         0.00000E+00
    0.14683E-06         0.16764E-19         0.00000E+00
    0.14683E-06         0.11176E-19         0.00000E+00
    0.14683E-06         0.73773E-20         0.00000E+00
    0.14683E-06         0.10318E-19         0.00000E+00
    0.14683E-06         0.10046E-20         0.00000E+00
    0.14683E-06        -0.47299E-20         0.00000E+00
    0.14683E-06        -0.37253E-20         0.00000E+00
    0.14683E-06         0.19359E-20         0.00000E+00
    0.14683E-06         0.11322E-19         0.00000E+00
    0.16208E-06        -0.86981E-20         0.00000E+00
    0.16208E-06         0.55879E-20         0.00000E+00
    0.16208E-06         0.93132E-20         0.00000E+00
    0.16208E-06         0.74506E-20         0.00000E+00
    0.16208E-06         0.11800E-19         0.00000E+00
    0.16208E-06         0.11800E-19         0.00000E+00
    0.16208E-06         0.14901E-19         0.00000E+00
    0.16208E-06         0.21420E-19         0.00000E+00
    0.16208E-06         0.27940E-19         0.00000E+00
    0.16208E-06         0.18626E-19         0.00000E+00
    0.16208E-06         0.46566E-20         0.00000E+00
    0.16208E-06         0.10552E-19         0.00000E+00
    0.16208E-06         0.13039E-19         0.00000E+00
    0.16208E-06         0.96208E-20         0.00000E+00
    0.16208E-06         0.40328E-20         0.00000E+00
    0.16208E-06         0.13662E-19         0.00000E+00
    0.16208E-06         0.55879E-20         0.00000E+00
    0.16208E-06        -0.12389E-20         0.00000E+00
    0.16208E-06        -0.62030E-20         0.00000E+00
    0.16208E-06        -0.14901E-19         0.00000E+00
    0.16208E-06        -0.12731E-19         0.00000E+00
    0.16208E-06        -0.10868E-19         0.00000E+00
    0.16208E-06        -0.14901E-19         0.00000E+00
    0.16208E-06        -0.23907E-19         0.00000E+00
    0.16208E-06        -0.17071E-19         0.00000E+00
    0.16208E-06        -0.13039E-19         0.00000E+00
    0.16208E-06        -0.37253E-20         0.00000E+00
    0.16208E-06        -0.18626E-20         0.00000E+00
    0.16208E-06        -0.11800E-19         0.00000E+00
    0.16208E-06        -0.12107E-19         0.00000E+00
    0.16208E-06        -0.10245E-19         0.00000E+00
    0.16208E-06        -0.86895E-20         0.00000E+00
    0.16208E-06        -0.16764E-19         0.00000E+00
    0.16208E-06        -0.29179E-19         0.00000E+00
    0.16208E-06        -0.31665E-19         0.00000E+00
    0.16208E-06        -0.30734E-19         0.00000E+00
    0.16208E-06        -0.27008E-19         0.00000E+00
    0.16208E-06        -0.11176E-19         0.00000E+00
    0.16208E-06        -0.55879E-20         0.00000E+00
    0.16208E-06        -0.93132E-20         0.00000E+00
    0.16208E-06        -0.55879E-20         0.00000E+00
    0.16208E-06         0.18626E-20         0.00000E+00
    0.16208E-06         0.80744E-20         0.00000E+00
    0.16208E-06         0.20489E-19         0.00000E+00
    0.16208E-06         0.12722E-19         0.00000E+00
    0.16208E-06         0.40328E-20         0.00000E+00
    0.16208E-06         0.90057E-20         0.00000E+00
    0.16208E-06         0.55879E-20         0.00000E+00
    0.16208E-06         0.00000E+00         0.00000E+00
    0.16208E-06        -0.40328E-20         0.00000E+00
    0.16208E-06        -0.43404E-20         0.00000E+00
    0.17757E-06         0.74506E-20         0.00000E+00
    0.17757E-06         0.88454E-20         0.00000E+00
    0.17757E-06         0.55879E-20         0.00000E+00
    0.17757E-06         0.23305E-20         0.00000E+00
    0.17757E-06         0.93132E-20         0.00000E+00
    0.17757E-06         0.18626E-19         0.00000E+00
    0.17757E-06         0.27472E-19         0.00000E+00
    0.17757E-06         0.21884E-19         0.00000E+00
    0.17757E-06         0.11176E-19         0.00000E+00
    0.17757E-06         0.13039E-19         0.00000E+00
    0.17757E-06         0.11176E-19         0.00000E+00
    0.17757E-06         0.93176E-20         0.00000E+00
    0.17757E-06         0.14901E-19         0.00000E+00
    0.17757E-06         0.14897E-19         0.00000E+00
    0.17757E-06         0.18670E-20         0.00000E+00
    0.17757E-06        -0.55879E-20         0.00000E+00
    0.17757E-06         0.23261E-20         0.00000E+00
    0.17757E-06        -0.37253E-20         0.00000E+00
    0.17757E-06        -0.79184E-20         0.00000E+00
    0.17757E-06        -0.37253E-20         0.00000E+00
    0.17757E-06        -0.69827E-20         0.00000E+00
    0.17757E-06        -0.51201E-20         0.00000E+00
    0.17757E-06        -0.60558E-20         0.00000E+00
    0.17757E-06        -0.93132E-20         0.00000E+00
    0.17757E-06        -0.13039E-19         0.00000E+00
    0.17757E-06        -0.13039E-19         0.00000E+00
    0.17757E-06        -0.12571E-19         0.00000E+00
    0.17757E-06        -0.13506E-19         0.00000E+00
    0.17757E-06        -0.20957E-19         0.00000E+00
    0.17757E-06        -0.31661E-19         0.00000E+00
    0.17757E-06        -0.18626E-19         0.00000E+00
    0.17757E-06        -0.69871E-20         0.00000E+00
    0.17757E-06        -0.16764E-19         0.00000E+00
    0.17757E-06        -0.19558E-19         0.00000E+00
    0.17757E-06        -0.20953E-19         0.00000E+00
    0.17757E-06        -0.19094E-19         0.00000E+00
    0.17757E-06        -0.15369E-19         0.00000E+00
    0.17757E-06        -0.11639E-19         0.00000E+00
    0.17757E-06        -0.11639E-19         0.00000E+00
    0.17757E-06        -0.12575E-19         0.00000E+00
    0.17757E-06        -0.55879E-20         0.00000E+00
    0.17757E-06         0.27940E-20         0.00000E+00
    0.17757E-06         0.51201E-20         0.00000E+00
    0.17757E-06         0.18626E-20         0.00000E+00
    0.17757E-06         0.18626E-20         0.00000E+00
    0.17757E-06         0.18626E-20         0.00000E+00
    0.17757E-06        -0.13948E-20         0.00000E+00
    0.17757E-06         0.41931E-20         0.00000E+00
    0.17757E-06         0.37253E-20         0.00000E+00
    0.17757E-06         0.13948E-20         0.00000E+00
    0.17757E-06         0.27896E-20         0.00000E+00
    0.19290E-06        -0.82569E-21         0.00000E+00
    0.19290E-06         0.55879E-20         0.00000E+00
    0.19290E-06         0.60008E-20         0.00000E+00
    0.19290E-06         0.18626E-20         0.00000E+00
    0.19290E-06         0.55879E-20         0.00000E+00
    0.19290E-06         0.12626E-19         0.00000E+00
    0.19290E-06         0.16351E-19         0.00000E+00
    0.19290E-06         0.20902E-19         0.00000E+00
    0.19290E-06         0.14901E-19         0.00000E+00
    0.19290E-06         0.51751E-20         0.00000E+00
    0.19290E-06         0.11589E-19         0.00000E+00
    0.19290E-06         0.13451E-19         0.00000E+00
    0.19290E-06         0.51751E-20         0.00000E+00
    0.19290E-06         0.64187E-33         0.00000E+00
    0.19290E-06         0.82569E-21         0.00000E+00
    0.19290E-06        -0.51751E-20         0.00000E+00
    0.19290E-06        -0.13451E-19         0.00000E+00
    0.19290E-06        -0.13864E-19         0.00000E+00
    0.19290E-06        -0.78634E-20         0.00000E+00
    0.19290E-06        -0.55879E-20         0.00000E+00
    0.19290E-06        -0.93132E-20         0.00000E+00
    0.19290E-06        -0.11176E-19         0.00000E+00
    0.19290E-06        -0.70377E-20         0.00000E+00
    0.19290E-06        -0.51751E-20         0.00000E+00
    0.19290E-06        -0.78634E-20         0.00000E+00
    0.19290E-06        -0.11176E-19         0.00000E+00
    0.19290E-06        -0.12626E-19         0.00000E+00
    0.19290E-06        -0.11589E-19         0.00000E+00
    0.19290E-06        -0.13451E-19         0.00000E+00
    0.19290E-06        -0.56936E-20         0.00000E+00
    0.19290E-06        -0.79691E-20         0.00000E+00
    0.19290E-06        -0.16764E-19         0.00000E+00
    0.19290E-06        -0.18626E-19         0.00000E+00
    0.19290E-06        -0.26490E-19         0.00000E+00
    0.19290E-06        -0.24214E-19         0.00000E+00
    0.19290E-06        -0.20902E-19         0.00000E+00
    0.19290E-06        -0.19039E-19         0.00000E+00
    0.19290E-06        -0.12626E-19         0.00000E+00
    0.19290E-06        -0.14901E-19         0.00000E+00
    0.19290E-06        -0.17177E-19         0.00000E+00
    0.19290E-06        -0.13039E-19         0.00000E+00
    0.19290E-06        -0.55879E-20         0.00000E+00
    0.19290E-06         0.60008E-20         0.00000E+00
    0.19290E-06         0.11589E-19         0.00000E+00
    0.19290E-06         0.14498E-20         0.00000E+00
    0.19290E-06        -0.37253E-20         0.00000E+00
    0.19290E-06         0.22755E-20         0.00000E+00
    0.19290E-06        -0.41285E-21         0.00000E+00
    0.19290E-06        -0.41381E-20         0.00000E+00
    0.19290E-06         0.00000E+00         0.00000E+00
    0.19290E-06         0.37253E-20         0.00000E+00
    0.20760E-06         0.74506E-20         0.00000E+00
    0.20760E-06         0.35698E-20         0.00000E+00
    0.20760E-06         0.77583E-21         0.00000E+00
    0.20760E-06         0.00000E+00         0.00000E+00
    0.20760E-06         0.57434E-20         0.00000E+00
    0.20760E-06         0.16298E-19         0.00000E+00
    0.20760E-06         0.20955E-19         0.00000E+00
    0.20760E-06         0.11331E-19         0.00000E+00
    0.20760E-06         0.11176E-19         0.00000E+00
    0.20760E-06         0.10555E-19         0.00000E+00
    0.20760E-06         0.40355E-20         0.00000E+00
    0.20760E-06         0.37253E-20         0.00000E+00
    0.20760E-06         0.55879E-20         0.00000E+00
    0.20760E-06         0.35706E-20         0.00000E+00
    0.20760E-06        -0.66739E-20         0.00000E+00
    0.20760E-06        -0.11953E-19         0.00000E+00
    0.20760E-06        -0.11953E-19         0.00000E+00
    0.20760E-06        -0.13039E-19         0.00000E+00
    0.20760E-06        -0.13970E-19         0.00000E+00
    0.20760E-06        -0.13039E-19         0.00000E+00
    0.20760E-06        -0.13039E-19         0.00000E+00
    0.20760E-06        -0.54324E-20         0.00000E+00
    0.20760E-06         0.15549E-21         0.00000E+00
    0.20760E-06         0.27940E-20         0.00000E+00
    0.20760E-06         0.77608E-20         0.00000E+00
    0.20760E-06         0.55879E-20         0.00000E+00
    0.20760E-06        -0.23283E-20         0.00000E+00
    0.20760E-06        -0.27940E-20         0.00000E+00
    0.20760E-06        -0.80709E-20         0.00000E+00
    0.20760E-06        -0.18316E-19         0.00000E+00
    0.20760E-06        -0.16609E-19         0.00000E+00
    0.20760E-06        -0.17074E-19         0.00000E+00
    0.20760E-06        -0.28405E-19         0.00000E+00
    0.20760E-06        -0.34614E-19         0.00000E+00
    0.20760E-06        -0.37253E-19         0.00000E+00
    0.20760E-06        -0.29181E-19         0.00000E+00
    0.20760E-06        -0.21886E-19         0.00000E+00
    0.20760E-06        -0.15057E-19         0.00000E+00
    0.20760E-06        -0.13970E-19         0.00000E+00
    0.20760E-06        -0.13039E-19         0.00000E+00
    0.20760E-06        -0.18626E-20         0.00000E+00
    0.20760E-06         0.62091E-20         0.00000E+00
    0.20760E-06         0.71404E-20         0.00000E+00
    0.20760E-06         0.63638E-20         0.00000E+00
    0.20760E-06         0.54324E-20         0.00000E+00
    0.20760E-06        -0.31017E-21         0.00000E+00
    0.20760E-06        -0.51223E-20         0.00000E+00
    0.20760E-06        -0.38808E-20         0.00000E+00
    0.20760E-06        -0.17072E-20         0.00000E+00
    0.20760E-06         0.93132E-21         0.00000E+00
    0.20760E-06         0.34143E-20         0.00000E+00
    0.22107E-06         0.00000E+00         0.00000E+00
    0.22107E-06         0.67026E-20         0.00000E+00
    0.22107E-06         0.93132E-20         0.00000E+00
    0.22107E-06         0.54046E-20         0.00000E+00
    0.22107E-06         0.85652E-20         0.00000E+00
    0.22107E-06         0.18810E-19         0.00000E+00
    0.22107E-06         0.24031E-19         0.00000E+00
    0.22107E-06         0.24214E-19         0.00000E+00
    0.22107E-06         0.16764E-19         0.00000E+00
    0.22107E-06         0.63359E-20         0.00000E+00
    0.22107E-06         0.18626E-20         0.00000E+00
    0.22107E-06         0.57712E-20         0.00000E+00
    0.22107E-06         0.85652E-20         0.00000E+00
    0.22107E-06         0.35420E-20         0.00000E+00
    0.22107E-06        -0.28235E-21         0.00000E+00
    0.22107E-06        -0.15832E-19         0.00000E+00
    0.22107E-06        -0.23184E-19         0.00000E+00
    0.22107E-06        -0.16764E-19         0.00000E+00
    0.22107E-06        -0.83819E-20         0.00000E+00
    0.22107E-06        -0.27940E-20         0.00000E+00
    0.22107E-06        -0.26107E-20         0.00000E+00
    0.22107E-06        -0.74801E-21         0.00000E+00
    0.22107E-06        -0.20460E-20         0.00000E+00
    0.22107E-06        -0.18626E-20         0.00000E+00
    0.22107E-06        -0.18626E-20         0.00000E+00
    0.22107E-06        -0.39086E-20         0.00000E+00
    0.22107E-06        -0.27940E-20         0.00000E+00
    0.22107E-06        -0.63359E-20         0.00000E+00
    0.22107E-06        -0.16764E-19         0.00000E+00
    0.22107E-06        -0.17878E-19         0.00000E+00
    0.22107E-06        -0.15832E-19         0.00000E+00
    0.22107E-06        -0.17695E-19         0.00000E+00
    0.22107E-06        -0.21420E-19         0.00000E+00
    0.22107E-06        -0.27940E-19         0.00000E+00
    0.22107E-06        -0.27008E-19         0.00000E+00
    0.22107E-06        -0.22352E-19         0.00000E+00
    0.22107E-06        -0.17695E-19         0.00000E+00
    0.22107E-06        -0.15832E-19         0.00000E+00
    0.22107E-06        -0.84809E-20         0.00000E+00
    0.22107E-06        -0.11176E-19         0.00000E+00
    0.22107E-06        -0.13871E-19         0.00000E+00
    0.22107E-06        -0.16793E-20         0.00000E+00
    0.22107E-06         0.27940E-20         0.00000E+00
    0.22107E-06         0.46566E-20         0.00000E+00
    0.22107E-06         0.27940E-20         0.00000E+00
    0.22107E-06         0.26107E-20         0.00000E+00
    0.22107E-06         0.27940E-20         0.00000E+00
    0.22107E-06         0.29773E-20         0.00000E+00
    0.22107E-06         0.00000E+00         0.00000E+00
    0.22107E-06        -0.29773E-20         0.00000E+00
    0.22107E-06         0.00000E+00         0.00000E+00
    0.23265E-06         0.94381E-20         0.00000E+00
    0.23265E-06         0.46566E-20         0.00000E+00
    0.23265E-06         0.27940E-20         0.00000E+00
    0.23265E-06         0.18626E-20         0.00000E+00
    0.23265E-06         0.55879E-20         0.00000E+00
    0.23265E-06         0.14901E-19         0.00000E+00
    0.23265E-06         0.17695E-19         0.00000E+00
    0.23265E-06         0.10245E-19         0.00000E+00
    0.23265E-06         0.83819E-20         0.00000E+00
    0.23265E-06         0.83819E-20         0.00000E+00
    0.23265E-06         0.37253E-20         0.00000E+00
    0.23265E-06         0.55879E-20         0.00000E+00
    0.23265E-06         0.13039E-19         0.00000E+00
    0.23265E-06         0.14032E-19         0.00000E+00
    0.23265E-06         0.55879E-20         0.00000E+00
    0.23265E-06         0.86890E-21         0.00000E+00
    0.23265E-06        -0.50960E-33         0.00000E+00
    0.23265E-06        -0.55879E-20         0.00000E+00
    0.23265E-06        -0.10307E-19         0.00000E+00
    0.23265E-06        -0.65193E-20         0.00000E+00
    0.23265E-06        -0.93132E-20         0.00000E+00
    0.23265E-06        -0.12107E-19         0.00000E+00
    0.23265E-06        -0.10245E-19         0.00000E+00
    0.23265E-06        -0.46566E-20         0.00000E+00
    0.23265E-06         0.93132E-21         0.00000E+00
    0.23265E-06         0.19251E-20         0.00000E+00
    0.23265E-06        -0.55879E-20         0.00000E+00
    0.23265E-06        -0.84443E-20         0.00000E+00
    0.23265E-06        -0.93132E-20         0.00000E+00
    0.23265E-06        -0.14901E-19         0.00000E+00
    0.23265E-06        -0.12976E-19         0.00000E+00
    0.23265E-06        -0.11113E-19         0.00000E+00
    0.23265E-06        -0.15832E-19         0.00000E+00
    0.23265E-06        -0.22414E-19         0.00000E+00
    0.23265E-06        -0.25208E-19         0.00000E+00
    0.23265E-06        -0.23283E-19         0.00000E+00
    0.23265E-06        -0.18626E-19         0.00000E+00
    0.23265E-06        -0.10245E-19         0.00000E+00
    0.23265E-06        -0.64568E-20         0.00000E+00
    0.23265E-06        -0.12107E-19         0.00000E+00
    0.23265E-06        -0.65193E-20         0.00000E+00
    0.23265E-06        -0.93132E-21         0.00000E+00
    0.23265E-06        -0.62425E-22         0.00000E+00
    0.23265E-06         0.93132E-21         0.00000E+00
    0.23265E-06        -0.27940E-20         0.00000E+00
    0.23265E-06        -0.55879E-20         0.00000E+00
    0.23265E-06        -0.27940E-20         0.00000E+00
    0.23265E-06         0.93132E-21         0.00000E+00
    0.23265E-06        -0.18626E-20         0.00000E+00
    0.23265E-06         0.59912E-20         0.00000E+00
    0.23265E-06         0.17570E-19         0.00000E+00
    0.24164E-06         0.60064E-21         0.00000E+00
    0.24164E-06         0.37253E-20         0.00000E+00
    0.24164E-06        -0.21630E-20         0.00000E+00
    0.24164E-06        -0.16534E-21         0.00000E+00
    0.24164E-06         0.10079E-19         0.00000E+00
    0.24164E-06         0.13670E-19         0.00000E+00
    0.24164E-06         0.12738E-19         0.00000E+00
    0.24164E-06         0.14901E-19         0.00000E+00
    0.24164E-06         0.21120E-19         0.00000E+00
    0.24164E-06         0.83819E-20         0.00000E+00
    0.24164E-06        -0.63100E-21         0.00000E+00
    0.24164E-06         0.55879E-20         0.00000E+00
    0.24164E-06         0.37253E-20         0.00000E+00
    0.24164E-06         0.18626E-20         0.00000E+00
    0.24164E-06        -0.18626E-20         0.00000E+00
    0.24164E-06        -0.74506E-20         0.00000E+00
    0.24164E-06        -0.74506E-20         0.00000E+00
    0.24164E-06        -0.27940E-20         0.00000E+00
    0.24164E-06         0.18626E-20         0.00000E+00
    0.24164E-06        -0.18626E-20         0.00000E+00
    0.24164E-06        -0.18626E-20         0.00000E+00
    0.24164E-06         0.93132E-21         0.00000E+00
    0.24164E-06        -0.18626E-20         0.00000E+00
    0.24164E-06        -0.18626E-20         0.00000E+00
    0.24164E-06         0.93132E-21         0.00000E+00
    0.24164E-06        -0.27940E-20         0.00000E+00
    0.24164E-06        -0.46566E-20         0.00000E+00
    0.24164E-06        -0.55879E-20         0.00000E+00
    0.24164E-06        -0.11176E-19         0.00000E+00
    0.24164E-06        -0.83819E-20         0.00000E+00
    0.24164E-06        -0.55879E-20         0.00000E+00
    0.24164E-06        -0.10410E-19         0.00000E+00
    0.24164E-06        -0.21420E-19         0.00000E+00
    0.24164E-06        -0.22352E-19         0.00000E+00
    0.24164E-06        -0.18626E-19         0.00000E+00
    0.24164E-06        -0.17530E-19         0.00000E+00
    0.24164E-06        -0.10245E-19         0.00000E+00
    0.24164E-06        -0.76159E-20         0.00000E+00
    0.24164E-06        -0.13039E-19         0.00000E+00
    0.24164E-06        -0.14736E-19         0.00000E+00
    0.24164E-06        -0.66846E-20         0.00000E+00
    0.24164E-06        -0.18626E-20         0.00000E+00
    0.24164E-06         0.10967E-20         0.00000E+00
    0.24164E-06         0.37253E-20         0.00000E+00
    0.24164E-06         0.00000E+00         0.00000E+00
    0.24164E-06         0.76598E-21         0.00000E+00
    0.24164E-06         0.37253E-20         0.00000E+00
    0.24164E-06         0.48220E-20         0.00000E+00
    0.24164E-06         0.35600E-20         0.00000E+00
    0.24164E-06         0.71503E-20         0.00000E+00
    0.24164E-06         0.10906E-19         0.00000E+00
    0.24738E-06        -0.18626E-20         0.00000E+00
    0.24738E-06        -0.69685E-20         0.00000E+00
    0.24738E-06        -0.93132E-21         0.00000E+00
    0.24738E-06         0.23119E-20         0.00000E+00
    0.24738E-06        -0.10694E-19         0.00000E+00
    0.24738E-06        -0.44929E-21         0.00000E+00
    0.24738E-06         0.19525E-19         0.00000E+00
    0.24738E-06         0.16282E-19         0.00000E+00
    0.24738E-06         0.51386E-20         0.00000E+00
    0.24738E-06         0.93132E-21         0.00000E+00
    0.24738E-06        -0.93132E-21         0.00000E+00
    0.24738E-06         0.18626E-20         0.00000E+00
    0.24738E-06         0.46566E-20         0.00000E+00
    0.24738E-06        -0.23119E-20         0.00000E+00
    0.24738E-06         0.18626E-20         0.00000E+00
    0.24738E-06         0.69685E-20         0.00000E+00
    0.24738E-06         0.00000E+00         0.00000E+00
    0.24738E-06        -0.46566E-20         0.00000E+00
    0.24738E-06        -0.18626E-20         0.00000E+00
    0.24738E-06         0.18626E-20         0.00000E+00
    0.24738E-06        -0.18626E-20         0.00000E+00
    0.24738E-06        -0.37253E-20         0.00000E+00
    0.24738E-06         0.18626E-20         0.00000E+00
    0.24738E-06         0.74506E-20         0.00000E+00
    0.24738E-06         0.55879E-20         0.00000E+00
    0.24738E-06         0.37253E-20         0.00000E+00
    0.24738E-06         0.93132E-21         0.00000E+00
    0.24738E-06        -0.37253E-20         0.00000E+00
    0.24738E-06        -0.83819E-20         0.00000E+00
    0.24738E-06        -0.74506E-20         0.00000E+00
    0.24738E-06        -0.27940E-20         0.00000E+00
    0.24738E-06        -0.64865E-20         0.00000E+00
    0.24738E-06        -0.55879E-20         0.00000E+00
    0.24738E-06        -0.84146E-20         0.00000E+00
    0.24738E-06        -0.15832E-19         0.00000E+00
    0.24738E-06        -0.15832E-19         0.00000E+00
    0.24738E-06        -0.13039E-19         0.00000E+00
    0.24738E-06        -0.11176E-19         0.00000E+00
    0.24738E-06        -0.10245E-19         0.00000E+00
    0.24738E-06        -0.74506E-20         0.00000E+00
    0.24738E-06        -0.55879E-20         0.00000E+00
    0.24738E-06         0.93132E-21         0.00000E+00
    0.24738E-06         0.83819E-20         0.00000E+00
    0.24738E-06         0.18790E-20         0.00000E+00
    0.24738E-06         0.41910E-20         0.00000E+00
    0.24738E-06         0.69685E-20         0.00000E+00
    0.24738E-06        -0.65029E-20         0.00000E+00
    0.24738E-06        -0.83655E-20         0.00000E+00
    0.24738E-06         0.83655E-20         0.00000E+00
    0.24738E-06         0.92805E-20         0.00000E+00
    0.24738E-06        -0.37580E-20         0.00000E+00
    0.24936E-06         0.00000E+00         0.00000E+00
    0.24936E-06         0.00000E+00         0.00000E+00
    0.24936E-06         0.00000E+00         0.00000E+00
    0.24936E-06         0.00000E+00         0.00000E+00
    0.24936E-06         0.00000E+00         0.00000E+00
    0.24936E-06         0.00000E+00         0.00000E+00
    0.24936E-06         0.00000E+00         0.00000E+00
    0.24936E-06         0.00000E+00         0.00000E+00
    0.24936E-06         0.00000E+00         0.00000E+00
    0.24936E-06        -0.74506E-20         0.00000E+00
    0.24936E-06         0.00000E+00         0.00000E+00
    0.24936E-06         0.74506E-20         0.00000E+00
    0.24936E-06         0.00000E+00         0.00000E+00
    0.24936E-06         0.00000E+00         0.00000E+00
    0.24936E-06         0.00000E+00         0.00000E+00
    0.24936E-06         0.00000E+00         0.00000E+00
    0.24936E-06         0.00000E+00         0.00000E+00
    0.24936E-06         0.74506E-20         0.00000E+00
    0.24936E-06         0.00000E+00         0.00000E+00
    0.24936E-06        -0.74506E-20         0.00000E+00
    0.24936E-06         0.00000E+00         0.00000E+00
    0.24936E-06         0.00000E+00         0.00000E+00
    0.24936E-06         0.00000E+00         0.00000E+00
    0.24936E-06         0.00000E+00         0.00000E+00
    0.24936E-06         0.00000E+00         0.00000E+00
    0.24936E-06         0.00000E+00         0.00000E+00
    0.24936E-06         0.00000E+00         0.00000E+00
    0.24936E-06         0.00000E+00         0.00000E+00
    0.24936E-06         0.00000E+00         0.00000E+00
    0.24936E-06         0.00000E+00         0.00000E+00
    0.24936E-06         0.00000E+00         0.00000E+00
    0.24936E-06         0.00000E+00         0.00000E+00
    0.24936E-06         0.00000E+00         0.00000E+00
    0.24936E-06         0.00000E+00         0.00000E+00
    0.24936E-06         0.00000E+00         0.00000E+00
    0.24936E-06         0.00000E+00         0.00000E+00
    0.24936E-06         0.00000E+00         0.00000E+00
    0.24936E-06         0.00000E+00         0.00000E+00
    0.24936E-06         0.00000E+00         0.00000E+00
    0.24936E-06        -0.83819E-20         0.00000E+00
    0.24936E-06        -0.74506E-20         0.00000E+00
    0.24936E-06         0.74506E-20         0.00000E+00
    0.24936E-06         0.74506E-20         0.00000E+00
    0.24936E-06         0.00000E+00         0.00000E+00
    0.24936E-06         0.00000E+00         0.00000E+00
    0.24936E-06         0.00000E+00         0.00000E+00
    0.24936E-06         0.00000E+00         0.00000E+00
    0.24936E-06         0.74506E-20         0.00000E+00
    0.24936E-06         0.93132E-21         0.00000E+00
    0.24936E-06         0.00000E+00         0.00000E+00
    0.24936E-06         0.14901E-19         0.00000E+00
CELL_DATA       5000
TENSORS stressef double 
    0.17088E+04         0.11643E+01         0.00000E+00
    0.11643E+01         0.13457E+00         0.00000E+00
    0.00000E+00         0.00000E+00         0.00000E+00
 
    0.17173E+04         0.35823E+01         0.00000E+00
    0.35823E+01         0.10896E+01         0.00000E+00
    0.00000E+00         0.00000E+00         0.00000E+00
 
    0.17239E+04         0.60142E+01         0.00000E+00
    0.60142E+01         0.30150E+01         0.00000E+00
    0.00000E+00         0.00000E+00         0.00000E+00
 
    0.17285E+04         0.84555E+01         0.00000E+00
    0.84555E+01         0.59155E+01         0.00000E+00
    0.00000E+00         0.00000E+00         0.00000E+00
 
    0.17312E+04         0.10903E+02         0.00000E+00
    0.10903E+02         0.97942E+01         0.00000E+00
    0.00000E+00         0.00000E+00         0.00000E+00
 
    0.17319E+04         0.13353E+02         0.00000E+00
    0.13353E+02         0.14653E+02         0.00000E+00
    0.00000E+00         0.00000E+00         0.00000E+00
 
    0.17307E+04         0.15802E+02         0.00000E+00
    0.15802E+02         0.20493E+02         0.00000E+00
    0.00000E+00         0.00000E+00         0.00000E+00
 
    0.17275E+04         0.18248E+02         0.00000E+00
    0.18248E+02         0.27312E+02         0.00000E+00
    0.00000E+00         0.00000E+00         0.00000E+00
 
    0.17223E+04         0.20689E+02         0.00000E+00
    0.20689E+02         0.35110E+02         0.00000E+00
    0.00000E+00         0.00000E+00         0.00000E+00
 
    0.17152E+04         0.23120E+02         0.00000E+00
    0.23120E+02         0.43883E+02         0.00000E+00
    0.00000E+00         0.00000E+00         0.00000E+00
 
    0.17061E+04         0.25539E+02         0.00000E+00
    0.25539E+02         0.53627E+02         0.00000E+00
    0.00000E+00         0.00000E+00         0.00000E+00
 
    0.16950E+04         0.27944E+02         0.00000E+00
    0.27944E+02         0.64338E+02         0.00000E+00
    0.00000E+00         0.00000E+00         0.00000E+00
 
    0.16820E+04         0.30332E+02         0.00000E+00
    0.30332E+02         0.76007E+02         0.00000E+00
    0.00000E+00         0.00000E+00         0.00000E+00
 
    0.16671E+04         0.32699E+02         0.00000E+00
    0.32699E+02         0.88629E+02         0.00000E+00
    0.00000E+00         0.00000E+00         0.00000E+00
 
    0.16502E+04         0.35044E+02         0.00000E+00
    0.35044E+02         0.10219E+03         0.00000E+00
    0.00000E+00         0.00000E+00         0.00000E+00
 
    0.16314E+04         0.37364E+02         0.00000E+00
    0.37364E+02         0.11669E+03         0.00000E+00
    0.00000E+00         0.00000E+00         0.00000E+00
 
    0.16107E+04         0.39655E+02         0.00000E+00
    0.39655E+02         0.13212E+03         0.00000E+00
    0.00000E+00         0.00000E+00         0.00000E+00
 
    0.15881E+04         0.41915E+02         0.00000E+00
    0.41915E+02         0.14845E+03         0.00000E+00
    0.00000E+00         0.00000E+00         0.00000E+00
 
    0.15637E+04         0.44143E+02         0.00000E+00
    0.44143E+02         0.16568E+03         0.00000E+00
    0.00000E+00         0.00000E+00         0.00000E+00
 
    0.15374E+04         0.46334E+02         0.00000E+00
    0.46334E+02         0.18380E+03         0.00000E+00
    0.00000E+00         0.00000E+00         0.00000E+00
 
    0.15092E+04         0.48486E+02         0.00000E+00
    0.48486E+02         0.20279E+03         0.00000E+00
    0.00000E+00         0.00000E+00         0.00000E+00
 
    0.14792E+04         0.50597E+02         0.00000E+00
    0.50597E+02         0.22263E+03         0.00000E+00
    0.00000E+00         0.00000E+00         0.00000E+00
 
    0.14475E+04         0.52664E+02         0.00000E+00
    0.52664E+02         0.24330E+03         0.00000E+00
    0.00000E+00         0.00000E+00         0.00000E+00
 
    0.14139E+04         0.54686E+02         0.00000E+00
    0.54686E+02         0.26480E+03         0.00000E+00
    0.00000E+00         0.00000E+00         0.00000E+00
 
    0.13786E+04         0.56658E+02         0.00000E+00
    0.56658E+02         0.28710E+03         0.00000E+00
    0.00000E+00         0.00000E+00         0.00000E+00
 
    0.13416E+04         0.58580E+02         0.00000E+00
    0.58580E+02         0.31017E+03         0.00000E+00
    0.00000E+00         0.00000E+00         0.00000E+00
 
    0.13029E+04         0.60447E+02         0.00000E+00
    0.60447E+02         0.33401E+03         0.00000E+00
    0.00000E+00         0.00000E+00         0.00000E+00
 
    0.12626E+04         0.62260E+02         0.00000E+00
    0.62260E+02         0.35858E+03         0.00000E+00
    0.00000E+00         0.00000E+00         0.00000E+00
 
    0.12206E+04         0.64014E+02         0.00000E+00
    0.64014E+02         0.38386E+03         0.00000E+00
    0.00000E+00         0.00000E+00         0.00000E+00
 
    0.11770E+04         0.65707E+02         0.00000E+00
    0.65707E+02         0.40984E+03         0.00000E+00
    0.00000E+00         0.00000E+00         0.00000E+00
 
    0.11319E+04         0.67338E+02         0.00000E+00
    0.67338E+02         0.43648E+03         0.00000E+00
    0.00000E+00         0.00000E+00         0.00000E+00
 
    0.10853E+04         0.68905E+02         0.00000E+00
    0.68905E+02         0.46376E+03         0.00000E+00
    0.00000E+00         0.00000E+00         0.00000E+00
 
    0.10371E+04         0.70404E+02         0.00000E+00
    0.70404E+02         0.49165E+03         0.00000E+00
    0.00000E+00         0.00000E+00         0.00000E+00
 
    0.98755E+03         0.71835E+02         0.00000E+00
    0.71835E+02         0.52014E+03         0.00000E+00
    0.00000E+00         0.00000E+00         0.00000E+00
 
    0.93656E+03         0.73195E+02         0.00000E+00
    0.73195E+02         0.54918E+03         0.00000E+00
    0.00000E+00         0.00000E+00         0.00000E+00
 
    0.88421E+03         0.74483E+02         0.00000E+00
    0.74483E+02         0.57875E+03         0.00000E+00
    0.00000E+00         0.00000E+00         0.00000E+00
 
    0.83053E+03         0.75695E+02         0.00000E+00
    0.75695E+02         0.60882E+03         0.00000E+00
    0.00000E+00         0.00000E+00         0.00000E+00
 
    0.77557E+03         0.76832E+02         0.00000E+00
    0.76832E+02         0.63936E+03         0.00000E+00
    0.00000E+00         0.00000E+00         0.00000E+00
 
    0.71938E+03         0.77890E+02         0.00000E+00
    0.77890E+02         0.67034E+03         0.00000E+00
    0.00000E+00         0.00000E+00         0.00000E+00
 
    0.66199E+03         0.78869E+02         0.00000E+00
    0.78869E+02         0.70173E+03         0.00000E+00
    0.00000E+00         0.00000E+00         0.00000E+00
 
    0.60346E+03         0.79766E+02         0.00000E+00
    0.79766E+02         0.73350E+03         0.00000E+00
    0.00000E+00         0.00000E+00         0.00000E+00
 
    0.54384E+03         0.80580E+02         0.00000E+00
    0.80580E+02         0.76560E+03         0.00000E+00
    0.00000E+00         0.00000E+00         0.00000E+00
 
    0.48317E+03         0.81311E+02         0.00000E+00
    0.81311E+02         0.79802E+03         0.00000E+00
    0.00000E+00         0.00000E+00         0.00000E+00
 
    0.42150E+03         0.81955E+02         0.00000E+00
    0.81955E+02         0.83071E+03         0.00000E+00
    0.00000E+00         0.00000E+00         0.00000E+00
 
    0.35889E+03         0.82513E+02         0.00000E+00
    0.82513E+02         0.86365E+03         0.00000E+00
    0.00000E+00         0.00000E+00         0.00000E+00
 
    0.29538E+03         0.82983E+02         0.00000E+00
    0.82983E+02         0.89678E+03         0.00000E+00
    0.00000E+00         0.00000E+00         0.00000E+00
 
    0.23103E+03         0.83365E+02         0.00000E+00
    0.83365E+02         0.93009E+03         0.00000E+00
    0.00000E+00         0.00000E+00         0.00000E+00
 
    0.16589E+03         0.83658E+02         0.00000E+00
    0.83658E+02         0.96354E+03         0.00000E+00
    0.00000E+00         0.00000E+00         0.00000E+00
 
    0.10001E+03         0.83861E+02         0.00000E+00
    0.83861E+02         0.99708E+03         0.00000E+00
    0.00000E+00         0.00000E+00         0.00000E+00
 
    0.33446E+02         0.83976E+02         0.00000E+00
    0.83976E+02         0.10307E+04         0.00000E+00
    0.00000E+00         0.00000E+00         0.00000E+00
 
    0.17328E+04         0.35759E+01         0.00000E+00
    0.35759E+01        -0.61680E-01         0.00000E+00
    0.00000E+00         0.00000E+00         0.00000E+00
 
    0.17414E+04         0.10860E+02         0.00000E+00
    0.10860E+02         0.91829E+00         0.00000E+00
    0.00000E+00         0.00000E+00         0.00000E+00
 
    0.17481E+04         0.18183E+02         0.00000E+00
    0.18183E+02         0.28834E+01         0.00000E+00
    0.00000E+00         0.00000E+00         0.00000E+00
 
    0.17528E+04         0.25533E+02         0.00000E+00
    0.25533E+02         0.58372E+01         0.00000E+00
    0.00000E+00         0.00000E+00         0.00000E+00
 
    0.17555E+04         0.32903E+02         0.00000E+00
    0.32903E+02         0.97823E+01         0.00000E+00
    0.00000E+00         0.00000E+00         0.00000E+00
 
    0.17563E+04         0.40281E+02         0.00000E+00
    0.40281E+02         0.14720E+02         0.00000E+00
    0.00000E+00         0.00000E+00         0.00000E+00
 
    0.17550E+04         0.47659E+02         0.00000E+00
    0.47659E+02         0.20652E+02         0.00000E+00
    0.00000E+00         0.00000E+00         0.00000E+00
 
    0.17517E+04         0.55029E+02         0.00000E+00
    0.55029E+02         0.27577E+02         0.00000E+00
    0.00000E+00         0.00000E+00         0.00000E+00
 
    0.17465E+04         0.62380E+02         0.00000E+00
    0.62380E+02         0.35492E+02         0.00000E+00
    0.00000E+00         0.00000E+00         0.00000E+00
 
    0.17393E+04         0.69705E+02         0.00000E+00
    0.69705E+02         0.44396E+02         0.00000E+00
    0.00000E+00         0.00000E+00         0.00000E+00
 
    0.17300E+04         0.76995E+02         0.00000E+00
    0.76995E+02         0.54284E+02         0.00000E+00
    0.00000E+00         0.00000E+00         0.00000E+00
 
    0.17188E+04         0.84242E+02         0.00000E+00
    0.84242E+02         0.65151E+02         0.00000E+00
    0.00000E+00         0.00000E+00         0.00000E+00
 
    0.17057E+04         0.91437E+02         0.00000E+00
    0.91437E+02         0.76991E+02         0.00000E+00
    0.00000E+00         0.00000E+00         0.00000E+00
 
    0.16905E+04         0.98572E+02         0.00000E+00
    0.98572E+02         0.89795E+02         0.00000E+00
    0.00000E+00         0.00000E+00         0.00000E+00
 
    0.16734E+04         0.10564E+03         0.00000E+00
    0.10564E+03         0.10356E+03         0.00000E+00
    0.00000E+00         0.00000E+00         0.00000E+00
 
    0.16543E+04         0.11263E+03         0.00000E+00
    0.11263E+03         0.11826E+03         0.00000E+00
    0.00000E+00         0.00000E+00         0.00000E+00
 
    0.16333E+04         0.11953E+03         0.00000E+00
    0.11953E+03         0.13391E+03         0.00000E+00
    0.00000E+00         0.00000E+00         0.00000E+00
 
    0.16104E+04         0.12635E+03         0.00000E+00
    0.12635E+03         0.15048E+03         0.00000E+00
    0.00000E+00         0.00000E+00         0.00000E+00
 
    0.15856E+04         0.13306E+03         0.00000E+00
    0.13306E+03         0.16795E+03         0.00000E+00
    0.00000E+00         0.00000E+00         0.00000E+00
 
    0.15589E+04         0.13966E+03         0.00000E+00
    0.13966E+03         0.18633E+03         0.00000E+00
    0.00000E+00         0.00000E+00         0.00000E+00
 
    0.15304E+04         0.14615E+03         0.00000E+00
    0.14615E+03         0.20559E+03         0.00000E+00
    0.00000E+00         0.00000E+00         0.00000E+00
 
    0.15000E+04         0.15251E+03         0.00000E+00
    0.15251E+03         0.22571E+03         0.00000E+00
    0.00000E+00         0.00000E+00         0.00000E+00
 
    0.14677E+04         0.15874E+03         0.00000E+00
    0.15874E+03         0.24668E+03         0.00000E+00
    0.00000E+00         0.00000E+00         0.00000E+00
 
    0.14337E+04         0.16483E+03         0.00000E+00
    0.16483E+03         0.26848E+03         0.00000E+00
    0.00000E+00         0.00000E+00         0.00000E+00
 
    0.13979E+04         0.17078E+03         0.00000E+00
    0.17078E+03         0.29109E+03         0.00000E+00
    0.00000E+00         0.00000E+00         0.00000E+00
 
    0.13604E+04         0.17657E+03         0.00000E+00
    0.17657E+03         0.31449E+03         0.00000E+00
    0.00000E+00         0.00000E+00         0.00000E+00
 
    0.13212E+04         0.18220E+03         0.00000E+00
    0.18220E+03         0.33867E+03         0.00000E+00
    0.00000E+00         0.00000E+00         0.00000E+00
 
    0.12803E+04         0.18766E+03         0.00000E+00
    0.18766E+03         0.36359E+03         0.00000E+00
    0.00000E+00         0.00000E+00         0.00000E+00
 
    0.12377E+04         0.19295E+03         0.00000E+00
    0.19295E+03         0.38923E+03         0.00000E+00
    0.00000E+00         0.00000E+00         0.00000E+00
 
    0.11935E+04         0.19805E+03         0.00000E+00
    0.19805E+03         0.41557E+03         0.00000E+00
    0.00000E+00         0.00000E+00         0.00000E+00
 
    0.11477E+04         0.20297E+03         0.00000E+00
    0.20297E+03         0.44259E+03         0.00000E+00
    0.00000E+00         0.00000E+00         0.00000E+00
 
    0.11004E+04         0.20769E+03         0.00000E+00
    0.20769E+03         0.47025E+03         0.00000E+00
    0.00000E+00         0.00000E+00         0.00000E+00
 
    0.10516E+04         0.21221E+03         0.00000E+00
    0.21221E+03         0.49854E+03         0.00000E+00
    0.00000E+00         0.00000E+00         0.00000E+00
 
    0.10013E+04         0.21652E+03         0.00000E+00
    0.21652E+03         0.52743E+03         0.00000E+00
    0.00000E+00         0.00000E+00         0.00000E+00
 
    0.94962E+03         0.22062E+03         0.00000E+00
    0.22062E+03         0.55688E+03         0.00000E+00
    0.00000E+00         0.00000E+00         0.00000E+00
 
    0.89653E+03         0.22450E+03         0.00000E+00
    0.22450E+03         0.58687E+03         0.00000E+00
    0.00000E+00         0.00000E+00         0.00000E+00
 
    0.84209E+03         0.22815E+03         0.00000E+00
    0.22815E+03         0.61736E+03         0.00000E+00
    0.00000E+00         0.00000E+00         0.00000E+00
 
    0.78636E+03         0.23158E+03         0.00000E+00
    0.23158E+03         0.64834E+03         0.00000E+00
    0.00000E+00         0.00000E+00         0.00000E+00
 
    0.72938E+03         0.23477E+03         0.00000E+00
    0.23477E+03         0.67975E+03         0.00000E+00
    0.00000E+00         0.00000E+00         0.00000E+00
 
    0.67118E+03         0.23772E+03         0.00000E+00
    0.23772E+03         0.71159E+03         0.00000E+00
    0.00000E+00         0.00000E+00         0.00000E+00
 
    0.61183E+03         0.24042E+03         0.00000E+00
    0.24042E+03         0.74380E+03         0.00000E+00
    0.00000E+00         0.00000E+00         0.00000E+00
 
    0.55137E+03         0.24288E+03         0.00000E+00
    0.24288E+03         0.77636E+03         0.00000E+00
    0.00000E+00         0.00000E+00         0.00000E+00
 
    0.48985E+03         0.24508E+03         0.00000E+00
    0.24508E+03         0.80923E+03         0.00000E+00
    0.00000E+00         0.00000E+00         0.00000E+00
 
    0.42732E+03         0.24702E+03         0.00000E+00
    0.24702E+03         0.84238E+03         0.00000E+00
    0.00000E+00         0.00000E+00         0.00000E+00
 
    0.36383E+03         0.24870E+03         0.00000E+00
    0.24870E+03         0.87578E+03         0.00000E+00
    0.00000E+00         0.00000E+00         0.00000E+00
 
    0.29943E+03         0.25011E+03         0.00000E+00
    0.25011E+03         0.90938E+03         0.00000E+00
    0.00000E+00         0.00000E+00         0.00000E+00
 
    0.23419E+03         0.25126E+03         0.00000E+00
    0.25126E+03         0.94316E+03         0.00000E+00
    0.00000E+00         0.00000E+00         0.00000E+00
 
    0.16815E+03         0.25213E+03         0.00000E+00
    0.25213E+03         0.97707E+03         0.00000E+00
    0.00000E+00         0.00000E+00         0.00000E+00
 
    0.10136E+03         0.25273E+03         0.00000E+00
    0.25273E+03         0.10111E+04         0.00000E+00
    0.00000E+00         0.00000E+00         0.00000E+00
 
    0.33896E+02         0.25306E+03         0.00000E+00
    0.25306E+03         0.10451E+04         0.00000E+00
    0.00000E+00         0.00000E+00         0.00000E+00
 
    0.17812E+04         0.60367E+01         0.00000E+00
    0.60367E+01        -0.27482E+00         0.00000E+00
    0.00000E+00         0.00000E+00         0.00000E+00
 
    0.17902E+04         0.18311E+02         0.00000E+00
    0.18311E+02         0.73071E+00         0.00000E+00
    0.00000E+00         0.00000E+00         0.00000E+00
 
    0.17970E+04         0.30641E+02         0.00000E+00
    0.30641E+02         0.27518E+01         0.00000E+00
    0.00000E+00         0.00000E+00         0.00000E+00
 
    0.18019E+04         0.43012E+02         0.00000E+00
    0.43012E+02         0.57915E+01         0.00000E+00
    0.00000E+00         0.00000E+00         0.00000E+00
 
    0.18047E+04         0.55410E+02         0.00000E+00
    0.55410E+02         0.98519E+01         0.00000E+00
    0.00000E+00         0.00000E+00         0.00000E+00
 
    0.18055E+04         0.67822E+02         0.00000E+00
    0.67822E+02         0.14934E+02         0.00000E+00
    0.00000E+00         0.00000E+00         0.00000E+00
 
    0.18042E+04         0.80232E+02         0.00000E+00
    0.80232E+02         0.21038E+02         0.00000E+00
    0.00000E+00         0.00000E+00         0.00000E+00
 
    0.18008E+04         0.92626E+02         0.00000E+00
    0.92626E+02         0.28164E+02         0.00000E+00
    0.00000E+00         0.00000E+00         0.00000E+00
 
    0.17954E+04         0.10499E+03         0.00000E+00
    0.10499E+03         0.36308E+02         0.00000E+00
    0.00000E+00         0.00000E+00         0.00000E+00
 
    0.17880E+04         0.11731E+03         0.00000E+00
    0.11731E+03         0.45468E+02         0.00000E+00
    0.00000E+00         0.00000E+00         0.00000E+00
 
    0.17785E+04         0.12957E+03         0.00000E+00
    0.12957E+03         0.55640E+02         0.00000E+00
    0.00000E+00         0.00000E+00         0.00000E+00
 
    0.17670E+04         0.14176E+03         0.00000E+00
    0.14176E+03         0.66818E+02         0.00000E+00
    0.00000E+00         0.00000E+00         0.00000E+00
 
    0.17534E+04         0.15386E+03         0.00000E+00
    0.15386E+03         0.78995E+02         0.00000E+00
    0.00000E+00         0.00000E+00         0.00000E+00
 
    0.17378E+04         0.16586E+03         0.00000E+00
    0.16586E+03         0.92165E+02         0.00000E+00
    0.00000E+00         0.00000E+00         0.00000E+00
 
    0.17203E+04         0.17775E+03         0.00000E+00
    0.17775E+03         0.10632E+03         0.00000E+00
    0.00000E+00         0.00000E+00         0.00000E+00
 
    0.17007E+04         0.18950E+03         0.00000E+00
    0.18950E+03         0.12144E+03         0.00000E+00
    0.00000E+00         0.00000E+00         0.00000E+00
 
    0.16791E+04         0.20112E+03         0.00000E+00
    0.20112E+03         0.13753E+03         0.00000E+00
    0.00000E+00         0.00000E+00         0.00000E+00
 
    0.16555E+04         0.21258E+03         0.00000E+00
    0.21258E+03         0.15456E+03         0.00000E+00
    0.00000E+00         0.00000E+00         0.00000E+00
 
    0.16300E+04         0.22387E+03         0.00000E+00
    0.22387E+03         0.17254E+03         0.00000E+00
    0.00000E+00         0.00000E+00         0.00000E+00
 
    0.16025E+04         0.23498E+03         0.00000E+00
    0.23498E+03         0.19143E+03         0.00000E+00
    0.00000E+00         0.00000E+00         0.00000E+00
 
    0.15732E+04         0.24589E+03         0.00000E+00
    0.24589E+03         0.21123E+03         0.00000E+00
    0.00000E+00         0.00000E+00         0.00000E+00
 
    0.15419E+04         0.25659E+03         0.00000E+00
    0.25659E+03         0.23192E+03         0.00000E+00
    0.00000E+00         0.00000E+00         0.00000E+00
 
    0.15088E+04         0.26707E+03         0.00000E+00
    0.26707E+03         0.25348E+03         0.00000E+00
    0.00000E+00         0.00000E+00         0.00000E+00
 
    0.14738E+04         0.27732E+03         0.00000E+00
    0.27732E+03         0.27590E+03         0.00000E+00
    0.00000E+00         0.00000E+00         0.00000E+00
 
    0.14370E+04         0.28732E+03         0.00000E+00
    0.28732E+03         0.29915E+03         0.00000E+00
    0.00000E+00         0.00000E+00         0.00000E+00
 
    0.13984E+04         0.29706E+03         0.00000E+00
    0.29706E+03         0.32321E+03         0.00000E+00
    0.00000E+00         0.00000E+00         0.00000E+00
 
    0.13581E+04         0.30653E+03         0.00000E+00
    0.30653E+03         0.34806E+03         0.00000E+00
    0.00000E+00         0.00000E+00         0.00000E+00
 
    0.13160E+04         0.31572E+03         0.00000E+00
    0.31572E+03         0.37368E+03         0.00000E+00
    0.00000E+00         0.00000E+00         0.00000E+00
 
    0.12723E+04         0.32461E+03         0.00000E+00
    0.32461E+03         0.40004E+03         0.00000E+00
    0.00000E+00         0.00000E+00         0.00000E+00
 
    0.12268E+04         0.33319E+03         0.00000E+00
    0.33319E+03         0.42712E+03         0.00000E+00
    0.00000E+00         0.00000E+00         0.00000E+00
 
    0.11798E+04         0.34146E+03         0.00000E+00
    0.34146E+03         0.45490E+03         0.00000E+00
    0.00000E+00         0.00000E+00         0.00000E+00
 
    0.11312E+04         0.34941E+03         0.00000E+00
    0.34941E+03         0.48334E+03         0.00000E+00
    0.00000E+00         0.00000E+00         0.00000E+00
 
    0.10810E+04         0.35701E+03         0.00000E+00
    0.35701E+03         0.51242E+03         0.00000E+00
    0.00000E+00         0.00000E+00         0.00000E+00
 
    0.10293E+04         0.36426E+03         0.00000E+00
    0.36426E+03         0.54212E+03         0.00000E+00
    0.00000E+00         0.00000E+00         0.00000E+00
 
    0.97612E+03         0.37116E+03         0.00000E+00
    0.37116E+03         0.57239E+03         0.00000E+00
    0.00000E+00         0.00000E+00         0.00000E+00
 
    0.92154E+03         0.37768E+03         0.00000E+00
    0.37768E+03         0.60322E+03         0.00000E+00
    0.00000E+00         0.00000E+00         0.00000E+00
 
    0.86558E+03         0.38383E+03         0.00000E+00
    0.38383E+03         0.63457E+03         0.00000E+00
    0.00000E+00         0.00000E+00         0.00000E+00
 
    0.80829E+03         0.38959E+03         0.00000E+00
    0.38959E+03         0.66641E+03         0.00000E+00
    0.00000E+00         0.00000E+00         0.00000E+00
 
    0.74971E+03         0.39496E+03         0.00000E+00
    0.39496E+03         0.69871E+03         0.00000E+00
    0.00000E+00         0.00000E+00         0.00000E+00
 
    0.68989E+03         0.39992E+03         0.00000E+00
    0.39992E+03         0.73143E+03         0.00000E+00
    0.00000E+00         0.00000E+00         0.00000E+00
 
    0.62888E+03         0.40446E+03         0.00000E+00
    0.40446E+03         0.76454E+03         0.00000E+00
    0.00000E+00         0.00000E+00         0.00000E+00
 
    0.56673E+03         0.40859E+03         0.00000E+00
    0.40859E+03         0.79801E+03         0.00000E+00
    0.00000E+00         0.00000E+00         0.00000E+00
 
    0.50349E+03         0.41229E+03         0.00000E+00
    0.41229E+03         0.83181E+03         0.00000E+00
    0.00000E+00         0.00000E+00         0.00000E+00
 
    0.43921E+03         0.41555E+03         0.00000E+00
    0.41555E+03         0.86588E+03         0.00000E+00
    0.00000E+00         0.00000E+00         0.00000E+00
 
    0.37395E+03         0.41837E+03         0.00000E+00
    0.41837E+03         0.90021E+03         0.00000E+00
    0.00000E+00         0.00000E+00         0.00000E+00
 
    0.30776E+03         0.42075E+03         0.00000E+00
    0.42075E+03         0.93475E+03         0.00000E+00
    0.00000E+00         0.00000E+00         0.00000E+00
 
    0.24070E+03         0.42267E+03         0.00000E+00
    0.42267E+03         0.96947E+03         0.00000E+00
    0.00000E+00         0.00000E+00         0.00000E+00
 
    0.17282E+03         0.42412E+03         0.00000E+00
    0.42412E+03         0.10043E+04         0.00000E+00
    0.00000E+00         0.00000E+00         0.00000E+00
 
    0.10418E+03         0.42512E+03         0.00000E+00
    0.42512E+03         0.10393E+04         0.00000E+00
    0.00000E+00         0.00000E+00         0.00000E+00
 
    0.34840E+02         0.42564E+03         0.00000E+00
    0.42564E+03         0.10743E+04         0.00000E+00
    0.00000E+00         0.00000E+00         0.00000E+00
 
    0.18550E+04         0.85800E+01         0.00000E+00
    0.85800E+01        -0.50419E+00         0.00000E+00
    0.00000E+00         0.00000E+00         0.00000E+00
 
    0.18643E+04         0.26020E+02         0.00000E+00
    0.26020E+02         0.54303E+00         0.00000E+00
    0.00000E+00         0.00000E+00         0.00000E+00
 
    0.18715E+04         0.43535E+02         0.00000E+00
    0.43535E+02         0.26475E+01         0.00000E+00
    0.00000E+00         0.00000E+00         0.00000E+00
 
    0.18765E+04         0.61107E+02         0.00000E+00
    0.61107E+02         0.58131E+01         0.00000E+00
    0.00000E+00         0.00000E+00         0.00000E+00
 
    0.18794E+04         0.78714E+02         0.00000E+00
    0.78714E+02         0.10042E+02         0.00000E+00
    0.00000E+00         0.00000E+00         0.00000E+00
 
    0.18802E+04         0.96338E+02         0.00000E+00
    0.96338E+02         0.15336E+02         0.00000E+00
    0.00000E+00         0.00000E+00         0.00000E+00
 
    0.18789E+04         0.11396E+03         0.00000E+00
    0.11396E+03         0.21696E+02         0.00000E+00
    0.00000E+00         0.00000E+00         0.00000E+00
 
    0.18754E+04         0.13156E+03         0.00000E+00
    0.13156E+03         0.29119E+02         0.00000E+00
    0.00000E+00         0.00000E+00         0.00000E+00
 
    0.18698E+04         0.14911E+03         0.00000E+00
    0.14911E+03         0.37603E+02         0.00000E+00
    0.00000E+00         0.00000E+00         0.00000E+00
 
    0.18620E+04         0.16660E+03         0.00000E+00
    0.16660E+03         0.47146E+02         0.00000E+00
    0.00000E+00         0.00000E+00         0.00000E+00
 
    0.18521E+04         0.18400E+03         0.00000E+00
    0.18400E+03         0.57743E+02         0.00000E+00
    0.00000E+00         0.00000E+00         0.00000E+00
 
    0.18401E+04         0.20131E+03         0.00000E+00
    0.20131E+03         0.69387E+02         0.00000E+00
    0.00000E+00         0.00000E+00         0.00000E+00
 
    0.18260E+04         0.21848E+03         0.00000E+00
    0.21848E+03         0.82073E+02         0.00000E+00
    0.00000E+00         0.00000E+00         0.00000E+00
 
    0.18098E+04         0.23552E+03         0.00000E+00
    0.23552E+03         0.95791E+02         0.00000E+00
    0.00000E+00         0.00000E+00         0.00000E+00
 
    0.17914E+04         0.25239E+03         0.00000E+00
    0.25239E+03         0.11053E+03         0.00000E+00
    0.00000E+00         0.00000E+00         0.00000E+00
 
    0.17710E+04         0.26908E+03         0.00000E+00
    0.26908E+03         0.12629E+03         0.00000E+00
    0.00000E+00         0.00000E+00         0.00000E+00
 
    0.17485E+04         0.28557E+03         0.00000E+00
    0.28557E+03         0.14304E+03         0.00000E+00
    0.00000E+00         0.00000E+00         0.00000E+00
 
    0.17240E+04         0.30183E+03         0.00000E+00
    0.30183E+03         0.16079E+03         0.00000E+00
    0.00000E+00         0.00000E+00         0.00000E+00
 
    0.16974E+04         0.31786E+03         0.00000E+00
    0.31786E+03         0.17951E+03         0.00000E+00
    0.00000E+00         0.00000E+00         0.00000E+00
 
    0.16688E+04         0.33362E+03         0.00000E+00
    0.33362E+03         0.19919E+03         0.00000E+00
    0.00000E+00         0.00000E+00         0.00000E+00
 
    0.16382E+04         0.34911E+03         0.00000E+00
    0.34911E+03         0.21981E+03         0.00000E+00
    0.00000E+00         0.00000E+00         0.00000E+00
 
    0.16057E+04         0.36430E+03         0.00000E+00
    0.36430E+03         0.24136E+03         0.00000E+00
    0.00000E+00         0.00000E+00         0.00000E+00
 
    0.15712E+04         0.37918E+03         0.00000E+00
    0.37918E+03         0.26382E+03         0.00000E+00
    0.00000E+00         0.00000E+00         0.00000E+00
 
    0.15347E+04         0.39373E+03         0.00000E+00
    0.39373E+03         0.28716E+03         0.00000E+00
    0.00000E+00         0.00000E+00         0.00000E+00
 
    0.14964E+04         0.40792E+03         0.00000E+00
    0.40792E+03         0.31137E+03         0.00000E+00
    0.00000E+00         0.00000E+00         0.00000E+00
 
    0.14562E+04         0.42175E+03         0.00000E+00
    0.42175E+03         0.33643E+03         0.00000E+00
    0.00000E+00         0.00000E+00         0.00000E+00
 
    0.14142E+04         0.43519E+03         0.00000E+00
    0.43519E+03         0.36231E+03         0.00000E+00
    0.00000E+00         0.00000E+00         0.00000E+00
 
    0.13704E+04         0.44823E+03         0.00000E+00
    0.44823E+03         0.38899E+03         0.00000E+00
    0.00000E+00         0.00000E+00         0.00000E+00
 
    0.13248E+04         0.46086E+03         0.00000E+00
    0.46086E+03         0.41645E+03         0.00000E+00
    0.00000E+00         0.00000E+00         0.00000E+00
 
    0.12775E+04         0.47304E+03         0.00000E+00
    0.47304E+03         0.44465E+03         0.00000E+00
    0.00000E+00         0.00000E+00         0.00000E+00
 
    0.12285E+04         0.48478E+03         0.00000E+00
    0.48478E+03         0.47358E+03         0.00000E+00
    0.00000E+00         0.00000E+00         0.00000E+00
 
    0.11779E+04         0.49605E+03         0.00000E+00
    0.49605E+03         0.50319E+03         0.00000E+00
    0.00000E+00         0.00000E+00         0.00000E+00
 
    0.11256E+04         0.50685E+03         0.00000E+00
    0.50685E+03         0.53348E+03         0.00000E+00
    0.00000E+00         0.00000E+00         0.00000E+00
 
    0.10718E+04         0.51714E+03         0.00000E+00
    0.51714E+03         0.56440E+03         0.00000E+00
    0.00000E+00         0.00000E+00         0.00000E+00
 
    0.10164E+04         0.52693E+03         0.00000E+00
    0.52693E+03         0.59593E+03         0.00000E+00
    0.00000E+00         0.00000E+00         0.00000E+00
 
    0.95958E+03         0.53619E+03         0.00000E+00
    0.53619E+03         0.62803E+03         0.00000E+00
    0.00000E+00         0.00000E+00         0.00000E+00
 
    0.90131E+03         0.54492E+03         0.00000E+00
    0.54492E+03         0.66068E+03         0.00000E+00
    0.00000E+00         0.00000E+00         0.00000E+00
 
    0.84165E+03         0.55310E+03         0.00000E+00
    0.55310E+03         0.69384E+03         0.00000E+00
    0.00000E+00         0.00000E+00         0.00000E+00
 
    0.78064E+03         0.56071E+03         0.00000E+00
    0.56071E+03         0.72747E+03         0.00000E+00
    0.00000E+00         0.00000E+00         0.00000E+00
 
    0.71835E+03         0.56775E+03         0.00000E+00
    0.56775E+03         0.76154E+03         0.00000E+00
    0.00000E+00         0.00000E+00         0.00000E+00
 
    0.65482E+03         0.57420E+03         0.00000E+00
    0.57420E+03         0.79602E+03         0.00000E+00
    0.00000E+00         0.00000E+00         0.00000E+00
 
    0.59011E+03         0.58005E+03         0.00000E+00
    0.58005E+03         0.83087E+03         0.00000E+00
    0.00000E+00         0.00000E+00         0.00000E+00
 
    0.52426E+03         0.58530E+03         0.00000E+00
    0.58530E+03         0.86606E+03         0.00000E+00
    0.00000E+00         0.00000E+00         0.00000E+00
 
    0.45733E+03         0.58993E+03         0.00000E+00
    0.58993E+03         0.90154E+03         0.00000E+00
    0.00000E+00         0.00000E+00         0.00000E+00
 
    0.38938E+03         0.59393E+03         0.00000E+00
    0.59393E+03         0.93729E+03         0.00000E+00
    0.00000E+00         0.00000E+00         0.00000E+00
 
    0.32046E+03         0.59729E+03         0.00000E+00
    0.59729E+03         0.97325E+03         0.00000E+00
    0.00000E+00         0.00000E+00         0.00000E+00
 
    0.25063E+03         0.60001E+03         0.00000E+00
    0.60001E+03         0.10094E+04         0.00000E+00
    0.00000E+00         0.00000E+00         0.00000E+00
 
    0.17995E+03         0.60207E+03         0.00000E+00
    0.60207E+03         0.10457E+04         0.00000E+00
    0.00000E+00         0.00000E+00         0.00000E+00
 
    0.10848E+03         0.60347E+03         0.00000E+00
    0.60347E+03         0.10821E+04         0.00000E+00
    0.00000E+00         0.00000E+00         0.00000E+00
 
    0.36277E+02         0.60420E+03         0.00000E+00
    0.60420E+03         0.11185E+04         0.00000E+00
    0.00000E+00         0.00000E+00         0.00000E+00
 
    0.19551E+04         0.11245E+02         0.00000E+00
    0.11245E+02        -0.76195E+00         0.00000E+00
    0.00000E+00         0.00000E+00         0.00000E+00
 
    0.19649E+04         0.34096E+02         0.00000E+00
    0.34096E+02         0.34169E+00         0.00000E+00
    0.00000E+00         0.00000E+00         0.00000E+00
 
    0.19724E+04         0.57046E+02         0.00000E+00
    0.57046E+02         0.25598E+01         0.00000E+00
    0.00000E+00         0.00000E+00         0.00000E+00
 
    0.19777E+04         0.80067E+02         0.00000E+00
    0.80067E+02         0.58962E+01         0.00000E+00
    0.00000E+00         0.00000E+00         0.00000E+00
 
    0.19808E+04         0.10314E+03         0.00000E+00
    0.10314E+03         0.10354E+02         0.00000E+00
    0.00000E+00         0.00000E+00         0.00000E+00
 
    0.19816E+04         0.12622E+03         0.00000E+00
    0.12622E+03         0.15934E+02         0.00000E+00
    0.00000E+00         0.00000E+00         0.00000E+00
 
    0.19802E+04         0.14930E+03         0.00000E+00
    0.14930E+03         0.22636E+02         0.00000E+00
    0.00000E+00         0.00000E+00         0.00000E+00
 
    0.19765E+04         0.17235E+03         0.00000E+00
    0.17235E+03         0.30460E+02         0.00000E+00
    0.00000E+00         0.00000E+00         0.00000E+00
 
    0.19706E+04         0.19535E+03         0.00000E+00
    0.19535E+03         0.39404E+02         0.00000E+00
    0.00000E+00         0.00000E+00         0.00000E+00
 
    0.19624E+04         0.21825E+03         0.00000E+00
    0.21825E+03         0.49463E+02         0.00000E+00
    0.00000E+00         0.00000E+00         0.00000E+00
 
    0.19520E+04         0.24105E+03         0.00000E+00
    0.24105E+03         0.60632E+02         0.00000E+00
    0.00000E+00         0.00000E+00         0.00000E+00
 
    0.19393E+04         0.26371E+03         0.00000E+00
    0.26371E+03         0.72906E+02         0.00000E+00
    0.00000E+00         0.00000E+00         0.00000E+00
 
    0.19244E+04         0.28621E+03         0.00000E+00
    0.28621E+03         0.86277E+02         0.00000E+00
    0.00000E+00         0.00000E+00         0.00000E+00
 
    0.19073E+04         0.30852E+03         0.00000E+00
    0.30852E+03         0.10074E+03         0.00000E+00
    0.00000E+00         0.00000E+00         0.00000E+00
 
    0.18880E+04         0.33061E+03         0.00000E+00
    0.33061E+03         0.11628E+03         0.00000E+00
    0.00000E+00         0.00000E+00         0.00000E+00
 
    0.18664E+04         0.35247E+03         0.00000E+00
    0.35247E+03         0.13288E+03         0.00000E+00
    0.00000E+00         0.00000E+00         0.00000E+00
 
    0.18427E+04         0.37406E+03         0.00000E+00
    0.37406E+03         0.15054E+03         0.00000E+00
    0.00000E+00         0.00000E+00         0.00000E+00
 
    0.18169E+04         0.39536E+03         0.00000E+00
    0.39536E+03         0.16925E+03         0.00000E+00
    0.00000E+00         0.00000E+00         0.00000E+00
 
    0.17888E+04         0.41635E+03         0.00000E+00
    0.41635E+03         0.18898E+03         0.00000E+00
    0.00000E+00         0.00000E+00         0.00000E+00
 
    0.17587E+04         0.43700E+03         0.00000E+00
    0.43700E+03         0.20972E+03         0.00000E+00
    0.00000E+00         0.00000E+00         0.00000E+00
 
    0.17265E+04         0.45728E+03         0.00000E+00
    0.45728E+03         0.23145E+03         0.00000E+00
    0.00000E+00         0.00000E+00         0.00000E+00
 
    0.16921E+04         0.47717E+03         0.00000E+00
    0.47717E+03         0.25416E+03         0.00000E+00
    0.00000E+00         0.00000E+00         0.00000E+00
 
    0.16558E+04         0.49666E+03         0.00000E+00
    0.49666E+03         0.27783E+03         0.00000E+00
    0.00000E+00         0.00000E+00         0.00000E+00
 
    0.16174E+04         0.51570E+03         0.00000E+00
    0.51570E+03         0.30243E+03         0.00000E+00
    0.00000E+00         0.00000E+00         0.00000E+00
 
    0.15770E+04         0.53429E+03         0.00000E+00
    0.53429E+03         0.32795E+03         0.00000E+00
    0.00000E+00         0.00000E+00         0.00000E+00
 
    0.15346E+04         0.55240E+03         0.00000E+00
    0.55240E+03         0.35436E+03         0.00000E+00
    0.00000E+00         0.00000E+00         0.00000E+00
 
    0.14903E+04         0.57000E+03         0.00000E+00
    0.57000E+03         0.38163E+03         0.00000E+00
    0.00000E+00         0.00000E+00         0.00000E+00
 
    0.14441E+04         0.58708E+03         0.00000E+00
    0.58708E+03         0.40975E+03         0.00000E+00
    0.00000E+00         0.00000E+00         0.00000E+00
 
    0.13961E+04         0.60361E+03         0.00000E+00
    0.60361E+03         0.43868E+03         0.00000E+00
    0.00000E+00         0.00000E+00         0.00000E+00
 
    0.13462E+04         0.61957E+03         0.00000E+00
    0.61957E+03         0.46841E+03         0.00000E+00
    0.00000E+00         0.00000E+00         0.00000E+00
 
    0.12946E+04         0.63494E+03         0.00000E+00
    0.63494E+03         0.49889E+03         0.00000E+00
    0.00000E+00         0.00000E+00         0.00000E+00
 
    0.12412E+04         0.64970E+03         0.00000E+00
    0.64970E+03         0.53010E+03         0.00000E+00
    0.00000E+00         0.00000E+00         0.00000E+00
 
    0.11861E+04         0.66383E+03         0.00000E+00
    0.66383E+03         0.56202E+03         0.00000E+00
    0.00000E+00         0.00000E+00         0.00000E+00
 
    0.11294E+04         0.67732E+03         0.00000E+00
    0.67732E+03         0.59460E+03         0.00000E+00
    0.00000E+00         0.00000E+00         0.00000E+00
 
    0.10711E+04         0.69013E+03         0.00000E+00
    0.69013E+03         0.62783E+03         0.00000E+00
    0.00000E+00         0.00000E+00         0.00000E+00
 
    0.10112E+04         0.70226E+03         0.00000E+00
    0.70226E+03         0.66166E+03         0.00000E+00
    0.00000E+00         0.00000E+00         0.00000E+00
 
    0.94976E+03         0.71369E+03         0.00000E+00
    0.71369E+03         0.69606E+03         0.00000E+00
    0.00000E+00         0.00000E+00         0.00000E+00
 
    0.88689E+03         0.72439E+03         0.00000E+00
    0.72439E+03         0.73099E+03         0.00000E+00
    0.00000E+00         0.00000E+00         0.00000E+00
 
    0.82261E+03         0.73436E+03         0.00000E+00
    0.73436E+03         0.76643E+03         0.00000E+00
    0.00000E+00         0.00000E+00         0.00000E+00
 
    0.75696E+03         0.74357E+03         0.00000E+00
    0.74357E+03         0.80234E+03         0.00000E+00
    0.00000E+00         0.00000E+00         0.00000E+00
 
    0.69002E+03         0.75202E+03         0.00000E+00
    0.75202E+03         0.83867E+03         0.00000E+00
    0.00000E+00         0.00000E+00         0.00000E+00
 
    0.62182E+03         0.75968E+03         0.00000E+00
    0.75968E+03         0.87540E+03         0.00000E+00
    0.00000E+00         0.00000E+00         0.00000E+00
 
    0.55243E+03         0.76655E+03         0.00000E+00
    0.76655E+03         0.91247E+03         0.00000E+00
    0.00000E+00         0.00000E+00         0.00000E+00
 
    0.48190E+03         0.77261E+03         0.00000E+00
    0.77261E+03         0.94986E+03         0.00000E+00
    0.00000E+00         0.00000E+00         0.00000E+00
 
    0.41030E+03         0.77784E+03         0.00000E+00
    0.77784E+03         0.98753E+03         0.00000E+00
    0.00000E+00         0.00000E+00         0.00000E+00
 
    0.33768E+03         0.78224E+03         0.00000E+00
    0.78224E+03         0.10254E+04         0.00000E+00
    0.00000E+00         0.00000E+00         0.00000E+00
 
    0.26410E+03         0.78579E+03         0.00000E+00
    0.78579E+03         0.10635E+04         0.00000E+00
    0.00000E+00         0.00000E+00         0.00000E+00
 
    0.18962E+03         0.78849E+03         0.00000E+00
    0.78849E+03         0.11017E+04         0.00000E+00
    0.00000E+00         0.00000E+00         0.00000E+00
 
    0.11431E+03         0.79031E+03         0.00000E+00
    0.79031E+03         0.11401E+04         0.00000E+00
    0.00000E+00         0.00000E+00         0.00000E+00
 
    0.38226E+02         0.79126E+03         0.00000E+00
    0.79126E+03         0.11785E+04         0.00000E+00
    0.00000E+00         0.00000E+00         0.00000E+00
 
    0.20829E+04         0.14068E+02         0.00000E+00
    0.14068E+02        -0.10588E+01         0.00000E+00
    0.00000E+00         0.00000E+00         0.00000E+00
 
    0.20933E+04         0.42656E+02         0.00000E+00
    0.42656E+02         0.11697E+00         0.00000E+00
    0.00000E+00         0.00000E+00         0.00000E+00
 
    0.21013E+04         0.71364E+02         0.00000E+00
    0.71364E+02         0.24800E+01         0.00000E+00
    0.00000E+00         0.00000E+00         0.00000E+00
 
    0.21070E+04         0.10016E+03         0.00000E+00
    0.10016E+03         0.60344E+01         0.00000E+00
    0.00000E+00         0.00000E+00         0.00000E+00
 
    0.21102E+04         0.12902E+03         0.00000E+00
    0.12902E+03         0.10783E+02         0.00000E+00
    0.00000E+00         0.00000E+00         0.00000E+00
 
    0.21111E+04         0.15790E+03         0.00000E+00
    0.15790E+03         0.16728E+02         0.00000E+00
    0.00000E+00         0.00000E+00         0.00000E+00
 
    0.21095E+04         0.18677E+03         0.00000E+00
    0.18677E+03         0.23868E+02         0.00000E+00
    0.00000E+00         0.00000E+00         0.00000E+00
 
    0.21056E+04         0.21559E+03         0.00000E+00
    0.21559E+03         0.32204E+02         0.00000E+00
    0.00000E+00         0.00000E+00         0.00000E+00
 
    0.20993E+04         0.24435E+03         0.00000E+00
    0.24435E+03         0.41731E+02         0.00000E+00
    0.00000E+00         0.00000E+00         0.00000E+00
 
    0.20905E+04         0.27300E+03         0.00000E+00
    0.27300E+03         0.52447E+02         0.00000E+00
    0.00000E+00         0.00000E+00         0.00000E+00
 
    0.20794E+04         0.30151E+03         0.00000E+00
    0.30151E+03         0.64347E+02         0.00000E+00
    0.00000E+00         0.00000E+00         0.00000E+00
 
    0.20659E+04         0.32985E+03         0.00000E+00
    0.32985E+03         0.77423E+02         0.00000E+00
    0.00000E+00         0.00000E+00         0.00000E+00
 
    0.20500E+04         0.35798E+03         0.00000E+00
    0.35798E+03         0.91667E+02         0.00000E+00
    0.00000E+00         0.00000E+00         0.00000E+00
 
    0.20318E+04         0.38588E+03         0.00000E+00
    0.38588E+03         0.10707E+03         0.00000E+00
    0.00000E+00         0.00000E+00         0.00000E+00
 
    0.20112E+04         0.41352E+03         0.00000E+00
    0.41352E+03         0.12363E+03         0.00000E+00
    0.00000E+00         0.00000E+00         0.00000E+00
 
    0.19882E+04         0.44085E+03         0.00000E+00
    0.44085E+03         0.14132E+03         0.00000E+00
    0.00000E+00         0.00000E+00         0.00000E+00
 
    0.19630E+04         0.46785E+03         0.00000E+00
    0.46785E+03         0.16013E+03         0.00000E+00
    0.00000E+00         0.00000E+00         0.00000E+00
 
    0.19354E+04         0.49448E+03         0.00000E+00
    0.49448E+03         0.18005E+03         0.00000E+00
    0.00000E+00         0.00000E+00         0.00000E+00
 
    0.19055E+04         0.52073E+03         0.00000E+00
    0.52073E+03         0.20107E+03         0.00000E+00
    0.00000E+00         0.00000E+00         0.00000E+00
 
    0.18734E+04         0.54655E+03         0.00000E+00
    0.54655E+03         0.22317E+03         0.00000E+00
    0.00000E+00         0.00000E+00         0.00000E+00
 
    0.18390E+04         0.57191E+03         0.00000E+00
    0.57191E+03         0.24632E+03         0.00000E+00
    0.00000E+00         0.00000E+00         0.00000E+00
 
    0.18025E+04         0.59678E+03         0.00000E+00
    0.59678E+03         0.27051E+03         0.00000E+00
    0.00000E+00         0.00000E+00         0.00000E+00
 
    0.17637E+04         0.62115E+03         0.00000E+00
    0.62115E+03         0.29573E+03         0.00000E+00
    0.00000E+00         0.00000E+00         0.00000E+00
 
    0.17228E+04         0.64496E+03         0.00000E+00
    0.64496E+03         0.32193E+03         0.00000E+00
    0.00000E+00         0.00000E+00         0.00000E+00
 
    0.16798E+04         0.66821E+03         0.00000E+00
    0.66821E+03         0.34911E+03         0.00000E+00
    0.00000E+00         0.00000E+00         0.00000E+00
 
    0.16346E+04         0.69085E+03         0.00000E+00
    0.69085E+03         0.37724E+03         0.00000E+00
    0.00000E+00         0.00000E+00         0.00000E+00
 
    0.15875E+04         0.71286E+03         0.00000E+00
    0.71286E+03         0.40630E+03         0.00000E+00
    0.00000E+00         0.00000E+00         0.00000E+00
 
    0.15383E+04         0.73421E+03         0.00000E+00
    0.73421E+03         0.43624E+03         0.00000E+00
    0.00000E+00         0.00000E+00         0.00000E+00
 
    0.14871E+04         0.75488E+03         0.00000E+00
    0.75488E+03         0.46706E+03         0.00000E+00
    0.00000E+00         0.00000E+00         0.00000E+00
 
    0.14340E+04         0.77483E+03         0.00000E+00
    0.77483E+03         0.49872E+03         0.00000E+00
    0.00000E+00         0.00000E+00         0.00000E+00
 
    0.13789E+04         0.79405E+03         0.00000E+00
    0.79405E+03         0.53119E+03         0.00000E+00
    0.00000E+00         0.00000E+00         0.00000E+00
 
    0.13221E+04         0.81251E+03         0.00000E+00
    0.81251E+03         0.56444E+03         0.00000E+00
    0.00000E+00         0.00000E+00         0.00000E+00
 
    0.12634E+04         0.83018E+03         0.00000E+00
    0.83018E+03         0.59843E+03         0.00000E+00
    0.00000E+00         0.00000E+00         0.00000E+00
 
    0.12030E+04         0.84703E+03         0.00000E+00
    0.84703E+03         0.63314E+03         0.00000E+00
    0.00000E+00         0.00000E+00         0.00000E+00
 
    0.11408E+04         0.86306E+03         0.00000E+00
    0.86306E+03         0.66852E+03         0.00000E+00
    0.00000E+00         0.00000E+00         0.00000E+00
 
    0.10770E+04         0.87822E+03         0.00000E+00
    0.87822E+03         0.70455E+03         0.00000E+00
    0.00000E+00         0.00000E+00         0.00000E+00
 
    0.10116E+04         0.89251E+03         0.00000E+00
    0.89251E+03         0.74119E+03         0.00000E+00
    0.00000E+00         0.00000E+00         0.00000E+00
 
    0.94464E+03         0.90589E+03         0.00000E+00
    0.90589E+03         0.77841E+03         0.00000E+00
    0.00000E+00         0.00000E+00         0.00000E+00
 
    0.87617E+03         0.91835E+03         0.00000E+00
    0.91835E+03         0.81615E+03         0.00000E+00
    0.00000E+00         0.00000E+00         0.00000E+00
 
    0.80625E+03         0.92987E+03         0.00000E+00
    0.92987E+03         0.85439E+03         0.00000E+00
    0.00000E+00         0.00000E+00         0.00000E+00
 
    0.73494E+03         0.94043E+03         0.00000E+00
    0.94043E+03         0.89309E+03         0.00000E+00
    0.00000E+00         0.00000E+00         0.00000E+00
 
    0.66231E+03         0.95001E+03         0.00000E+00
    0.95001E+03         0.93221E+03         0.00000E+00
    0.00000E+00         0.00000E+00         0.00000E+00
 
    0.58840E+03         0.95859E+03         0.00000E+00
    0.95859E+03         0.97169E+03         0.00000E+00
    0.00000E+00         0.00000E+00         0.00000E+00
 
    0.51328E+03         0.96616E+03         0.00000E+00
    0.96616E+03         0.10115E+04         0.00000E+00
    0.00000E+00         0.00000E+00         0.00000E+00
 
    0.43701E+03         0.97270E+03         0.00000E+00
    0.97270E+03         0.10516E+04         0.00000E+00
    0.00000E+00         0.00000E+00         0.00000E+00
 
    0.35966E+03         0.97820E+03         0.00000E+00
    0.97820E+03         0.10920E+04         0.00000E+00
    0.00000E+00         0.00000E+00         0.00000E+00
 
    0.28129E+03         0.98264E+03         0.00000E+00
    0.98264E+03         0.11326E+04         0.00000E+00
    0.00000E+00         0.00000E+00         0.00000E+00
 
    0.20196E+03         0.98600E+03         0.00000E+00
    0.98600E+03         0.11733E+04         0.00000E+00
    0.00000E+00         0.00000E+00         0.00000E+00
 
    0.12175E+03         0.98828E+03         0.00000E+00
    0.98828E+03         0.12141E+04         0.00000E+00
    0.00000E+00         0.00000E+00         0.00000E+00
 
    0.40715E+02         0.98947E+03         0.00000E+00
    0.98947E+03         0.12550E+04         0.00000E+00
    0.00000E+00         0.00000E+00         0.00000E+00
 
    0.22402E+04         0.17092E+02         0.00000E+00
    0.17092E+02        -0.14074E+01         0.00000E+00
    0.00000E+00         0.00000E+00         0.00000E+00
 
    0.22514E+04         0.51819E+02         0.00000E+00
    0.51819E+02        -0.14295E+00         0.00000E+00
    0.00000E+00         0.00000E+00         0.00000E+00
 
    0.22600E+04         0.86693E+02         0.00000E+00
    0.86693E+02         0.23984E+01         0.00000E+00
    0.00000E+00         0.00000E+00         0.00000E+00
 
    0.22660E+04         0.12167E+03         0.00000E+00
    0.12167E+03         0.62212E+01         0.00000E+00
    0.00000E+00         0.00000E+00         0.00000E+00
 
    0.22695E+04         0.15672E+03         0.00000E+00
    0.15672E+03         0.11328E+02         0.00000E+00
    0.00000E+00         0.00000E+00         0.00000E+00
 
    0.22704E+04         0.19180E+03         0.00000E+00
    0.19180E+03         0.17721E+02         0.00000E+00
    0.00000E+00         0.00000E+00         0.00000E+00
 
    0.22687E+04         0.22687E+03         0.00000E+00
    0.22687E+03         0.25401E+02         0.00000E+00
    0.00000E+00         0.00000E+00         0.00000E+00
 
    0.22645E+04         0.26189E+03         0.00000E+00
    0.26189E+03         0.34365E+02         0.00000E+00
    0.00000E+00         0.00000E+00         0.00000E+00
 
    0.22577E+04         0.29681E+03         0.00000E+00
    0.29681E+03         0.44612E+02         0.00000E+00
    0.00000E+00         0.00000E+00         0.00000E+00
 
    0.22482E+04         0.33161E+03         0.00000E+00
    0.33161E+03         0.56136E+02         0.00000E+00
    0.00000E+00         0.00000E+00         0.00000E+00
 
    0.22363E+04         0.36623E+03         0.00000E+00
    0.36623E+03         0.68933E+02         0.00000E+00
    0.00000E+00         0.00000E+00         0.00000E+00
 
    0.22217E+04         0.40065E+03         0.00000E+00
    0.40065E+03         0.82995E+02         0.00000E+00
    0.00000E+00         0.00000E+00         0.00000E+00
 
    0.22046E+04         0.43482E+03         0.00000E+00
    0.43482E+03         0.98314E+02         0.00000E+00
    0.00000E+00         0.00000E+00         0.00000E+00
 
    0.21850E+04         0.46871E+03         0.00000E+00
    0.46871E+03         0.11488E+03         0.00000E+00
    0.00000E+00         0.00000E+00         0.00000E+00
 
    0.21628E+04         0.50226E+03         0.00000E+00
    0.50226E+03         0.13268E+03         0.00000E+00
    0.00000E+00         0.00000E+00         0.00000E+00
 
    0.21381E+04         0.53545E+03         0.00000E+00
    0.53545E+03         0.15170E+03         0.00000E+00
    0.00000E+00         0.00000E+00         0.00000E+00
 
    0.21109E+04         0.56824E+03         0.00000E+00
    0.56824E+03         0.17194E+03         0.00000E+00
    0.00000E+00         0.00000E+00         0.00000E+00
 
    0.20812E+04         0.60059E+03         0.00000E+00
    0.60059E+03         0.19336E+03         0.00000E+00
    0.00000E+00         0.00000E+00         0.00000E+00
 
    0.20491E+04         0.63246E+03         0.00000E+00
    0.63246E+03         0.21596E+03         0.00000E+00
    0.00000E+00         0.00000E+00         0.00000E+00
 
    0.20145E+04         0.66381E+03         0.00000E+00
    0.66381E+03         0.23972E+03         0.00000E+00
    0.00000E+00         0.00000E+00         0.00000E+00
 
    0.19776E+04         0.69461E+03         0.00000E+00
    0.69461E+03         0.26462E+03         0.00000E+00
    0.00000E+00         0.00000E+00         0.00000E+00
 
    0.19382E+04         0.72482E+03         0.00000E+00
    0.72482E+03         0.29064E+03         0.00000E+00
    0.00000E+00         0.00000E+00         0.00000E+00
 
    0.18965E+04         0.75440E+03         0.00000E+00
    0.75440E+03         0.31775E+03         0.00000E+00
    0.00000E+00         0.00000E+00         0.00000E+00
 
    0.18525E+04         0.78332E+03         0.00000E+00
    0.78332E+03         0.34593E+03         0.00000E+00
    0.00000E+00         0.00000E+00         0.00000E+00
 
    0.18063E+04         0.81155E+03         0.00000E+00
    0.81155E+03         0.37515E+03         0.00000E+00
    0.00000E+00         0.00000E+00         0.00000E+00
 
    0.17577E+04         0.83904E+03         0.00000E+00
    0.83904E+03         0.40540E+03         0.00000E+00
    0.00000E+00         0.00000E+00         0.00000E+00
 
    0.17070E+04         0.86576E+03         0.00000E+00
    0.86576E+03         0.43664E+03         0.00000E+00
    0.00000E+00         0.00000E+00         0.00000E+00
 
    0.16541E+04         0.89169E+03         0.00000E+00
    0.89169E+03         0.46884E+03         0.00000E+00
    0.00000E+00         0.00000E+00         0.00000E+00
 
    0.15990E+04         0.91679E+03         0.00000E+00
    0.91679E+03         0.50198E+03         0.00000E+00
    0.00000E+00         0.00000E+00         0.00000E+00
 
    0.15419E+04         0.94102E+03         0.00000E+00
    0.94102E+03         0.53602E+03         0.00000E+00
    0.00000E+00         0.00000E+00         0.00000E+00
 
    0.14827E+04         0.96435E+03         0.00000E+00
    0.96435E+03         0.57093E+03         0.00000E+00
    0.00000E+00         0.00000E+00         0.00000E+00
 
    0.14216E+04         0.98676E+03         0.00000E+00
    0.98676E+03         0.60667E+03         0.00000E+00
    0.00000E+00         0.00000E+00         0.00000E+00
 
    0.13585E+04         0.10082E+04         0.00000E+00
    0.10082E+04         0.64322E+03         0.00000E+00
    0.00000E+00         0.00000E+00         0.00000E+00
 
    0.12935E+04         0.10287E+04         0.00000E+00
    0.10287E+04         0.68054E+03         0.00000E+00
    0.00000E+00         0.00000E+00         0.00000E+00
 
    0.12267E+04         0.10481E+04         0.00000E+00
    0.10481E+04         0.71859E+03         0.00000E+00
    0.00000E+00         0.00000E+00         0.00000E+00
 
    0.11581E+04         0.10666E+04         0.00000E+00
    0.10666E+04         0.75733E+03         0.00000E+00
    0.00000E+00         0.00000E+00         0.00000E+00
 
    0.10877E+04         0.10839E+04         0.00000E+00
    0.10839E+04         0.79672E+03         0.00000E+00
    0.00000E+00         0.00000E+00         0.00000E+00
 
    0.10157E+04         0.11001E+04         0.00000E+00
    0.11001E+04         0.83673E+03         0.00000E+00
    0.00000E+00         0.00000E+00         0.00000E+00
 
    0.94208E+03         0.11153E+04         0.00000E+00
    0.11153E+04         0.87731E+03         0.00000E+00
    0.00000E+00         0.00000E+00         0.00000E+00
 
    0.86690E+03         0.11293E+04         0.00000E+00
    0.11293E+04         0.91843E+03         0.00000E+00
    0.00000E+00         0.00000E+00         0.00000E+00
 
    0.79022E+03         0.11421E+04         0.00000E+00
    0.11421E+04         0.96004E+03         0.00000E+00
    0.00000E+00         0.00000E+00         0.00000E+00
 
    0.71212E+03         0.11537E+04         0.00000E+00
    0.11537E+04         0.10021E+04         0.00000E+00
    0.00000E+00         0.00000E+00         0.00000E+00
 
    0.63265E+03         0.11641E+04         0.00000E+00
    0.11641E+04         0.10445E+04         0.00000E+00
    0.00000E+00         0.00000E+00         0.00000E+00
 
    0.55188E+03         0.11733E+04         0.00000E+00
    0.11733E+04         0.10874E+04         0.00000E+00
    0.00000E+00         0.00000E+00         0.00000E+00
 
    0.46988E+03         0.11813E+04         0.00000E+00
    0.11813E+04         0.11305E+04         0.00000E+00
    0.00000E+00         0.00000E+00         0.00000E+00
 
    0.38671E+03         0.11879E+04         0.00000E+00
    0.11879E+04         0.11739E+04         0.00000E+00
    0.00000E+00         0.00000E+00         0.00000E+00
 
    0.30244E+03         0.11933E+04         0.00000E+00
    0.11933E+04         0.12175E+04         0.00000E+00
    0.00000E+00         0.00000E+00         0.00000E+00
 
    0.21715E+03         0.11974E+04         0.00000E+00
    0.11974E+04         0.12613E+04         0.00000E+00
    0.00000E+00         0.00000E+00         0.00000E+00
 
    0.13091E+03         0.12002E+04         0.00000E+00
    0.12002E+04         0.13052E+04         0.00000E+00
    0.00000E+00         0.00000E+00         0.00000E+00
 
    0.43777E+02         0.12016E+04         0.00000E+00
    0.12016E+04         0.13492E+04         0.00000E+00
    0.00000E+00         0.00000E+00         0.00000E+00
 
    0.24293E+04         0.20357E+02         0.00000E+00
    0.20357E+02        -0.18230E+01         0.00000E+00
    0.00000E+00         0.00000E+00         0.00000E+00
 
    0.24414E+04         0.61716E+02         0.00000E+00
    0.61716E+02        -0.45177E+00         0.00000E+00
    0.00000E+00         0.00000E+00         0.00000E+00
 
    0.24507E+04         0.10325E+03         0.00000E+00
    0.10325E+03         0.23040E+01         0.00000E+00
    0.00000E+00         0.00000E+00         0.00000E+00
 
    0.24572E+04         0.14491E+03         0.00000E+00
    0.14491E+03         0.64491E+01         0.00000E+00
    0.00000E+00         0.00000E+00         0.00000E+00
 
    0.24609E+04         0.18665E+03         0.00000E+00
    0.18665E+03         0.11987E+02         0.00000E+00
    0.00000E+00         0.00000E+00         0.00000E+00
 
    0.24619E+04         0.22842E+03         0.00000E+00
    0.22842E+03         0.18919E+02         0.00000E+00
    0.00000E+00         0.00000E+00         0.00000E+00
 
    0.24600E+04         0.27018E+03         0.00000E+00
    0.27018E+03         0.27246E+02         0.00000E+00
    0.00000E+00         0.00000E+00         0.00000E+00
 
    0.24554E+04         0.31188E+03         0.00000E+00
    0.31188E+03         0.36966E+02         0.00000E+00
    0.00000E+00         0.00000E+00         0.00000E+00
 
    0.24480E+04         0.35347E+03         0.00000E+00
    0.35347E+03         0.48075E+02         0.00000E+00
    0.00000E+00         0.00000E+00         0.00000E+00
 
    0.24377E+04         0.39490E+03         0.00000E+00
    0.39490E+03         0.60571E+02         0.00000E+00
    0.00000E+00         0.00000E+00         0.00000E+00
 
    0.24247E+04         0.43614E+03         0.00000E+00
    0.43614E+03         0.74445E+02         0.00000E+00
    0.00000E+00         0.00000E+00         0.00000E+00
 
    0.24089E+04         0.47712E+03         0.00000E+00
    0.47712E+03         0.89692E+02         0.00000E+00
    0.00000E+00         0.00000E+00         0.00000E+00
 
    0.23903E+04         0.51780E+03         0.00000E+00
    0.51780E+03         0.10630E+03         0.00000E+00
    0.00000E+00         0.00000E+00         0.00000E+00
 
    0.23690E+04         0.55815E+03         0.00000E+00
    0.55815E+03         0.12426E+03         0.00000E+00
    0.00000E+00         0.00000E+00         0.00000E+00
 
    0.23449E+04         0.59810E+03         0.00000E+00
    0.59810E+03         0.14356E+03         0.00000E+00
    0.00000E+00         0.00000E+00         0.00000E+00
 
    0.23181E+04         0.63762E+03         0.00000E+00
    0.63762E+03         0.16419E+03         0.00000E+00
    0.00000E+00         0.00000E+00         0.00000E+00
 
    0.22886E+04         0.67666E+03         0.00000E+00
    0.67666E+03         0.18612E+03         0.00000E+00
    0.00000E+00         0.00000E+00         0.00000E+00
 
    0.22565E+04         0.71518E+03         0.00000E+00
    0.71518E+03         0.20935E+03         0.00000E+00
    0.00000E+00         0.00000E+00         0.00000E+00
 
    0.22216E+04         0.75312E+03         0.00000E+00
    0.75312E+03         0.23385E+03         0.00000E+00
    0.00000E+00         0.00000E+00         0.00000E+00
 
    0.21841E+04         0.79045E+03         0.00000E+00
    0.79045E+03         0.25961E+03         0.00000E+00
    0.00000E+00         0.00000E+00         0.00000E+00
 
    0.21440E+04         0.82711E+03         0.00000E+00
    0.82711E+03         0.28660E+03         0.00000E+00
    0.00000E+00         0.00000E+00         0.00000E+00
 
    0.21013E+04         0.86308E+03         0.00000E+00
    0.86308E+03         0.31481E+03         0.00000E+00
    0.00000E+00         0.00000E+00         0.00000E+00
 
    0.20561E+04         0.89830E+03         0.00000E+00
    0.89830E+03         0.34419E+03         0.00000E+00
    0.00000E+00         0.00000E+00         0.00000E+00
 
    0.20084E+04         0.93273E+03         0.00000E+00
    0.93273E+03         0.37474E+03         0.00000E+00
    0.00000E+00         0.00000E+00         0.00000E+00
 
    0.19582E+04         0.96633E+03         0.00000E+00
    0.96633E+03         0.40643E+03         0.00000E+00
    0.00000E+00         0.00000E+00         0.00000E+00
 
    0.19056E+04         0.99906E+03         0.00000E+00
    0.99906E+03         0.43922E+03         0.00000E+00
    0.00000E+00         0.00000E+00         0.00000E+00
 
    0.18505E+04         0.10309E+04         0.00000E+00
    0.10309E+04         0.47308E+03         0.00000E+00
    0.00000E+00         0.00000E+00         0.00000E+00
 
    0.17932E+04         0.10617E+04         0.00000E+00
    0.10617E+04         0.50799E+03         0.00000E+00
    0.00000E+00         0.00000E+00         0.00000E+00
 
    0.17335E+04         0.10916E+04         0.00000E+00
    0.10916E+04         0.54391E+03         0.00000E+00
    0.00000E+00         0.00000E+00         0.00000E+00
 
    0.16715E+04         0.11205E+04         0.00000E+00
    0.11205E+04         0.58081E+03         0.00000E+00
    0.00000E+00         0.00000E+00         0.00000E+00
 
    0.16074E+04         0.11482E+04         0.00000E+00
    0.11482E+04         0.61865E+03         0.00000E+00
    0.00000E+00         0.00000E+00         0.00000E+00
 
    0.15411E+04         0.11749E+04         0.00000E+00
    0.11749E+04         0.65740E+03         0.00000E+00
    0.00000E+00         0.00000E+00         0.00000E+00
 
    0.14727E+04         0.12005E+04         0.00000E+00
    0.12005E+04         0.69702E+03         0.00000E+00
    0.00000E+00         0.00000E+00         0.00000E+00
 
    0.14022E+04         0.12248E+04         0.00000E+00
    0.12248E+04         0.73747E+03         0.00000E+00
    0.00000E+00         0.00000E+00         0.00000E+00
 
    0.13298E+04         0.12480E+04         0.00000E+00
    0.12480E+04         0.77871E+03         0.00000E+00
    0.00000E+00         0.00000E+00         0.00000E+00
 
    0.12554E+04         0.12699E+04         0.00000E+00
    0.12699E+04         0.82071E+03         0.00000E+00
    0.00000E+00         0.00000E+00         0.00000E+00
 
    0.11791E+04         0.12905E+04         0.00000E+00
    0.12905E+04         0.86341E+03         0.00000E+00
    0.00000E+00         0.00000E+00         0.00000E+00
 
    0.11011E+04         0.13099E+04         0.00000E+00
    0.13099E+04         0.90678E+03         0.00000E+00
    0.00000E+00         0.00000E+00         0.00000E+00
 
    0.10212E+04         0.13279E+04         0.00000E+00
    0.13279E+04         0.95077E+03         0.00000E+00
    0.00000E+00         0.00000E+00         0.00000E+00
 
    0.93974E+03         0.13445E+04         0.00000E+00
    0.13445E+04         0.99534E+03         0.00000E+00
    0.00000E+00         0.00000E+00         0.00000E+00
 
    0.85662E+03         0.13598E+04         0.00000E+00
    0.13598E+04         0.10404E+04         0.00000E+00
    0.00000E+00         0.00000E+00         0.00000E+00
 
    0.77195E+03         0.13737E+04         0.00000E+00
    0.13737E+04         0.10860E+04         0.00000E+00
    0.00000E+00         0.00000E+00         0.00000E+00
 
    0.68581E+03         0.13861E+04         0.00000E+00
    0.13861E+04         0.11320E+04         0.00000E+00
    0.00000E+00         0.00000E+00         0.00000E+00
 
    0.59825E+03         0.13970E+04         0.00000E+00
    0.13970E+04         0.11785E+04         0.00000E+00
    0.00000E+00         0.00000E+00         0.00000E+00
 
    0.50935E+03         0.14064E+04         0.00000E+00
    0.14064E+04         0.12252E+04         0.00000E+00
    0.00000E+00         0.00000E+00         0.00000E+00
 
    0.41920E+03         0.14144E+04         0.00000E+00
    0.14144E+04         0.12722E+04         0.00000E+00
    0.00000E+00         0.00000E+00         0.00000E+00
 
    0.32785E+03         0.14208E+04         0.00000E+00
    0.14208E+04         0.13195E+04         0.00000E+00
    0.00000E+00         0.00000E+00         0.00000E+00
 
    0.23540E+03         0.14257E+04         0.00000E+00
    0.14257E+04         0.13670E+04         0.00000E+00
    0.00000E+00         0.00000E+00         0.00000E+00
 
    0.14190E+03         0.14290E+04         0.00000E+00
    0.14290E+04         0.14146E+04         0.00000E+00
    0.00000E+00         0.00000E+00         0.00000E+00
 
    0.47454E+02         0.14307E+04         0.00000E+00
    0.14307E+04         0.14623E+04         0.00000E+00
    0.00000E+00         0.00000E+00         0.00000E+00
 
    0.26528E+04         0.23911E+02         0.00000E+00
    0.23911E+02        -0.23232E+01         0.00000E+00
    0.00000E+00         0.00000E+00         0.00000E+00
 
    0.26659E+04         0.72488E+02         0.00000E+00
    0.72488E+02        -0.82580E+00         0.00000E+00
    0.00000E+00         0.00000E+00         0.00000E+00
 
    0.26760E+04         0.12127E+03         0.00000E+00
    0.12127E+03         0.21834E+01         0.00000E+00
    0.00000E+00         0.00000E+00         0.00000E+00
 
    0.26831E+04         0.17020E+03         0.00000E+00
    0.17020E+03         0.67096E+01         0.00000E+00
    0.00000E+00         0.00000E+00         0.00000E+00
 
    0.26872E+04         0.21922E+03         0.00000E+00
    0.21922E+03         0.12756E+02         0.00000E+00
    0.00000E+00         0.00000E+00         0.00000E+00
 
    0.26882E+04         0.26828E+03         0.00000E+00
    0.26828E+03         0.20326E+02         0.00000E+00
    0.00000E+00         0.00000E+00         0.00000E+00
 
    0.26861E+04         0.31732E+03         0.00000E+00
    0.31732E+03         0.29417E+02         0.00000E+00
    0.00000E+00         0.00000E+00         0.00000E+00
 
    0.26810E+04         0.36629E+03         0.00000E+00
    0.36629E+03         0.40030E+02         0.00000E+00
    0.00000E+00         0.00000E+00         0.00000E+00
 
    0.26728E+04         0.41513E+03         0.00000E+00
    0.41513E+03         0.52160E+02         0.00000E+00
    0.00000E+00         0.00000E+00         0.00000E+00
 
    0.26616E+04         0.46378E+03         0.00000E+00
    0.46378E+03         0.65803E+02         0.00000E+00
    0.00000E+00         0.00000E+00         0.00000E+00
 
    0.26474E+04         0.51220E+03         0.00000E+00
    0.51220E+03         0.80951E+02         0.00000E+00
    0.00000E+00         0.00000E+00         0.00000E+00
 
    0.26301E+04         0.56033E+03         0.00000E+00
    0.56033E+03         0.97597E+02         0.00000E+00
    0.00000E+00         0.00000E+00         0.00000E+00
 
    0.26098E+04         0.60810E+03         0.00000E+00
    0.60810E+03         0.11573E+03         0.00000E+00
    0.00000E+00         0.00000E+00         0.00000E+00
 
    0.25865E+04         0.65547E+03         0.00000E+00
    0.65547E+03         0.13534E+03         0.00000E+00
    0.00000E+00         0.00000E+00         0.00000E+00
 
    0.25602E+04         0.70239E+03         0.00000E+00
    0.70239E+03         0.15641E+03         0.00000E+00
    0.00000E+00         0.00000E+00         0.00000E+00
 
    0.25309E+04         0.74879E+03         0.00000E+00
    0.74879E+03         0.17893E+03         0.00000E+00
    0.00000E+00         0.00000E+00         0.00000E+00
 
    0.24987E+04         0.79463E+03         0.00000E+00
    0.79463E+03         0.20287E+03         0.00000E+00
    0.00000E+00         0.00000E+00         0.00000E+00
 
    0.24635E+04         0.83985E+03         0.00000E+00
    0.83985E+03         0.22823E+03         0.00000E+00
    0.00000E+00         0.00000E+00         0.00000E+00
 
    0.24254E+04         0.88440E+03         0.00000E+00
    0.88440E+03         0.25498E+03         0.00000E+00
    0.00000E+00         0.00000E+00         0.00000E+00
 
    0.23845E+04         0.92823E+03         0.00000E+00
    0.92823E+03         0.28310E+03         0.00000E+00
    0.00000E+00         0.00000E+00         0.00000E+00
 
    0.23407E+04         0.97128E+03         0.00000E+00
    0.97128E+03         0.31257E+03         0.00000E+00
    0.00000E+00         0.00000E+00         0.00000E+00
 
    0.22941E+04         0.10135E+04         0.00000E+00
    0.10135E+04         0.34335E+03         0.00000E+00
    0.00000E+00         0.00000E+00         0.00000E+00
 
    0.22447E+04         0.10549E+04         0.00000E+00
    0.10549E+04         0.37543E+03         0.00000E+00
    0.00000E+00         0.00000E+00         0.00000E+00
 
    0.21926E+04         0.10953E+04         0.00000E+00
    0.10953E+04         0.40878E+03         0.00000E+00
    0.00000E+00         0.00000E+00         0.00000E+00
 
    0.21377E+04         0.11347E+04         0.00000E+00
    0.11347E+04         0.44337E+03         0.00000E+00
    0.00000E+00         0.00000E+00         0.00000E+00
 
    0.20803E+04         0.11732E+04         0.00000E+00
    0.11732E+04         0.47916E+03         0.00000E+00
    0.00000E+00         0.00000E+00         0.00000E+00
 
    0.20202E+04         0.12105E+04         0.00000E+00
    0.12105E+04         0.51612E+03         0.00000E+00
    0.00000E+00         0.00000E+00         0.00000E+00
 
    0.19575E+04         0.12467E+04         0.00000E+00
    0.12467E+04         0.55423E+03         0.00000E+00
    0.00000E+00         0.00000E+00         0.00000E+00
 
    0.18923E+04         0.12818E+04         0.00000E+00
    0.12818E+04         0.59344E+03         0.00000E+00
    0.00000E+00         0.00000E+00         0.00000E+00
 
    0.18247E+04         0.13157E+04         0.00000E+00
    0.13157E+04         0.63372E+03         0.00000E+00
    0.00000E+00         0.00000E+00         0.00000E+00
 
    0.17547E+04         0.13483E+04         0.00000E+00
    0.13483E+04         0.67502E+03         0.00000E+00
    0.00000E+00         0.00000E+00         0.00000E+00
 
    0.16823E+04         0.13796E+04         0.00000E+00
    0.13796E+04         0.71732E+03         0.00000E+00
    0.00000E+00         0.00000E+00         0.00000E+00
 
    0.16076E+04         0.14096E+04         0.00000E+00
    0.14096E+04         0.76056E+03         0.00000E+00
    0.00000E+00         0.00000E+00         0.00000E+00
 
    0.15307E+04         0.14382E+04         0.00000E+00
    0.14382E+04         0.80472E+03         0.00000E+00
    0.00000E+00         0.00000E+00         0.00000E+00
 
    0.14516E+04         0.14654E+04         0.00000E+00
    0.14654E+04         0.84973E+03         0.00000E+00
    0.00000E+00         0.00000E+00         0.00000E+00
 
    0.13704E+04         0.14911E+04         0.00000E+00
    0.14911E+04         0.89557E+03         0.00000E+00
    0.00000E+00         0.00000E+00         0.00000E+00
 
    0.12871E+04         0.15154E+04         0.00000E+00
    0.15154E+04         0.94218E+03         0.00000E+00
    0.00000E+00         0.00000E+00         0.00000E+00
 
    0.12019E+04         0.15381E+04         0.00000E+00
    0.15381E+04         0.98951E+03         0.00000E+00
    0.00000E+00         0.00000E+00         0.00000E+00
 
    0.11148E+04         0.15592E+04         0.00000E+00
    0.15592E+04         0.10375E+04         0.00000E+00
    0.00000E+00         0.00000E+00         0.00000E+00
 
    0.10258E+04         0.15788E+04         0.00000E+00
    0.15788E+04         0.10862E+04         0.00000E+00
    0.00000E+00         0.00000E+00         0.00000E+00
 
    0.93506E+03         0.15967E+04         0.00000E+00
    0.15967E+04         0.11354E+04         0.00000E+00
    0.00000E+00         0.00000E+00         0.00000E+00
 
    0.84264E+03         0.16129E+04         0.00000E+00
    0.16129E+04         0.11852E+04         0.00000E+00
    0.00000E+00         0.00000E+00         0.00000E+00
 
    0.74860E+03         0.16275E+04         0.00000E+00
    0.16275E+04         0.12354E+04         0.00000E+00
    0.00000E+00         0.00000E+00         0.00000E+00
 
    0.65302E+03         0.16403E+04         0.00000E+00
    0.16403E+04         0.12860E+04         0.00000E+00
    0.00000E+00         0.00000E+00         0.00000E+00
 
    0.55599E+03         0.16514E+04         0.00000E+00
    0.16514E+04         0.13371E+04         0.00000E+00
    0.00000E+00         0.00000E+00         0.00000E+00
 
    0.45757E+03         0.16607E+04         0.00000E+00
    0.16607E+04         0.13884E+04         0.00000E+00
    0.00000E+00         0.00000E+00         0.00000E+00
 
    0.35787E+03         0.16683E+04         0.00000E+00
    0.16683E+04         0.14400E+04         0.00000E+00
    0.00000E+00         0.00000E+00         0.00000E+00
 
    0.25694E+03         0.16740E+04         0.00000E+00
    0.16740E+04         0.14918E+04         0.00000E+00
    0.00000E+00         0.00000E+00         0.00000E+00
 
    0.15489E+03         0.16779E+04         0.00000E+00
    0.16779E+04         0.15438E+04         0.00000E+00
    0.00000E+00         0.00000E+00         0.00000E+00
 
    0.51798E+02         0.16799E+04         0.00000E+00
    0.16799E+04         0.15958E+04         0.00000E+00
    0.00000E+00         0.00000E+00         0.00000E+00
 
    0.29139E+04         0.27804E+02         0.00000E+00
    0.27804E+02        -0.29293E+01         0.00000E+00
    0.00000E+00         0.00000E+00         0.00000E+00
 
    0.29282E+04         0.84286E+02         0.00000E+00
    0.84286E+02        -0.12846E+01         0.00000E+00
    0.00000E+00         0.00000E+00         0.00000E+00
 
    0.29393E+04         0.14100E+03         0.00000E+00
    0.14100E+03         0.20206E+01         0.00000E+00
    0.00000E+00         0.00000E+00         0.00000E+00
 
    0.29470E+04         0.19789E+03         0.00000E+00
    0.19789E+03         0.69920E+01         0.00000E+00
    0.00000E+00         0.00000E+00         0.00000E+00
 
    0.29514E+04         0.25489E+03         0.00000E+00
    0.25489E+03         0.13633E+02         0.00000E+00
    0.00000E+00         0.00000E+00         0.00000E+00
 
    0.29525E+04         0.31192E+03         0.00000E+00
    0.31192E+03         0.21947E+02         0.00000E+00
    0.00000E+00         0.00000E+00         0.00000E+00
 
    0.29502E+04         0.36894E+03         0.00000E+00
    0.36894E+03         0.31932E+02         0.00000E+00
    0.00000E+00         0.00000E+00         0.00000E+00
 
    0.29445E+04         0.42587E+03         0.00000E+00
    0.42587E+03         0.43587E+02         0.00000E+00
    0.00000E+00         0.00000E+00         0.00000E+00
 
    0.29355E+04         0.48265E+03         0.00000E+00
    0.48265E+03         0.56909E+02         0.00000E+00
    0.00000E+00         0.00000E+00         0.00000E+00
 
    0.29231E+04         0.53921E+03         0.00000E+00
    0.53921E+03         0.71891E+02         0.00000E+00
    0.00000E+00         0.00000E+00         0.00000E+00
 
    0.29075E+04         0.59550E+03         0.00000E+00
    0.59550E+03         0.88527E+02         0.00000E+00
    0.00000E+00         0.00000E+00         0.00000E+00
 
    0.28884E+04         0.65145E+03         0.00000E+00
    0.65145E+03         0.10681E+03         0.00000E+00
    0.00000E+00         0.00000E+00         0.00000E+00
 
    0.28661E+04         0.70698E+03         0.00000E+00
    0.70698E+03         0.12672E+03         0.00000E+00
    0.00000E+00         0.00000E+00         0.00000E+00
 
    0.28405E+04         0.76205E+03         0.00000E+00
    0.76205E+03         0.14825E+03         0.00000E+00
    0.00000E+00         0.00000E+00         0.00000E+00
 
    0.28115E+04         0.81659E+03         0.00000E+00
    0.81659E+03         0.17139E+03         0.00000E+00
    0.00000E+00         0.00000E+00         0.00000E+00
 
    0.27793E+04         0.87053E+03         0.00000E+00
    0.87053E+03         0.19612E+03         0.00000E+00
    0.00000E+00         0.00000E+00         0.00000E+00
 
    0.27439E+04         0.92381E+03         0.00000E+00
    0.92381E+03         0.22241E+03         0.00000E+00
    0.00000E+00         0.00000E+00         0.00000E+00
 
    0.27052E+04         0.97637E+03         0.00000E+00
    0.97637E+03         0.25026E+03         0.00000E+00
    0.00000E+00         0.00000E+00         0.00000E+00
 
    0.26634E+04         0.10282E+04         0.00000E+00
    0.10282E+04         0.27963E+03         0.00000E+00
    0.00000E+00         0.00000E+00         0.00000E+00
 
    0.26184E+04         0.10791E+04         0.00000E+00
    0.10791E+04         0.31050E+03         0.00000E+00
    0.00000E+00         0.00000E+00         0.00000E+00
 
    0.25703E+04         0.11291E+04         0.00000E+00
    0.11291E+04         0.34286E+03         0.00000E+00
    0.00000E+00         0.00000E+00         0.00000E+00
 
    0.25191E+04         0.11782E+04         0.00000E+00
    0.11782E+04         0.37666E+03         0.00000E+00
    0.00000E+00         0.00000E+00         0.00000E+00
 
    0.24648E+04         0.12263E+04         0.00000E+00
    0.12263E+04         0.41189E+03         0.00000E+00
    0.00000E+00         0.00000E+00         0.00000E+00
 
    0.24076E+04         0.12733E+04         0.00000E+00
    0.12733E+04         0.44850E+03         0.00000E+00
    0.00000E+00         0.00000E+00         0.00000E+00
 
    0.23473E+04         0.13191E+04         0.00000E+00
    0.13191E+04         0.48647E+03         0.00000E+00
    0.00000E+00         0.00000E+00         0.00000E+00
 
    0.22842E+04         0.13638E+04         0.00000E+00
    0.13638E+04         0.52577E+03         0.00000E+00
    0.00000E+00         0.00000E+00         0.00000E+00
 
    0.22182E+04         0.14072E+04         0.00000E+00
    0.14072E+04         0.56636E+03         0.00000E+00
    0.00000E+00         0.00000E+00         0.00000E+00
 
    0.21494E+04         0.14493E+04         0.00000E+00
    0.14493E+04         0.60819E+03         0.00000E+00
    0.00000E+00         0.00000E+00         0.00000E+00
 
    0.20778E+04         0.14901E+04         0.00000E+00
    0.14901E+04         0.65124E+03         0.00000E+00
    0.00000E+00         0.00000E+00         0.00000E+00
 
    0.20035E+04         0.15294E+04         0.00000E+00
    0.15294E+04         0.69546E+03         0.00000E+00
    0.00000E+00         0.00000E+00         0.00000E+00
 
    0.19266E+04         0.15673E+04         0.00000E+00
    0.15673E+04         0.74081E+03         0.00000E+00
    0.00000E+00         0.00000E+00         0.00000E+00
 
    0.18471E+04         0.16037E+04         0.00000E+00
    0.16037E+04         0.78725E+03         0.00000E+00
    0.00000E+00         0.00000E+00         0.00000E+00
 
    0.17651E+04         0.16386E+04         0.00000E+00
    0.16386E+04         0.83473E+03         0.00000E+00
    0.00000E+00         0.00000E+00         0.00000E+00
 
    0.16806E+04         0.16718E+04         0.00000E+00
    0.16718E+04         0.88320E+03         0.00000E+00
    0.00000E+00         0.00000E+00         0.00000E+00
 
    0.15938E+04         0.17034E+04         0.00000E+00
    0.17034E+04         0.93262E+03         0.00000E+00
    0.00000E+00         0.00000E+00         0.00000E+00
 
    0.15046E+04         0.17333E+04         0.00000E+00
    0.17333E+04         0.98294E+03         0.00000E+00
    0.00000E+00         0.00000E+00         0.00000E+00
 
    0.14132E+04         0.17615E+04         0.00000E+00
    0.17615E+04         0.10341E+04         0.00000E+00
    0.00000E+00         0.00000E+00         0.00000E+00
 
    0.13196E+04         0.17879E+04         0.00000E+00
    0.17879E+04         0.10861E+04         0.00000E+00
    0.00000E+00         0.00000E+00         0.00000E+00
 
    0.12239E+04         0.18124E+04         0.00000E+00
    0.18124E+04         0.11388E+04         0.00000E+00
    0.00000E+00         0.00000E+00         0.00000E+00
 
    0.11263E+04         0.18352E+04         0.00000E+00
    0.18352E+04         0.11922E+04         0.00000E+00
    0.00000E+00         0.00000E+00         0.00000E+00
 
    0.10266E+04         0.18560E+04         0.00000E+00
    0.18560E+04         0.12462E+04         0.00000E+00
    0.00000E+00         0.00000E+00         0.00000E+00
 
    0.92515E+03         0.18749E+04         0.00000E+00
    0.18749E+04         0.13009E+04         0.00000E+00
    0.00000E+00         0.00000E+00         0.00000E+00
 
    0.82190E+03         0.18918E+04         0.00000E+00
    0.18918E+04         0.13560E+04         0.00000E+00
    0.00000E+00         0.00000E+00         0.00000E+00
 
    0.71696E+03         0.19067E+04         0.00000E+00
    0.19067E+04         0.14116E+04         0.00000E+00
    0.00000E+00         0.00000E+00         0.00000E+00
 
    0.61042E+03         0.19196E+04         0.00000E+00
    0.19196E+04         0.14676E+04         0.00000E+00
    0.00000E+00         0.00000E+00         0.00000E+00
 
    0.50237E+03         0.19305E+04         0.00000E+00
    0.19305E+04         0.15240E+04         0.00000E+00
    0.00000E+00         0.00000E+00         0.00000E+00
 
    0.39290E+03         0.19392E+04         0.00000E+00
    0.19392E+04         0.15807E+04         0.00000E+00
    0.00000E+00         0.00000E+00         0.00000E+00
 
    0.28210E+03         0.19459E+04         0.00000E+00
    0.19459E+04         0.16375E+04         0.00000E+00
    0.00000E+00         0.00000E+00         0.00000E+00
 
    0.17006E+03         0.19504E+04         0.00000E+00
    0.19504E+04         0.16946E+04         0.00000E+00
    0.00000E+00         0.00000E+00         0.00000E+00
 
    0.56869E+02         0.19527E+04         0.00000E+00
    0.19527E+04         0.17517E+04         0.00000E+00
    0.00000E+00         0.00000E+00         0.00000E+00
 
    0.32162E+04         0.32091E+02         0.00000E+00
    0.32091E+02        -0.36673E+01         0.00000E+00
    0.00000E+00         0.00000E+00         0.00000E+00
 
    0.32320E+04         0.97279E+02         0.00000E+00
    0.97279E+02        -0.18519E+01         0.00000E+00
    0.00000E+00         0.00000E+00         0.00000E+00
 
    0.32441E+04         0.16274E+03         0.00000E+00
    0.16274E+03         0.17961E+01         0.00000E+00
    0.00000E+00         0.00000E+00         0.00000E+00
 
    0.32526E+04         0.22839E+03         0.00000E+00
    0.22839E+03         0.72830E+01         0.00000E+00
    0.00000E+00         0.00000E+00         0.00000E+00
 
    0.32574E+04         0.29416E+03         0.00000E+00
    0.29416E+03         0.14613E+02         0.00000E+00
    0.00000E+00         0.00000E+00         0.00000E+00
 
    0.32585E+04         0.35998E+03         0.00000E+00
    0.35998E+03         0.23788E+02         0.00000E+00
    0.00000E+00         0.00000E+00         0.00000E+00
 
    0.32559E+04         0.42578E+03         0.00000E+00
    0.42578E+03         0.34807E+02         0.00000E+00
    0.00000E+00         0.00000E+00         0.00000E+00
 
    0.32496E+04         0.49147E+03         0.00000E+00
    0.49147E+03         0.47670E+02         0.00000E+00
    0.00000E+00         0.00000E+00         0.00000E+00
 
    0.32396E+04         0.55699E+03         0.00000E+00
    0.55699E+03         0.62371E+02         0.00000E+00
    0.00000E+00         0.00000E+00         0.00000E+00
 
    0.32259E+04         0.62226E+03         0.00000E+00
    0.62226E+03         0.78905E+02         0.00000E+00
    0.00000E+00         0.00000E+00         0.00000E+00
 
    0.32085E+04         0.68721E+03         0.00000E+00
    0.68721E+03         0.97263E+02         0.00000E+00
    0.00000E+00         0.00000E+00         0.00000E+00
 
    0.31875E+04         0.75176E+03         0.00000E+00
    0.75176E+03         0.11743E+03         0.00000E+00
    0.00000E+00         0.00000E+00         0.00000E+00
 
    0.31628E+04         0.81584E+03         0.00000E+00
    0.81584E+03         0.13941E+03         0.00000E+00
    0.00000E+00         0.00000E+00         0.00000E+00
 
    0.31345E+04         0.87938E+03         0.00000E+00
    0.87938E+03         0.16317E+03         0.00000E+00
    0.00000E+00         0.00000E+00         0.00000E+00
 
    0.31025E+04         0.94231E+03         0.00000E+00
    0.94231E+03         0.18870E+03         0.00000E+00
    0.00000E+00         0.00000E+00         0.00000E+00
 
    0.30669E+04         0.10045E+04         0.00000E+00
    0.10045E+04         0.21598E+03         0.00000E+00
    0.00000E+00         0.00000E+00         0.00000E+00
 
    0.30278E+04         0.10660E+04         0.00000E+00
    0.10660E+04         0.24499E+03         0.00000E+00
    0.00000E+00         0.00000E+00         0.00000E+00
 
    0.29851E+04         0.11267E+04         0.00000E+00
    0.11267E+04         0.27572E+03         0.00000E+00
    0.00000E+00         0.00000E+00         0.00000E+00
 
    0.29389E+04         0.11864E+04         0.00000E+00
    0.11864E+04         0.30813E+03         0.00000E+00
    0.00000E+00         0.00000E+00         0.00000E+00
 
    0.28892E+04         0.12452E+04         0.00000E+00
    0.12452E+04         0.34219E+03         0.00000E+00
    0.00000E+00         0.00000E+00         0.00000E+00
 
    0.28361E+04         0.13029E+04         0.00000E+00
    0.13029E+04         0.37789E+03         0.00000E+00
    0.00000E+00         0.00000E+00         0.00000E+00
 
    0.27795E+04         0.13595E+04         0.00000E+00
    0.13595E+04         0.41518E+03         0.00000E+00
    0.00000E+00         0.00000E+00         0.00000E+00
 
    0.27196E+04         0.14150E+04         0.00000E+00
    0.14150E+04         0.45405E+03         0.00000E+00
    0.00000E+00         0.00000E+00         0.00000E+00
 
    0.26564E+04         0.14692E+04         0.00000E+00
    0.14692E+04         0.49444E+03         0.00000E+00
    0.00000E+00         0.00000E+00         0.00000E+00
 
    0.25899E+04         0.15221E+04         0.00000E+00
    0.15221E+04         0.53634E+03         0.00000E+00
    0.00000E+00         0.00000E+00         0.00000E+00
 
    0.25203E+04         0.15736E+04         0.00000E+00
    0.15736E+04         0.57969E+03         0.00000E+00
    0.00000E+00         0.00000E+00         0.00000E+00
 
    0.24474E+04         0.16237E+04         0.00000E+00
    0.16237E+04         0.62446E+03         0.00000E+00
    0.00000E+00         0.00000E+00         0.00000E+00
 
    0.23715E+04         0.16722E+04         0.00000E+00
    0.16722E+04         0.67062E+03         0.00000E+00
    0.00000E+00         0.00000E+00         0.00000E+00
 
    0.22925E+04         0.17193E+04         0.00000E+00
    0.17193E+04         0.71811E+03         0.00000E+00
    0.00000E+00         0.00000E+00         0.00000E+00
 
    0.22105E+04         0.17647E+04         0.00000E+00
    0.17647E+04         0.76689E+03         0.00000E+00
    0.00000E+00         0.00000E+00         0.00000E+00
 
    0.21256E+04         0.18084E+04         0.00000E+00
    0.18084E+04         0.81692E+03         0.00000E+00
    0.00000E+00         0.00000E+00         0.00000E+00
 
    0.20379E+04         0.18504E+04         0.00000E+00
    0.18504E+04         0.86815E+03         0.00000E+00
    0.00000E+00         0.00000E+00         0.00000E+00
 
    0.19474E+04         0.18906E+04         0.00000E+00
    0.18906E+04         0.92052E+03         0.00000E+00
    0.00000E+00         0.00000E+00         0.00000E+00
 
    0.18542E+04         0.19289E+04         0.00000E+00
    0.19289E+04         0.97400E+03         0.00000E+00
    0.00000E+00         0.00000E+00         0.00000E+00
 
    0.17584E+04         0.19654E+04         0.00000E+00
    0.19654E+04         0.10285E+04         0.00000E+00
    0.00000E+00         0.00000E+00         0.00000E+00
 
    0.16600E+04         0.19999E+04         0.00000E+00
    0.19999E+04         0.10840E+04         0.00000E+00
    0.00000E+00         0.00000E+00         0.00000E+00
 
    0.15591E+04         0.20324E+04         0.00000E+00
    0.20324E+04         0.11405E+04         0.00000E+00
    0.00000E+00         0.00000E+00         0.00000E+00
 
    0.14558E+04         0.20628E+04         0.00000E+00
    0.20628E+04         0.11978E+04         0.00000E+00
    0.00000E+00         0.00000E+00         0.00000E+00
 
    0.13503E+04         0.20912E+04         0.00000E+00
    0.20912E+04         0.12559E+04         0.00000E+00
    0.00000E+00         0.00000E+00         0.00000E+00
 
    0.12425E+04         0.21174E+04         0.00000E+00
    0.21174E+04         0.13149E+04         0.00000E+00
    0.00000E+00         0.00000E+00         0.00000E+00
 
    0.11326E+04         0.21414E+04         0.00000E+00
    0.21414E+04         0.13745E+04         0.00000E+00
    0.00000E+00         0.00000E+00         0.00000E+00
 
    0.10206E+04         0.21632E+04         0.00000E+00
    0.21632E+04         0.14347E+04         0.00000E+00
    0.00000E+00         0.00000E+00         0.00000E+00
 
    0.90672E+03         0.21827E+04         0.00000E+00
    0.21827E+04         0.14956E+04         0.00000E+00
    0.00000E+00         0.00000E+00         0.00000E+00
 
    0.79095E+03         0.21999E+04         0.00000E+00
    0.21999E+04         0.15569E+04         0.00000E+00
    0.00000E+00         0.00000E+00         0.00000E+00
 
    0.67341E+03         0.22148E+04         0.00000E+00
    0.22148E+04         0.16187E+04         0.00000E+00
    0.00000E+00         0.00000E+00         0.00000E+00
 
    0.55421E+03         0.22273E+04         0.00000E+00
    0.22273E+04         0.16809E+04         0.00000E+00
    0.00000E+00         0.00000E+00         0.00000E+00
 
    0.43344E+03         0.22374E+04         0.00000E+00
    0.22374E+04         0.17434E+04         0.00000E+00
    0.00000E+00         0.00000E+00         0.00000E+00
 
    0.31121E+03         0.22451E+04         0.00000E+00
    0.22451E+04         0.18061E+04         0.00000E+00
    0.00000E+00         0.00000E+00         0.00000E+00
 
    0.18760E+03         0.22503E+04         0.00000E+00
    0.22503E+04         0.18691E+04         0.00000E+00
    0.00000E+00         0.00000E+00         0.00000E+00
 
    0.62736E+02         0.22530E+04         0.00000E+00
    0.22530E+04         0.19321E+04         0.00000E+00
    0.00000E+00         0.00000E+00         0.00000E+00
 
    0.35640E+04         0.36834E+02         0.00000E+00
    0.36834E+02        -0.45684E+01         0.00000E+00
    0.00000E+00         0.00000E+00         0.00000E+00
 
    0.35814E+04         0.11165E+03         0.00000E+00
    0.11165E+03        -0.25565E+01         0.00000E+00
    0.00000E+00         0.00000E+00         0.00000E+00
 
    0.35948E+04         0.18677E+03         0.00000E+00
    0.18677E+03         0.14860E+01         0.00000E+00
    0.00000E+00         0.00000E+00         0.00000E+00
 
    0.36041E+04         0.26212E+03         0.00000E+00
    0.26212E+03         0.75659E+01         0.00000E+00
    0.00000E+00         0.00000E+00         0.00000E+00
 
    0.36093E+04         0.33760E+03         0.00000E+00
    0.33760E+03         0.15688E+02         0.00000E+00
    0.00000E+00         0.00000E+00         0.00000E+00
 
    0.36105E+04         0.41313E+03         0.00000E+00
    0.41313E+03         0.25854E+02         0.00000E+00
    0.00000E+00         0.00000E+00         0.00000E+00
 
    0.36075E+04         0.48864E+03         0.00000E+00
    0.48864E+03         0.38064E+02         0.00000E+00
    0.00000E+00         0.00000E+00         0.00000E+00
 
    0.36005E+04         0.56402E+03         0.00000E+00
    0.56402E+03         0.52315E+02         0.00000E+00
    0.00000E+00         0.00000E+00         0.00000E+00
 
    0.35894E+04         0.63921E+03         0.00000E+00
    0.63921E+03         0.68603E+02         0.00000E+00
    0.00000E+00         0.00000E+00         0.00000E+00
 
    0.35742E+04         0.71410E+03         0.00000E+00
    0.71410E+03         0.86921E+02         0.00000E+00
    0.00000E+00         0.00000E+00         0.00000E+00
 
    0.35549E+04         0.78863E+03         0.00000E+00
    0.78863E+03         0.10726E+03         0.00000E+00
    0.00000E+00         0.00000E+00         0.00000E+00
 
    0.35315E+04         0.86269E+03         0.00000E+00
    0.86269E+03         0.12961E+03         0.00000E+00
    0.00000E+00         0.00000E+00         0.00000E+00
 
    0.35041E+04         0.93622E+03         0.00000E+00
    0.93622E+03         0.15395E+03         0.00000E+00
    0.00000E+00         0.00000E+00         0.00000E+00
 
    0.34726E+04         0.10091E+04         0.00000E+00
    0.10091E+04         0.18027E+03         0.00000E+00
    0.00000E+00         0.00000E+00         0.00000E+00
 
    0.34372E+04         0.10813E+04         0.00000E+00
    0.10813E+04         0.20855E+03         0.00000E+00
    0.00000E+00         0.00000E+00         0.00000E+00
 
    0.33977E+04         0.11527E+04         0.00000E+00
    0.11527E+04         0.23878E+03         0.00000E+00
    0.00000E+00         0.00000E+00         0.00000E+00
 
    0.33543E+04         0.12232E+04         0.00000E+00
    0.12232E+04         0.27092E+03         0.00000E+00
    0.00000E+00         0.00000E+00         0.00000E+00
 
    0.33069E+04         0.12928E+04         0.00000E+00
    0.12928E+04         0.30495E+03         0.00000E+00
    0.00000E+00         0.00000E+00         0.00000E+00
 
    0.32557E+04         0.13614E+04         0.00000E+00
    0.13614E+04         0.34085E+03         0.00000E+00
    0.00000E+00         0.00000E+00         0.00000E+00
 
    0.32006E+04         0.14288E+04         0.00000E+00
    0.14288E+04         0.37858E+03         0.00000E+00
    0.00000E+00         0.00000E+00         0.00000E+00
 
    0.31417E+04         0.14950E+04         0.00000E+00
    0.14950E+04         0.41812E+03         0.00000E+00
    0.00000E+00         0.00000E+00         0.00000E+00
 
    0.30790E+04         0.15600E+04         0.00000E+00
    0.15600E+04         0.45943E+03         0.00000E+00
    0.00000E+00         0.00000E+00         0.00000E+00
 
    0.30127E+04         0.16236E+04         0.00000E+00
    0.16236E+04         0.50248E+03         0.00000E+00
    0.00000E+00         0.00000E+00         0.00000E+00
 
    0.29426E+04         0.16858E+04         0.00000E+00
    0.16858E+04         0.54722E+03         0.00000E+00
    0.00000E+00         0.00000E+00         0.00000E+00
 
    0.28689E+04         0.17464E+04         0.00000E+00
    0.17464E+04         0.59362E+03         0.00000E+00
    0.00000E+00         0.00000E+00         0.00000E+00
 
    0.27917E+04         0.18055E+04         0.00000E+00
    0.18055E+04         0.64164E+03         0.00000E+00
    0.00000E+00         0.00000E+00         0.00000E+00
 
    0.27110E+04         0.18630E+04         0.00000E+00
    0.18630E+04         0.69123E+03         0.00000E+00
    0.00000E+00         0.00000E+00         0.00000E+00
 
    0.26268E+04         0.19187E+04         0.00000E+00
    0.19187E+04         0.74235E+03         0.00000E+00
    0.00000E+00         0.00000E+00         0.00000E+00
 
    0.25393E+04         0.19727E+04         0.00000E+00
    0.19727E+04         0.79495E+03         0.00000E+00
    0.00000E+00         0.00000E+00         0.00000E+00
 
    0.24485E+04         0.20247E+04         0.00000E+00
    0.20247E+04         0.84898E+03         0.00000E+00
    0.00000E+00         0.00000E+00         0.00000E+00
 
    0.23545E+04         0.20749E+04         0.00000E+00
    0.20749E+04         0.90439E+03         0.00000E+00
    0.00000E+00         0.00000E+00         0.00000E+00
 
    0.22573E+04         0.21231E+04         0.00000E+00
    0.21231E+04         0.96112E+03         0.00000E+00
    0.00000E+00         0.00000E+00         0.00000E+00
 
    0.21570E+04         0.21692E+04         0.00000E+00
    0.21692E+04         0.10191E+04         0.00000E+00
    0.00000E+00         0.00000E+00         0.00000E+00
 
    0.20537E+04         0.22132E+04         0.00000E+00
    0.22132E+04         0.10784E+04         0.00000E+00
    0.00000E+00         0.00000E+00         0.00000E+00
 
    0.19476E+04         0.22550E+04         0.00000E+00
    0.22550E+04         0.11387E+04         0.00000E+00
    0.00000E+00         0.00000E+00         0.00000E+00
 
    0.18386E+04         0.22945E+04         0.00000E+00
    0.22945E+04         0.12002E+04         0.00000E+00
    0.00000E+00         0.00000E+00         0.00000E+00
 
    0.17269E+04         0.23318E+04         0.00000E+00
    0.23318E+04         0.12627E+04         0.00000E+00
    0.00000E+00         0.00000E+00         0.00000E+00
 
    0.16125E+04         0.23667E+04         0.00000E+00
    0.23667E+04         0.13262E+04         0.00000E+00
    0.00000E+00         0.00000E+00         0.00000E+00
 
    0.14956E+04         0.23992E+04         0.00000E+00
    0.23992E+04         0.13906E+04         0.00000E+00
    0.00000E+00         0.00000E+00         0.00000E+00
 
    0.13762E+04         0.24293E+04         0.00000E+00
    0.24293E+04         0.14558E+04         0.00000E+00
    0.00000E+00         0.00000E+00         0.00000E+00
 
    0.12544E+04         0.24569E+04         0.00000E+00
    0.24569E+04         0.15219E+04         0.00000E+00
    0.00000E+00         0.00000E+00         0.00000E+00
 
    0.11304E+04         0.24819E+04         0.00000E+00
    0.24819E+04         0.15886E+04         0.00000E+00
    0.00000E+00         0.00000E+00         0.00000E+00
 
    0.10042E+04         0.25043E+04         0.00000E+00
    0.25043E+04         0.16560E+04         0.00000E+00
    0.00000E+00         0.00000E+00         0.00000E+00
 
    0.87601E+03         0.25240E+04         0.00000E+00
    0.25240E+04         0.17239E+04         0.00000E+00
    0.00000E+00         0.00000E+00         0.00000E+00
 
    0.74583E+03         0.25411E+04         0.00000E+00
    0.25411E+04         0.17924E+04         0.00000E+00
    0.00000E+00         0.00000E+00         0.00000E+00
 
    0.61381E+03         0.25555E+04         0.00000E+00
    0.25555E+04         0.18612E+04         0.00000E+00
    0.00000E+00         0.00000E+00         0.00000E+00
 
    0.48005E+03         0.25671E+04         0.00000E+00
    0.25671E+04         0.19304E+04         0.00000E+00
    0.00000E+00         0.00000E+00         0.00000E+00
 
    0.34467E+03         0.25759E+04         0.00000E+00
    0.25759E+04         0.19999E+04         0.00000E+00
    0.00000E+00         0.00000E+00         0.00000E+00
 
    0.20778E+03         0.25818E+04         0.00000E+00
    0.25818E+04         0.20696E+04         0.00000E+00
    0.00000E+00         0.00000E+00         0.00000E+00
 
    0.69482E+02         0.25849E+04         0.00000E+00
    0.25849E+04         0.21394E+04         0.00000E+00
    0.00000E+00         0.00000E+00         0.00000E+00
 
    0.39622E+04         0.42099E+02         0.00000E+00
    0.42099E+02        -0.56704E+01         0.00000E+00
    0.00000E+00         0.00000E+00         0.00000E+00
 
    0.39815E+04         0.12760E+03         0.00000E+00
    0.12760E+03        -0.34337E+01         0.00000E+00
    0.00000E+00         0.00000E+00         0.00000E+00
 
    0.39962E+04         0.21345E+03         0.00000E+00
    0.21345E+03         0.10605E+01         0.00000E+00
    0.00000E+00         0.00000E+00         0.00000E+00
 
    0.40065E+04         0.29955E+03         0.00000E+00
    0.29955E+03         0.78195E+01         0.00000E+00
    0.00000E+00         0.00000E+00         0.00000E+00
 
    0.40123E+04         0.38581E+03         0.00000E+00
    0.38581E+03         0.16848E+02         0.00000E+00
    0.00000E+00         0.00000E+00         0.00000E+00
 
    0.40135E+04         0.47213E+03         0.00000E+00
    0.47213E+03         0.28149E+02         0.00000E+00
    0.00000E+00         0.00000E+00         0.00000E+00
 
    0.40101E+04         0.55840E+03         0.00000E+00
    0.55840E+03         0.41721E+02         0.00000E+00
    0.00000E+00         0.00000E+00         0.00000E+00
 
    0.40022E+04         0.64454E+03         0.00000E+00
    0.64454E+03         0.57562E+02         0.00000E+00
    0.00000E+00         0.00000E+00         0.00000E+00
 
    0.39898E+04         0.73045E+03         0.00000E+00
    0.73045E+03         0.75667E+02         0.00000E+00
    0.00000E+00         0.00000E+00         0.00000E+00
 
    0.39728E+04         0.81602E+03         0.00000E+00
    0.81602E+03         0.96028E+02         0.00000E+00
    0.00000E+00         0.00000E+00         0.00000E+00
 
    0.39513E+04         0.90117E+03         0.00000E+00
    0.90117E+03         0.11863E+03         0.00000E+00
    0.00000E+00         0.00000E+00         0.00000E+00
 
    0.39252E+04         0.98579E+03         0.00000E+00
    0.98579E+03         0.14347E+03         0.00000E+00
    0.00000E+00         0.00000E+00         0.00000E+00
 
    0.38947E+04         0.10698E+04         0.00000E+00
    0.10698E+04         0.17053E+03         0.00000E+00
    0.00000E+00         0.00000E+00         0.00000E+00
 
    0.38596E+04         0.11531E+04         0.00000E+00
    0.11531E+04         0.19978E+03         0.00000E+00
    0.00000E+00         0.00000E+00         0.00000E+00
 
    0.38202E+04         0.12356E+04         0.00000E+00
    0.12356E+04         0.23121E+03         0.00000E+00
    0.00000E+00         0.00000E+00         0.00000E+00
 
    0.37763E+04         0.13171E+04         0.00000E+00
    0.13171E+04         0.26480E+03         0.00000E+00
    0.00000E+00         0.00000E+00         0.00000E+00
 
    0.37279E+04         0.13977E+04         0.00000E+00
    0.13977E+04         0.30052E+03         0.00000E+00
    0.00000E+00         0.00000E+00         0.00000E+00
 
    0.36753E+04         0.14772E+04         0.00000E+00
    0.14772E+04         0.33834E+03         0.00000E+00
    0.00000E+00         0.00000E+00         0.00000E+00
 
    0.36183E+04         0.15555E+04         0.00000E+00
    0.15555E+04         0.37823E+03         0.00000E+00
    0.00000E+00         0.00000E+00         0.00000E+00
 
    0.35570E+04         0.16325E+04         0.00000E+00
    0.16325E+04         0.42016E+03         0.00000E+00
    0.00000E+00         0.00000E+00         0.00000E+00
 
    0.34915E+04         0.17082E+04         0.00000E+00
    0.17082E+04         0.46410E+03         0.00000E+00
    0.00000E+00         0.00000E+00         0.00000E+00
 
    0.34218E+04         0.17824E+04         0.00000E+00
    0.17824E+04         0.51001E+03         0.00000E+00
    0.00000E+00         0.00000E+00         0.00000E+00
 
    0.33480E+04         0.18550E+04         0.00000E+00
    0.18550E+04         0.55784E+03         0.00000E+00
    0.00000E+00         0.00000E+00         0.00000E+00
 
    0.32701E+04         0.19261E+04         0.00000E+00
    0.19261E+04         0.60756E+03         0.00000E+00
    0.00000E+00         0.00000E+00         0.00000E+00
 
    0.31882E+04         0.19954E+04         0.00000E+00
    0.19954E+04         0.65912E+03         0.00000E+00
    0.00000E+00         0.00000E+00         0.00000E+00
 
    0.31023E+04         0.20629E+04         0.00000E+00
    0.20629E+04         0.71247E+03         0.00000E+00
    0.00000E+00         0.00000E+00         0.00000E+00
 
    0.30126E+04         0.21285E+04         0.00000E+00
    0.21285E+04         0.76757E+03         0.00000E+00
    0.00000E+00         0.00000E+00         0.00000E+00
 
    0.29190E+04         0.21921E+04         0.00000E+00
    0.21921E+04         0.82437E+03         0.00000E+00
    0.00000E+00         0.00000E+00         0.00000E+00
 
    0.28217E+04         0.22538E+04         0.00000E+00
    0.22538E+04         0.88281E+03         0.00000E+00
    0.00000E+00         0.00000E+00         0.00000E+00
 
    0.27208E+04         0.23132E+04         0.00000E+00
    0.23132E+04         0.94284E+03         0.00000E+00
    0.00000E+00         0.00000E+00         0.00000E+00
 
    0.26163E+04         0.23705E+04         0.00000E+00
    0.23705E+04         0.10044E+04         0.00000E+00
    0.00000E+00         0.00000E+00         0.00000E+00
 
    0.25082E+04         0.24255E+04         0.00000E+00
    0.24255E+04         0.10674E+04         0.00000E+00
    0.00000E+00         0.00000E+00         0.00000E+00
 
    0.23968E+04         0.24782E+04         0.00000E+00
    0.24782E+04         0.11319E+04         0.00000E+00
    0.00000E+00         0.00000E+00         0.00000E+00
 
    0.22820E+04         0.25285E+04         0.00000E+00
    0.25285E+04         0.11977E+04         0.00000E+00
    0.00000E+00         0.00000E+00         0.00000E+00
 
    0.21641E+04         0.25762E+04         0.00000E+00
    0.25762E+04         0.12648E+04         0.00000E+00
    0.00000E+00         0.00000E+00         0.00000E+00
 
    0.20429E+04         0.26214E+04         0.00000E+00
    0.26214E+04         0.13331E+04         0.00000E+00
    0.00000E+00         0.00000E+00         0.00000E+00
 
    0.19188E+04         0.26640E+04         0.00000E+00
    0.26640E+04         0.14025E+04         0.00000E+00
    0.00000E+00         0.00000E+00         0.00000E+00
 
    0.17917E+04         0.27039E+04         0.00000E+00
    0.27039E+04         0.14731E+04         0.00000E+00
    0.00000E+00         0.00000E+00         0.00000E+00
 
    0.16617E+04         0.27410E+04         0.00000E+00
    0.27410E+04         0.15446E+04         0.00000E+00
    0.00000E+00         0.00000E+00         0.00000E+00
 
    0.15291E+04         0.27754E+04         0.00000E+00
    0.27754E+04         0.16171E+04         0.00000E+00
    0.00000E+00         0.00000E+00         0.00000E+00
 
    0.13938E+04         0.28068E+04         0.00000E+00
    0.28068E+04         0.16904E+04         0.00000E+00
    0.00000E+00         0.00000E+00         0.00000E+00
 
    0.12560E+04         0.28354E+04         0.00000E+00
    0.28354E+04         0.17646E+04         0.00000E+00
    0.00000E+00         0.00000E+00         0.00000E+00
 
    0.11158E+04         0.28610E+04         0.00000E+00
    0.28610E+04         0.18394E+04         0.00000E+00
    0.00000E+00         0.00000E+00         0.00000E+00
 
    0.97333E+03         0.28836E+04         0.00000E+00
    0.28836E+04         0.19149E+04         0.00000E+00
    0.00000E+00         0.00000E+00         0.00000E+00
 
    0.82868E+03         0.29031E+04         0.00000E+00
    0.29031E+04         0.19909E+04         0.00000E+00
    0.00000E+00         0.00000E+00         0.00000E+00
 
    0.68199E+03         0.29195E+04         0.00000E+00
    0.29195E+04         0.20675E+04         0.00000E+00
    0.00000E+00         0.00000E+00         0.00000E+00
 
    0.53337E+03         0.29327E+04         0.00000E+00
    0.29327E+04         0.21444E+04         0.00000E+00
    0.00000E+00         0.00000E+00         0.00000E+00
 
    0.38295E+03         0.29428E+04         0.00000E+00
    0.29428E+04         0.22216E+04         0.00000E+00
    0.00000E+00         0.00000E+00         0.00000E+00
 
    0.23085E+03         0.29496E+04         0.00000E+00
    0.29496E+04         0.22990E+04         0.00000E+00
    0.00000E+00         0.00000E+00         0.00000E+00
 
    0.77199E+02         0.29532E+04         0.00000E+00
    0.29532E+04         0.23766E+04         0.00000E+00
    0.00000E+00         0.00000E+00         0.00000E+00
 
    0.44164E+04         0.47961E+02         0.00000E+00
    0.47961E+02        -0.70198E+01         0.00000E+00
    0.00000E+00         0.00000E+00         0.00000E+00
 
    0.44378E+04         0.14536E+03         0.00000E+00
    0.14536E+03        -0.45265E+01         0.00000E+00
    0.00000E+00         0.00000E+00         0.00000E+00
 
    0.44542E+04         0.24315E+03         0.00000E+00
    0.24315E+03         0.48294E+00         0.00000E+00
    0.00000E+00         0.00000E+00         0.00000E+00
 
    0.44655E+04         0.34123E+03         0.00000E+00
    0.34123E+03         0.80166E+01         0.00000E+00
    0.00000E+00         0.00000E+00         0.00000E+00
 
    0.44718E+04         0.43948E+03         0.00000E+00
    0.43948E+03         0.18080E+02         0.00000E+00
    0.00000E+00         0.00000E+00         0.00000E+00
 
    0.44731E+04         0.53779E+03         0.00000E+00
    0.53779E+03         0.30674E+02         0.00000E+00
    0.00000E+00         0.00000E+00         0.00000E+00
 
    0.44692E+04         0.63606E+03         0.00000E+00
    0.63606E+03         0.45801E+02         0.00000E+00
    0.00000E+00         0.00000E+00         0.00000E+00
 
    0.44603E+04         0.73416E+03         0.00000E+00
    0.73416E+03         0.63455E+02         0.00000E+00
    0.00000E+00         0.00000E+00         0.00000E+00
 
    0.44464E+04         0.83200E+03         0.00000E+00
    0.83200E+03         0.83632E+02         0.00000E+00
    0.00000E+00         0.00000E+00         0.00000E+00
 
    0.44274E+04         0.92946E+03         0.00000E+00
    0.92946E+03         0.10632E+03         0.00000E+00
    0.00000E+00         0.00000E+00         0.00000E+00
 
    0.44033E+04         0.10264E+04         0.00000E+00
    0.10264E+04         0.13151E+03         0.00000E+00
    0.00000E+00         0.00000E+00         0.00000E+00
 
    0.43742E+04         0.11228E+04         0.00000E+00
    0.11228E+04         0.15919E+03         0.00000E+00
    0.00000E+00         0.00000E+00         0.00000E+00
 
    0.43401E+04         0.12185E+04         0.00000E+00
    0.12185E+04         0.18934E+03         0.00000E+00
    0.00000E+00         0.00000E+00         0.00000E+00
 
    0.43010E+04         0.13133E+04         0.00000E+00
    0.13133E+04         0.22193E+03         0.00000E+00
    0.00000E+00         0.00000E+00         0.00000E+00
 
    0.42569E+04         0.14072E+04         0.00000E+00
    0.14072E+04         0.25696E+03         0.00000E+00
    0.00000E+00         0.00000E+00         0.00000E+00
 
    0.42079E+04         0.15001E+04         0.00000E+00
    0.15001E+04         0.29438E+03         0.00000E+00
    0.00000E+00         0.00000E+00         0.00000E+00
 
    0.41540E+04         0.15919E+04         0.00000E+00
    0.15919E+04         0.33418E+03         0.00000E+00
    0.00000E+00         0.00000E+00         0.00000E+00
 
    0.40952E+04         0.16824E+04         0.00000E+00
    0.16824E+04         0.37632E+03         0.00000E+00
    0.00000E+00         0.00000E+00         0.00000E+00
 
    0.40316E+04         0.17715E+04         0.00000E+00
    0.17715E+04         0.42076E+03         0.00000E+00
    0.00000E+00         0.00000E+00         0.00000E+00
 
    0.39633E+04         0.18592E+04         0.00000E+00
    0.18592E+04         0.46748E+03         0.00000E+00
    0.00000E+00         0.00000E+00         0.00000E+00
 
    0.38903E+04         0.19454E+04         0.00000E+00
    0.19454E+04         0.51643E+03         0.00000E+00
    0.00000E+00         0.00000E+00         0.00000E+00
 
    0.38126E+04         0.20298E+04         0.00000E+00
    0.20298E+04         0.56757E+03         0.00000E+00
    0.00000E+00         0.00000E+00         0.00000E+00
 
    0.37302E+04         0.21126E+04         0.00000E+00
    0.21126E+04         0.62086E+03         0.00000E+00
    0.00000E+00         0.00000E+00         0.00000E+00
 
    0.36434E+04         0.21934E+04         0.00000E+00
    0.21934E+04         0.67625E+03         0.00000E+00
    0.00000E+00         0.00000E+00         0.00000E+00
 
    0.35521E+04         0.22723E+04         0.00000E+00
    0.22723E+04         0.73369E+03         0.00000E+00
    0.00000E+00         0.00000E+00         0.00000E+00
 
    0.34564E+04         0.23492E+04         0.00000E+00
    0.23492E+04         0.79312E+03         0.00000E+00
    0.00000E+00         0.00000E+00         0.00000E+00
 
    0.33564E+04         0.24239E+04         0.00000E+00
    0.24239E+04         0.85451E+03         0.00000E+00
    0.00000E+00         0.00000E+00         0.00000E+00
 
    0.32521E+04         0.24964E+04         0.00000E+00
    0.24964E+04         0.91778E+03         0.00000E+00
    0.00000E+00         0.00000E+00         0.00000E+00
 
    0.31437E+04         0.25665E+04         0.00000E+00
    0.25665E+04         0.98288E+03         0.00000E+00
    0.00000E+00         0.00000E+00         0.00000E+00
 
    0.30312E+04         0.26342E+04         0.00000E+00
    0.26342E+04         0.10497E+04         0.00000E+00
    0.00000E+00         0.00000E+00         0.00000E+00
 
    0.29147E+04         0.26995E+04         0.00000E+00
    0.26995E+04         0.11183E+04         0.00000E+00
    0.00000E+00         0.00000E+00         0.00000E+00
 
    0.27943E+04         0.27621E+04         0.00000E+00
    0.27621E+04         0.11885E+04         0.00000E+00
    0.00000E+00         0.00000E+00         0.00000E+00
 
    0.26701E+04         0.28220E+04         0.00000E+00
    0.28220E+04         0.12603E+04         0.00000E+00
    0.00000E+00         0.00000E+00         0.00000E+00
 
    0.25423E+04         0.28792E+04         0.00000E+00
    0.28792E+04         0.13336E+04         0.00000E+00
    0.00000E+00         0.00000E+00         0.00000E+00
 
    0.24108E+04         0.29336E+04         0.00000E+00
    0.29336E+04         0.14083E+04         0.00000E+00
    0.00000E+00         0.00000E+00         0.00000E+00
 
    0.22758E+04         0.29851E+04         0.00000E+00
    0.29851E+04         0.14844E+04         0.00000E+00
    0.00000E+00         0.00000E+00         0.00000E+00
 
    0.21375E+04         0.30335E+04         0.00000E+00
    0.30335E+04         0.15618E+04         0.00000E+00
    0.00000E+00         0.00000E+00         0.00000E+00
 
    0.19959E+04         0.30790E+04         0.00000E+00
    0.30790E+04         0.16403E+04         0.00000E+00
    0.00000E+00         0.00000E+00         0.00000E+00
 
    0.18511E+04         0.31212E+04         0.00000E+00
    0.31212E+04         0.17200E+04         0.00000E+00
    0.00000E+00         0.00000E+00         0.00000E+00
 
    0.17034E+04         0.31603E+04         0.00000E+00
    0.31603E+04         0.18008E+04         0.00000E+00
    0.00000E+00         0.00000E+00         0.00000E+00
 
    0.15526E+04         0.31962E+04         0.00000E+00
    0.31962E+04         0.18825E+04         0.00000E+00
    0.00000E+00         0.00000E+00         0.00000E+00
 
    0.13991E+04         0.32287E+04         0.00000E+00
    0.32287E+04         0.19651E+04         0.00000E+00
    0.00000E+00         0.00000E+00         0.00000E+00
 
    0.12430E+04         0.32579E+04         0.00000E+00
    0.32579E+04         0.20484E+04         0.00000E+00
    0.00000E+00         0.00000E+00         0.00000E+00
 
    0.10842E+04         0.32836E+04         0.00000E+00
    0.32836E+04         0.21325E+04         0.00000E+00
    0.00000E+00         0.00000E+00         0.00000E+00
 
    0.92310E+03         0.33058E+04         0.00000E+00
    0.33058E+04         0.22172E+04         0.00000E+00
    0.00000E+00         0.00000E+00         0.00000E+00
 
    0.75969E+03         0.33245E+04         0.00000E+00
    0.33245E+04         0.23024E+04         0.00000E+00
    0.00000E+00         0.00000E+00         0.00000E+00
 
    0.59414E+03         0.33396E+04         0.00000E+00
    0.33396E+04         0.23881E+04         0.00000E+00
    0.00000E+00         0.00000E+00         0.00000E+00
 
    0.42658E+03         0.33510E+04         0.00000E+00
    0.33510E+04         0.24741E+04         0.00000E+00
    0.00000E+00         0.00000E+00         0.00000E+00
 
    0.25715E+03         0.33588E+04         0.00000E+00
    0.33588E+04         0.25603E+04         0.00000E+00
    0.00000E+00         0.00000E+00         0.00000E+00
 
    0.85993E+02         0.33629E+04         0.00000E+00
    0.33629E+04         0.26467E+04         0.00000E+00
    0.00000E+00         0.00000E+00         0.00000E+00
 
    0.49330E+04         0.54504E+02         0.00000E+00
    0.54504E+02        -0.86729E+01         0.00000E+00
    0.00000E+00         0.00000E+00         0.00000E+00
 
    0.49568E+04         0.16518E+03         0.00000E+00
    0.16518E+03        -0.58877E+01         0.00000E+00
    0.00000E+00         0.00000E+00         0.00000E+00
 
    0.49750E+04         0.27630E+03         0.00000E+00
    0.27630E+03        -0.29216E+00         0.00000E+00
    0.00000E+00         0.00000E+00         0.00000E+00
 
    0.49875E+04         0.38773E+03         0.00000E+00
    0.38773E+03         0.81225E+01         0.00000E+00
    0.00000E+00         0.00000E+00         0.00000E+00
 
    0.49944E+04         0.49936E+03         0.00000E+00
    0.49936E+03         0.19362E+02         0.00000E+00
    0.00000E+00         0.00000E+00         0.00000E+00
 
    0.49957E+04         0.61106E+03         0.00000E+00
    0.61106E+03         0.33429E+02         0.00000E+00
    0.00000E+00         0.00000E+00         0.00000E+00
 
    0.49913E+04         0.72270E+03         0.00000E+00
    0.72270E+03         0.50322E+02         0.00000E+00
    0.00000E+00         0.00000E+00         0.00000E+00
 
    0.49813E+04         0.83415E+03         0.00000E+00
    0.83415E+03         0.70038E+02         0.00000E+00
    0.00000E+00         0.00000E+00         0.00000E+00
 
    0.49656E+04         0.94530E+03         0.00000E+00
    0.94530E+03         0.92570E+02         0.00000E+00
    0.00000E+00         0.00000E+00         0.00000E+00
 
    0.49442E+04         0.10560E+04         0.00000E+00
    0.10560E+04         0.11791E+03         0.00000E+00
    0.00000E+00         0.00000E+00         0.00000E+00
 
    0.49173E+04         0.11662E+04         0.00000E+00
    0.11662E+04         0.14604E+03         0.00000E+00
    0.00000E+00         0.00000E+00         0.00000E+00
 
    0.48847E+04         0.12756E+04         0.00000E+00
    0.12756E+04         0.17695E+03         0.00000E+00
    0.00000E+00         0.00000E+00         0.00000E+00
 
    0.48465E+04         0.13843E+04         0.00000E+00
    0.13843E+04         0.21061E+03         0.00000E+00
    0.00000E+00         0.00000E+00         0.00000E+00
 
    0.48027E+04         0.14920E+04         0.00000E+00
    0.14920E+04         0.24701E+03         0.00000E+00
    0.00000E+00         0.00000E+00         0.00000E+00
 
    0.47534E+04         0.15987E+04         0.00000E+00
    0.15987E+04         0.28611E+03         0.00000E+00
    0.00000E+00         0.00000E+00         0.00000E+00
 
    0.46986E+04         0.17042E+04         0.00000E+00
    0.17042E+04         0.32790E+03         0.00000E+00
    0.00000E+00         0.00000E+00         0.00000E+00
 
    0.46383E+04         0.18084E+04         0.00000E+00
    0.18084E+04         0.37233E+03         0.00000E+00
    0.00000E+00         0.00000E+00         0.00000E+00
 
    0.45726E+04         0.19112E+04         0.00000E+00
    0.19112E+04         0.41938E+03         0.00000E+00
    0.00000E+00         0.00000E+00         0.00000E+00
 
    0.45016E+04         0.20125E+04         0.00000E+00
    0.20125E+04         0.46900E+03         0.00000E+00
    0.00000E+00         0.00000E+00         0.00000E+00
 
    0.44252E+04         0.21121E+04         0.00000E+00
    0.21121E+04         0.52116E+03         0.00000E+00
    0.00000E+00         0.00000E+00         0.00000E+00
 
    0.43436E+04         0.22099E+04         0.00000E+00
    0.22099E+04         0.57580E+03         0.00000E+00
    0.00000E+00         0.00000E+00         0.00000E+00
 
    0.42567E+04         0.23058E+04         0.00000E+00
    0.23058E+04         0.63290E+03         0.00000E+00
    0.00000E+00         0.00000E+00         0.00000E+00
 
    0.41648E+04         0.23998E+04         0.00000E+00
    0.23998E+04         0.69239E+03         0.00000E+00
    0.00000E+00         0.00000E+00         0.00000E+00
 
    0.40677E+04         0.24916E+04         0.00000E+00
    0.24916E+04         0.75422E+03         0.00000E+00
    0.00000E+00         0.00000E+00         0.00000E+00
 
    0.39657E+04         0.25812E+04         0.00000E+00
    0.25812E+04         0.81834E+03         0.00000E+00
    0.00000E+00         0.00000E+00         0.00000E+00
 
    0.38588E+04         0.26685E+04         0.00000E+00
    0.26685E+04         0.88469E+03         0.00000E+00
    0.00000E+00         0.00000E+00         0.00000E+00
 
    0.37471E+04         0.27533E+04         0.00000E+00
    0.27533E+04         0.95321E+03         0.00000E+00
    0.00000E+00         0.00000E+00         0.00000E+00
 
    0.36307E+04         0.28356E+04         0.00000E+00
    0.28356E+04         0.10238E+04         0.00000E+00
    0.00000E+00         0.00000E+00         0.00000E+00
 
    0.35096E+04         0.29153E+04         0.00000E+00
    0.29153E+04         0.10965E+04         0.00000E+00
    0.00000E+00         0.00000E+00         0.00000E+00
 
    0.33839E+04         0.29922E+04         0.00000E+00
    0.29922E+04         0.11711E+04         0.00000E+00
    0.00000E+00         0.00000E+00         0.00000E+00
 
    0.32539E+04         0.30663E+04         0.00000E+00
    0.30663E+04         0.12477E+04         0.00000E+00
    0.00000E+00         0.00000E+00         0.00000E+00
 
    0.31194E+04         0.31374E+04         0.00000E+00
    0.31374E+04         0.13261E+04         0.00000E+00
    0.00000E+00         0.00000E+00         0.00000E+00
 
    0.29808E+04         0.32055E+04         0.00000E+00
    0.32055E+04         0.14062E+04         0.00000E+00
    0.00000E+00         0.00000E+00         0.00000E+00
 
    0.28380E+04         0.32704E+04         0.00000E+00
    0.32704E+04         0.14880E+04         0.00000E+00
    0.00000E+00         0.00000E+00         0.00000E+00
 
    0.26912E+04         0.33321E+04         0.00000E+00
    0.33321E+04         0.15714E+04         0.00000E+00
    0.00000E+00         0.00000E+00         0.00000E+00
 
    0.25405E+04         0.33906E+04         0.00000E+00
    0.33906E+04         0.16563E+04         0.00000E+00
    0.00000E+00         0.00000E+00         0.00000E+00
 
    0.23861E+04         0.34456E+04         0.00000E+00
    0.34456E+04         0.17427E+04         0.00000E+00
    0.00000E+00         0.00000E+00         0.00000E+00
 
    0.22280E+04         0.34972E+04         0.00000E+00
    0.34972E+04         0.18304E+04         0.00000E+00
    0.00000E+00         0.00000E+00         0.00000E+00
 
    0.20664E+04         0.35452E+04         0.00000E+00
    0.35452E+04         0.19193E+04         0.00000E+00
    0.00000E+00         0.00000E+00         0.00000E+00
 
    0.19014E+04         0.35896E+04         0.00000E+00
    0.35896E+04         0.20094E+04         0.00000E+00
    0.00000E+00         0.00000E+00         0.00000E+00
 
    0.17331E+04         0.36303E+04         0.00000E+00
    0.36303E+04         0.21006E+04         0.00000E+00
    0.00000E+00         0.00000E+00         0.00000E+00
 
    0.15618E+04         0.36673E+04         0.00000E+00
    0.36673E+04         0.21928E+04         0.00000E+00
    0.00000E+00         0.00000E+00         0.00000E+00
 
    0.13874E+04         0.37004E+04         0.00000E+00
    0.37004E+04         0.22858E+04         0.00000E+00
    0.00000E+00         0.00000E+00         0.00000E+00
 
    0.12103E+04         0.37296E+04         0.00000E+00
    0.37296E+04         0.23797E+04         0.00000E+00
    0.00000E+00         0.00000E+00         0.00000E+00
 
    0.10304E+04         0.37548E+04         0.00000E+00
    0.37548E+04         0.24742E+04         0.00000E+00
    0.00000E+00         0.00000E+00         0.00000E+00
 
    0.84799E+03         0.37761E+04         0.00000E+00
    0.37761E+04         0.25693E+04         0.00000E+00
    0.00000E+00         0.00000E+00         0.00000E+00
 
    0.66319E+03         0.37932E+04         0.00000E+00
    0.37932E+04         0.26649E+04         0.00000E+00
    0.00000E+00         0.00000E+00         0.00000E+00
 
    0.47615E+03         0.38063E+04         0.00000E+00
    0.38063E+04         0.27609E+04         0.00000E+00
    0.00000E+00         0.00000E+00         0.00000E+00
 
    0.28703E+03         0.38152E+04         0.00000E+00
    0.38152E+04         0.28572E+04         0.00000E+00
    0.00000E+00         0.00000E+00         0.00000E+00
 
    0.95986E+02         0.38198E+04         0.00000E+00
    0.38198E+04         0.29536E+04         0.00000E+00
    0.00000E+00         0.00000E+00         0.00000E+00
 
    0.55193E+04         0.61820E+02         0.00000E+00
    0.61820E+02        -0.10698E+02         0.00000E+00
    0.00000E+00         0.00000E+00         0.00000E+00
 
    0.55457E+04         0.18734E+03         0.00000E+00
    0.18734E+03        -0.75818E+01         0.00000E+00
    0.00000E+00         0.00000E+00         0.00000E+00
 
    0.55659E+04         0.31335E+03         0.00000E+00
    0.31335E+03        -0.13212E+01         0.00000E+00
    0.00000E+00         0.00000E+00         0.00000E+00
 
    0.55798E+04         0.43972E+03         0.00000E+00
    0.43972E+03         0.80933E+01         0.00000E+00
    0.00000E+00         0.00000E+00         0.00000E+00
 
    0.55874E+04         0.56630E+03         0.00000E+00
    0.56630E+03         0.20668E+02         0.00000E+00
    0.00000E+00         0.00000E+00         0.00000E+00
 
    0.55887E+04         0.69296E+03         0.00000E+00
    0.69296E+03         0.36405E+02         0.00000E+00
    0.00000E+00         0.00000E+00         0.00000E+00
 
    0.55837E+04         0.81954E+03         0.00000E+00
    0.81954E+03         0.55303E+02         0.00000E+00
    0.00000E+00         0.00000E+00         0.00000E+00
 
    0.55723E+04         0.94592E+03         0.00000E+00
    0.94592E+03         0.77358E+02         0.00000E+00
    0.00000E+00         0.00000E+00         0.00000E+00
 
    0.55546E+04         0.10719E+04         0.00000E+00
    0.10719E+04         0.10256E+03         0.00000E+00
    0.00000E+00         0.00000E+00         0.00000E+00
 
    0.55306E+04         0.11975E+04         0.00000E+00
    0.11975E+04         0.13091E+03         0.00000E+00
    0.00000E+00         0.00000E+00         0.00000E+00
 
    0.55003E+04         0.13223E+04         0.00000E+00
    0.13223E+04         0.16237E+03         0.00000E+00
    0.00000E+00         0.00000E+00         0.00000E+00
 
    0.54638E+04         0.14465E+04         0.00000E+00
    0.14465E+04         0.19694E+03         0.00000E+00
    0.00000E+00         0.00000E+00         0.00000E+00
 
    0.54209E+04         0.15696E+04         0.00000E+00
    0.15696E+04         0.23459E+03         0.00000E+00
    0.00000E+00         0.00000E+00         0.00000E+00
 
    0.53719E+04         0.16918E+04         0.00000E+00
    0.16918E+04         0.27530E+03         0.00000E+00
    0.00000E+00         0.00000E+00         0.00000E+00
 
    0.53166E+04         0.18127E+04         0.00000E+00
    0.18127E+04         0.31904E+03         0.00000E+00
    0.00000E+00         0.00000E+00         0.00000E+00
 
    0.52552E+04         0.19323E+04         0.00000E+00
    0.19323E+04         0.36577E+03         0.00000E+00
    0.00000E+00         0.00000E+00         0.00000E+00
 
    0.51877E+04         0.20504E+04         0.00000E+00
    0.20504E+04         0.41546E+03         0.00000E+00
    0.00000E+00         0.00000E+00         0.00000E+00
 
    0.51141E+04         0.21669E+04         0.00000E+00
    0.21669E+04         0.46807E+03         0.00000E+00
    0.00000E+00         0.00000E+00         0.00000E+00
 
    0.50346E+04         0.22817E+04         0.00000E+00
    0.22817E+04         0.52356E+03         0.00000E+00
    0.00000E+00         0.00000E+00         0.00000E+00
 
    0.49490E+04         0.23946E+04         0.00000E+00
    0.23946E+04         0.58189E+03         0.00000E+00
    0.00000E+00         0.00000E+00         0.00000E+00
 
    0.48577E+04         0.25055E+04         0.00000E+00
    0.25055E+04         0.64300E+03         0.00000E+00
    0.00000E+00         0.00000E+00         0.00000E+00
 
    0.47605E+04         0.26142E+04         0.00000E+00
    0.26142E+04         0.70684E+03         0.00000E+00
    0.00000E+00         0.00000E+00         0.00000E+00
 
    0.46575E+04         0.27207E+04         0.00000E+00
    0.27207E+04         0.77336E+03         0.00000E+00
    0.00000E+00         0.00000E+00         0.00000E+00
 
    0.45490E+04         0.28248E+04         0.00000E+00
    0.28248E+04         0.84250E+03         0.00000E+00
    0.00000E+00         0.00000E+00         0.00000E+00
 
    0.44348E+04         0.29263E+04         0.00000E+00
    0.29263E+04         0.91419E+03         0.00000E+00
    0.00000E+00         0.00000E+00         0.00000E+00
 
    0.43152E+04         0.30252E+04         0.00000E+00
    0.30252E+04         0.98838E+03         0.00000E+00
    0.00000E+00         0.00000E+00         0.00000E+00
 
    0.41902E+04         0.31214E+04         0.00000E+00
    0.31214E+04         0.10650E+04         0.00000E+00
    0.00000E+00         0.00000E+00         0.00000E+00
 
    0.40599E+04         0.32147E+04         0.00000E+00
    0.32147E+04         0.11440E+04         0.00000E+00
    0.00000E+00         0.00000E+00         0.00000E+00
 
    0.39245E+04         0.33049E+04         0.00000E+00
    0.33049E+04         0.12252E+04         0.00000E+00
    0.00000E+00         0.00000E+00         0.00000E+00
 
    0.37839E+04         0.33921E+04         0.00000E+00
    0.33921E+04         0.13087E+04         0.00000E+00
    0.00000E+00         0.00000E+00         0.00000E+00
 
    0.36384E+04         0.34760E+04         0.00000E+00
    0.34760E+04         0.13942E+04         0.00000E+00
    0.00000E+00         0.00000E+00         0.00000E+00
 
    0.34881E+04         0.35566E+04         0.00000E+00
    0.35566E+04         0.14819E+04         0.00000E+00
    0.00000E+00         0.00000E+00         0.00000E+00
 
    0.33330E+04         0.36338E+04         0.00000E+00
    0.36338E+04         0.15714E+04         0.00000E+00
    0.00000E+00         0.00000E+00         0.00000E+00
 
    0.31733E+04         0.37074E+04         0.00000E+00
    0.37074E+04         0.16629E+04         0.00000E+00
    0.00000E+00         0.00000E+00         0.00000E+00
 
    0.30092E+04         0.37774E+04         0.00000E+00
    0.37774E+04         0.17561E+04         0.00000E+00
    0.00000E+00         0.00000E+00         0.00000E+00
 
    0.28406E+04         0.38436E+04         0.00000E+00
    0.38436E+04         0.18511E+04         0.00000E+00
    0.00000E+00         0.00000E+00         0.00000E+00
 
    0.26679E+04         0.39060E+04         0.00000E+00
    0.39060E+04         0.19476E+04         0.00000E+00
    0.00000E+00         0.00000E+00         0.00000E+00
 
    0.24911E+04         0.39644E+04         0.00000E+00
    0.39644E+04         0.20456E+04         0.00000E+00
    0.00000E+00         0.00000E+00         0.00000E+00
 
    0.23104E+04         0.40188E+04         0.00000E+00
    0.40188E+04         0.21451E+04         0.00000E+00
    0.00000E+00         0.00000E+00         0.00000E+00
 
    0.21259E+04         0.40692E+04         0.00000E+00
    0.40692E+04         0.22458E+04         0.00000E+00
    0.00000E+00         0.00000E+00         0.00000E+00
 
    0.19378E+04         0.41153E+04         0.00000E+00
    0.41153E+04         0.23478E+04         0.00000E+00
    0.00000E+00         0.00000E+00         0.00000E+00
 
    0.17462E+04         0.41572E+04         0.00000E+00
    0.41572E+04         0.24508E+04         0.00000E+00
    0.00000E+00         0.00000E+00         0.00000E+00
 
    0.15512E+04         0.41947E+04         0.00000E+00
    0.41947E+04         0.25548E+04         0.00000E+00
    0.00000E+00         0.00000E+00         0.00000E+00
 
    0.13531E+04         0.42278E+04         0.00000E+00
    0.42278E+04         0.26598E+04         0.00000E+00
    0.00000E+00         0.00000E+00         0.00000E+00
 
    0.11520E+04         0.42565E+04         0.00000E+00
    0.42565E+04         0.27654E+04         0.00000E+00
    0.00000E+00         0.00000E+00         0.00000E+00
 
    0.94808E+03         0.42805E+04         0.00000E+00
    0.42805E+04         0.28718E+04         0.00000E+00
    0.00000E+00         0.00000E+00         0.00000E+00
 
    0.74147E+03         0.43000E+04         0.00000E+00
    0.43000E+04         0.29787E+04         0.00000E+00
    0.00000E+00         0.00000E+00         0.00000E+00
 
    0.53235E+03         0.43148E+04         0.00000E+00
    0.43148E+04         0.30860E+04         0.00000E+00
    0.00000E+00         0.00000E+00         0.00000E+00
 
    0.32091E+03         0.43249E+04         0.00000E+00
    0.43249E+04         0.31936E+04         0.00000E+00
    0.00000E+00         0.00000E+00         0.00000E+00
 
    0.10731E+03         0.43302E+04         0.00000E+00
    0.43302E+04         0.33014E+04         0.00000E+00
    0.00000E+00         0.00000E+00         0.00000E+00
 
    0.61835E+04         0.70013E+02         0.00000E+00
    0.70013E+02        -0.13180E+02         0.00000E+00
    0.00000E+00         0.00000E+00         0.00000E+00
 
    0.62129E+04         0.21215E+03         0.00000E+00
    0.21215E+03        -0.96882E+01         0.00000E+00
    0.00000E+00         0.00000E+00         0.00000E+00
 
    0.62354E+04         0.35484E+03         0.00000E+00
    0.35484E+03        -0.26739E+01         0.00000E+00
    0.00000E+00         0.00000E+00         0.00000E+00
 
    0.62508E+04         0.49792E+03         0.00000E+00
    0.49792E+03         0.78731E+01         0.00000E+00
    0.00000E+00         0.00000E+00         0.00000E+00
 
    0.62592E+04         0.64125E+03         0.00000E+00
    0.64125E+03         0.21960E+02         0.00000E+00
    0.00000E+00         0.00000E+00         0.00000E+00
 
    0.62604E+04         0.78464E+03         0.00000E+00
    0.78464E+03         0.39588E+02         0.00000E+00
    0.00000E+00         0.00000E+00         0.00000E+00
 
    0.62546E+04         0.92796E+03         0.00000E+00
    0.92796E+03         0.60758E+02         0.00000E+00
    0.00000E+00         0.00000E+00         0.00000E+00
 
    0.62417E+04         0.10710E+04         0.00000E+00
    0.10710E+04         0.85463E+02         0.00000E+00
    0.00000E+00         0.00000E+00         0.00000E+00
 
    0.62218E+04         0.12137E+04         0.00000E+00
    0.12137E+04         0.11369E+03         0.00000E+00
    0.00000E+00         0.00000E+00         0.00000E+00
 
    0.61947E+04         0.13558E+04         0.00000E+00
    0.13558E+04         0.14544E+03         0.00000E+00
    0.00000E+00         0.00000E+00         0.00000E+00
 
    0.61607E+04         0.14972E+04         0.00000E+00
    0.14972E+04         0.18068E+03         0.00000E+00
    0.00000E+00         0.00000E+00         0.00000E+00
 
    0.61195E+04         0.16376E+04         0.00000E+00
    0.16376E+04         0.21940E+03         0.00000E+00
    0.00000E+00         0.00000E+00         0.00000E+00
 
    0.60714E+04         0.17771E+04         0.00000E+00
    0.17771E+04         0.26156E+03         0.00000E+00
    0.00000E+00         0.00000E+00         0.00000E+00
 
    0.60163E+04         0.19153E+04         0.00000E+00
    0.19153E+04         0.30715E+03         0.00000E+00
    0.00000E+00         0.00000E+00         0.00000E+00
 
    0.59543E+04         0.20522E+04         0.00000E+00
    0.20522E+04         0.35613E+03         0.00000E+00
    0.00000E+00         0.00000E+00         0.00000E+00
 
    0.58854E+04         0.21875E+04         0.00000E+00
    0.21875E+04         0.40846E+03         0.00000E+00
    0.00000E+00         0.00000E+00         0.00000E+00
 
    0.58097E+04         0.23212E+04         0.00000E+00
    0.23212E+04         0.46411E+03         0.00000E+00
    0.00000E+00         0.00000E+00         0.00000E+00
 
    0.57272E+04         0.24531E+04         0.00000E+00
    0.24531E+04         0.52302E+03         0.00000E+00
    0.00000E+00         0.00000E+00         0.00000E+00
 
    0.56380E+04         0.25830E+04         0.00000E+00
    0.25830E+04         0.58516E+03         0.00000E+00
    0.00000E+00         0.00000E+00         0.00000E+00
 
    0.55421E+04         0.27107E+04         0.00000E+00
    0.27107E+04         0.65047E+03         0.00000E+00
    0.00000E+00         0.00000E+00         0.00000E+00
 
    0.54397E+04         0.28362E+04         0.00000E+00
    0.28362E+04         0.71889E+03         0.00000E+00
    0.00000E+00         0.00000E+00         0.00000E+00
 
    0.53308E+04         0.29593E+04         0.00000E+00
    0.29593E+04         0.79037E+03         0.00000E+00
    0.00000E+00         0.00000E+00         0.00000E+00
 
    0.52154E+04         0.30798E+04         0.00000E+00
    0.30798E+04         0.86485E+03         0.00000E+00
    0.00000E+00         0.00000E+00         0.00000E+00
 
    0.50937E+04         0.31975E+04         0.00000E+00
    0.31975E+04         0.94225E+03         0.00000E+00
    0.00000E+00         0.00000E+00         0.00000E+00
 
    0.49659E+04         0.33125E+04         0.00000E+00
    0.33125E+04         0.10225E+04         0.00000E+00
    0.00000E+00         0.00000E+00         0.00000E+00
 
    0.48318E+04         0.34244E+04         0.00000E+00
    0.34244E+04         0.11056E+04         0.00000E+00
    0.00000E+00         0.00000E+00         0.00000E+00
 
    0.46918E+04         0.35332E+04         0.00000E+00
    0.35332E+04         0.11913E+04         0.00000E+00
    0.00000E+00         0.00000E+00         0.00000E+00
 
    0.45459E+04         0.36387E+04         0.00000E+00
    0.36387E+04         0.12798E+04         0.00000E+00
    0.00000E+00         0.00000E+00         0.00000E+00
 
    0.43941E+04         0.37409E+04         0.00000E+00
    0.37409E+04         0.13707E+04         0.00000E+00
    0.00000E+00         0.00000E+00         0.00000E+00
 
    0.42367E+04         0.38395E+04         0.00000E+00
    0.38395E+04         0.14641E+04         0.00000E+00
    0.00000E+00         0.00000E+00         0.00000E+00
 
    0.40737E+04         0.39345E+04         0.00000E+00
    0.39345E+04         0.15599E+04         0.00000E+00
    0.00000E+00         0.00000E+00         0.00000E+00
 
    0.39053E+04         0.40257E+04         0.00000E+00
    0.40257E+04         0.16580E+04         0.00000E+00
    0.00000E+00         0.00000E+00         0.00000E+00
 
    0.37317E+04         0.41130E+04         0.00000E+00
    0.41130E+04         0.17583E+04         0.00000E+00
    0.00000E+00         0.00000E+00         0.00000E+00
 
    0.35528E+04         0.41963E+04         0.00000E+00
    0.41963E+04         0.18607E+04         0.00000E+00
    0.00000E+00         0.00000E+00         0.00000E+00
 
    0.33690E+04         0.42754E+04         0.00000E+00
    0.42754E+04         0.19651E+04         0.00000E+00
    0.00000E+00         0.00000E+00         0.00000E+00
 
    0.31803E+04         0.43504E+04         0.00000E+00
    0.43504E+04         0.20713E+04         0.00000E+00
    0.00000E+00         0.00000E+00         0.00000E+00
 
    0.29869E+04         0.44209E+04         0.00000E+00
    0.44209E+04         0.21794E+04         0.00000E+00
    0.00000E+00         0.00000E+00         0.00000E+00
 
    0.27889E+04         0.44871E+04         0.00000E+00
    0.44871E+04         0.22891E+04         0.00000E+00
    0.00000E+00         0.00000E+00         0.00000E+00
 
    0.25866E+04         0.45487E+04         0.00000E+00
    0.45487E+04         0.24004E+04         0.00000E+00
    0.00000E+00         0.00000E+00         0.00000E+00
 
    0.23800E+04         0.46056E+04         0.00000E+00
    0.46056E+04         0.25132E+04         0.00000E+00
    0.00000E+00         0.00000E+00         0.00000E+00
 
    0.21694E+04         0.46578E+04         0.00000E+00
    0.46578E+04         0.26273E+04         0.00000E+00
    0.00000E+00         0.00000E+00         0.00000E+00
 
    0.19548E+04         0.47052E+04         0.00000E+00
    0.47052E+04         0.27427E+04         0.00000E+00
    0.00000E+00         0.00000E+00         0.00000E+00
 
    0.17366E+04         0.47477E+04         0.00000E+00
    0.47477E+04         0.28591E+04         0.00000E+00
    0.00000E+00         0.00000E+00         0.00000E+00
 
    0.15148E+04         0.47852E+04         0.00000E+00
    0.47852E+04         0.29765E+04         0.00000E+00
    0.00000E+00         0.00000E+00         0.00000E+00
 
    0.12897E+04         0.48176E+04         0.00000E+00
    0.48176E+04         0.30948E+04         0.00000E+00
    0.00000E+00         0.00000E+00         0.00000E+00
 
    0.10614E+04         0.48449E+04         0.00000E+00
    0.48449E+04         0.32139E+04         0.00000E+00
    0.00000E+00         0.00000E+00         0.00000E+00
 
    0.83005E+03         0.48670E+04         0.00000E+00
    0.48670E+04         0.33335E+04         0.00000E+00
    0.00000E+00         0.00000E+00         0.00000E+00
 
    0.59595E+03         0.48837E+04         0.00000E+00
    0.48837E+04         0.34536E+04         0.00000E+00
    0.00000E+00         0.00000E+00         0.00000E+00
 
    0.35925E+03         0.48952E+04         0.00000E+00
    0.48952E+04         0.35741E+04         0.00000E+00
    0.00000E+00         0.00000E+00         0.00000E+00
 
    0.12013E+03         0.49013E+04         0.00000E+00
    0.49013E+04         0.36948E+04         0.00000E+00
    0.00000E+00         0.00000E+00         0.00000E+00
 
    0.69349E+04         0.79198E+02         0.00000E+00
    0.79198E+02        -0.16220E+02         0.00000E+00
    0.00000E+00         0.00000E+00         0.00000E+00
 
    0.69678E+04         0.23996E+03         0.00000E+00
    0.23996E+03        -0.12304E+02         0.00000E+00
    0.00000E+00         0.00000E+00         0.00000E+00
 
    0.69927E+04         0.40134E+03         0.00000E+00
    0.40134E+03        -0.44368E+01         0.00000E+00
    0.00000E+00         0.00000E+00         0.00000E+00
 
    0.70098E+04         0.56316E+03         0.00000E+00
    0.56316E+03         0.73916E+01         0.00000E+00
    0.00000E+00         0.00000E+00         0.00000E+00
 
    0.70190E+04         0.72525E+03         0.00000E+00
    0.72525E+03         0.23189E+02         0.00000E+00
    0.00000E+00         0.00000E+00         0.00000E+00
 
    0.70202E+04         0.88741E+03         0.00000E+00
    0.88741E+03         0.42957E+02         0.00000E+00
    0.00000E+00         0.00000E+00         0.00000E+00
 
    0.70135E+04         0.10495E+04         0.00000E+00
    0.10495E+04         0.66695E+02         0.00000E+00
    0.00000E+00         0.00000E+00         0.00000E+00
 
    0.69989E+04         0.12112E+04         0.00000E+00
    0.12112E+04         0.94397E+02         0.00000E+00
    0.00000E+00         0.00000E+00         0.00000E+00
 
    0.69763E+04         0.13725E+04         0.00000E+00
    0.13725E+04         0.12605E+03         0.00000E+00
    0.00000E+00         0.00000E+00         0.00000E+00
 
    0.69458E+04         0.15332E+04         0.00000E+00
    0.15332E+04         0.16164E+03         0.00000E+00
    0.00000E+00         0.00000E+00         0.00000E+00
 
    0.69074E+04         0.16930E+04         0.00000E+00
    0.16930E+04         0.20115E+03         0.00000E+00
    0.00000E+00         0.00000E+00         0.00000E+00
 
    0.68611E+04         0.18519E+04         0.00000E+00
    0.18519E+04         0.24456E+03         0.00000E+00
    0.00000E+00         0.00000E+00         0.00000E+00
 
    0.68070E+04         0.20095E+04         0.00000E+00
    0.20095E+04         0.29183E+03         0.00000E+00
    0.00000E+00         0.00000E+00         0.00000E+00
 
    0.67451E+04         0.21658E+04         0.00000E+00
    0.21658E+04         0.34294E+03         0.00000E+00
    0.00000E+00         0.00000E+00         0.00000E+00
 
    0.66754E+04         0.23205E+04         0.00000E+00
    0.23205E+04         0.39785E+03         0.00000E+00
    0.00000E+00         0.00000E+00         0.00000E+00
 
    0.65980E+04         0.24735E+04         0.00000E+00
    0.24735E+04         0.45651E+03         0.00000E+00
    0.00000E+00         0.00000E+00         0.00000E+00
 
    0.65130E+04         0.26246E+04         0.00000E+00
    0.26246E+04         0.51889E+03         0.00000E+00
    0.00000E+00         0.00000E+00         0.00000E+00
 
    0.64204E+04         0.27737E+04         0.00000E+00
    0.27737E+04         0.58492E+03         0.00000E+00
    0.00000E+00         0.00000E+00         0.00000E+00
 
    0.63202E+04         0.29205E+04         0.00000E+00
    0.29205E+04         0.65457E+03         0.00000E+00
    0.00000E+00         0.00000E+00         0.00000E+00
 
    0.62126E+04         0.30649E+04         0.00000E+00
    0.30649E+04         0.72777E+03         0.00000E+00
    0.00000E+00         0.00000E+00         0.00000E+00
 
    0.60977E+04         0.32067E+04         0.00000E+00
    0.32067E+04         0.80446E+03         0.00000E+00
    0.00000E+00         0.00000E+00         0.00000E+00
 
    0.59755E+04         0.33458E+04         0.00000E+00
    0.33458E+04         0.88457E+03         0.00000E+00
    0.00000E+00         0.00000E+00         0.00000E+00
 
    0.58460E+04         0.34820E+04         0.00000E+00
    0.34820E+04         0.96804E+03         0.00000E+00
    0.00000E+00         0.00000E+00         0.00000E+00
 
    0.57096E+04         0.36151E+04         0.00000E+00
    0.36151E+04         0.10548E+04         0.00000E+00
    0.00000E+00         0.00000E+00         0.00000E+00
 
    0.55661E+04         0.37450E+04         0.00000E+00
    0.37450E+04         0.11448E+04         0.00000E+00
    0.00000E+00         0.00000E+00         0.00000E+00
 
    0.54158E+04         0.38715E+04         0.00000E+00
    0.38715E+04         0.12378E+04         0.00000E+00
    0.00000E+00         0.00000E+00         0.00000E+00
 
    0.52588E+04         0.39945E+04         0.00000E+00
    0.39945E+04         0.13340E+04         0.00000E+00
    0.00000E+00         0.00000E+00         0.00000E+00
 
    0.50951E+04         0.41137E+04         0.00000E+00
    0.41137E+04         0.14330E+04         0.00000E+00
    0.00000E+00         0.00000E+00         0.00000E+00
 
    0.49249E+04         0.42292E+04         0.00000E+00
    0.42292E+04         0.15349E+04         0.00000E+00
    0.00000E+00         0.00000E+00         0.00000E+00
 
    0.47484E+04         0.43406E+04         0.00000E+00
    0.43406E+04         0.16396E+04         0.00000E+00
    0.00000E+00         0.00000E+00         0.00000E+00
 
    0.45657E+04         0.44479E+04         0.00000E+00
    0.44479E+04         0.17470E+04         0.00000E+00
    0.00000E+00         0.00000E+00         0.00000E+00
 
    0.43769E+04         0.45510E+04         0.00000E+00
    0.45510E+04         0.18569E+04         0.00000E+00
    0.00000E+00         0.00000E+00         0.00000E+00
 
    0.41822E+04         0.46497E+04         0.00000E+00
    0.46497E+04         0.19693E+04         0.00000E+00
    0.00000E+00         0.00000E+00         0.00000E+00
 
    0.39817E+04         0.47438E+04         0.00000E+00
    0.47438E+04         0.20840E+04         0.00000E+00
    0.00000E+00         0.00000E+00         0.00000E+00
 
    0.37756E+04         0.48333E+04         0.00000E+00
    0.48333E+04         0.22010E+04         0.00000E+00
    0.00000E+00         0.00000E+00         0.00000E+00
 
    0.35641E+04         0.49179E+04         0.00000E+00
    0.49179E+04         0.23200E+04         0.00000E+00
    0.00000E+00         0.00000E+00         0.00000E+00
 
    0.33473E+04         0.49977E+04         0.00000E+00
    0.49977E+04         0.24411E+04         0.00000E+00
    0.00000E+00         0.00000E+00         0.00000E+00
 
    0.31255E+04         0.50725E+04         0.00000E+00
    0.50725E+04         0.25641E+04         0.00000E+00
    0.00000E+00         0.00000E+00         0.00000E+00
 
    0.28987E+04         0.51421E+04         0.00000E+00
    0.51421E+04         0.26888E+04         0.00000E+00
    0.00000E+00         0.00000E+00         0.00000E+00
 
    0.26671E+04         0.52065E+04         0.00000E+00
    0.52065E+04         0.28152E+04         0.00000E+00
    0.00000E+00         0.00000E+00         0.00000E+00
 
    0.24311E+04         0.52655E+04         0.00000E+00
    0.52655E+04         0.29430E+04         0.00000E+00
    0.00000E+00         0.00000E+00         0.00000E+00
 
    0.21906E+04         0.53190E+04         0.00000E+00
    0.53190E+04         0.30723E+04         0.00000E+00
    0.00000E+00         0.00000E+00         0.00000E+00
 
    0.19461E+04         0.53671E+04         0.00000E+00
    0.53671E+04         0.32027E+04         0.00000E+00
    0.00000E+00         0.00000E+00         0.00000E+00
 
    0.16975E+04         0.54095E+04         0.00000E+00
    0.54095E+04         0.33343E+04         0.00000E+00
    0.00000E+00         0.00000E+00         0.00000E+00
 
    0.14452E+04         0.54461E+04         0.00000E+00
    0.54461E+04         0.34669E+04         0.00000E+00
    0.00000E+00         0.00000E+00         0.00000E+00
 
    0.11893E+04         0.54770E+04         0.00000E+00
    0.54770E+04         0.36002E+04         0.00000E+00
    0.00000E+00         0.00000E+00         0.00000E+00
 
    0.93014E+03         0.55019E+04         0.00000E+00
    0.55019E+04         0.37343E+04         0.00000E+00
    0.00000E+00         0.00000E+00         0.00000E+00
 
    0.66781E+03         0.55209E+04         0.00000E+00
    0.55209E+04         0.38689E+04         0.00000E+00
    0.00000E+00         0.00000E+00         0.00000E+00
 
    0.40256E+03         0.55339E+04         0.00000E+00
    0.55339E+04         0.40039E+04         0.00000E+00
    0.00000E+00         0.00000E+00         0.00000E+00
 
    0.13462E+03         0.55408E+04         0.00000E+00
    0.55408E+04         0.41392E+04         0.00000E+00
    0.00000E+00         0.00000E+00         0.00000E+00
 
    0.77842E+04         0.89507E+02         0.00000E+00
    0.89507E+02        -0.19944E+02         0.00000E+00
    0.00000E+00         0.00000E+00         0.00000E+00
 
    0.78208E+04         0.27117E+03         0.00000E+00
    0.27117E+03        -0.15547E+02         0.00000E+00
    0.00000E+00         0.00000E+00         0.00000E+00
 
    0.78485E+04         0.45352E+03         0.00000E+00
    0.45352E+03        -0.67166E+01         0.00000E+00
    0.00000E+00         0.00000E+00         0.00000E+00
 
    0.78675E+04         0.63636E+03         0.00000E+00
    0.63636E+03         0.65598E+01         0.00000E+00
    0.00000E+00         0.00000E+00         0.00000E+00
 
    0.78775E+04         0.81949E+03         0.00000E+00
    0.81949E+03         0.24290E+02         0.00000E+00
    0.00000E+00         0.00000E+00         0.00000E+00
 
    0.78787E+04         0.10027E+04         0.00000E+00
    0.10027E+04         0.46476E+02         0.00000E+00
    0.00000E+00         0.00000E+00         0.00000E+00
 
    0.78709E+04         0.11858E+04         0.00000E+00
    0.11858E+04         0.73116E+02         0.00000E+00
    0.00000E+00         0.00000E+00         0.00000E+00
 
    0.78543E+04         0.13685E+04         0.00000E+00
    0.13685E+04         0.10420E+03         0.00000E+00
    0.00000E+00         0.00000E+00         0.00000E+00
 
    0.78287E+04         0.15507E+04         0.00000E+00
    0.15507E+04         0.13972E+03         0.00000E+00
    0.00000E+00         0.00000E+00         0.00000E+00
 
    0.77943E+04         0.17322E+04         0.00000E+00
    0.17322E+04         0.17966E+03         0.00000E+00
    0.00000E+00         0.00000E+00         0.00000E+00
 
    0.77510E+04         0.19128E+04         0.00000E+00
    0.19128E+04         0.22400E+03         0.00000E+00
    0.00000E+00         0.00000E+00         0.00000E+00
 
    0.76989E+04         0.20922E+04         0.00000E+00
    0.20922E+04         0.27270E+03         0.00000E+00
    0.00000E+00         0.00000E+00         0.00000E+00
 
    0.76379E+04         0.22702E+04         0.00000E+00
    0.22702E+04         0.32574E+03         0.00000E+00
    0.00000E+00         0.00000E+00         0.00000E+00
 
    0.75683E+04         0.24467E+04         0.00000E+00
    0.24467E+04         0.38308E+03         0.00000E+00
    0.00000E+00         0.00000E+00         0.00000E+00
 
    0.74899E+04         0.26214E+04         0.00000E+00
    0.26214E+04         0.44468E+03         0.00000E+00
    0.00000E+00         0.00000E+00         0.00000E+00
 
    0.74029E+04         0.27942E+04         0.00000E+00
    0.27942E+04         0.51049E+03         0.00000E+00
    0.00000E+00         0.00000E+00         0.00000E+00
 
    0.73073E+04         0.29649E+04         0.00000E+00
    0.29649E+04         0.58047E+03         0.00000E+00
    0.00000E+00         0.00000E+00         0.00000E+00
 
    0.72032E+04         0.31332E+04         0.00000E+00
    0.31332E+04         0.65455E+03         0.00000E+00
    0.00000E+00         0.00000E+00         0.00000E+00
 
    0.70907E+04         0.32990E+04         0.00000E+00
    0.32990E+04         0.73268E+03         0.00000E+00
    0.00000E+00         0.00000E+00         0.00000E+00
 
    0.69698E+04         0.34621E+04         0.00000E+00
    0.34621E+04         0.81479E+03         0.00000E+00
    0.00000E+00         0.00000E+00         0.00000E+00
 
    0.68407E+04         0.36222E+04         0.00000E+00
    0.36222E+04         0.90081E+03         0.00000E+00
    0.00000E+00         0.00000E+00         0.00000E+00
 
    0.67034E+04         0.37793E+04         0.00000E+00
    0.37793E+04         0.99067E+03         0.00000E+00
    0.00000E+00         0.00000E+00         0.00000E+00
 
    0.65581E+04         0.39330E+04         0.00000E+00
    0.39330E+04         0.10843E+04         0.00000E+00
    0.00000E+00         0.00000E+00         0.00000E+00
 
    0.64049E+04         0.40833E+04         0.00000E+00
    0.40833E+04         0.11816E+04         0.00000E+00
    0.00000E+00         0.00000E+00         0.00000E+00
 
    0.62439E+04         0.42299E+04         0.00000E+00
    0.42299E+04         0.12825E+04         0.00000E+00
    0.00000E+00         0.00000E+00         0.00000E+00
 
    0.60751E+04         0.43728E+04         0.00000E+00
    0.43728E+04         0.13869E+04         0.00000E+00
    0.00000E+00         0.00000E+00         0.00000E+00
 
    0.58989E+04         0.45116E+04         0.00000E+00
    0.45116E+04         0.14947E+04         0.00000E+00
    0.00000E+00         0.00000E+00         0.00000E+00
 
    0.57152E+04         0.46462E+04         0.00000E+00
    0.46462E+04         0.16058E+04         0.00000E+00
    0.00000E+00         0.00000E+00         0.00000E+00
 
    0.55242E+04         0.47766E+04         0.00000E+00
    0.47766E+04         0.17201E+04         0.00000E+00
    0.00000E+00         0.00000E+00         0.00000E+00
 
    0.53261E+04         0.49024E+04         0.00000E+00
    0.49024E+04         0.18375E+04         0.00000E+00
    0.00000E+00         0.00000E+00         0.00000E+00
 
    0.51211E+04         0.50236E+04         0.00000E+00
    0.50236E+04         0.19579E+04         0.00000E+00
    0.00000E+00         0.00000E+00         0.00000E+00
 
    0.49093E+04         0.51399E+04         0.00000E+00
    0.51399E+04         0.20812E+04         0.00000E+00
    0.00000E+00         0.00000E+00         0.00000E+00
 
    0.46908E+04         0.52513E+04         0.00000E+00
    0.52513E+04         0.22072E+04         0.00000E+00
    0.00000E+00         0.00000E+00         0.00000E+00
 
    0.44659E+04         0.53576E+04         0.00000E+00
    0.53576E+04         0.23358E+04         0.00000E+00
    0.00000E+00         0.00000E+00         0.00000E+00
 
    0.42347E+04         0.54586E+04         0.00000E+00
    0.54586E+04         0.24670E+04         0.00000E+00
    0.00000E+00         0.00000E+00         0.00000E+00
 
    0.39974E+04         0.55542E+04         0.00000E+00
    0.55542E+04         0.26005E+04         0.00000E+00
    0.00000E+00         0.00000E+00         0.00000E+00
 
    0.37542E+04         0.56442E+04         0.00000E+00
    0.56442E+04         0.27363E+04         0.00000E+00
    0.00000E+00         0.00000E+00         0.00000E+00
 
    0.35053E+04         0.57286E+04         0.00000E+00
    0.57286E+04         0.28742E+04         0.00000E+00
    0.00000E+00         0.00000E+00         0.00000E+00
 
    0.32509E+04         0.58073E+04         0.00000E+00
    0.58073E+04         0.30140E+04         0.00000E+00
    0.00000E+00         0.00000E+00         0.00000E+00
 
    0.29912E+04         0.58799E+04         0.00000E+00
    0.58799E+04         0.31557E+04         0.00000E+00
    0.00000E+00         0.00000E+00         0.00000E+00
 
    0.27265E+04         0.59466E+04         0.00000E+00
    0.59466E+04         0.32991E+04         0.00000E+00
    0.00000E+00         0.00000E+00         0.00000E+00
 
    0.24568E+04         0.60071E+04         0.00000E+00
    0.60071E+04         0.34440E+04         0.00000E+00
    0.00000E+00         0.00000E+00         0.00000E+00
 
    0.21825E+04         0.60613E+04         0.00000E+00
    0.60613E+04         0.35903E+04         0.00000E+00
    0.00000E+00         0.00000E+00         0.00000E+00
 
    0.19037E+04         0.61092E+04         0.00000E+00
    0.61092E+04         0.37379E+04         0.00000E+00
    0.00000E+00         0.00000E+00         0.00000E+00
 
    0.16207E+04         0.61506E+04         0.00000E+00
    0.61506E+04         0.38865E+04         0.00000E+00
    0.00000E+00         0.00000E+00         0.00000E+00
 
    0.13338E+04         0.61855E+04         0.00000E+00
    0.61855E+04         0.40361E+04         0.00000E+00
    0.00000E+00         0.00000E+00         0.00000E+00
 
    0.10431E+04         0.62137E+04         0.00000E+00
    0.62137E+04         0.41864E+04         0.00000E+00
    0.00000E+00         0.00000E+00         0.00000E+00
 
    0.74891E+03         0.62352E+04         0.00000E+00
    0.62352E+04         0.43373E+04         0.00000E+00
    0.00000E+00         0.00000E+00         0.00000E+00
 
    0.45145E+03         0.62499E+04         0.00000E+00
    0.62499E+04         0.44887E+04         0.00000E+00
    0.00000E+00         0.00000E+00         0.00000E+00
 
    0.15096E+03         0.62578E+04         0.00000E+00
    0.62578E+04         0.46404E+04         0.00000E+00
    0.00000E+00         0.00000E+00         0.00000E+00
 
    0.87431E+04         0.10109E+03         0.00000E+00
    0.10109E+03        -0.24502E+02         0.00000E+00
    0.00000E+00         0.00000E+00         0.00000E+00
 
    0.87839E+04         0.30621E+03         0.00000E+00
    0.30621E+03        -0.19563E+02         0.00000E+00
    0.00000E+00         0.00000E+00         0.00000E+00
 
    0.88148E+04         0.51210E+03         0.00000E+00
    0.51210E+03        -0.96451E+01         0.00000E+00
    0.00000E+00         0.00000E+00         0.00000E+00
 
    0.88358E+04         0.71854E+03         0.00000E+00
    0.71854E+03         0.52662E+01         0.00000E+00
    0.00000E+00         0.00000E+00         0.00000E+00
 
    0.88468E+04         0.92529E+03         0.00000E+00
    0.92529E+03         0.25178E+02         0.00000E+00
    0.00000E+00         0.00000E+00         0.00000E+00
 
    0.88478E+04         0.11321E+04         0.00000E+00
    0.11321E+04         0.50094E+02         0.00000E+00
    0.00000E+00         0.00000E+00         0.00000E+00
 
    0.88388E+04         0.13388E+04         0.00000E+00
    0.13388E+04         0.80010E+02         0.00000E+00
    0.00000E+00         0.00000E+00         0.00000E+00
 
    0.88198E+04         0.15451E+04         0.00000E+00
    0.15451E+04         0.11492E+03         0.00000E+00
    0.00000E+00         0.00000E+00         0.00000E+00
 
    0.87908E+04         0.17508E+04         0.00000E+00
    0.17508E+04         0.15480E+03         0.00000E+00
    0.00000E+00         0.00000E+00         0.00000E+00
 
    0.87519E+04         0.19556E+04         0.00000E+00
    0.19556E+04         0.19965E+03         0.00000E+00
    0.00000E+00         0.00000E+00         0.00000E+00
 
    0.87030E+04         0.21594E+04         0.00000E+00
    0.21594E+04         0.24943E+03         0.00000E+00
    0.00000E+00         0.00000E+00         0.00000E+00
 
    0.86443E+04         0.23618E+04         0.00000E+00
    0.23618E+04         0.30411E+03         0.00000E+00
    0.00000E+00         0.00000E+00         0.00000E+00
 
    0.85756E+04         0.25628E+04         0.00000E+00
    0.25628E+04         0.36365E+03         0.00000E+00
    0.00000E+00         0.00000E+00         0.00000E+00
 
    0.84972E+04         0.27620E+04         0.00000E+00
    0.27620E+04         0.42802E+03         0.00000E+00
    0.00000E+00         0.00000E+00         0.00000E+00
 
    0.84090E+04         0.29592E+04         0.00000E+00
    0.29592E+04         0.49718E+03         0.00000E+00
    0.00000E+00         0.00000E+00         0.00000E+00
 
    0.83111E+04         0.31542E+04         0.00000E+00
    0.31542E+04         0.57105E+03         0.00000E+00
    0.00000E+00         0.00000E+00         0.00000E+00
 
    0.82035E+04         0.33467E+04         0.00000E+00
    0.33467E+04         0.64960E+03         0.00000E+00
    0.00000E+00         0.00000E+00         0.00000E+00
 
    0.80865E+04         0.35366E+04         0.00000E+00
    0.35366E+04         0.73276E+03         0.00000E+00
    0.00000E+00         0.00000E+00         0.00000E+00
 
    0.79599E+04         0.37237E+04         0.00000E+00
    0.37237E+04         0.82045E+03         0.00000E+00
    0.00000E+00         0.00000E+00         0.00000E+00
 
    0.78241E+04         0.39077E+04         0.00000E+00
    0.39077E+04         0.91261E+03         0.00000E+00
    0.00000E+00         0.00000E+00         0.00000E+00
 
    0.76790E+04         0.40884E+04         0.00000E+00
    0.40884E+04         0.10092E+04         0.00000E+00
    0.00000E+00         0.00000E+00         0.00000E+00
 
    0.75247E+04         0.42656E+04         0.00000E+00
    0.42656E+04         0.11100E+04         0.00000E+00
    0.00000E+00         0.00000E+00         0.00000E+00
 
    0.73614E+04         0.44390E+04         0.00000E+00
    0.44390E+04         0.12151E+04         0.00000E+00
    0.00000E+00         0.00000E+00         0.00000E+00
 
    0.71893E+04         0.46086E+04         0.00000E+00
    0.46086E+04         0.13243E+04         0.00000E+00
    0.00000E+00         0.00000E+00         0.00000E+00
 
    0.70084E+04         0.47740E+04         0.00000E+00
    0.47740E+04         0.14375E+04         0.00000E+00
    0.00000E+00         0.00000E+00         0.00000E+00
 
    0.68189E+04         0.49351E+04         0.00000E+00
    0.49351E+04         0.15547E+04         0.00000E+00
    0.00000E+00         0.00000E+00         0.00000E+00
 
    0.66209E+04         0.50917E+04         0.00000E+00
    0.50917E+04         0.16756E+04         0.00000E+00
    0.00000E+00         0.00000E+00         0.00000E+00
 
    0.64146E+04         0.52436E+04         0.00000E+00
    0.52436E+04         0.18003E+04         0.00000E+00
    0.00000E+00         0.00000E+00         0.00000E+00
 
    0.62001E+04         0.53907E+04         0.00000E+00
    0.53907E+04         0.19286E+04         0.00000E+00
    0.00000E+00         0.00000E+00         0.00000E+00
 
    0.59777E+04         0.55326E+04         0.00000E+00
    0.55326E+04         0.20603E+04         0.00000E+00
    0.00000E+00         0.00000E+00         0.00000E+00
 
    0.57475E+04         0.56693E+04         0.00000E+00
    0.56693E+04         0.21954E+04         0.00000E+00
    0.00000E+00         0.00000E+00         0.00000E+00
 
    0.55097E+04         0.58005E+04         0.00000E+00
    0.58005E+04         0.23337E+04         0.00000E+00
    0.00000E+00         0.00000E+00         0.00000E+00
 
    0.52644E+04         0.59262E+04         0.00000E+00
    0.59262E+04         0.24751E+04         0.00000E+00
    0.00000E+00         0.00000E+00         0.00000E+00
 
    0.50119E+04         0.60461E+04         0.00000E+00
    0.60461E+04         0.26195E+04         0.00000E+00
    0.00000E+00         0.00000E+00         0.00000E+00
 
    0.47524E+04         0.61600E+04         0.00000E+00
    0.61600E+04         0.27666E+04         0.00000E+00
    0.00000E+00         0.00000E+00         0.00000E+00
 
    0.44860E+04         0.62679E+04         0.00000E+00
    0.62679E+04         0.29165E+04         0.00000E+00
    0.00000E+00         0.00000E+00         0.00000E+00
 
    0.42131E+04         0.63695E+04         0.00000E+00
    0.63695E+04         0.30688E+04         0.00000E+00
    0.00000E+00         0.00000E+00         0.00000E+00
 
    0.39337E+04         0.64647E+04         0.00000E+00
    0.64647E+04         0.32235E+04         0.00000E+00
    0.00000E+00         0.00000E+00         0.00000E+00
 
    0.36482E+04         0.65534E+04         0.00000E+00
    0.65534E+04         0.33804E+04         0.00000E+00
    0.00000E+00         0.00000E+00         0.00000E+00
 
    0.33567E+04         0.66354E+04         0.00000E+00
    0.66354E+04         0.35394E+04         0.00000E+00
    0.00000E+00         0.00000E+00         0.00000E+00
 
    0.30595E+04         0.67106E+04         0.00000E+00
    0.67106E+04         0.37003E+04         0.00000E+00
    0.00000E+00         0.00000E+00         0.00000E+00
 
    0.27569E+04         0.67789E+04         0.00000E+00
    0.67789E+04         0.38629E+04         0.00000E+00
    0.00000E+00         0.00000E+00         0.00000E+00
 
    0.24490E+04         0.68401E+04         0.00000E+00
    0.68401E+04         0.40270E+04         0.00000E+00
    0.00000E+00         0.00000E+00         0.00000E+00
 
    0.21362E+04         0.68941E+04         0.00000E+00
    0.68941E+04         0.41926E+04         0.00000E+00
    0.00000E+00         0.00000E+00         0.00000E+00
 
    0.18187E+04         0.69409E+04         0.00000E+00
    0.69409E+04         0.43593E+04         0.00000E+00
    0.00000E+00         0.00000E+00         0.00000E+00
 
    0.14967E+04         0.69803E+04         0.00000E+00
    0.69803E+04         0.45271E+04         0.00000E+00
    0.00000E+00         0.00000E+00         0.00000E+00
 
    0.11705E+04         0.70122E+04         0.00000E+00
    0.70122E+04         0.46958E+04         0.00000E+00
    0.00000E+00         0.00000E+00         0.00000E+00
 
    0.84035E+03         0.70365E+04         0.00000E+00
    0.70365E+04         0.48652E+04         0.00000E+00
    0.00000E+00         0.00000E+00         0.00000E+00
 
    0.50656E+03         0.70531E+04         0.00000E+00
    0.70531E+04         0.50351E+04         0.00000E+00
    0.00000E+00         0.00000E+00         0.00000E+00
 
    0.16940E+03         0.70620E+04         0.00000E+00
    0.70620E+04         0.52052E+04         0.00000E+00
    0.00000E+00         0.00000E+00         0.00000E+00
 
    0.98252E+04         0.11410E+03         0.00000E+00
    0.11410E+03        -0.30082E+02         0.00000E+00
    0.00000E+00         0.00000E+00         0.00000E+00
 
    0.98707E+04         0.34558E+03         0.00000E+00
    0.34558E+03        -0.24531E+02         0.00000E+00
    0.00000E+00         0.00000E+00         0.00000E+00
 
    0.99050E+04         0.57793E+03         0.00000E+00
    0.57793E+03        -0.13385E+02         0.00000E+00
    0.00000E+00         0.00000E+00         0.00000E+00
 
    0.99282E+04         0.81087E+03         0.00000E+00
    0.81087E+03         0.33710E+01         0.00000E+00
    0.00000E+00         0.00000E+00         0.00000E+00
 
    0.99402E+04         0.10441E+04         0.00000E+00
    0.10441E+04         0.25745E+02         0.00000E+00
    0.00000E+00         0.00000E+00         0.00000E+00
 
    0.99410E+04         0.12775E+04         0.00000E+00
    0.12775E+04         0.53740E+02         0.00000E+00
    0.00000E+00         0.00000E+00         0.00000E+00
 
    0.99306E+04         0.15107E+04         0.00000E+00
    0.15107E+04         0.87351E+02         0.00000E+00
    0.00000E+00         0.00000E+00         0.00000E+00
 
    0.99089E+04         0.17434E+04         0.00000E+00
    0.17434E+04         0.12657E+03         0.00000E+00
    0.00000E+00         0.00000E+00         0.00000E+00
 
    0.98760E+04         0.19754E+04         0.00000E+00
    0.19754E+04         0.17138E+03         0.00000E+00
    0.00000E+00         0.00000E+00         0.00000E+00
 
    0.98320E+04         0.22065E+04         0.00000E+00
    0.22065E+04         0.22175E+03         0.00000E+00
    0.00000E+00         0.00000E+00         0.00000E+00
 
    0.97768E+04         0.24363E+04         0.00000E+00
    0.24363E+04         0.27767E+03         0.00000E+00
    0.00000E+00         0.00000E+00         0.00000E+00
 
    0.97105E+04         0.26647E+04         0.00000E+00
    0.26647E+04         0.33909E+03         0.00000E+00
    0.00000E+00         0.00000E+00         0.00000E+00
 
    0.96331E+04         0.28913E+04         0.00000E+00
    0.28913E+04         0.40597E+03         0.00000E+00
    0.00000E+00         0.00000E+00         0.00000E+00
 
    0.95447E+04         0.31160E+04         0.00000E+00
    0.31160E+04         0.47827E+03         0.00000E+00
    0.00000E+00         0.00000E+00         0.00000E+00
 
    0.94453E+04         0.33384E+04         0.00000E+00
    0.33384E+04         0.55594E+03         0.00000E+00
    0.00000E+00         0.00000E+00         0.00000E+00
 
    0.93351E+04         0.35583E+04         0.00000E+00
    0.35583E+04         0.63891E+03         0.00000E+00
    0.00000E+00         0.00000E+00         0.00000E+00
 
    0.92140E+04         0.37754E+04         0.00000E+00
    0.37754E+04         0.72712E+03         0.00000E+00
    0.00000E+00         0.00000E+00         0.00000E+00
 
    0.90823E+04         0.39896E+04         0.00000E+00
    0.39896E+04         0.82050E+03         0.00000E+00
    0.00000E+00         0.00000E+00         0.00000E+00
 
    0.89400E+04         0.42005E+04         0.00000E+00
    0.42005E+04         0.91898E+03         0.00000E+00
    0.00000E+00         0.00000E+00         0.00000E+00
 
    0.87872E+04         0.44080E+04         0.00000E+00
    0.44080E+04         0.10225E+04         0.00000E+00
    0.00000E+00         0.00000E+00         0.00000E+00
 
    0.86240E+04         0.46117E+04         0.00000E+00
    0.46117E+04         0.11309E+04         0.00000E+00
    0.00000E+00         0.00000E+00         0.00000E+00
 
    0.84505E+04         0.48115E+04         0.00000E+00
    0.48115E+04         0.12441E+04         0.00000E+00
    0.00000E+00         0.00000E+00         0.00000E+00
 
    0.82670E+04         0.50071E+04         0.00000E+00
    0.50071E+04         0.13621E+04         0.00000E+00
    0.00000E+00         0.00000E+00         0.00000E+00
 
    0.80735E+04         0.51982E+04         0.00000E+00
    0.51982E+04         0.14847E+04         0.00000E+00
    0.00000E+00         0.00000E+00         0.00000E+00
 
    0.78701E+04         0.53847E+04         0.00000E+00
    0.53847E+04         0.16118E+04         0.00000E+00
    0.00000E+00         0.00000E+00         0.00000E+00
 
    0.76571E+04         0.55664E+04         0.00000E+00
    0.55664E+04         0.17434E+04         0.00000E+00
    0.00000E+00         0.00000E+00         0.00000E+00
 
    0.74347E+04         0.57429E+04         0.00000E+00
    0.57429E+04         0.18792E+04         0.00000E+00
    0.00000E+00         0.00000E+00         0.00000E+00
 
    0.72029E+04         0.59142E+04         0.00000E+00
    0.59142E+04         0.20191E+04         0.00000E+00
    0.00000E+00         0.00000E+00         0.00000E+00
 
    0.69619E+04         0.60799E+04         0.00000E+00
    0.60799E+04         0.21632E+04         0.00000E+00
    0.00000E+00         0.00000E+00         0.00000E+00
 
    0.67121E+04         0.62399E+04         0.00000E+00
    0.62399E+04         0.23110E+04         0.00000E+00
    0.00000E+00         0.00000E+00         0.00000E+00
 
    0.64534E+04         0.63940E+04         0.00000E+00
    0.63940E+04         0.24627E+04         0.00000E+00
    0.00000E+00         0.00000E+00         0.00000E+00
 
    0.61863E+04         0.65420E+04         0.00000E+00
    0.65420E+04         0.26180E+04         0.00000E+00
    0.00000E+00         0.00000E+00         0.00000E+00
 
    0.59108E+04         0.66836E+04         0.00000E+00
    0.66836E+04         0.27767E+04         0.00000E+00
    0.00000E+00         0.00000E+00         0.00000E+00
 
    0.56272E+04         0.68188E+04         0.00000E+00
    0.68188E+04         0.29387E+04         0.00000E+00
    0.00000E+00         0.00000E+00         0.00000E+00
 
    0.53357E+04         0.69472E+04         0.00000E+00
    0.69472E+04         0.31039E+04         0.00000E+00
    0.00000E+00         0.00000E+00         0.00000E+00
 
    0.50366E+04         0.70688E+04         0.00000E+00
    0.70688E+04         0.32721E+04         0.00000E+00
    0.00000E+00         0.00000E+00         0.00000E+00
 
    0.47301E+04         0.71834E+04         0.00000E+00
    0.71834E+04         0.34431E+04         0.00000E+00
    0.00000E+00         0.00000E+00         0.00000E+00
 
    0.44164E+04         0.72907E+04         0.00000E+00
    0.72907E+04         0.36168E+04         0.00000E+00
    0.00000E+00         0.00000E+00         0.00000E+00
 
    0.40957E+04         0.73907E+04         0.00000E+00
    0.73907E+04         0.37929E+04         0.00000E+00
    0.00000E+00         0.00000E+00         0.00000E+00
 
    0.37685E+04         0.74832E+04         0.00000E+00
    0.74832E+04         0.39713E+04         0.00000E+00
    0.00000E+00         0.00000E+00         0.00000E+00
 
    0.34348E+04         0.75680E+04         0.00000E+00
    0.75680E+04         0.41519E+04         0.00000E+00
    0.00000E+00         0.00000E+00         0.00000E+00
 
    0.30950E+04         0.76450E+04         0.00000E+00
    0.76450E+04         0.43344E+04         0.00000E+00
    0.00000E+00         0.00000E+00         0.00000E+00
 
    0.27494E+04         0.77140E+04         0.00000E+00
    0.77140E+04         0.45187E+04         0.00000E+00
    0.00000E+00         0.00000E+00         0.00000E+00
 
    0.23982E+04         0.77750E+04         0.00000E+00
    0.77750E+04         0.47045E+04         0.00000E+00
    0.00000E+00         0.00000E+00         0.00000E+00
 
    0.20417E+04         0.78277E+04         0.00000E+00
    0.78277E+04         0.48917E+04         0.00000E+00
    0.00000E+00         0.00000E+00         0.00000E+00
 
    0.16802E+04         0.78722E+04         0.00000E+00
    0.78722E+04         0.50800E+04         0.00000E+00
    0.00000E+00         0.00000E+00         0.00000E+00
 
    0.13140E+04         0.79082E+04         0.00000E+00
    0.79082E+04         0.52694E+04         0.00000E+00
    0.00000E+00         0.00000E+00         0.00000E+00
 
    0.94337E+03         0.79357E+04         0.00000E+00
    0.79357E+04         0.54595E+04         0.00000E+00
    0.00000E+00         0.00000E+00         0.00000E+00
 
    0.56866E+03         0.79545E+04         0.00000E+00
    0.79545E+04         0.56502E+04         0.00000E+00
    0.00000E+00         0.00000E+00         0.00000E+00
 
    0.19016E+03         0.79647E+04         0.00000E+00
    0.79647E+04         0.58412E+04         0.00000E+00
    0.00000E+00         0.00000E+00         0.00000E+00
 
    0.11046E+05         0.12873E+03         0.00000E+00
    0.12873E+03        -0.36907E+02         0.00000E+00
    0.00000E+00         0.00000E+00         0.00000E+00
 
    0.11096E+05         0.38984E+03         0.00000E+00
    0.38984E+03        -0.30666E+02         0.00000E+00
    0.00000E+00         0.00000E+00         0.00000E+00
 
    0.11134E+05         0.65191E+03         0.00000E+00
    0.65191E+03        -0.18136E+02         0.00000E+00
    0.00000E+00         0.00000E+00         0.00000E+00
 
    0.11160E+05         0.91463E+03         0.00000E+00
    0.91463E+03         0.69991E+00         0.00000E+00
    0.00000E+00         0.00000E+00         0.00000E+00
 
    0.11173E+05         0.11777E+04         0.00000E+00
    0.11777E+04         0.25850E+02         0.00000E+00
    0.00000E+00         0.00000E+00         0.00000E+00
 
    0.11174E+05         0.14409E+04         0.00000E+00
    0.14409E+04         0.57316E+02         0.00000E+00
    0.00000E+00         0.00000E+00         0.00000E+00
 
    0.11161E+05         0.17038E+04         0.00000E+00
    0.17038E+04         0.95093E+02         0.00000E+00
    0.00000E+00         0.00000E+00         0.00000E+00
 
    0.11137E+05         0.19662E+04         0.00000E+00
    0.19662E+04         0.13917E+03         0.00000E+00
    0.00000E+00         0.00000E+00         0.00000E+00
 
    0.11099E+05         0.22279E+04         0.00000E+00
    0.22279E+04         0.18953E+03         0.00000E+00
    0.00000E+00         0.00000E+00         0.00000E+00
 
    0.11049E+05         0.24884E+04         0.00000E+00
    0.24884E+04         0.24614E+03         0.00000E+00
    0.00000E+00         0.00000E+00         0.00000E+00
 
    0.10987E+05         0.27475E+04         0.00000E+00
    0.27475E+04         0.30897E+03         0.00000E+00
    0.00000E+00         0.00000E+00         0.00000E+00
 
    0.10912E+05         0.30049E+04         0.00000E+00
    0.30049E+04         0.37799E+03         0.00000E+00
    0.00000E+00         0.00000E+00         0.00000E+00
 
    0.10825E+05         0.32604E+04         0.00000E+00
    0.32604E+04         0.45314E+03         0.00000E+00
    0.00000E+00         0.00000E+00         0.00000E+00
 
    0.10725E+05         0.35136E+04         0.00000E+00
    0.35136E+04         0.53437E+03         0.00000E+00
    0.00000E+00         0.00000E+00         0.00000E+00
 
    0.10613E+05         0.37643E+04         0.00000E+00
    0.37643E+04         0.62163E+03         0.00000E+00
    0.00000E+00         0.00000E+00         0.00000E+00
 
    0.10489E+05         0.40122E+04         0.00000E+00
    0.40122E+04         0.71484E+03         0.00000E+00
    0.00000E+00         0.00000E+00         0.00000E+00
 
    0.10353E+05         0.42569E+04         0.00000E+00
    0.42569E+04         0.81394E+03         0.00000E+00
    0.00000E+00         0.00000E+00         0.00000E+00
 
    0.10204E+05         0.44983E+04         0.00000E+00
    0.44983E+04         0.91884E+03         0.00000E+00
    0.00000E+00         0.00000E+00         0.00000E+00
 
    0.10044E+05         0.47360E+04         0.00000E+00
    0.47360E+04         0.10295E+04         0.00000E+00
    0.00000E+00         0.00000E+00         0.00000E+00
 
    0.98723E+04         0.49698E+04         0.00000E+00
    0.49698E+04         0.11457E+04         0.00000E+00
    0.00000E+00         0.00000E+00         0.00000E+00
 
    0.96887E+04         0.51994E+04         0.00000E+00
    0.51994E+04         0.12675E+04         0.00000E+00
    0.00000E+00         0.00000E+00         0.00000E+00
 
    0.94936E+04         0.54245E+04         0.00000E+00
    0.54245E+04         0.13947E+04         0.00000E+00
    0.00000E+00         0.00000E+00         0.00000E+00
 
    0.92871E+04         0.56449E+04         0.00000E+00
    0.56449E+04         0.15272E+04         0.00000E+00
    0.00000E+00         0.00000E+00         0.00000E+00
 
    0.90695E+04         0.58604E+04         0.00000E+00
    0.58604E+04         0.16649E+04         0.00000E+00
    0.00000E+00         0.00000E+00         0.00000E+00
 
    0.88409E+04         0.60705E+04         0.00000E+00
    0.60705E+04         0.18077E+04         0.00000E+00
    0.00000E+00         0.00000E+00         0.00000E+00
 
    0.86014E+04         0.62752E+04         0.00000E+00
    0.62752E+04         0.19554E+04         0.00000E+00
    0.00000E+00         0.00000E+00         0.00000E+00
 
    0.83513E+04         0.64741E+04         0.00000E+00
    0.64741E+04         0.21079E+04         0.00000E+00
    0.00000E+00         0.00000E+00         0.00000E+00
 
    0.80907E+04         0.66671E+04         0.00000E+00
    0.66671E+04         0.22651E+04         0.00000E+00
    0.00000E+00         0.00000E+00         0.00000E+00
 
    0.78199E+04         0.68538E+04         0.00000E+00
    0.68538E+04         0.24268E+04         0.00000E+00
    0.00000E+00         0.00000E+00         0.00000E+00
 
    0.75391E+04         0.70341E+04         0.00000E+00
    0.70341E+04         0.25929E+04         0.00000E+00
    0.00000E+00         0.00000E+00         0.00000E+00
 
    0.72485E+04         0.72077E+04         0.00000E+00
    0.72077E+04         0.27632E+04         0.00000E+00
    0.00000E+00         0.00000E+00         0.00000E+00
 
    0.69483E+04         0.73744E+04         0.00000E+00
    0.73744E+04         0.29376E+04         0.00000E+00
    0.00000E+00         0.00000E+00         0.00000E+00
 
    0.66387E+04         0.75340E+04         0.00000E+00
    0.75340E+04         0.31158E+04         0.00000E+00
    0.00000E+00         0.00000E+00         0.00000E+00
 
    0.63201E+04         0.76863E+04         0.00000E+00
    0.76863E+04         0.32977E+04         0.00000E+00
    0.00000E+00         0.00000E+00         0.00000E+00
 
    0.59926E+04         0.78310E+04         0.00000E+00
    0.78310E+04         0.34832E+04         0.00000E+00
    0.00000E+00         0.00000E+00         0.00000E+00
 
    0.56566E+04         0.79680E+04         0.00000E+00
    0.79680E+04         0.36721E+04         0.00000E+00
    0.00000E+00         0.00000E+00         0.00000E+00
 
    0.53122E+04         0.80971E+04         0.00000E+00
    0.80971E+04         0.38641E+04         0.00000E+00
    0.00000E+00         0.00000E+00         0.00000E+00
 
    0.49599E+04         0.82181E+04         0.00000E+00
    0.82181E+04         0.40591E+04         0.00000E+00
    0.00000E+00         0.00000E+00         0.00000E+00
 
    0.45997E+04         0.83307E+04         0.00000E+00
    0.83307E+04         0.42568E+04         0.00000E+00
    0.00000E+00         0.00000E+00         0.00000E+00
 
    0.42321E+04         0.84349E+04         0.00000E+00
    0.84349E+04         0.44572E+04         0.00000E+00
    0.00000E+00         0.00000E+00         0.00000E+00
 
    0.38574E+04         0.85305E+04         0.00000E+00
    0.85305E+04         0.46599E+04         0.00000E+00
    0.00000E+00         0.00000E+00         0.00000E+00
 
    0.34757E+04         0.86173E+04         0.00000E+00
    0.86173E+04         0.48649E+04         0.00000E+00
    0.00000E+00         0.00000E+00         0.00000E+00
 
    0.30875E+04         0.86951E+04         0.00000E+00
    0.86951E+04         0.50717E+04         0.00000E+00
    0.00000E+00         0.00000E+00         0.00000E+00
 
    0.26931E+04         0.87639E+04         0.00000E+00
    0.87639E+04         0.52804E+04         0.00000E+00
    0.00000E+00         0.00000E+00         0.00000E+00
 
    0.22927E+04         0.88234E+04         0.00000E+00
    0.88234E+04         0.54906E+04         0.00000E+00
    0.00000E+00         0.00000E+00         0.00000E+00
 
    0.18868E+04         0.88736E+04         0.00000E+00
    0.88736E+04         0.57021E+04         0.00000E+00
    0.00000E+00         0.00000E+00         0.00000E+00
 
    0.14755E+04         0.89142E+04         0.00000E+00
    0.89142E+04         0.59147E+04         0.00000E+00
    0.00000E+00         0.00000E+00         0.00000E+00
 
    0.10593E+04         0.89453E+04         0.00000E+00
    0.89453E+04         0.61281E+04         0.00000E+00
    0.00000E+00         0.00000E+00         0.00000E+00
 
    0.63857E+03         0.89666E+04         0.00000E+00
    0.89666E+04         0.63423E+04         0.00000E+00
    0.00000E+00         0.00000E+00         0.00000E+00
 
    0.21354E+03         0.89781E+04         0.00000E+00
    0.89781E+04         0.65568E+04         0.00000E+00
    0.00000E+00         0.00000E+00         0.00000E+00
 
    0.12421E+05         0.14518E+03         0.00000E+00
    0.14518E+03        -0.45255E+02         0.00000E+00
    0.00000E+00         0.00000E+00         0.00000E+00
 
    0.12478E+05         0.43961E+03         0.00000E+00
    0.43961E+03        -0.38236E+02         0.00000E+00
    0.00000E+00         0.00000E+00         0.00000E+00
 
    0.12520E+05         0.73509E+03         0.00000E+00
    0.73509E+03        -0.24145E+02         0.00000E+00
    0.00000E+00         0.00000E+00         0.00000E+00
 
    0.12548E+05         0.10313E+04         0.00000E+00
    0.10313E+04        -0.29644E+01         0.00000E+00
    0.00000E+00         0.00000E+00         0.00000E+00
 
    0.12563E+05         0.13279E+04         0.00000E+00
    0.13279E+04         0.25314E+02         0.00000E+00
    0.00000E+00         0.00000E+00         0.00000E+00
 
    0.12563E+05         0.16245E+04         0.00000E+00
    0.16245E+04         0.60692E+02         0.00000E+00
    0.00000E+00         0.00000E+00         0.00000E+00
 
    0.12548E+05         0.19209E+04         0.00000E+00
    0.19209E+04         0.10316E+03         0.00000E+00
    0.00000E+00         0.00000E+00         0.00000E+00
 
    0.12520E+05         0.22167E+04         0.00000E+00
    0.22167E+04         0.15271E+03         0.00000E+00
    0.00000E+00         0.00000E+00         0.00000E+00
 
    0.12478E+05         0.25116E+04         0.00000E+00
    0.25116E+04         0.20932E+03         0.00000E+00
    0.00000E+00         0.00000E+00         0.00000E+00
 
    0.12421E+05         0.28052E+04         0.00000E+00
    0.28052E+04         0.27296E+03         0.00000E+00
    0.00000E+00         0.00000E+00         0.00000E+00
 
    0.12351E+05         0.30972E+04         0.00000E+00
    0.30972E+04         0.34358E+03         0.00000E+00
    0.00000E+00         0.00000E+00         0.00000E+00
 
    0.12266E+05         0.33873E+04         0.00000E+00
    0.33873E+04         0.42115E+03         0.00000E+00
    0.00000E+00         0.00000E+00         0.00000E+00
 
    0.12167E+05         0.36752E+04         0.00000E+00
    0.36752E+04         0.50561E+03         0.00000E+00
    0.00000E+00         0.00000E+00         0.00000E+00
 
    0.12055E+05         0.39605E+04         0.00000E+00
    0.39605E+04         0.59691E+03         0.00000E+00
    0.00000E+00         0.00000E+00         0.00000E+00
 
    0.11929E+05         0.42430E+04         0.00000E+00
    0.42430E+04         0.69497E+03         0.00000E+00
    0.00000E+00         0.00000E+00         0.00000E+00
 
    0.11789E+05         0.45222E+04         0.00000E+00
    0.45222E+04         0.79972E+03         0.00000E+00
    0.00000E+00         0.00000E+00         0.00000E+00
 
    0.11635E+05         0.47980E+04         0.00000E+00
    0.47980E+04         0.91107E+03         0.00000E+00
    0.00000E+00         0.00000E+00         0.00000E+00
 
    0.11468E+05         0.50699E+04         0.00000E+00
    0.50699E+04         0.10289E+04         0.00000E+00
    0.00000E+00         0.00000E+00         0.00000E+00
 
    0.11288E+05         0.53377E+04         0.00000E+00
    0.53377E+04         0.11532E+04         0.00000E+00
    0.00000E+00         0.00000E+00         0.00000E+00
 
    0.11094E+05         0.56010E+04         0.00000E+00
    0.56010E+04         0.12839E+04         0.00000E+00
    0.00000E+00         0.00000E+00         0.00000E+00
 
    0.10888E+05         0.58597E+04         0.00000E+00
    0.58597E+04         0.14207E+04         0.00000E+00
    0.00000E+00         0.00000E+00         0.00000E+00
 
    0.10668E+05         0.61132E+04         0.00000E+00
    0.61132E+04         0.15636E+04         0.00000E+00
    0.00000E+00         0.00000E+00         0.00000E+00
 
    0.10436E+05         0.63615E+04         0.00000E+00
    0.63615E+04         0.17124E+04         0.00000E+00
    0.00000E+00         0.00000E+00         0.00000E+00
 
    0.10191E+05         0.66041E+04         0.00000E+00
    0.66041E+04         0.18671E+04         0.00000E+00
    0.00000E+00         0.00000E+00         0.00000E+00
 
    0.99338E+04         0.68408E+04         0.00000E+00
    0.68408E+04         0.20275E+04         0.00000E+00
    0.00000E+00         0.00000E+00         0.00000E+00
 
    0.96645E+04         0.70713E+04         0.00000E+00
    0.70713E+04         0.21935E+04         0.00000E+00
    0.00000E+00         0.00000E+00         0.00000E+00
 
    0.93832E+04         0.72954E+04         0.00000E+00
    0.72954E+04         0.23648E+04         0.00000E+00
    0.00000E+00         0.00000E+00         0.00000E+00
 
    0.90902E+04         0.75127E+04         0.00000E+00
    0.75127E+04         0.25414E+04         0.00000E+00
    0.00000E+00         0.00000E+00         0.00000E+00
 
    0.87858E+04         0.77230E+04         0.00000E+00
    0.77230E+04         0.27230E+04         0.00000E+00
    0.00000E+00         0.00000E+00         0.00000E+00
 
    0.84701E+04         0.79260E+04         0.00000E+00
    0.79260E+04         0.29095E+04         0.00000E+00
    0.00000E+00         0.00000E+00         0.00000E+00
 
    0.81434E+04         0.81216E+04         0.00000E+00
    0.81216E+04         0.31008E+04         0.00000E+00
    0.00000E+00         0.00000E+00         0.00000E+00
 
    0.78060E+04         0.83093E+04         0.00000E+00
    0.83093E+04         0.32966E+04         0.00000E+00
    0.00000E+00         0.00000E+00         0.00000E+00
 
    0.74581E+04         0.84890E+04         0.00000E+00
    0.84890E+04         0.34968E+04         0.00000E+00
    0.00000E+00         0.00000E+00         0.00000E+00
 
    0.71000E+04         0.86605E+04         0.00000E+00
    0.86605E+04         0.37012E+04         0.00000E+00
    0.00000E+00         0.00000E+00         0.00000E+00
 
    0.67320E+04         0.88235E+04         0.00000E+00
    0.88235E+04         0.39095E+04         0.00000E+00
    0.00000E+00         0.00000E+00         0.00000E+00
 
    0.63544E+04         0.89778E+04         0.00000E+00
    0.89778E+04         0.41216E+04         0.00000E+00
    0.00000E+00         0.00000E+00         0.00000E+00
 
    0.59674E+04         0.91232E+04         0.00000E+00
    0.91232E+04         0.43372E+04         0.00000E+00
    0.00000E+00         0.00000E+00         0.00000E+00
 
    0.55715E+04         0.92594E+04         0.00000E+00
    0.92594E+04         0.45562E+04         0.00000E+00
    0.00000E+00         0.00000E+00         0.00000E+00
 
    0.51669E+04         0.93864E+04         0.00000E+00
    0.93864E+04         0.47783E+04         0.00000E+00
    0.00000E+00         0.00000E+00         0.00000E+00
 
    0.47539E+04         0.95037E+04         0.00000E+00
    0.95037E+04         0.50033E+04         0.00000E+00
    0.00000E+00         0.00000E+00         0.00000E+00
 
    0.43329E+04         0.96114E+04         0.00000E+00
    0.96114E+04         0.52310E+04         0.00000E+00
    0.00000E+00         0.00000E+00         0.00000E+00
 
    0.39041E+04         0.97092E+04         0.00000E+00
    0.97092E+04         0.54612E+04         0.00000E+00
    0.00000E+00         0.00000E+00         0.00000E+00
 
    0.34680E+04         0.97969E+04         0.00000E+00
    0.97969E+04         0.56935E+04         0.00000E+00
    0.00000E+00         0.00000E+00         0.00000E+00
 
    0.30250E+04         0.98744E+04         0.00000E+00
    0.98744E+04         0.59278E+04         0.00000E+00
    0.00000E+00         0.00000E+00         0.00000E+00
 
    0.25752E+04         0.99415E+04         0.00000E+00
    0.99415E+04         0.61639E+04         0.00000E+00
    0.00000E+00         0.00000E+00         0.00000E+00
 
    0.21192E+04         0.99980E+04         0.00000E+00
    0.99980E+04         0.64014E+04         0.00000E+00
    0.00000E+00         0.00000E+00         0.00000E+00
 
    0.16573E+04         0.10044E+05         0.00000E+00
    0.10044E+05         0.66402E+04         0.00000E+00
    0.00000E+00         0.00000E+00         0.00000E+00
 
    0.11898E+04         0.10079E+05         0.00000E+00
    0.10079E+05         0.68799E+04         0.00000E+00
    0.00000E+00         0.00000E+00         0.00000E+00
 
    0.71723E+03         0.10103E+05         0.00000E+00
    0.10103E+05         0.71204E+04         0.00000E+00
    0.00000E+00         0.00000E+00         0.00000E+00
 
    0.23984E+03         0.10116E+05         0.00000E+00
    0.10116E+05         0.73613E+04         0.00000E+00
    0.00000E+00         0.00000E+00         0.00000E+00
 
    0.13971E+05         0.16369E+03         0.00000E+00
    0.16369E+03        -0.55459E+02         0.00000E+00
    0.00000E+00         0.00000E+00         0.00000E+00
 
    0.14034E+05         0.49559E+03         0.00000E+00
    0.49559E+03        -0.47563E+02         0.00000E+00
    0.00000E+00         0.00000E+00         0.00000E+00
 
    0.14081E+05         0.82864E+03         0.00000E+00
    0.82864E+03        -0.31713E+02         0.00000E+00
    0.00000E+00         0.00000E+00         0.00000E+00
 
    0.14113E+05         0.11625E+04         0.00000E+00
    0.11625E+04        -0.78920E+01         0.00000E+00
    0.00000E+00         0.00000E+00         0.00000E+00
 
    0.14128E+05         0.14967E+04         0.00000E+00
    0.14967E+04         0.23911E+02         0.00000E+00
    0.00000E+00         0.00000E+00         0.00000E+00
 
    0.14127E+05         0.18310E+04         0.00000E+00
    0.18310E+04         0.63695E+02         0.00000E+00
    0.00000E+00         0.00000E+00         0.00000E+00
 
    0.14111E+05         0.21650E+04         0.00000E+00
    0.21650E+04         0.11145E+03         0.00000E+00
    0.00000E+00         0.00000E+00         0.00000E+00
 
    0.14078E+05         0.24983E+04         0.00000E+00
    0.24983E+04         0.16717E+03         0.00000E+00
    0.00000E+00         0.00000E+00         0.00000E+00
 
    0.14030E+05         0.28305E+04         0.00000E+00
    0.28305E+04         0.23081E+03         0.00000E+00
    0.00000E+00         0.00000E+00         0.00000E+00
 
    0.13966E+05         0.31613E+04         0.00000E+00
    0.31613E+04         0.30236E+03         0.00000E+00
    0.00000E+00         0.00000E+00         0.00000E+00
 
    0.13886E+05         0.34903E+04         0.00000E+00
    0.34903E+04         0.38176E+03         0.00000E+00
    0.00000E+00         0.00000E+00         0.00000E+00
 
    0.13790E+05         0.38171E+04         0.00000E+00
    0.38171E+04         0.46896E+03         0.00000E+00
    0.00000E+00         0.00000E+00         0.00000E+00
 
    0.13679E+05         0.41414E+04         0.00000E+00
    0.41414E+04         0.56390E+03         0.00000E+00
    0.00000E+00         0.00000E+00         0.00000E+00
 
    0.13552E+05         0.44628E+04         0.00000E+00
    0.44628E+04         0.66652E+03         0.00000E+00
    0.00000E+00         0.00000E+00         0.00000E+00
 
    0.13410E+05         0.47809E+04         0.00000E+00
    0.47809E+04         0.77674E+03         0.00000E+00
    0.00000E+00         0.00000E+00         0.00000E+00
 
    0.13252E+05         0.50954E+04         0.00000E+00
    0.50954E+04         0.89447E+03         0.00000E+00
    0.00000E+00         0.00000E+00         0.00000E+00
 
    0.13079E+05         0.54059E+04         0.00000E+00
    0.54059E+04         0.10196E+04         0.00000E+00
    0.00000E+00         0.00000E+00         0.00000E+00
 
    0.12891E+05         0.57122E+04         0.00000E+00
    0.57122E+04         0.11521E+04         0.00000E+00
    0.00000E+00         0.00000E+00         0.00000E+00
 
    0.12688E+05         0.60137E+04         0.00000E+00
    0.60137E+04         0.12918E+04         0.00000E+00
    0.00000E+00         0.00000E+00         0.00000E+00
 
    0.12470E+05         0.63103E+04         0.00000E+00
    0.63103E+04         0.14385E+04         0.00000E+00
    0.00000E+00         0.00000E+00         0.00000E+00
 
    0.12237E+05         0.66015E+04         0.00000E+00
    0.66015E+04         0.15923E+04         0.00000E+00
    0.00000E+00         0.00000E+00         0.00000E+00
 
    0.11990E+05         0.68870E+04         0.00000E+00
    0.68870E+04         0.17529E+04         0.00000E+00
    0.00000E+00         0.00000E+00         0.00000E+00
 
    0.11728E+05         0.71665E+04         0.00000E+00
    0.71665E+04         0.19201E+04         0.00000E+00
    0.00000E+00         0.00000E+00         0.00000E+00
 
    0.11453E+05         0.74397E+04         0.00000E+00
    0.74397E+04         0.20939E+04         0.00000E+00
    0.00000E+00         0.00000E+00         0.00000E+00
 
    0.11164E+05         0.77062E+04         0.00000E+00
    0.77062E+04         0.22741E+04         0.00000E+00
    0.00000E+00         0.00000E+00         0.00000E+00
 
    0.10861E+05         0.79657E+04         0.00000E+00
    0.79657E+04         0.24606E+04         0.00000E+00
    0.00000E+00         0.00000E+00         0.00000E+00
 
    0.10544E+05         0.82180E+04         0.00000E+00
    0.82180E+04         0.26530E+04         0.00000E+00
    0.00000E+00         0.00000E+00         0.00000E+00
 
    0.10215E+05         0.84626E+04         0.00000E+00
    0.84626E+04         0.28514E+04         0.00000E+00
    0.00000E+00         0.00000E+00         0.00000E+00
 
    0.98725E+04         0.86994E+04         0.00000E+00
    0.86994E+04         0.30555E+04         0.00000E+00
    0.00000E+00         0.00000E+00         0.00000E+00
 
    0.95175E+04         0.89279E+04         0.00000E+00
    0.89279E+04         0.32650E+04         0.00000E+00
    0.00000E+00         0.00000E+00         0.00000E+00
 
    0.91502E+04         0.91480E+04         0.00000E+00
    0.91480E+04         0.34799E+04         0.00000E+00
    0.00000E+00         0.00000E+00         0.00000E+00
 
    0.87709E+04         0.93594E+04         0.00000E+00
    0.93594E+04         0.36999E+04         0.00000E+00
    0.00000E+00         0.00000E+00         0.00000E+00
 
    0.83798E+04         0.95617E+04         0.00000E+00
    0.95617E+04         0.39247E+04         0.00000E+00
    0.00000E+00         0.00000E+00         0.00000E+00
 
    0.79773E+04         0.97548E+04         0.00000E+00
    0.97548E+04         0.41543E+04         0.00000E+00
    0.00000E+00         0.00000E+00         0.00000E+00
 
    0.75637E+04         0.99383E+04         0.00000E+00
    0.99383E+04         0.43883E+04         0.00000E+00
    0.00000E+00         0.00000E+00         0.00000E+00
 
    0.71393E+04         0.10112E+05         0.00000E+00
    0.10112E+05         0.46265E+04         0.00000E+00
    0.00000E+00         0.00000E+00         0.00000E+00
 
    0.67044E+04         0.10276E+05         0.00000E+00
    0.10276E+05         0.48687E+04         0.00000E+00
    0.00000E+00         0.00000E+00         0.00000E+00
 
    0.62595E+04         0.10429E+05         0.00000E+00
    0.10429E+05         0.51147E+04         0.00000E+00
    0.00000E+00         0.00000E+00         0.00000E+00
 
    0.58048E+04         0.10572E+05         0.00000E+00
    0.10572E+05         0.53641E+04         0.00000E+00
    0.00000E+00         0.00000E+00         0.00000E+00
 
    0.53407E+04         0.10704E+05         0.00000E+00
    0.10704E+05         0.56169E+04         0.00000E+00
    0.00000E+00         0.00000E+00         0.00000E+00
 
    0.48677E+04         0.10825E+05         0.00000E+00
    0.10825E+05         0.58726E+04         0.00000E+00
    0.00000E+00         0.00000E+00         0.00000E+00
 
    0.43860E+04         0.10936E+05         0.00000E+00
    0.10936E+05         0.61311E+04         0.00000E+00
    0.00000E+00         0.00000E+00         0.00000E+00
 
    0.38960E+04         0.11034E+05         0.00000E+00
    0.11034E+05         0.63921E+04         0.00000E+00
    0.00000E+00         0.00000E+00         0.00000E+00
 
    0.33982E+04         0.11122E+05         0.00000E+00
    0.11122E+05         0.66553E+04         0.00000E+00
    0.00000E+00         0.00000E+00         0.00000E+00
 
    0.28930E+04         0.11197E+05         0.00000E+00
    0.11197E+05         0.69204E+04         0.00000E+00
    0.00000E+00         0.00000E+00         0.00000E+00
 
    0.23807E+04         0.11261E+05         0.00000E+00
    0.11261E+05         0.71872E+04         0.00000E+00
    0.00000E+00         0.00000E+00         0.00000E+00
 
    0.18617E+04         0.11313E+05         0.00000E+00
    0.11313E+05         0.74554E+04         0.00000E+00
    0.00000E+00         0.00000E+00         0.00000E+00
 
    0.13366E+04         0.11352E+05         0.00000E+00
    0.11352E+05         0.77247E+04         0.00000E+00
    0.00000E+00         0.00000E+00         0.00000E+00
 
    0.80569E+03         0.11380E+05         0.00000E+00
    0.11380E+05         0.79948E+04         0.00000E+00
    0.00000E+00         0.00000E+00         0.00000E+00
 
    0.26942E+03         0.11395E+05         0.00000E+00
    0.11395E+05         0.82654E+04         0.00000E+00
    0.00000E+00         0.00000E+00         0.00000E+00
 
    0.15718E+05         0.18452E+03         0.00000E+00
    0.18452E+03        -0.67928E+02         0.00000E+00
    0.00000E+00         0.00000E+00         0.00000E+00
 
    0.15788E+05         0.55856E+03         0.00000E+00
    0.55856E+03        -0.59044E+02         0.00000E+00
    0.00000E+00         0.00000E+00         0.00000E+00
 
    0.15840E+05         0.93387E+03         0.00000E+00
    0.93387E+03        -0.41214E+02         0.00000E+00
    0.00000E+00         0.00000E+00         0.00000E+00
 
    0.15874E+05         0.13100E+04         0.00000E+00
    0.13100E+04        -0.14417E+02         0.00000E+00
    0.00000E+00         0.00000E+00         0.00000E+00
 
    0.15891E+05         0.16867E+04         0.00000E+00
    0.16867E+04         0.21354E+02         0.00000E+00
    0.00000E+00         0.00000E+00         0.00000E+00
 
    0.15889E+05         0.20633E+04         0.00000E+00
    0.20633E+04         0.66100E+02         0.00000E+00
    0.00000E+00         0.00000E+00         0.00000E+00
 
    0.15870E+05         0.24395E+04         0.00000E+00
    0.24395E+04         0.11981E+03         0.00000E+00
    0.00000E+00         0.00000E+00         0.00000E+00
 
    0.15833E+05         0.28150E+04         0.00000E+00
    0.28150E+04         0.18247E+03         0.00000E+00
    0.00000E+00         0.00000E+00         0.00000E+00
 
    0.15778E+05         0.31892E+04         0.00000E+00
    0.31892E+04         0.25404E+03         0.00000E+00
    0.00000E+00         0.00000E+00         0.00000E+00
 
    0.15705E+05         0.35617E+04         0.00000E+00
    0.35617E+04         0.33448E+03         0.00000E+00
    0.00000E+00         0.00000E+00         0.00000E+00
 
    0.15615E+05         0.39322E+04         0.00000E+00
    0.39322E+04         0.42375E+03         0.00000E+00
    0.00000E+00         0.00000E+00         0.00000E+00
 
    0.15506E+05         0.43003E+04         0.00000E+00
    0.43003E+04         0.52179E+03         0.00000E+00
    0.00000E+00         0.00000E+00         0.00000E+00
 
    0.15381E+05         0.46654E+04         0.00000E+00
    0.46654E+04         0.62853E+03         0.00000E+00
    0.00000E+00         0.00000E+00         0.00000E+00
 
    0.15237E+05         0.50273E+04         0.00000E+00
    0.50273E+04         0.74389E+03         0.00000E+00
    0.00000E+00         0.00000E+00         0.00000E+00
 
    0.15077E+05         0.53855E+04         0.00000E+00
    0.53855E+04         0.86779E+03         0.00000E+00
    0.00000E+00         0.00000E+00         0.00000E+00
 
    0.14899E+05         0.57396E+04         0.00000E+00
    0.57396E+04         0.10001E+04         0.00000E+00
    0.00000E+00         0.00000E+00         0.00000E+00
 
    0.14703E+05         0.60893E+04         0.00000E+00
    0.60893E+04         0.11408E+04         0.00000E+00
    0.00000E+00         0.00000E+00         0.00000E+00
 
    0.14491E+05         0.64340E+04         0.00000E+00
    0.64340E+04         0.12897E+04         0.00000E+00
    0.00000E+00         0.00000E+00         0.00000E+00
 
    0.14262E+05         0.67735E+04         0.00000E+00
    0.67735E+04         0.14467E+04         0.00000E+00
    0.00000E+00         0.00000E+00         0.00000E+00
 
    0.14017E+05         0.71073E+04         0.00000E+00
    0.71073E+04         0.16116E+04         0.00000E+00
    0.00000E+00         0.00000E+00         0.00000E+00
 
    0.13755E+05         0.74351E+04         0.00000E+00
    0.74351E+04         0.17844E+04         0.00000E+00
    0.00000E+00         0.00000E+00         0.00000E+00
 
    0.13477E+05         0.77565E+04         0.00000E+00
    0.77565E+04         0.19648E+04         0.00000E+00
    0.00000E+00         0.00000E+00         0.00000E+00
 
    0.13183E+05         0.80711E+04         0.00000E+00
    0.80711E+04         0.21528E+04         0.00000E+00
    0.00000E+00         0.00000E+00         0.00000E+00
 
    0.12873E+05         0.83786E+04         0.00000E+00
    0.83786E+04         0.23481E+04         0.00000E+00
    0.00000E+00         0.00000E+00         0.00000E+00
 
    0.12547E+05         0.86785E+04         0.00000E+00
    0.86785E+04         0.25506E+04         0.00000E+00
    0.00000E+00         0.00000E+00         0.00000E+00
 
    0.12206E+05         0.89706E+04         0.00000E+00
    0.89706E+04         0.27600E+04         0.00000E+00
    0.00000E+00         0.00000E+00         0.00000E+00
 
    0.11850E+05         0.92545E+04         0.00000E+00
    0.92545E+04         0.29763E+04         0.00000E+00
    0.00000E+00         0.00000E+00         0.00000E+00
 
    0.11480E+05         0.95298E+04         0.00000E+00
    0.95298E+04         0.31992E+04         0.00000E+00
    0.00000E+00         0.00000E+00         0.00000E+00
 
    0.11095E+05         0.97962E+04         0.00000E+00
    0.97962E+04         0.34284E+04         0.00000E+00
    0.00000E+00         0.00000E+00         0.00000E+00
 
    0.10696E+05         0.10053E+05         0.00000E+00
    0.10053E+05         0.36638E+04         0.00000E+00
    0.00000E+00         0.00000E+00         0.00000E+00
 
    0.10282E+05         0.10301E+05         0.00000E+00
    0.10301E+05         0.39052E+04         0.00000E+00
    0.00000E+00         0.00000E+00         0.00000E+00
 
    0.98560E+04         0.10539E+05         0.00000E+00
    0.10539E+05         0.41523E+04         0.00000E+00
    0.00000E+00         0.00000E+00         0.00000E+00
 
    0.94163E+04         0.10767E+05         0.00000E+00
    0.10767E+05         0.44049E+04         0.00000E+00
    0.00000E+00         0.00000E+00         0.00000E+00
 
    0.89638E+04         0.10984E+05         0.00000E+00
    0.10984E+05         0.46628E+04         0.00000E+00
    0.00000E+00         0.00000E+00         0.00000E+00
 
    0.84989E+04         0.11190E+05         0.00000E+00
    0.11190E+05         0.49256E+04         0.00000E+00
    0.00000E+00         0.00000E+00         0.00000E+00
 
    0.80218E+04         0.11386E+05         0.00000E+00
    0.11386E+05         0.51932E+04         0.00000E+00
    0.00000E+00         0.00000E+00         0.00000E+00
 
    0.75331E+04         0.11570E+05         0.00000E+00
    0.11570E+05         0.54653E+04         0.00000E+00
    0.00000E+00         0.00000E+00         0.00000E+00
 
    0.70330E+04         0.11743E+05         0.00000E+00
    0.11743E+05         0.57416E+04         0.00000E+00
    0.00000E+00         0.00000E+00         0.00000E+00
 
    0.65220E+04         0.11904E+05         0.00000E+00
    0.11904E+05         0.60218E+04         0.00000E+00
    0.00000E+00         0.00000E+00         0.00000E+00
 
    0.60005E+04         0.12052E+05         0.00000E+00
    0.12052E+05         0.63057E+04         0.00000E+00
    0.00000E+00         0.00000E+00         0.00000E+00
 
    0.54689E+04         0.12189E+05         0.00000E+00
    0.12189E+05         0.65930E+04         0.00000E+00
    0.00000E+00         0.00000E+00         0.00000E+00
 
    0.49276E+04         0.12313E+05         0.00000E+00
    0.12313E+05         0.68833E+04         0.00000E+00
    0.00000E+00         0.00000E+00         0.00000E+00
 
    0.43771E+04         0.12424E+05         0.00000E+00
    0.12424E+05         0.71765E+04         0.00000E+00
    0.00000E+00         0.00000E+00         0.00000E+00
 
    0.38178E+04         0.12523E+05         0.00000E+00
    0.12523E+05         0.74721E+04         0.00000E+00
    0.00000E+00         0.00000E+00         0.00000E+00
 
    0.32501E+04         0.12608E+05         0.00000E+00
    0.12608E+05         0.77699E+04         0.00000E+00
    0.00000E+00         0.00000E+00         0.00000E+00
 
    0.26746E+04         0.12680E+05         0.00000E+00
    0.12680E+05         0.80696E+04         0.00000E+00
    0.00000E+00         0.00000E+00         0.00000E+00
 
    0.20916E+04         0.12738E+05         0.00000E+00
    0.12738E+05         0.83709E+04         0.00000E+00
    0.00000E+00         0.00000E+00         0.00000E+00
 
    0.15016E+04         0.12783E+05         0.00000E+00
    0.12783E+05         0.86734E+04         0.00000E+00
    0.00000E+00         0.00000E+00         0.00000E+00
 
    0.90513E+03         0.12814E+05         0.00000E+00
    0.12814E+05         0.89768E+04         0.00000E+00
    0.00000E+00         0.00000E+00         0.00000E+00
 
    0.30267E+03         0.12831E+05         0.00000E+00
    0.12831E+05         0.92809E+04         0.00000E+00
    0.00000E+00         0.00000E+00         0.00000E+00
 
    0.17685E+05         0.20796E+03         0.00000E+00
    0.20796E+03        -0.83158E+02         0.00000E+00
    0.00000E+00         0.00000E+00         0.00000E+00
 
    0.17762E+05         0.62941E+03         0.00000E+00
    0.62941E+03        -0.73162E+02         0.00000E+00
    0.00000E+00         0.00000E+00         0.00000E+00
 
    0.17820E+05         0.10523E+04         0.00000E+00
    0.10523E+04        -0.53101E+02         0.00000E+00
    0.00000E+00         0.00000E+00         0.00000E+00
 
    0.17858E+05         0.14760E+04         0.00000E+00
    0.14760E+04        -0.22955E+02         0.00000E+00
    0.00000E+00         0.00000E+00         0.00000E+00
 
    0.17875E+05         0.19003E+04         0.00000E+00
    0.19003E+04         0.17285E+02         0.00000E+00
    0.00000E+00         0.00000E+00         0.00000E+00
 
    0.17873E+05         0.23245E+04         0.00000E+00
    0.23245E+04         0.67616E+02         0.00000E+00
    0.00000E+00         0.00000E+00         0.00000E+00
 
    0.17850E+05         0.27483E+04         0.00000E+00
    0.27483E+04         0.12803E+03         0.00000E+00
    0.00000E+00         0.00000E+00         0.00000E+00
 
    0.17808E+05         0.31711E+04         0.00000E+00
    0.31711E+04         0.19849E+03         0.00000E+00
    0.00000E+00         0.00000E+00         0.00000E+00
 
    0.17745E+05         0.35925E+04         0.00000E+00
    0.35925E+04         0.27898E+03         0.00000E+00
    0.00000E+00         0.00000E+00         0.00000E+00
 
    0.17662E+05         0.40120E+04         0.00000E+00
    0.40120E+04         0.36944E+03         0.00000E+00
    0.00000E+00         0.00000E+00         0.00000E+00
 
    0.17560E+05         0.44291E+04         0.00000E+00
    0.44291E+04         0.46982E+03         0.00000E+00
    0.00000E+00         0.00000E+00         0.00000E+00
 
    0.17437E+05         0.48435E+04         0.00000E+00
    0.48435E+04         0.58005E+03         0.00000E+00
    0.00000E+00         0.00000E+00         0.00000E+00
 
    0.17295E+05         0.52546E+04         0.00000E+00
    0.52546E+04         0.70006E+03         0.00000E+00
    0.00000E+00         0.00000E+00         0.00000E+00
 
    0.17133E+05         0.56620E+04         0.00000E+00
    0.56620E+04         0.82975E+03         0.00000E+00
    0.00000E+00         0.00000E+00         0.00000E+00
 
    0.16952E+05         0.60652E+04         0.00000E+00
    0.60652E+04         0.96904E+03         0.00000E+00
    0.00000E+00         0.00000E+00         0.00000E+00
 
    0.16751E+05         0.64638E+04         0.00000E+00
    0.64638E+04         0.11178E+04         0.00000E+00
    0.00000E+00         0.00000E+00         0.00000E+00
 
    0.16531E+05         0.68573E+04         0.00000E+00
    0.68573E+04         0.12759E+04         0.00000E+00
    0.00000E+00         0.00000E+00         0.00000E+00
 
    0.16292E+05         0.72453E+04         0.00000E+00
    0.72453E+04         0.14433E+04         0.00000E+00
    0.00000E+00         0.00000E+00         0.00000E+00
 
    0.16034E+05         0.76274E+04         0.00000E+00
    0.76274E+04         0.16197E+04         0.00000E+00
    0.00000E+00         0.00000E+00         0.00000E+00
 
    0.15757E+05         0.80031E+04         0.00000E+00
    0.80031E+04         0.18051E+04         0.00000E+00
    0.00000E+00         0.00000E+00         0.00000E+00
 
    0.15462E+05         0.83719E+04         0.00000E+00
    0.83719E+04         0.19993E+04         0.00000E+00
    0.00000E+00         0.00000E+00         0.00000E+00
 
    0.15149E+05         0.87336E+04         0.00000E+00
    0.87336E+04         0.22020E+04         0.00000E+00
    0.00000E+00         0.00000E+00         0.00000E+00
 
    0.14818E+05         0.90876E+04         0.00000E+00
    0.90876E+04         0.24132E+04         0.00000E+00
    0.00000E+00         0.00000E+00         0.00000E+00
 
    0.14469E+05         0.94335E+04         0.00000E+00
    0.94335E+04         0.26327E+04         0.00000E+00
    0.00000E+00         0.00000E+00         0.00000E+00
 
    0.14103E+05         0.97710E+04         0.00000E+00
    0.97710E+04         0.28602E+04         0.00000E+00
    0.00000E+00         0.00000E+00         0.00000E+00
 
    0.13719E+05         0.10100E+05         0.00000E+00
    0.10100E+05         0.30956E+04         0.00000E+00
    0.00000E+00         0.00000E+00         0.00000E+00
 
    0.13319E+05         0.10419E+05         0.00000E+00
    0.10419E+05         0.33386E+04         0.00000E+00
    0.00000E+00         0.00000E+00         0.00000E+00
 
    0.12902E+05         0.10729E+05         0.00000E+00
    0.10729E+05         0.35889E+04         0.00000E+00
    0.00000E+00         0.00000E+00         0.00000E+00
 
    0.12469E+05         0.11029E+05         0.00000E+00
    0.11029E+05         0.38465E+04         0.00000E+00
    0.00000E+00         0.00000E+00         0.00000E+00
 
    0.12020E+05         0.11318E+05         0.00000E+00
    0.11318E+05         0.41110E+04         0.00000E+00
    0.00000E+00         0.00000E+00         0.00000E+00
 
    0.11555E+05         0.11597E+05         0.00000E+00
    0.11597E+05         0.43822E+04         0.00000E+00
    0.00000E+00         0.00000E+00         0.00000E+00
 
    0.11076E+05         0.11864E+05         0.00000E+00
    0.11864E+05         0.46598E+04         0.00000E+00
    0.00000E+00         0.00000E+00         0.00000E+00
 
    0.10581E+05         0.12120E+05         0.00000E+00
    0.12120E+05         0.49436E+04         0.00000E+00
    0.00000E+00         0.00000E+00         0.00000E+00
 
    0.10073E+05         0.12365E+05         0.00000E+00
    0.12365E+05         0.52332E+04         0.00000E+00
    0.00000E+00         0.00000E+00         0.00000E+00
 
    0.95500E+04         0.12597E+05         0.00000E+00
    0.12597E+05         0.55285E+04         0.00000E+00
    0.00000E+00         0.00000E+00         0.00000E+00
 
    0.90137E+04         0.12817E+05         0.00000E+00
    0.12817E+05         0.58291E+04         0.00000E+00
    0.00000E+00         0.00000E+00         0.00000E+00
 
    0.84644E+04         0.13024E+05         0.00000E+00
    0.13024E+05         0.61347E+04         0.00000E+00
    0.00000E+00         0.00000E+00         0.00000E+00
 
    0.79023E+04         0.13219E+05         0.00000E+00
    0.13219E+05         0.64450E+04         0.00000E+00
    0.00000E+00         0.00000E+00         0.00000E+00
 
    0.73280E+04         0.13400E+05         0.00000E+00
    0.13400E+05         0.67598E+04         0.00000E+00
    0.00000E+00         0.00000E+00         0.00000E+00
 
    0.67420E+04         0.13567E+05         0.00000E+00
    0.13567E+05         0.70787E+04         0.00000E+00
    0.00000E+00         0.00000E+00         0.00000E+00
 
    0.61446E+04         0.13721E+05         0.00000E+00
    0.13721E+05         0.74014E+04         0.00000E+00
    0.00000E+00         0.00000E+00         0.00000E+00
 
    0.55363E+04         0.13860E+05         0.00000E+00
    0.13860E+05         0.77275E+04         0.00000E+00
    0.00000E+00         0.00000E+00         0.00000E+00
 
    0.49177E+04         0.13986E+05         0.00000E+00
    0.13986E+05         0.80568E+04         0.00000E+00
    0.00000E+00         0.00000E+00         0.00000E+00
 
    0.42893E+04         0.14096E+05         0.00000E+00
    0.14096E+05         0.83889E+04         0.00000E+00
    0.00000E+00         0.00000E+00         0.00000E+00
 
    0.36515E+04         0.14192E+05         0.00000E+00
    0.14192E+05         0.87234E+04         0.00000E+00
    0.00000E+00         0.00000E+00         0.00000E+00
 
    0.30048E+04         0.14273E+05         0.00000E+00
    0.14273E+05         0.90601E+04         0.00000E+00
    0.00000E+00         0.00000E+00         0.00000E+00
 
    0.23498E+04         0.14339E+05         0.00000E+00
    0.14339E+05         0.93985E+04         0.00000E+00
    0.00000E+00         0.00000E+00         0.00000E+00
 
    0.16869E+04         0.14390E+05         0.00000E+00
    0.14390E+05         0.97383E+04         0.00000E+00
    0.00000E+00         0.00000E+00         0.00000E+00
 
    0.10169E+04         0.14425E+05         0.00000E+00
    0.14425E+05         0.10079E+05         0.00000E+00
    0.00000E+00         0.00000E+00         0.00000E+00
 
    0.34003E+03         0.14444E+05         0.00000E+00
    0.14444E+05         0.10421E+05         0.00000E+00
    0.00000E+00         0.00000E+00         0.00000E+00
 
    0.19899E+05         0.23434E+03         0.00000E+00
    0.23434E+03        -0.10175E+03         0.00000E+00
    0.00000E+00         0.00000E+00         0.00000E+00
 
    0.19986E+05         0.70913E+03         0.00000E+00
    0.70913E+03        -0.90504E+02         0.00000E+00
    0.00000E+00         0.00000E+00         0.00000E+00
 
    0.20049E+05         0.11854E+04         0.00000E+00
    0.11854E+04        -0.67932E+02         0.00000E+00
    0.00000E+00         0.00000E+00         0.00000E+00
 
    0.20091E+05         0.16628E+04         0.00000E+00
    0.16628E+04        -0.34016E+02         0.00000E+00
    0.00000E+00         0.00000E+00         0.00000E+00
 
    0.20109E+05         0.21406E+04         0.00000E+00
    0.21406E+04         0.11252E+02         0.00000E+00
    0.00000E+00         0.00000E+00         0.00000E+00
 
    0.20105E+05         0.26183E+04         0.00000E+00
    0.26183E+04         0.67869E+02         0.00000E+00
    0.00000E+00         0.00000E+00         0.00000E+00
 
    0.20079E+05         0.30955E+04         0.00000E+00
    0.30955E+04         0.13582E+03         0.00000E+00
    0.00000E+00         0.00000E+00         0.00000E+00
 
    0.20030E+05         0.35715E+04         0.00000E+00
    0.35715E+04         0.21507E+03         0.00000E+00
    0.00000E+00         0.00000E+00         0.00000E+00
 
    0.19959E+05         0.40460E+04         0.00000E+00
    0.40460E+04         0.30559E+03         0.00000E+00
    0.00000E+00         0.00000E+00         0.00000E+00
 
    0.19865E+05         0.45183E+04         0.00000E+00
    0.45183E+04         0.40732E+03         0.00000E+00
    0.00000E+00         0.00000E+00         0.00000E+00
 
    0.19748E+05         0.49879E+04         0.00000E+00
    0.49879E+04         0.52019E+03         0.00000E+00
    0.00000E+00         0.00000E+00         0.00000E+00
 
    0.19610E+05         0.54543E+04         0.00000E+00
    0.54543E+04         0.64414E+03         0.00000E+00
    0.00000E+00         0.00000E+00         0.00000E+00
 
    0.19449E+05         0.59170E+04         0.00000E+00
    0.59170E+04         0.77906E+03         0.00000E+00
    0.00000E+00         0.00000E+00         0.00000E+00
 
    0.19266E+05         0.63755E+04         0.00000E+00
    0.63755E+04         0.92487E+03         0.00000E+00
    0.00000E+00         0.00000E+00         0.00000E+00
 
    0.19061E+05         0.68293E+04         0.00000E+00
    0.68293E+04         0.10815E+04         0.00000E+00
    0.00000E+00         0.00000E+00         0.00000E+00
 
    0.18834E+05         0.72778E+04         0.00000E+00
    0.72778E+04         0.12487E+04         0.00000E+00
    0.00000E+00         0.00000E+00         0.00000E+00
 
    0.18586E+05         0.77206E+04         0.00000E+00
    0.77206E+04         0.14264E+04         0.00000E+00
    0.00000E+00         0.00000E+00         0.00000E+00
 
    0.18317E+05         0.81572E+04         0.00000E+00
    0.81572E+04         0.16145E+04         0.00000E+00
    0.00000E+00         0.00000E+00         0.00000E+00
 
    0.18026E+05         0.85871E+04         0.00000E+00
    0.85871E+04         0.18128E+04         0.00000E+00
    0.00000E+00         0.00000E+00         0.00000E+00
 
    0.17714E+05         0.90097E+04         0.00000E+00
    0.90097E+04         0.20212E+04         0.00000E+00
    0.00000E+00         0.00000E+00         0.00000E+00
 
    0.17382E+05         0.94247E+04         0.00000E+00
    0.94247E+04         0.22394E+04         0.00000E+00
    0.00000E+00         0.00000E+00         0.00000E+00
 
    0.17029E+05         0.98316E+04         0.00000E+00
    0.98316E+04         0.24673E+04         0.00000E+00
    0.00000E+00         0.00000E+00         0.00000E+00
 
    0.16656E+05         0.10230E+05         0.00000E+00
    0.10230E+05         0.27046E+04         0.00000E+00
    0.00000E+00         0.00000E+00         0.00000E+00
 
    0.16263E+05         0.10619E+05         0.00000E+00
    0.10619E+05         0.29512E+04         0.00000E+00
    0.00000E+00         0.00000E+00         0.00000E+00
 
    0.15851E+05         0.10999E+05         0.00000E+00
    0.10999E+05         0.32068E+04         0.00000E+00
    0.00000E+00         0.00000E+00         0.00000E+00
 
    0.15419E+05         0.11368E+05         0.00000E+00
    0.11368E+05         0.34713E+04         0.00000E+00
    0.00000E+00         0.00000E+00         0.00000E+00
 
    0.14969E+05         0.11727E+05         0.00000E+00
    0.11727E+05         0.37443E+04         0.00000E+00
    0.00000E+00         0.00000E+00         0.00000E+00
 
    0.14500E+05         0.12076E+05         0.00000E+00
    0.12076E+05         0.40256E+04         0.00000E+00
    0.00000E+00         0.00000E+00         0.00000E+00
 
    0.14013E+05         0.12413E+05         0.00000E+00
    0.12413E+05         0.43149E+04         0.00000E+00
    0.00000E+00         0.00000E+00         0.00000E+00
 
    0.13508E+05         0.12738E+05         0.00000E+00
    0.12738E+05         0.46121E+04         0.00000E+00
    0.00000E+00         0.00000E+00         0.00000E+00
 
    0.12986E+05         0.13052E+05         0.00000E+00
    0.13052E+05         0.49167E+04         0.00000E+00
    0.00000E+00         0.00000E+00         0.00000E+00
 
    0.12446E+05         0.13353E+05         0.00000E+00
    0.13353E+05         0.52286E+04         0.00000E+00
    0.00000E+00         0.00000E+00         0.00000E+00
 
    0.11890E+05         0.13641E+05         0.00000E+00
    0.13641E+05         0.55473E+04         0.00000E+00
    0.00000E+00         0.00000E+00         0.00000E+00
 
    0.11318E+05         0.13916E+05         0.00000E+00
    0.13916E+05         0.58727E+04         0.00000E+00
    0.00000E+00         0.00000E+00         0.00000E+00
 
    0.10731E+05         0.14177E+05         0.00000E+00
    0.14177E+05         0.62044E+04         0.00000E+00
    0.00000E+00         0.00000E+00         0.00000E+00
 
    0.10128E+05         0.14425E+05         0.00000E+00
    0.14425E+05         0.65420E+04         0.00000E+00
    0.00000E+00         0.00000E+00         0.00000E+00
 
    0.95106E+04         0.14658E+05         0.00000E+00
    0.14658E+05         0.68853E+04         0.00000E+00
    0.00000E+00         0.00000E+00         0.00000E+00
 
    0.88789E+04         0.14876E+05         0.00000E+00
    0.14876E+05         0.72339E+04         0.00000E+00
    0.00000E+00         0.00000E+00         0.00000E+00
 
    0.82335E+04         0.15080E+05         0.00000E+00
    0.15080E+05         0.75875E+04         0.00000E+00
    0.00000E+00         0.00000E+00         0.00000E+00
 
    0.75749E+04         0.15268E+05         0.00000E+00
    0.15268E+05         0.79457E+04         0.00000E+00
    0.00000E+00         0.00000E+00         0.00000E+00
 
    0.69035E+04         0.15441E+05         0.00000E+00
    0.15441E+05         0.83081E+04         0.00000E+00
    0.00000E+00         0.00000E+00         0.00000E+00
 
    0.62201E+04         0.15598E+05         0.00000E+00
    0.15598E+05         0.86744E+04         0.00000E+00
    0.00000E+00         0.00000E+00         0.00000E+00
 
    0.55250E+04         0.15739E+05         0.00000E+00
    0.15739E+05         0.90443E+04         0.00000E+00
    0.00000E+00         0.00000E+00         0.00000E+00
 
    0.48189E+04         0.15864E+05         0.00000E+00
    0.15864E+05         0.94173E+04         0.00000E+00
    0.00000E+00         0.00000E+00         0.00000E+00
 
    0.41022E+04         0.15972E+05         0.00000E+00
    0.15972E+05         0.97930E+04         0.00000E+00
    0.00000E+00         0.00000E+00         0.00000E+00
 
    0.33757E+04         0.16063E+05         0.00000E+00
    0.16063E+05         0.10171E+05         0.00000E+00
    0.00000E+00         0.00000E+00         0.00000E+00
 
    0.26398E+04         0.16138E+05         0.00000E+00
    0.16138E+05         0.10551E+05         0.00000E+00
    0.00000E+00         0.00000E+00         0.00000E+00
 
    0.18951E+04         0.16195E+05         0.00000E+00
    0.16195E+05         0.10933E+05         0.00000E+00
    0.00000E+00         0.00000E+00         0.00000E+00
 
    0.11423E+04         0.16234E+05         0.00000E+00
    0.16234E+05         0.11316E+05         0.00000E+00
    0.00000E+00         0.00000E+00         0.00000E+00
 
    0.38199E+03         0.16256E+05         0.00000E+00
    0.16256E+05         0.11700E+05         0.00000E+00
    0.00000E+00         0.00000E+00         0.00000E+00
 
    0.22392E+05         0.26404E+03         0.00000E+00
    0.26404E+03        -0.12445E+03         0.00000E+00
    0.00000E+00         0.00000E+00         0.00000E+00
 
    0.22488E+05         0.79884E+03         0.00000E+00
    0.79884E+03        -0.11179E+03         0.00000E+00
    0.00000E+00         0.00000E+00         0.00000E+00
 
    0.22558E+05         0.13353E+04         0.00000E+00
    0.13353E+04        -0.86389E+02         0.00000E+00
    0.00000E+00         0.00000E+00         0.00000E+00
 
    0.22604E+05         0.18729E+04         0.00000E+00
    0.18729E+04        -0.48230E+02         0.00000E+00
    0.00000E+00         0.00000E+00         0.00000E+00
 
    0.22623E+05         0.24109E+04         0.00000E+00
    0.24109E+04         0.26961E+01         0.00000E+00
    0.00000E+00         0.00000E+00         0.00000E+00
 
    0.22618E+05         0.29488E+04         0.00000E+00
    0.29488E+04         0.66384E+02         0.00000E+00
    0.00000E+00         0.00000E+00         0.00000E+00
 
    0.22587E+05         0.34860E+04         0.00000E+00
    0.34860E+04         0.14281E+03         0.00000E+00
    0.00000E+00         0.00000E+00         0.00000E+00
 
    0.22530E+05         0.40220E+04         0.00000E+00
    0.40220E+04         0.23195E+03         0.00000E+00
    0.00000E+00         0.00000E+00         0.00000E+00
 
    0.22449E+05         0.45560E+04         0.00000E+00
    0.45560E+04         0.33375E+03         0.00000E+00
    0.00000E+00         0.00000E+00         0.00000E+00
 
    0.22342E+05         0.50876E+04         0.00000E+00
    0.50876E+04         0.44815E+03         0.00000E+00
    0.00000E+00         0.00000E+00         0.00000E+00
 
    0.22210E+05         0.56161E+04         0.00000E+00
    0.56161E+04         0.57507E+03         0.00000E+00
    0.00000E+00         0.00000E+00         0.00000E+00
 
    0.22053E+05         0.61410E+04         0.00000E+00
    0.61410E+04         0.71443E+03         0.00000E+00
    0.00000E+00         0.00000E+00         0.00000E+00
 
    0.21871E+05         0.66617E+04         0.00000E+00
    0.66617E+04         0.86613E+03         0.00000E+00
    0.00000E+00         0.00000E+00         0.00000E+00
 
    0.21664E+05         0.71776E+04         0.00000E+00
    0.71776E+04         0.10301E+04         0.00000E+00
    0.00000E+00         0.00000E+00         0.00000E+00
 
    0.21432E+05         0.76882E+04         0.00000E+00
    0.76882E+04         0.12061E+04         0.00000E+00
    0.00000E+00         0.00000E+00         0.00000E+00
 
    0.21177E+05         0.81928E+04         0.00000E+00
    0.81928E+04         0.13940E+04         0.00000E+00
    0.00000E+00         0.00000E+00         0.00000E+00
 
    0.20897E+05         0.86910E+04         0.00000E+00
    0.86910E+04         0.15938E+04         0.00000E+00
    0.00000E+00         0.00000E+00         0.00000E+00
 
    0.20593E+05         0.91821E+04         0.00000E+00
    0.91821E+04         0.18052E+04         0.00000E+00
    0.00000E+00         0.00000E+00         0.00000E+00
 
    0.20265E+05         0.96657E+04         0.00000E+00
    0.96657E+04         0.20281E+04         0.00000E+00
    0.00000E+00         0.00000E+00         0.00000E+00
 
    0.19914E+05         0.10141E+05         0.00000E+00
    0.10141E+05         0.22623E+04         0.00000E+00
    0.00000E+00         0.00000E+00         0.00000E+00
 
    0.19539E+05         0.10608E+05         0.00000E+00
    0.10608E+05         0.25075E+04         0.00000E+00
    0.00000E+00         0.00000E+00         0.00000E+00
 
    0.19142E+05         0.11065E+05         0.00000E+00
    0.11065E+05         0.27635E+04         0.00000E+00
    0.00000E+00         0.00000E+00         0.00000E+00
 
    0.18722E+05         0.11513E+05         0.00000E+00
    0.11513E+05         0.30302E+04         0.00000E+00
    0.00000E+00         0.00000E+00         0.00000E+00
 
    0.18280E+05         0.11951E+05         0.00000E+00
    0.11951E+05         0.33073E+04         0.00000E+00
    0.00000E+00         0.00000E+00         0.00000E+00
 
    0.17816E+05         0.12378E+05         0.00000E+00
    0.12378E+05         0.35945E+04         0.00000E+00
    0.00000E+00         0.00000E+00         0.00000E+00
 
    0.17330E+05         0.12793E+05         0.00000E+00
    0.12793E+05         0.38916E+04         0.00000E+00
    0.00000E+00         0.00000E+00         0.00000E+00
 
    0.16823E+05         0.13197E+05         0.00000E+00
    0.13197E+05         0.41983E+04         0.00000E+00
    0.00000E+00         0.00000E+00         0.00000E+00
 
    0.16295E+05         0.13589E+05         0.00000E+00
    0.13589E+05         0.45144E+04         0.00000E+00
    0.00000E+00         0.00000E+00         0.00000E+00
 
    0.15747E+05         0.13968E+05         0.00000E+00
    0.13968E+05         0.48394E+04         0.00000E+00
    0.00000E+00         0.00000E+00         0.00000E+00
 
    0.15180E+05         0.14334E+05         0.00000E+00
    0.14334E+05         0.51732E+04         0.00000E+00
    0.00000E+00         0.00000E+00         0.00000E+00
 
    0.14592E+05         0.14687E+05         0.00000E+00
    0.14687E+05         0.55154E+04         0.00000E+00
    0.00000E+00         0.00000E+00         0.00000E+00
 
    0.13986E+05         0.15025E+05         0.00000E+00
    0.15025E+05         0.58657E+04         0.00000E+00
    0.00000E+00         0.00000E+00         0.00000E+00
 
    0.13361E+05         0.15349E+05         0.00000E+00
    0.15349E+05         0.62237E+04         0.00000E+00
    0.00000E+00         0.00000E+00         0.00000E+00
 
    0.12718E+05         0.15658E+05         0.00000E+00
    0.15658E+05         0.65892E+04         0.00000E+00
    0.00000E+00         0.00000E+00         0.00000E+00
 
    0.12057E+05         0.15952E+05         0.00000E+00
    0.15952E+05         0.69617E+04         0.00000E+00
    0.00000E+00         0.00000E+00         0.00000E+00
 
    0.11380E+05         0.16230E+05         0.00000E+00
    0.16230E+05         0.73410E+04         0.00000E+00
    0.00000E+00         0.00000E+00         0.00000E+00
 
    0.10686E+05         0.16492E+05         0.00000E+00
    0.16492E+05         0.77265E+04         0.00000E+00
    0.00000E+00         0.00000E+00         0.00000E+00
 
    0.99756E+04         0.16738E+05         0.00000E+00
    0.16738E+05         0.81181E+04         0.00000E+00
    0.00000E+00         0.00000E+00         0.00000E+00
 
    0.92503E+04         0.16967E+05         0.00000E+00
    0.16967E+05         0.85152E+04         0.00000E+00
    0.00000E+00         0.00000E+00         0.00000E+00
 
    0.85101E+04         0.17179E+05         0.00000E+00
    0.17179E+05         0.89174E+04         0.00000E+00
    0.00000E+00         0.00000E+00         0.00000E+00
 
    0.77558E+04         0.17373E+05         0.00000E+00
    0.17373E+05         0.93245E+04         0.00000E+00
    0.00000E+00         0.00000E+00         0.00000E+00
 
    0.69878E+04         0.17550E+05         0.00000E+00
    0.17550E+05         0.97359E+04         0.00000E+00
    0.00000E+00         0.00000E+00         0.00000E+00
 
    0.62068E+04         0.17709E+05         0.00000E+00
    0.17709E+05         0.10151E+05         0.00000E+00
    0.00000E+00         0.00000E+00         0.00000E+00
 
    0.54135E+04         0.17849E+05         0.00000E+00
    0.17849E+05         0.10570E+05         0.00000E+00
    0.00000E+00         0.00000E+00         0.00000E+00
 
    0.46083E+04         0.17971E+05         0.00000E+00
    0.17971E+05         0.10992E+05         0.00000E+00
    0.00000E+00         0.00000E+00         0.00000E+00
 
    0.37921E+04         0.18074E+05         0.00000E+00
    0.18074E+05         0.11417E+05         0.00000E+00
    0.00000E+00         0.00000E+00         0.00000E+00
 
    0.29654E+04         0.18158E+05         0.00000E+00
    0.18158E+05         0.11844E+05         0.00000E+00
    0.00000E+00         0.00000E+00         0.00000E+00
 
    0.21289E+04         0.18222E+05         0.00000E+00
    0.18222E+05         0.12273E+05         0.00000E+00
    0.00000E+00         0.00000E+00         0.00000E+00
 
    0.12832E+04         0.18267E+05         0.00000E+00
    0.18267E+05         0.12703E+05         0.00000E+00
    0.00000E+00         0.00000E+00         0.00000E+00
 
    0.42909E+03         0.18292E+05         0.00000E+00
    0.18292E+05         0.13134E+05         0.00000E+00
    0.00000E+00         0.00000E+00         0.00000E+00
 
    0.25199E+05         0.29747E+03         0.00000E+00
    0.29747E+03        -0.15213E+03         0.00000E+00
    0.00000E+00         0.00000E+00         0.00000E+00
 
    0.25304E+05         0.89979E+03         0.00000E+00
    0.89979E+03        -0.13789E+03         0.00000E+00
    0.00000E+00         0.00000E+00         0.00000E+00
 
    0.25382E+05         0.15039E+04         0.00000E+00
    0.15039E+04        -0.10931E+03         0.00000E+00
    0.00000E+00         0.00000E+00         0.00000E+00
 
    0.25431E+05         0.21092E+04         0.00000E+00
    0.21092E+04        -0.66374E+02         0.00000E+00
    0.00000E+00         0.00000E+00         0.00000E+00
 
    0.25452E+05         0.27150E+04         0.00000E+00
    0.27150E+04        -0.90831E+01         0.00000E+00
    0.00000E+00         0.00000E+00         0.00000E+00
 
    0.25444E+05         0.33206E+04         0.00000E+00
    0.33206E+04         0.62558E+02         0.00000E+00
    0.00000E+00         0.00000E+00         0.00000E+00
 
    0.25407E+05         0.39253E+04         0.00000E+00
    0.39253E+04         0.14852E+03         0.00000E+00
    0.00000E+00         0.00000E+00         0.00000E+00
 
    0.25342E+05         0.45285E+04         0.00000E+00
    0.45285E+04         0.24877E+03         0.00000E+00
    0.00000E+00         0.00000E+00         0.00000E+00
 
    0.25249E+05         0.51296E+04         0.00000E+00
    0.51296E+04         0.36326E+03         0.00000E+00
    0.00000E+00         0.00000E+00         0.00000E+00
 
    0.25127E+05         0.57278E+04         0.00000E+00
    0.57278E+04         0.49190E+03         0.00000E+00
    0.00000E+00         0.00000E+00         0.00000E+00
 
    0.24977E+05         0.63226E+04         0.00000E+00
    0.63226E+04         0.63461E+03         0.00000E+00
    0.00000E+00         0.00000E+00         0.00000E+00
 
    0.24799E+05         0.69132E+04         0.00000E+00
    0.69132E+04         0.79130E+03         0.00000E+00
    0.00000E+00         0.00000E+00         0.00000E+00
 
    0.24593E+05         0.74990E+04         0.00000E+00
    0.74990E+04         0.96184E+03         0.00000E+00
    0.00000E+00         0.00000E+00         0.00000E+00
 
    0.24360E+05         0.80794E+04         0.00000E+00
    0.80794E+04         0.11461E+04         0.00000E+00
    0.00000E+00         0.00000E+00         0.00000E+00
 
    0.24098E+05         0.86537E+04         0.00000E+00
    0.86537E+04         0.13440E+04         0.00000E+00
    0.00000E+00         0.00000E+00         0.00000E+00
 
    0.23809E+05         0.92213E+04         0.00000E+00
    0.92213E+04         0.15553E+04         0.00000E+00
    0.00000E+00         0.00000E+00         0.00000E+00
 
    0.23494E+05         0.97816E+04         0.00000E+00
    0.97816E+04         0.17798E+04         0.00000E+00
    0.00000E+00         0.00000E+00         0.00000E+00
 
    0.23151E+05         0.10334E+05         0.00000E+00
    0.10334E+05         0.20174E+04         0.00000E+00
    0.00000E+00         0.00000E+00         0.00000E+00
 
    0.22781E+05         0.10878E+05         0.00000E+00
    0.10878E+05         0.22679E+04         0.00000E+00
    0.00000E+00         0.00000E+00         0.00000E+00
 
    0.22385E+05         0.11412E+05         0.00000E+00
    0.11412E+05         0.25310E+04         0.00000E+00
    0.00000E+00         0.00000E+00         0.00000E+00
 
    0.21963E+05         0.11937E+05         0.00000E+00
    0.11937E+05         0.28065E+04         0.00000E+00
    0.00000E+00         0.00000E+00         0.00000E+00
 
    0.21516E+05         0.12452E+05         0.00000E+00
    0.12452E+05         0.30942E+04         0.00000E+00
    0.00000E+00         0.00000E+00         0.00000E+00
 
    0.21043E+05         0.12955E+05         0.00000E+00
    0.12955E+05         0.33939E+04         0.00000E+00
    0.00000E+00         0.00000E+00         0.00000E+00
 
    0.20545E+05         0.13447E+05         0.00000E+00
    0.13447E+05         0.37052E+04         0.00000E+00
    0.00000E+00         0.00000E+00         0.00000E+00
 
    0.20023E+05         0.13927E+05         0.00000E+00
    0.13927E+05         0.40279E+04         0.00000E+00
    0.00000E+00         0.00000E+00         0.00000E+00
 
    0.19476E+05         0.14395E+05         0.00000E+00
    0.14395E+05         0.43616E+04         0.00000E+00
    0.00000E+00         0.00000E+00         0.00000E+00
 
    0.18906E+05         0.14849E+05         0.00000E+00
    0.14849E+05         0.47061E+04         0.00000E+00
    0.00000E+00         0.00000E+00         0.00000E+00
 
    0.18312E+05         0.15289E+05         0.00000E+00
    0.15289E+05         0.50611E+04         0.00000E+00
    0.00000E+00         0.00000E+00         0.00000E+00
 
    0.17696E+05         0.15715E+05         0.00000E+00
    0.15715E+05         0.54263E+04         0.00000E+00
    0.00000E+00         0.00000E+00         0.00000E+00
 
    0.17057E+05         0.16127E+05         0.00000E+00
    0.16127E+05         0.58012E+04         0.00000E+00
    0.00000E+00         0.00000E+00         0.00000E+00
 
    0.16396E+05         0.16523E+05         0.00000E+00
    0.16523E+05         0.61855E+04         0.00000E+00
    0.00000E+00         0.00000E+00         0.00000E+00
 
    0.15714E+05         0.16903E+05         0.00000E+00
    0.16903E+05         0.65790E+04         0.00000E+00
    0.00000E+00         0.00000E+00         0.00000E+00
 
    0.15012E+05         0.17267E+05         0.00000E+00
    0.17267E+05         0.69811E+04         0.00000E+00
    0.00000E+00         0.00000E+00         0.00000E+00
 
    0.14289E+05         0.17615E+05         0.00000E+00
    0.17615E+05         0.73915E+04         0.00000E+00
    0.00000E+00         0.00000E+00         0.00000E+00
 
    0.13546E+05         0.17945E+05         0.00000E+00
    0.17945E+05         0.78099E+04         0.00000E+00
    0.00000E+00         0.00000E+00         0.00000E+00
 
    0.12785E+05         0.18258E+05         0.00000E+00
    0.18258E+05         0.82358E+04         0.00000E+00
    0.00000E+00         0.00000E+00         0.00000E+00
 
    0.12005E+05         0.18553E+05         0.00000E+00
    0.18553E+05         0.86688E+04         0.00000E+00
    0.00000E+00         0.00000E+00         0.00000E+00
 
    0.11207E+05         0.18829E+05         0.00000E+00
    0.18829E+05         0.91085E+04         0.00000E+00
    0.00000E+00         0.00000E+00         0.00000E+00
 
    0.10392E+05         0.19086E+05         0.00000E+00
    0.19086E+05         0.95544E+04         0.00000E+00
    0.00000E+00         0.00000E+00         0.00000E+00
 
    0.95599E+04         0.19325E+05         0.00000E+00
    0.19325E+05         0.10006E+05         0.00000E+00
    0.00000E+00         0.00000E+00         0.00000E+00
 
    0.87123E+04         0.19544E+05         0.00000E+00
    0.19544E+05         0.10463E+05         0.00000E+00
    0.00000E+00         0.00000E+00         0.00000E+00
 
    0.78495E+04         0.19742E+05         0.00000E+00
    0.19742E+05         0.10925E+05         0.00000E+00
    0.00000E+00         0.00000E+00         0.00000E+00
 
    0.69721E+04         0.19921E+05         0.00000E+00
    0.19921E+05         0.11392E+05         0.00000E+00
    0.00000E+00         0.00000E+00         0.00000E+00
 
    0.60808E+04         0.20079E+05         0.00000E+00
    0.20079E+05         0.11862E+05         0.00000E+00
    0.00000E+00         0.00000E+00         0.00000E+00
 
    0.51763E+04         0.20216E+05         0.00000E+00
    0.20216E+05         0.12336E+05         0.00000E+00
    0.00000E+00         0.00000E+00         0.00000E+00
 
    0.42594E+04         0.20332E+05         0.00000E+00
    0.20332E+05         0.12813E+05         0.00000E+00
    0.00000E+00         0.00000E+00         0.00000E+00
 
    0.33308E+04         0.20427E+05         0.00000E+00
    0.20427E+05         0.13293E+05         0.00000E+00
    0.00000E+00         0.00000E+00         0.00000E+00
 
    0.23912E+04         0.20500E+05         0.00000E+00
    0.20500E+05         0.13774E+05         0.00000E+00
    0.00000E+00         0.00000E+00         0.00000E+00
 
    0.14413E+04         0.20550E+05         0.00000E+00
    0.20550E+05         0.14257E+05         0.00000E+00
    0.00000E+00         0.00000E+00         0.00000E+00
 
    0.48195E+03         0.20579E+05         0.00000E+00
    0.20579E+05         0.14741E+05         0.00000E+00
    0.00000E+00         0.00000E+00         0.00000E+00
 
    0.28356E+05         0.33510E+03         0.00000E+00
    0.33510E+03        -0.18590E+03         0.00000E+00
    0.00000E+00         0.00000E+00         0.00000E+00
 
    0.28473E+05         0.10134E+04         0.00000E+00
    0.10134E+04        -0.16986E+03         0.00000E+00
    0.00000E+00         0.00000E+00         0.00000E+00
 
    0.28559E+05         0.16937E+04         0.00000E+00
    0.16937E+04        -0.13770E+03         0.00000E+00
    0.00000E+00         0.00000E+00         0.00000E+00
 
    0.28612E+05         0.23751E+04         0.00000E+00
    0.23751E+04        -0.89401E+02         0.00000E+00
    0.00000E+00         0.00000E+00         0.00000E+00
 
    0.28633E+05         0.30571E+04         0.00000E+00
    0.30571E+04        -0.24952E+02         0.00000E+00
    0.00000E+00         0.00000E+00         0.00000E+00
 
    0.28622E+05         0.37387E+04         0.00000E+00
    0.37387E+04         0.55632E+02         0.00000E+00
    0.00000E+00         0.00000E+00         0.00000E+00
 
    0.28579E+05         0.44194E+04         0.00000E+00
    0.44194E+04         0.15232E+03         0.00000E+00
    0.00000E+00         0.00000E+00         0.00000E+00
 
    0.28504E+05         0.50982E+04         0.00000E+00
    0.50982E+04         0.26506E+03         0.00000E+00
    0.00000E+00         0.00000E+00         0.00000E+00
 
    0.28398E+05         0.57746E+04         0.00000E+00
    0.57746E+04         0.39380E+03         0.00000E+00
    0.00000E+00         0.00000E+00         0.00000E+00
 
    0.28259E+05         0.64477E+04         0.00000E+00
    0.64477E+04         0.53845E+03         0.00000E+00
    0.00000E+00         0.00000E+00         0.00000E+00
 
    0.28089E+05         0.71168E+04         0.00000E+00
    0.71168E+04         0.69891E+03         0.00000E+00
    0.00000E+00         0.00000E+00         0.00000E+00
 
    0.27887E+05         0.77812E+04         0.00000E+00
    0.77812E+04         0.87506E+03         0.00000E+00
    0.00000E+00         0.00000E+00         0.00000E+00
 
    0.27654E+05         0.84402E+04         0.00000E+00
    0.84402E+04         0.10668E+04         0.00000E+00
    0.00000E+00         0.00000E+00         0.00000E+00
 
    0.27389E+05         0.90930E+04         0.00000E+00
    0.90930E+04         0.12739E+04         0.00000E+00
    0.00000E+00         0.00000E+00         0.00000E+00
 
    0.27094E+05         0.97389E+04         0.00000E+00
    0.97389E+04         0.14963E+04         0.00000E+00
    0.00000E+00         0.00000E+00         0.00000E+00
 
    0.26768E+05         0.10377E+05         0.00000E+00
    0.10377E+05         0.17338E+04         0.00000E+00
    0.00000E+00         0.00000E+00         0.00000E+00
 
    0.26411E+05         0.11007E+05         0.00000E+00
    0.11007E+05         0.19861E+04         0.00000E+00
    0.00000E+00         0.00000E+00         0.00000E+00
 
    0.26024E+05         0.11628E+05         0.00000E+00
    0.11628E+05         0.22531E+04         0.00000E+00
    0.00000E+00         0.00000E+00         0.00000E+00
 
    0.25608E+05         0.12240E+05         0.00000E+00
    0.12240E+05         0.25346E+04         0.00000E+00
    0.00000E+00         0.00000E+00         0.00000E+00
 
    0.25162E+05         0.12841E+05         0.00000E+00
    0.12841E+05         0.28302E+04         0.00000E+00
    0.00000E+00         0.00000E+00         0.00000E+00
 
    0.24686E+05         0.13431E+05         0.00000E+00
    0.13431E+05         0.31398E+04         0.00000E+00
    0.00000E+00         0.00000E+00         0.00000E+00
 
    0.24182E+05         0.14009E+05         0.00000E+00
    0.14009E+05         0.34630E+04         0.00000E+00
    0.00000E+00         0.00000E+00         0.00000E+00
 
    0.23649E+05         0.14575E+05         0.00000E+00
    0.14575E+05         0.37996E+04         0.00000E+00
    0.00000E+00         0.00000E+00         0.00000E+00
 
    0.23089E+05         0.15128E+05         0.00000E+00
    0.15128E+05         0.41493E+04         0.00000E+00
    0.00000E+00         0.00000E+00         0.00000E+00
 
    0.22501E+05         0.15668E+05         0.00000E+00
    0.15668E+05         0.45118E+04         0.00000E+00
    0.00000E+00         0.00000E+00         0.00000E+00
 
    0.21886E+05         0.16193E+05         0.00000E+00
    0.16193E+05         0.48867E+04         0.00000E+00
    0.00000E+00         0.00000E+00         0.00000E+00
 
    0.21244E+05         0.16704E+05         0.00000E+00
    0.16704E+05         0.52737E+04         0.00000E+00
    0.00000E+00         0.00000E+00         0.00000E+00
 
    0.20576E+05         0.17198E+05         0.00000E+00
    0.17198E+05         0.56724E+04         0.00000E+00
    0.00000E+00         0.00000E+00         0.00000E+00
 
    0.19883E+05         0.17677E+05         0.00000E+00
    0.17677E+05         0.60824E+04         0.00000E+00
    0.00000E+00         0.00000E+00         0.00000E+00
 
    0.19164E+05         0.18140E+05         0.00000E+00
    0.18140E+05         0.65035E+04         0.00000E+00
    0.00000E+00         0.00000E+00         0.00000E+00
 
    0.18421E+05         0.18585E+05         0.00000E+00
    0.18585E+05         0.69351E+04         0.00000E+00
    0.00000E+00         0.00000E+00         0.00000E+00
 
    0.17655E+05         0.19012E+05         0.00000E+00
    0.19012E+05         0.73769E+04         0.00000E+00
    0.00000E+00         0.00000E+00         0.00000E+00
 
    0.16865E+05         0.19422E+05         0.00000E+00
    0.19422E+05         0.78285E+04         0.00000E+00
    0.00000E+00         0.00000E+00         0.00000E+00
 
    0.16052E+05         0.19812E+05         0.00000E+00
    0.19812E+05         0.82894E+04         0.00000E+00
    0.00000E+00         0.00000E+00         0.00000E+00
 
    0.15217E+05         0.20184E+05         0.00000E+00
    0.20184E+05         0.87592E+04         0.00000E+00
    0.00000E+00         0.00000E+00         0.00000E+00
 
    0.14361E+05         0.20535E+05         0.00000E+00
    0.20535E+05         0.92374E+04         0.00000E+00
    0.00000E+00         0.00000E+00         0.00000E+00
 
    0.13485E+05         0.20866E+05         0.00000E+00
    0.20866E+05         0.97236E+04         0.00000E+00
    0.00000E+00         0.00000E+00         0.00000E+00
 
    0.12588E+05         0.21177E+05         0.00000E+00
    0.21177E+05         0.10217E+05         0.00000E+00
    0.00000E+00         0.00000E+00         0.00000E+00
 
    0.11672E+05         0.21466E+05         0.00000E+00
    0.21466E+05         0.10718E+05         0.00000E+00
    0.00000E+00         0.00000E+00         0.00000E+00
 
    0.10738E+05         0.21734E+05         0.00000E+00
    0.21734E+05         0.11225E+05         0.00000E+00
    0.00000E+00         0.00000E+00         0.00000E+00
 
    0.97856E+04         0.21980E+05         0.00000E+00
    0.21980E+05         0.11738E+05         0.00000E+00
    0.00000E+00         0.00000E+00         0.00000E+00
 
    0.88163E+04         0.22204E+05         0.00000E+00
    0.22204E+05         0.12257E+05         0.00000E+00
    0.00000E+00         0.00000E+00         0.00000E+00
 
    0.78307E+04         0.22405E+05         0.00000E+00
    0.22405E+05         0.12781E+05         0.00000E+00
    0.00000E+00         0.00000E+00         0.00000E+00
 
    0.68295E+04         0.22583E+05         0.00000E+00
    0.22583E+05         0.13309E+05         0.00000E+00
    0.00000E+00         0.00000E+00         0.00000E+00
 
    0.58136E+04         0.22737E+05         0.00000E+00
    0.22737E+05         0.13841E+05         0.00000E+00
    0.00000E+00         0.00000E+00         0.00000E+00
 
    0.47837E+04         0.22868E+05         0.00000E+00
    0.22868E+05         0.14377E+05         0.00000E+00
    0.00000E+00         0.00000E+00         0.00000E+00
 
    0.37407E+04         0.22975E+05         0.00000E+00
    0.22975E+05         0.14915E+05         0.00000E+00
    0.00000E+00         0.00000E+00         0.00000E+00
 
    0.26854E+04         0.23057E+05         0.00000E+00
    0.23057E+05         0.15456E+05         0.00000E+00
    0.00000E+00         0.00000E+00         0.00000E+00
 
    0.16186E+04         0.23114E+05         0.00000E+00
    0.23114E+05         0.15998E+05         0.00000E+00
    0.00000E+00         0.00000E+00         0.00000E+00
 
    0.54125E+03         0.23147E+05         0.00000E+00
    0.23147E+05         0.16542E+05         0.00000E+00
    0.00000E+00         0.00000E+00         0.00000E+00
 
    0.31909E+05         0.37746E+03         0.00000E+00
    0.37746E+03        -0.22705E+03         0.00000E+00
    0.00000E+00         0.00000E+00         0.00000E+00
 
    0.32039E+05         0.11412E+04         0.00000E+00
    0.11412E+04        -0.20900E+03         0.00000E+00
    0.00000E+00         0.00000E+00         0.00000E+00
 
    0.32132E+05         0.19071E+04         0.00000E+00
    0.19071E+04        -0.17282E+03         0.00000E+00
    0.00000E+00         0.00000E+00         0.00000E+00
 
    0.32189E+05         0.26743E+04         0.00000E+00
    0.26743E+04        -0.11848E+03         0.00000E+00
    0.00000E+00         0.00000E+00         0.00000E+00
 
    0.32211E+05         0.34419E+04         0.00000E+00
    0.34419E+04        -0.45984E+02         0.00000E+00
    0.00000E+00         0.00000E+00         0.00000E+00
 
    0.32196E+05         0.42090E+04         0.00000E+00
    0.42090E+04         0.44654E+02         0.00000E+00
    0.00000E+00         0.00000E+00         0.00000E+00
 
    0.32146E+05         0.49750E+04         0.00000E+00
    0.49750E+04         0.15339E+03         0.00000E+00
    0.00000E+00         0.00000E+00         0.00000E+00
 
    0.32059E+05         0.57388E+04         0.00000E+00
    0.57388E+04         0.28018E+03         0.00000E+00
    0.00000E+00         0.00000E+00         0.00000E+00
 
    0.31937E+05         0.64998E+04         0.00000E+00
    0.64998E+04         0.42493E+03         0.00000E+00
    0.00000E+00         0.00000E+00         0.00000E+00
 
    0.31779E+05         0.72570E+04         0.00000E+00
    0.72570E+04         0.58756E+03         0.00000E+00
    0.00000E+00         0.00000E+00         0.00000E+00
 
    0.31586E+05         0.80097E+04         0.00000E+00
    0.80097E+04         0.76795E+03         0.00000E+00
    0.00000E+00         0.00000E+00         0.00000E+00
 
    0.31357E+05         0.87570E+04         0.00000E+00
    0.87570E+04         0.96597E+03         0.00000E+00
    0.00000E+00         0.00000E+00         0.00000E+00
 
    0.31092E+05         0.94981E+04         0.00000E+00
    0.94981E+04         0.11815E+04         0.00000E+00
    0.00000E+00         0.00000E+00         0.00000E+00
 
    0.30793E+05         0.10232E+05         0.00000E+00
    0.10232E+05         0.14143E+04         0.00000E+00
    0.00000E+00         0.00000E+00         0.00000E+00
 
    0.30459E+05         0.10959E+05         0.00000E+00
    0.10959E+05         0.16642E+04         0.00000E+00
    0.00000E+00         0.00000E+00         0.00000E+00
 
    0.30091E+05         0.11676E+05         0.00000E+00
    0.11676E+05         0.19311E+04         0.00000E+00
    0.00000E+00         0.00000E+00         0.00000E+00
 
    0.29689E+05         0.12385E+05         0.00000E+00
    0.12385E+05         0.22146E+04         0.00000E+00
    0.00000E+00         0.00000E+00         0.00000E+00
 
    0.29252E+05         0.13083E+05         0.00000E+00
    0.13083E+05         0.25146E+04         0.00000E+00
    0.00000E+00         0.00000E+00         0.00000E+00
 
    0.28782E+05         0.13770E+05         0.00000E+00
    0.13770E+05         0.28308E+04         0.00000E+00
    0.00000E+00         0.00000E+00         0.00000E+00
 
    0.28279E+05         0.14446E+05         0.00000E+00
    0.14446E+05         0.31630E+04         0.00000E+00
    0.00000E+00         0.00000E+00         0.00000E+00
 
    0.27744E+05         0.15109E+05         0.00000E+00
    0.15109E+05         0.35107E+04         0.00000E+00
    0.00000E+00         0.00000E+00         0.00000E+00
 
    0.27176E+05         0.15759E+05         0.00000E+00
    0.15759E+05         0.38738E+04         0.00000E+00
    0.00000E+00         0.00000E+00         0.00000E+00
 
    0.26576E+05         0.16395E+05         0.00000E+00
    0.16395E+05         0.42520E+04         0.00000E+00
    0.00000E+00         0.00000E+00         0.00000E+00
 
    0.25945E+05         0.17017E+05         0.00000E+00
    0.17017E+05         0.46447E+04         0.00000E+00
    0.00000E+00         0.00000E+00         0.00000E+00
 
    0.25283E+05         0.17623E+05         0.00000E+00
    0.17623E+05         0.50518E+04         0.00000E+00
    0.00000E+00         0.00000E+00         0.00000E+00
 
    0.24590E+05         0.18213E+05         0.00000E+00
    0.18213E+05         0.54728E+04         0.00000E+00
    0.00000E+00         0.00000E+00         0.00000E+00
 
    0.23868E+05         0.18787E+05         0.00000E+00
    0.18787E+05         0.59074E+04         0.00000E+00
    0.00000E+00         0.00000E+00         0.00000E+00
 
    0.23117E+05         0.19343E+05         0.00000E+00
    0.19343E+05         0.63551E+04         0.00000E+00
    0.00000E+00         0.00000E+00         0.00000E+00
 
    0.22337E+05         0.19881E+05         0.00000E+00
    0.19881E+05         0.68156E+04         0.00000E+00
    0.00000E+00         0.00000E+00         0.00000E+00
 
    0.21529E+05         0.20400E+05         0.00000E+00
    0.20400E+05         0.72884E+04         0.00000E+00
    0.00000E+00         0.00000E+00         0.00000E+00
 
    0.20694E+05         0.20901E+05         0.00000E+00
    0.20901E+05         0.77730E+04         0.00000E+00
    0.00000E+00         0.00000E+00         0.00000E+00
 
    0.19832E+05         0.21381E+05         0.00000E+00
    0.21381E+05         0.82691E+04         0.00000E+00
    0.00000E+00         0.00000E+00         0.00000E+00
 
    0.18944E+05         0.21841E+05         0.00000E+00
    0.21841E+05         0.87761E+04         0.00000E+00
    0.00000E+00         0.00000E+00         0.00000E+00
 
    0.18030E+05         0.22280E+05         0.00000E+00
    0.22280E+05         0.92935E+04         0.00000E+00
    0.00000E+00         0.00000E+00         0.00000E+00
 
    0.17092E+05         0.22697E+05         0.00000E+00
    0.22697E+05         0.98209E+04         0.00000E+00
    0.00000E+00         0.00000E+00         0.00000E+00
 
    0.16130E+05         0.23092E+05         0.00000E+00
    0.23092E+05         0.10358E+05         0.00000E+00
    0.00000E+00         0.00000E+00         0.00000E+00
 
    0.15145E+05         0.23464E+05         0.00000E+00
    0.23464E+05         0.10904E+05         0.00000E+00
    0.00000E+00         0.00000E+00         0.00000E+00
 
    0.14138E+05         0.23813E+05         0.00000E+00
    0.23813E+05         0.11458E+05         0.00000E+00
    0.00000E+00         0.00000E+00         0.00000E+00
 
    0.13109E+05         0.24138E+05         0.00000E+00
    0.24138E+05         0.12020E+05         0.00000E+00
    0.00000E+00         0.00000E+00         0.00000E+00
 
    0.12059E+05         0.24440E+05         0.00000E+00
    0.24440E+05         0.12589E+05         0.00000E+00
    0.00000E+00         0.00000E+00         0.00000E+00
 
    0.10989E+05         0.24716E+05         0.00000E+00
    0.24716E+05         0.13166E+05         0.00000E+00
    0.00000E+00         0.00000E+00         0.00000E+00
 
    0.99006E+04         0.24968E+05         0.00000E+00
    0.24968E+05         0.13748E+05         0.00000E+00
    0.00000E+00         0.00000E+00         0.00000E+00
 
    0.87936E+04         0.25194E+05         0.00000E+00
    0.25194E+05         0.14336E+05         0.00000E+00
    0.00000E+00         0.00000E+00         0.00000E+00
 
    0.76691E+04         0.25394E+05         0.00000E+00
    0.25394E+05         0.14929E+05         0.00000E+00
    0.00000E+00         0.00000E+00         0.00000E+00
 
    0.65282E+04         0.25568E+05         0.00000E+00
    0.25568E+05         0.15526E+05         0.00000E+00
    0.00000E+00         0.00000E+00         0.00000E+00
 
    0.53716E+04         0.25715E+05         0.00000E+00
    0.25715E+05         0.16128E+05         0.00000E+00
    0.00000E+00         0.00000E+00         0.00000E+00
 
    0.42004E+04         0.25835E+05         0.00000E+00
    0.25835E+05         0.16732E+05         0.00000E+00
    0.00000E+00         0.00000E+00         0.00000E+00
 
    0.30154E+04         0.25928E+05         0.00000E+00
    0.25928E+05         0.17339E+05         0.00000E+00
    0.00000E+00         0.00000E+00         0.00000E+00
 
    0.18175E+04         0.25994E+05         0.00000E+00
    0.25994E+05         0.17948E+05         0.00000E+00
    0.00000E+00         0.00000E+00         0.00000E+00
 
    0.60774E+03         0.26031E+05         0.00000E+00
    0.26031E+05         0.18558E+05         0.00000E+00
    0.00000E+00         0.00000E+00         0.00000E+00
 
    0.35906E+05         0.42515E+03         0.00000E+00
    0.42515E+03        -0.27719E+03         0.00000E+00
    0.00000E+00         0.00000E+00         0.00000E+00
 
    0.36049E+05         0.12851E+04         0.00000E+00
    0.12851E+04        -0.25688E+03         0.00000E+00
    0.00000E+00         0.00000E+00         0.00000E+00
 
    0.36151E+05         0.21473E+04         0.00000E+00
    0.21473E+04        -0.21618E+03         0.00000E+00
    0.00000E+00         0.00000E+00         0.00000E+00
 
    0.36212E+05         0.30108E+04         0.00000E+00
    0.30108E+04        -0.15505E+03         0.00000E+00
    0.00000E+00         0.00000E+00         0.00000E+00
 
    0.36234E+05         0.38747E+04         0.00000E+00
    0.38747E+04        -0.73503E+02         0.00000E+00
    0.00000E+00         0.00000E+00         0.00000E+00
 
    0.36214E+05         0.47380E+04         0.00000E+00
    0.47380E+04         0.28433E+02         0.00000E+00
    0.00000E+00         0.00000E+00         0.00000E+00
 
    0.36155E+05         0.55998E+04         0.00000E+00
    0.55998E+04         0.15072E+03         0.00000E+00
    0.00000E+00         0.00000E+00         0.00000E+00
 
    0.36055E+05         0.64592E+04         0.00000E+00
    0.64592E+04         0.29327E+03         0.00000E+00
    0.00000E+00         0.00000E+00         0.00000E+00
 
    0.35915E+05         0.73152E+04         0.00000E+00
    0.73152E+04         0.45602E+03         0.00000E+00
    0.00000E+00         0.00000E+00         0.00000E+00
 
    0.35735E+05         0.81669E+04         0.00000E+00
    0.81669E+04         0.63885E+03         0.00000E+00
    0.00000E+00         0.00000E+00         0.00000E+00
 
    0.35515E+05         0.90135E+04         0.00000E+00
    0.90135E+04         0.84163E+03         0.00000E+00
    0.00000E+00         0.00000E+00         0.00000E+00
 
    0.35255E+05         0.98538E+04         0.00000E+00
    0.98538E+04         0.10642E+04         0.00000E+00
    0.00000E+00         0.00000E+00         0.00000E+00
 
    0.34956E+05         0.10687E+05         0.00000E+00
    0.10687E+05         0.13064E+04         0.00000E+00
    0.00000E+00         0.00000E+00         0.00000E+00
 
    0.34617E+05         0.11513E+05         0.00000E+00
    0.11513E+05         0.15680E+04         0.00000E+00
    0.00000E+00         0.00000E+00         0.00000E+00
 
    0.34239E+05         0.12329E+05         0.00000E+00
    0.12329E+05         0.18489E+04         0.00000E+00
    0.00000E+00         0.00000E+00         0.00000E+00
 
    0.33823E+05         0.13136E+05         0.00000E+00
    0.13136E+05         0.21487E+04         0.00000E+00
    0.00000E+00         0.00000E+00         0.00000E+00
 
    0.33369E+05         0.13932E+05         0.00000E+00
    0.13932E+05         0.24673E+04         0.00000E+00
    0.00000E+00         0.00000E+00         0.00000E+00
 
    0.32876E+05         0.14717E+05         0.00000E+00
    0.14717E+05         0.28043E+04         0.00000E+00
    0.00000E+00         0.00000E+00         0.00000E+00
 
    0.32346E+05         0.15489E+05         0.00000E+00
    0.15489E+05         0.31595E+04         0.00000E+00
    0.00000E+00         0.00000E+00         0.00000E+00
 
    0.31779E+05         0.16249E+05         0.00000E+00
    0.16249E+05         0.35326E+04         0.00000E+00
    0.00000E+00         0.00000E+00         0.00000E+00
 
    0.31176E+05         0.16994E+05         0.00000E+00
    0.16994E+05         0.39232E+04         0.00000E+00
    0.00000E+00         0.00000E+00         0.00000E+00
 
    0.30536E+05         0.17724E+05         0.00000E+00
    0.17724E+05         0.43310E+04         0.00000E+00
    0.00000E+00         0.00000E+00         0.00000E+00
 
    0.29860E+05         0.18439E+05         0.00000E+00
    0.18439E+05         0.47556E+04         0.00000E+00
    0.00000E+00         0.00000E+00         0.00000E+00
 
    0.29150E+05         0.19137E+05         0.00000E+00
    0.19137E+05         0.51967E+04         0.00000E+00
    0.00000E+00         0.00000E+00         0.00000E+00
 
    0.28404E+05         0.19818E+05         0.00000E+00
    0.19818E+05         0.56538E+04         0.00000E+00
    0.00000E+00         0.00000E+00         0.00000E+00
 
    0.27625E+05         0.20481E+05         0.00000E+00
    0.20481E+05         0.61266E+04         0.00000E+00
    0.00000E+00         0.00000E+00         0.00000E+00
 
    0.26813E+05         0.21126E+05         0.00000E+00
    0.21126E+05         0.66145E+04         0.00000E+00
    0.00000E+00         0.00000E+00         0.00000E+00
 
    0.25968E+05         0.21750E+05         0.00000E+00
    0.21750E+05         0.71172E+04         0.00000E+00
    0.00000E+00         0.00000E+00         0.00000E+00
 
    0.25090E+05         0.22355E+05         0.00000E+00
    0.22355E+05         0.76341E+04         0.00000E+00
    0.00000E+00         0.00000E+00         0.00000E+00
 
    0.24182E+05         0.22938E+05         0.00000E+00
    0.22938E+05         0.81649E+04         0.00000E+00
    0.00000E+00         0.00000E+00         0.00000E+00
 
    0.23243E+05         0.23500E+05         0.00000E+00
    0.23500E+05         0.87089E+04         0.00000E+00
    0.00000E+00         0.00000E+00         0.00000E+00
 
    0.22273E+05         0.24040E+05         0.00000E+00
    0.24040E+05         0.92658E+04         0.00000E+00
    0.00000E+00         0.00000E+00         0.00000E+00
 
    0.21275E+05         0.24556E+05         0.00000E+00
    0.24556E+05         0.98349E+04         0.00000E+00
    0.00000E+00         0.00000E+00         0.00000E+00
 
    0.20249E+05         0.25049E+05         0.00000E+00
    0.25049E+05         0.10416E+05         0.00000E+00
    0.00000E+00         0.00000E+00         0.00000E+00
 
    0.19195E+05         0.25518E+05         0.00000E+00
    0.25518E+05         0.11008E+05         0.00000E+00
    0.00000E+00         0.00000E+00         0.00000E+00
 
    0.18114E+05         0.25962E+05         0.00000E+00
    0.25962E+05         0.11610E+05         0.00000E+00
    0.00000E+00         0.00000E+00         0.00000E+00
 
    0.17007E+05         0.26380E+05         0.00000E+00
    0.26380E+05         0.12223E+05         0.00000E+00
    0.00000E+00         0.00000E+00         0.00000E+00
 
    0.15875E+05         0.26772E+05         0.00000E+00
    0.26772E+05         0.12845E+05         0.00000E+00
    0.00000E+00         0.00000E+00         0.00000E+00
 
    0.14719E+05         0.27138E+05         0.00000E+00
    0.27138E+05         0.13476E+05         0.00000E+00
    0.00000E+00         0.00000E+00         0.00000E+00
 
    0.13540E+05         0.27476E+05         0.00000E+00
    0.27476E+05         0.14115E+05         0.00000E+00
    0.00000E+00         0.00000E+00         0.00000E+00
 
    0.12339E+05         0.27787E+05         0.00000E+00
    0.27787E+05         0.14762E+05         0.00000E+00
    0.00000E+00         0.00000E+00         0.00000E+00
 
    0.11116E+05         0.28070E+05         0.00000E+00
    0.28070E+05         0.15415E+05         0.00000E+00
    0.00000E+00         0.00000E+00         0.00000E+00
 
    0.98730E+04         0.28324E+05         0.00000E+00
    0.28324E+05         0.16075E+05         0.00000E+00
    0.00000E+00         0.00000E+00         0.00000E+00
 
    0.86104E+04         0.28549E+05         0.00000E+00
    0.28549E+05         0.16741E+05         0.00000E+00
    0.00000E+00         0.00000E+00         0.00000E+00
 
    0.73293E+04         0.28745E+05         0.00000E+00
    0.28745E+05         0.17411E+05         0.00000E+00
    0.00000E+00         0.00000E+00         0.00000E+00
 
    0.60307E+04         0.28911E+05         0.00000E+00
    0.28911E+05         0.18086E+05         0.00000E+00
    0.00000E+00         0.00000E+00         0.00000E+00
 
    0.47157E+04         0.29047E+05         0.00000E+00
    0.29047E+05         0.18765E+05         0.00000E+00
    0.00000E+00         0.00000E+00         0.00000E+00
 
    0.33852E+04         0.29152E+05         0.00000E+00
    0.29152E+05         0.19446E+05         0.00000E+00
    0.00000E+00         0.00000E+00         0.00000E+00
 
    0.20404E+04         0.29226E+05         0.00000E+00
    0.29226E+05         0.20130E+05         0.00000E+00
    0.00000E+00         0.00000E+00         0.00000E+00
 
    0.68227E+03         0.29269E+05         0.00000E+00
    0.29269E+05         0.20815E+05         0.00000E+00
    0.00000E+00         0.00000E+00         0.00000E+00
 
    0.40402E+05         0.47883E+03         0.00000E+00
    0.47883E+03        -0.33826E+03         0.00000E+00
    0.00000E+00         0.00000E+00         0.00000E+00
 
    0.40558E+05         0.14469E+04         0.00000E+00
    0.14469E+04        -0.31541E+03         0.00000E+00
    0.00000E+00         0.00000E+00         0.00000E+00
 
    0.40670E+05         0.24174E+04         0.00000E+00
    0.24174E+04        -0.26961E+03         0.00000E+00
    0.00000E+00         0.00000E+00         0.00000E+00
 
    0.40736E+05         0.33893E+04         0.00000E+00
    0.33893E+04        -0.20086E+03         0.00000E+00
    0.00000E+00         0.00000E+00         0.00000E+00
 
    0.40756E+05         0.43614E+04         0.00000E+00
    0.43614E+04        -0.10914E+03         0.00000E+00
    0.00000E+00         0.00000E+00         0.00000E+00
 
    0.40731E+05         0.53328E+04         0.00000E+00
    0.53328E+04         0.54871E+01         0.00000E+00
    0.00000E+00         0.00000E+00         0.00000E+00
 
    0.40661E+05         0.63024E+04         0.00000E+00
    0.63024E+04         0.14298E+03         0.00000E+00
    0.00000E+00         0.00000E+00         0.00000E+00
 
    0.40545E+05         0.72691E+04         0.00000E+00
    0.72691E+04         0.30326E+03         0.00000E+00
    0.00000E+00         0.00000E+00         0.00000E+00
 
    0.40384E+05         0.82319E+04         0.00000E+00
    0.82319E+04         0.48621E+03         0.00000E+00
    0.00000E+00         0.00000E+00         0.00000E+00
 
    0.40179E+05         0.91897E+04         0.00000E+00
    0.91897E+04         0.69172E+03         0.00000E+00
    0.00000E+00         0.00000E+00         0.00000E+00
 
    0.39928E+05         0.10142E+05         0.00000E+00
    0.10142E+05         0.91963E+03         0.00000E+00
    0.00000E+00         0.00000E+00         0.00000E+00
 
    0.39633E+05         0.11086E+05         0.00000E+00
    0.11086E+05         0.11698E+04         0.00000E+00
    0.00000E+00         0.00000E+00         0.00000E+00
 
    0.39294E+05         0.12023E+05         0.00000E+00
    0.12023E+05         0.14419E+04         0.00000E+00
    0.00000E+00         0.00000E+00         0.00000E+00
 
    0.38911E+05         0.12951E+05         0.00000E+00
    0.12951E+05         0.17359E+04         0.00000E+00
    0.00000E+00         0.00000E+00         0.00000E+00
 
    0.38484E+05         0.13869E+05         0.00000E+00
    0.13869E+05         0.20514E+04         0.00000E+00
    0.00000E+00         0.00000E+00         0.00000E+00
 
    0.38013E+05         0.14776E+05         0.00000E+00
    0.14776E+05         0.23883E+04         0.00000E+00
    0.00000E+00         0.00000E+00         0.00000E+00
 
    0.37500E+05         0.15671E+05         0.00000E+00
    0.15671E+05         0.27461E+04         0.00000E+00
    0.00000E+00         0.00000E+00         0.00000E+00
 
    0.36944E+05         0.16553E+05         0.00000E+00
    0.16553E+05         0.31247E+04         0.00000E+00
    0.00000E+00         0.00000E+00         0.00000E+00
 
    0.36347E+05         0.17420E+05         0.00000E+00
    0.17420E+05         0.35236E+04         0.00000E+00
    0.00000E+00         0.00000E+00         0.00000E+00
 
    0.35707E+05         0.18274E+05         0.00000E+00
    0.18274E+05         0.39426E+04         0.00000E+00
    0.00000E+00         0.00000E+00         0.00000E+00
 
    0.35027E+05         0.19111E+05         0.00000E+00
    0.19111E+05         0.43812E+04         0.00000E+00
    0.00000E+00         0.00000E+00         0.00000E+00
 
    0.34306E+05         0.19931E+05         0.00000E+00
    0.19931E+05         0.48391E+04         0.00000E+00
    0.00000E+00         0.00000E+00         0.00000E+00
 
    0.33545E+05         0.20734E+05         0.00000E+00
    0.20734E+05         0.53159E+04         0.00000E+00
    0.00000E+00         0.00000E+00         0.00000E+00
 
    0.32745E+05         0.21518E+05         0.00000E+00
    0.21518E+05         0.58111E+04         0.00000E+00
    0.00000E+00         0.00000E+00         0.00000E+00
 
    0.31906E+05         0.22283E+05         0.00000E+00
    0.22283E+05         0.63243E+04         0.00000E+00
    0.00000E+00         0.00000E+00         0.00000E+00
 
    0.31029E+05         0.23028E+05         0.00000E+00
    0.23028E+05         0.68550E+04         0.00000E+00
    0.00000E+00         0.00000E+00         0.00000E+00
 
    0.30115E+05         0.23752E+05         0.00000E+00
    0.23752E+05         0.74027E+04         0.00000E+00
    0.00000E+00         0.00000E+00         0.00000E+00
 
    0.29165E+05         0.24453E+05         0.00000E+00
    0.24453E+05         0.79670E+04         0.00000E+00
    0.00000E+00         0.00000E+00         0.00000E+00
 
    0.28178E+05         0.25132E+05         0.00000E+00
    0.25132E+05         0.85472E+04         0.00000E+00
    0.00000E+00         0.00000E+00         0.00000E+00
 
    0.27156E+05         0.25787E+05         0.00000E+00
    0.25787E+05         0.91429E+04         0.00000E+00
    0.00000E+00         0.00000E+00         0.00000E+00
 
    0.26101E+05         0.26418E+05         0.00000E+00
    0.26418E+05         0.97535E+04         0.00000E+00
    0.00000E+00         0.00000E+00         0.00000E+00
 
    0.25011E+05         0.27024E+05         0.00000E+00
    0.27024E+05         0.10378E+05         0.00000E+00
    0.00000E+00         0.00000E+00         0.00000E+00
 
    0.23889E+05         0.27604E+05         0.00000E+00
    0.27604E+05         0.11017E+05         0.00000E+00
    0.00000E+00         0.00000E+00         0.00000E+00
 
    0.22736E+05         0.28158E+05         0.00000E+00
    0.28158E+05         0.11669E+05         0.00000E+00
    0.00000E+00         0.00000E+00         0.00000E+00
 
    0.21551E+05         0.28684E+05         0.00000E+00
    0.28684E+05         0.12333E+05         0.00000E+00
    0.00000E+00         0.00000E+00         0.00000E+00
 
    0.20337E+05         0.29182E+05         0.00000E+00
    0.29182E+05         0.13009E+05         0.00000E+00
    0.00000E+00         0.00000E+00         0.00000E+00
 
    0.19094E+05         0.29652E+05         0.00000E+00
    0.29652E+05         0.13697E+05         0.00000E+00
    0.00000E+00         0.00000E+00         0.00000E+00
 
    0.17823E+05         0.30093E+05         0.00000E+00
    0.30093E+05         0.14395E+05         0.00000E+00
    0.00000E+00         0.00000E+00         0.00000E+00
 
    0.16525E+05         0.30504E+05         0.00000E+00
    0.30504E+05         0.15103E+05         0.00000E+00
    0.00000E+00         0.00000E+00         0.00000E+00
 
    0.15200E+05         0.30884E+05         0.00000E+00
    0.30884E+05         0.15820E+05         0.00000E+00
    0.00000E+00         0.00000E+00         0.00000E+00
 
    0.13851E+05         0.31234E+05         0.00000E+00
    0.31234E+05         0.16546E+05         0.00000E+00
    0.00000E+00         0.00000E+00         0.00000E+00
 
    0.12478E+05         0.31551E+05         0.00000E+00
    0.31551E+05         0.17279E+05         0.00000E+00
    0.00000E+00         0.00000E+00         0.00000E+00
 
    0.11083E+05         0.31837E+05         0.00000E+00
    0.31837E+05         0.18020E+05         0.00000E+00
    0.00000E+00         0.00000E+00         0.00000E+00
 
    0.96650E+04         0.32091E+05         0.00000E+00
    0.32091E+05         0.18766E+05         0.00000E+00
    0.00000E+00         0.00000E+00         0.00000E+00
 
    0.82268E+04         0.32311E+05         0.00000E+00
    0.32311E+05         0.19519E+05         0.00000E+00
    0.00000E+00         0.00000E+00         0.00000E+00
 
    0.67691E+04         0.32498E+05         0.00000E+00
    0.32498E+05         0.20276E+05         0.00000E+00
    0.00000E+00         0.00000E+00         0.00000E+00
 
    0.52930E+04         0.32651E+05         0.00000E+00
    0.32651E+05         0.21037E+05         0.00000E+00
    0.00000E+00         0.00000E+00         0.00000E+00
 
    0.37996E+04         0.32770E+05         0.00000E+00
    0.32770E+05         0.21802E+05         0.00000E+00
    0.00000E+00         0.00000E+00         0.00000E+00
 
    0.22901E+04         0.32854E+05         0.00000E+00
    0.32854E+05         0.22569E+05         0.00000E+00
    0.00000E+00         0.00000E+00         0.00000E+00
 
    0.76576E+03         0.32903E+05         0.00000E+00
    0.32903E+05         0.23338E+05         0.00000E+00
    0.00000E+00         0.00000E+00         0.00000E+00
 
    0.45458E+05         0.53926E+03         0.00000E+00
    0.53926E+03        -0.41261E+03         0.00000E+00
    0.00000E+00         0.00000E+00         0.00000E+00
 
    0.45629E+05         0.16290E+04         0.00000E+00
    0.16290E+04        -0.38690E+03         0.00000E+00
    0.00000E+00         0.00000E+00         0.00000E+00
 
    0.45750E+05         0.27213E+04         0.00000E+00
    0.27213E+04        -0.33538E+03         0.00000E+00
    0.00000E+00         0.00000E+00         0.00000E+00
 
    0.45820E+05         0.38150E+04         0.00000E+00
    0.38150E+04        -0.25805E+03         0.00000E+00
    0.00000E+00         0.00000E+00         0.00000E+00
 
    0.45839E+05         0.49088E+04         0.00000E+00
    0.49088E+04        -0.15492E+03         0.00000E+00
    0.00000E+00         0.00000E+00         0.00000E+00
 
    0.45807E+05         0.60016E+04         0.00000E+00
    0.60016E+04        -0.26026E+02         0.00000E+00
    0.00000E+00         0.00000E+00         0.00000E+00
 
    0.45723E+05         0.70922E+04         0.00000E+00
    0.70922E+04         0.12855E+03         0.00000E+00
    0.00000E+00         0.00000E+00         0.00000E+00
 
    0.45590E+05         0.81795E+04         0.00000E+00
    0.81795E+04         0.30872E+03         0.00000E+00
    0.00000E+00         0.00000E+00         0.00000E+00
 
    0.45405E+05         0.92622E+04         0.00000E+00
    0.92622E+04         0.51436E+03         0.00000E+00
    0.00000E+00         0.00000E+00         0.00000E+00
 
    0.45170E+05         0.10339E+05         0.00000E+00
    0.10339E+05         0.74532E+03         0.00000E+00
    0.00000E+00         0.00000E+00         0.00000E+00
 
    0.44885E+05         0.11409E+05         0.00000E+00
    0.11409E+05         0.10014E+04         0.00000E+00
    0.00000E+00         0.00000E+00         0.00000E+00
 
    0.44550E+05         0.12472E+05         0.00000E+00
    0.12472E+05         0.12825E+04         0.00000E+00
    0.00000E+00         0.00000E+00         0.00000E+00
 
    0.44165E+05         0.13525E+05         0.00000E+00
    0.13525E+05         0.15883E+04         0.00000E+00
    0.00000E+00         0.00000E+00         0.00000E+00
 
    0.43731E+05         0.14567E+05         0.00000E+00
    0.14567E+05         0.19185E+04         0.00000E+00
    0.00000E+00         0.00000E+00         0.00000E+00
 
    0.43248E+05         0.15599E+05         0.00000E+00
    0.15599E+05         0.22729E+04         0.00000E+00
    0.00000E+00         0.00000E+00         0.00000E+00
 
    0.42716E+05         0.16618E+05         0.00000E+00
    0.16618E+05         0.26513E+04         0.00000E+00
    0.00000E+00         0.00000E+00         0.00000E+00
 
    0.42137E+05         0.17623E+05         0.00000E+00
    0.17623E+05         0.30532E+04         0.00000E+00
    0.00000E+00         0.00000E+00         0.00000E+00
 
    0.41509E+05         0.18614E+05         0.00000E+00
    0.18614E+05         0.34783E+04         0.00000E+00
    0.00000E+00         0.00000E+00         0.00000E+00
 
    0.40835E+05         0.19589E+05         0.00000E+00
    0.19589E+05         0.39263E+04         0.00000E+00
    0.00000E+00         0.00000E+00         0.00000E+00
 
    0.40114E+05         0.20547E+05         0.00000E+00
    0.20547E+05         0.43967E+04         0.00000E+00
    0.00000E+00         0.00000E+00         0.00000E+00
 
    0.39347E+05         0.21487E+05         0.00000E+00
    0.21487E+05         0.48891E+04         0.00000E+00
    0.00000E+00         0.00000E+00         0.00000E+00
 
    0.38535E+05         0.22409E+05         0.00000E+00
    0.22409E+05         0.54032E+04         0.00000E+00
    0.00000E+00         0.00000E+00         0.00000E+00
 
    0.37678E+05         0.23311E+05         0.00000E+00
    0.23311E+05         0.59384E+04         0.00000E+00
    0.00000E+00         0.00000E+00         0.00000E+00
 
    0.36777E+05         0.24191E+05         0.00000E+00
    0.24191E+05         0.64942E+04         0.00000E+00
    0.00000E+00         0.00000E+00         0.00000E+00
 
    0.35833E+05         0.25050E+05         0.00000E+00
    0.25050E+05         0.70702E+04         0.00000E+00
    0.00000E+00         0.00000E+00         0.00000E+00
 
    0.34846E+05         0.25886E+05         0.00000E+00
    0.25886E+05         0.76658E+04         0.00000E+00
    0.00000E+00         0.00000E+00         0.00000E+00
 
    0.33818E+05         0.26699E+05         0.00000E+00
    0.26699E+05         0.82805E+04         0.00000E+00
    0.00000E+00         0.00000E+00         0.00000E+00
 
    0.32749E+05         0.27487E+05         0.00000E+00
    0.27487E+05         0.89137E+04         0.00000E+00
    0.00000E+00         0.00000E+00         0.00000E+00
 
    0.31639E+05         0.28249E+05         0.00000E+00
    0.28249E+05         0.95648E+04         0.00000E+00
    0.00000E+00         0.00000E+00         0.00000E+00
 
    0.30491E+05         0.28984E+05         0.00000E+00
    0.28984E+05         0.10233E+05         0.00000E+00
    0.00000E+00         0.00000E+00         0.00000E+00
 
    0.29304E+05         0.29693E+05         0.00000E+00
    0.29693E+05         0.10918E+05         0.00000E+00
    0.00000E+00         0.00000E+00         0.00000E+00
 
    0.28080E+05         0.30373E+05         0.00000E+00
    0.30373E+05         0.11620E+05         0.00000E+00
    0.00000E+00         0.00000E+00         0.00000E+00
 
    0.26819E+05         0.31024E+05         0.00000E+00
    0.31024E+05         0.12336E+05         0.00000E+00
    0.00000E+00         0.00000E+00         0.00000E+00
 
    0.25523E+05         0.31646E+05         0.00000E+00
    0.31646E+05         0.13067E+05         0.00000E+00
    0.00000E+00         0.00000E+00         0.00000E+00
 
    0.24192E+05         0.32237E+05         0.00000E+00
    0.32237E+05         0.13813E+05         0.00000E+00
    0.00000E+00         0.00000E+00         0.00000E+00
 
    0.22828E+05         0.32796E+05         0.00000E+00
    0.32796E+05         0.14571E+05         0.00000E+00
    0.00000E+00         0.00000E+00         0.00000E+00
 
    0.21432E+05         0.33324E+05         0.00000E+00
    0.33324E+05         0.15342E+05         0.00000E+00
    0.00000E+00         0.00000E+00         0.00000E+00
 
    0.20005E+05         0.33819E+05         0.00000E+00
    0.33819E+05         0.16126E+05         0.00000E+00
    0.00000E+00         0.00000E+00         0.00000E+00
 
    0.18547E+05         0.34280E+05         0.00000E+00
    0.34280E+05         0.16920E+05         0.00000E+00
    0.00000E+00         0.00000E+00         0.00000E+00
 
    0.17060E+05         0.34707E+05         0.00000E+00
    0.34707E+05         0.17724E+05         0.00000E+00
    0.00000E+00         0.00000E+00         0.00000E+00
 
    0.15546E+05         0.35100E+05         0.00000E+00
    0.35100E+05         0.18538E+05         0.00000E+00
    0.00000E+00         0.00000E+00         0.00000E+00
 
    0.14004E+05         0.35457E+05         0.00000E+00
    0.35457E+05         0.19361E+05         0.00000E+00
    0.00000E+00         0.00000E+00         0.00000E+00
 
    0.12437E+05         0.35779E+05         0.00000E+00
    0.35779E+05         0.20192E+05         0.00000E+00
    0.00000E+00         0.00000E+00         0.00000E+00
 
    0.10846E+05         0.36064E+05         0.00000E+00
    0.36064E+05         0.21029E+05         0.00000E+00
    0.00000E+00         0.00000E+00         0.00000E+00
 
    0.92321E+04         0.36312E+05         0.00000E+00
    0.36312E+05         0.21874E+05         0.00000E+00
    0.00000E+00         0.00000E+00         0.00000E+00
 
    0.75961E+04         0.36522E+05         0.00000E+00
    0.36522E+05         0.22723E+05         0.00000E+00
    0.00000E+00         0.00000E+00         0.00000E+00
 
    0.59395E+04         0.36695E+05         0.00000E+00
    0.36695E+05         0.23577E+05         0.00000E+00
    0.00000E+00         0.00000E+00         0.00000E+00
 
    0.42636E+04         0.36829E+05         0.00000E+00
    0.36829E+05         0.24435E+05         0.00000E+00
    0.00000E+00         0.00000E+00         0.00000E+00
 
    0.25698E+04         0.36925E+05         0.00000E+00
    0.36925E+05         0.25296E+05         0.00000E+00
    0.00000E+00         0.00000E+00         0.00000E+00
 
    0.85926E+03         0.36981E+05         0.00000E+00
    0.36981E+05         0.26159E+05         0.00000E+00
    0.00000E+00         0.00000E+00         0.00000E+00
 
    0.51142E+05         0.60726E+03         0.00000E+00
    0.60726E+03        -0.50308E+03         0.00000E+00
    0.00000E+00         0.00000E+00         0.00000E+00
 
    0.51330E+05         0.18339E+04         0.00000E+00
    0.18339E+04        -0.47415E+03         0.00000E+00
    0.00000E+00         0.00000E+00         0.00000E+00
 
    0.51461E+05         0.30631E+04         0.00000E+00
    0.30631E+04        -0.41621E+03         0.00000E+00
    0.00000E+00         0.00000E+00         0.00000E+00
 
    0.51534E+05         0.42937E+04         0.00000E+00
    0.42937E+04        -0.32925E+03         0.00000E+00
    0.00000E+00         0.00000E+00         0.00000E+00
 
    0.51550E+05         0.55243E+04         0.00000E+00
    0.55243E+04        -0.21329E+03         0.00000E+00
    0.00000E+00         0.00000E+00         0.00000E+00
 
    0.51509E+05         0.67535E+04         0.00000E+00
    0.67535E+04        -0.68386E+02         0.00000E+00
    0.00000E+00         0.00000E+00         0.00000E+00
 
    0.51411E+05         0.79801E+04         0.00000E+00
    0.79801E+04         0.10537E+03         0.00000E+00
    0.00000E+00         0.00000E+00         0.00000E+00
 
    0.51255E+05         0.92028E+04         0.00000E+00
    0.92028E+04         0.30787E+03         0.00000E+00
    0.00000E+00         0.00000E+00         0.00000E+00
 
    0.51043E+05         0.10420E+05         0.00000E+00
    0.10420E+05         0.53897E+03         0.00000E+00
    0.00000E+00         0.00000E+00         0.00000E+00
 
    0.50775E+05         0.11631E+05         0.00000E+00
    0.11631E+05         0.79849E+03         0.00000E+00
    0.00000E+00         0.00000E+00         0.00000E+00
 
    0.50450E+05         0.12834E+05         0.00000E+00
    0.12834E+05         0.10862E+04         0.00000E+00
    0.00000E+00         0.00000E+00         0.00000E+00
 
    0.50069E+05         0.14028E+05         0.00000E+00
    0.14028E+05         0.14020E+04         0.00000E+00
    0.00000E+00         0.00000E+00         0.00000E+00
 
    0.49632E+05         0.15211E+05         0.00000E+00
    0.15211E+05         0.17454E+04         0.00000E+00
    0.00000E+00         0.00000E+00         0.00000E+00
 
    0.49141E+05         0.16383E+05         0.00000E+00
    0.16383E+05         0.21163E+04         0.00000E+00
    0.00000E+00         0.00000E+00         0.00000E+00
 
    0.48594E+05         0.17542E+05         0.00000E+00
    0.17542E+05         0.25144E+04         0.00000E+00
    0.00000E+00         0.00000E+00         0.00000E+00
 
    0.47993E+05         0.18686E+05         0.00000E+00
    0.18686E+05         0.29392E+04         0.00000E+00
    0.00000E+00         0.00000E+00         0.00000E+00
 
    0.47338E+05         0.19816E+05         0.00000E+00
    0.19816E+05         0.33905E+04         0.00000E+00
    0.00000E+00         0.00000E+00         0.00000E+00
 
    0.46630E+05         0.20928E+05         0.00000E+00
    0.20928E+05         0.38678E+04         0.00000E+00
    0.00000E+00         0.00000E+00         0.00000E+00
 
    0.45869E+05         0.22023E+05         0.00000E+00
    0.22023E+05         0.43707E+04         0.00000E+00
    0.00000E+00         0.00000E+00         0.00000E+00
 
    0.45056E+05         0.23099E+05         0.00000E+00
    0.23099E+05         0.48988E+04         0.00000E+00
    0.00000E+00         0.00000E+00         0.00000E+00
 
    0.44192E+05         0.24155E+05         0.00000E+00
    0.24155E+05         0.54515E+04         0.00000E+00
    0.00000E+00         0.00000E+00         0.00000E+00
 
    0.43277E+05         0.25190E+05         0.00000E+00
    0.25190E+05         0.60285E+04         0.00000E+00
    0.00000E+00         0.00000E+00         0.00000E+00
 
    0.42312E+05         0.26202E+05         0.00000E+00
    0.26202E+05         0.66291E+04         0.00000E+00
    0.00000E+00         0.00000E+00         0.00000E+00
 
    0.41297E+05         0.27191E+05         0.00000E+00
    0.27191E+05         0.72528E+04         0.00000E+00
    0.00000E+00         0.00000E+00         0.00000E+00
 
    0.40235E+05         0.28155E+05         0.00000E+00
    0.28155E+05         0.78991E+04         0.00000E+00
    0.00000E+00         0.00000E+00         0.00000E+00
 
    0.39124E+05         0.29094E+05         0.00000E+00
    0.29094E+05         0.85674E+04         0.00000E+00
    0.00000E+00         0.00000E+00         0.00000E+00
 
    0.37968E+05         0.30006E+05         0.00000E+00
    0.30006E+05         0.92571E+04         0.00000E+00
    0.00000E+00         0.00000E+00         0.00000E+00
 
    0.36765E+05         0.30890E+05         0.00000E+00
    0.30890E+05         0.99674E+04         0.00000E+00
    0.00000E+00         0.00000E+00         0.00000E+00
 
    0.35518E+05         0.31745E+05         0.00000E+00
    0.31745E+05         0.10698E+05         0.00000E+00
    0.00000E+00         0.00000E+00         0.00000E+00
 
    0.34227E+05         0.32571E+05         0.00000E+00
    0.32571E+05         0.11448E+05         0.00000E+00
    0.00000E+00         0.00000E+00         0.00000E+00
 
    0.32893E+05         0.33366E+05         0.00000E+00
    0.33366E+05         0.12216E+05         0.00000E+00
    0.00000E+00         0.00000E+00         0.00000E+00
 
    0.31517E+05         0.34130E+05         0.00000E+00
    0.34130E+05         0.13003E+05         0.00000E+00
    0.00000E+00         0.00000E+00         0.00000E+00
 
    0.30101E+05         0.34861E+05         0.00000E+00
    0.34861E+05         0.13806E+05         0.00000E+00
    0.00000E+00         0.00000E+00         0.00000E+00
 
    0.28645E+05         0.35558E+05         0.00000E+00
    0.35558E+05         0.14627E+05         0.00000E+00
    0.00000E+00         0.00000E+00         0.00000E+00
 
    0.27150E+05         0.36221E+05         0.00000E+00
    0.36221E+05         0.15462E+05         0.00000E+00
    0.00000E+00         0.00000E+00         0.00000E+00
 
    0.25618E+05         0.36850E+05         0.00000E+00
    0.36850E+05         0.16313E+05         0.00000E+00
    0.00000E+00         0.00000E+00         0.00000E+00
 
    0.24050E+05         0.37442E+05         0.00000E+00
    0.37442E+05         0.17178E+05         0.00000E+00
    0.00000E+00         0.00000E+00         0.00000E+00
 
    0.22448E+05         0.37998E+05         0.00000E+00
    0.37998E+05         0.18056E+05         0.00000E+00
    0.00000E+00         0.00000E+00         0.00000E+00
 
    0.20811E+05         0.38516E+05         0.00000E+00
    0.38516E+05         0.18947E+05         0.00000E+00
    0.00000E+00         0.00000E+00         0.00000E+00
 
    0.19142E+05         0.38996E+05         0.00000E+00
    0.38996E+05         0.19849E+05         0.00000E+00
    0.00000E+00         0.00000E+00         0.00000E+00
 
    0.17442E+05         0.39437E+05         0.00000E+00
    0.39437E+05         0.20762E+05         0.00000E+00
    0.00000E+00         0.00000E+00         0.00000E+00
 
    0.15712E+05         0.39838E+05         0.00000E+00
    0.39838E+05         0.21685E+05         0.00000E+00
    0.00000E+00         0.00000E+00         0.00000E+00
 
    0.13954E+05         0.40200E+05         0.00000E+00
    0.40200E+05         0.22616E+05         0.00000E+00
    0.00000E+00         0.00000E+00         0.00000E+00
 
    0.12169E+05         0.40520E+05         0.00000E+00
    0.40520E+05         0.23556E+05         0.00000E+00
    0.00000E+00         0.00000E+00         0.00000E+00
 
    0.10357E+05         0.40799E+05         0.00000E+00
    0.40799E+05         0.24502E+05         0.00000E+00
    0.00000E+00         0.00000E+00         0.00000E+00
 
    0.85218E+04         0.41037E+05         0.00000E+00
    0.41037E+05         0.25455E+05         0.00000E+00
    0.00000E+00         0.00000E+00         0.00000E+00
 
    0.66632E+04         0.41231E+05         0.00000E+00
    0.41231E+05         0.26413E+05         0.00000E+00
    0.00000E+00         0.00000E+00         0.00000E+00
 
    0.47830E+04         0.41383E+05         0.00000E+00
    0.41383E+05         0.27375E+05         0.00000E+00
    0.00000E+00         0.00000E+00         0.00000E+00
 
    0.28828E+04         0.41492E+05         0.00000E+00
    0.41492E+05         0.28341E+05         0.00000E+00
    0.00000E+00         0.00000E+00         0.00000E+00
 
    0.96391E+03         0.41556E+05         0.00000E+00
    0.41556E+05         0.29309E+05         0.00000E+00
    0.00000E+00         0.00000E+00         0.00000E+00
 
    0.57533E+05         0.68379E+03         0.00000E+00
    0.68379E+03        -0.61312E+03         0.00000E+00
    0.00000E+00         0.00000E+00         0.00000E+00
 
    0.57737E+05         0.20643E+04         0.00000E+00
    0.20643E+04        -0.58058E+03         0.00000E+00
    0.00000E+00         0.00000E+00         0.00000E+00
 
    0.57878E+05         0.34475E+04         0.00000E+00
    0.34475E+04        -0.51542E+03         0.00000E+00
    0.00000E+00         0.00000E+00         0.00000E+00
 
    0.57954E+05         0.48320E+04         0.00000E+00
    0.48320E+04        -0.41765E+03         0.00000E+00
    0.00000E+00         0.00000E+00         0.00000E+00
 
    0.57966E+05         0.62162E+04         0.00000E+00
    0.62162E+04        -0.28728E+03         0.00000E+00
    0.00000E+00         0.00000E+00         0.00000E+00
 
    0.57914E+05         0.75987E+04         0.00000E+00
    0.75987E+04        -0.12441E+03         0.00000E+00
    0.00000E+00         0.00000E+00         0.00000E+00
 
    0.57798E+05         0.89780E+04         0.00000E+00
    0.89780E+04         0.70871E+02         0.00000E+00
    0.00000E+00         0.00000E+00         0.00000E+00
 
    0.57617E+05         0.10353E+05         0.00000E+00
    0.10353E+05         0.29842E+03         0.00000E+00
    0.00000E+00         0.00000E+00         0.00000E+00
 
    0.57373E+05         0.11721E+05         0.00000E+00
    0.11721E+05         0.55808E+03         0.00000E+00
    0.00000E+00         0.00000E+00         0.00000E+00
 
    0.57066E+05         0.13082E+05         0.00000E+00
    0.13082E+05         0.84963E+03         0.00000E+00
    0.00000E+00         0.00000E+00         0.00000E+00
 
    0.56696E+05         0.14434E+05         0.00000E+00
    0.14434E+05         0.11728E+04         0.00000E+00
    0.00000E+00         0.00000E+00         0.00000E+00
 
    0.56263E+05         0.15776E+05         0.00000E+00
    0.15776E+05         0.15275E+04         0.00000E+00
    0.00000E+00         0.00000E+00         0.00000E+00
 
    0.55767E+05         0.17105E+05         0.00000E+00
    0.17105E+05         0.19132E+04         0.00000E+00
    0.00000E+00         0.00000E+00         0.00000E+00
 
    0.55210E+05         0.18421E+05         0.00000E+00
    0.18421E+05         0.23297E+04         0.00000E+00
    0.00000E+00         0.00000E+00         0.00000E+00
 
    0.54591E+05         0.19723E+05         0.00000E+00
    0.19723E+05         0.27766E+04         0.00000E+00
    0.00000E+00         0.00000E+00         0.00000E+00
 
    0.53911E+05         0.21009E+05         0.00000E+00
    0.21009E+05         0.32536E+04         0.00000E+00
    0.00000E+00         0.00000E+00         0.00000E+00
 
    0.53171E+05         0.22277E+05         0.00000E+00
    0.22277E+05         0.37601E+04         0.00000E+00
    0.00000E+00         0.00000E+00         0.00000E+00
 
    0.52372E+05         0.23527E+05         0.00000E+00
    0.23527E+05         0.42958E+04         0.00000E+00
    0.00000E+00         0.00000E+00         0.00000E+00
 
    0.51513E+05         0.24756E+05         0.00000E+00
    0.24756E+05         0.48603E+04         0.00000E+00
    0.00000E+00         0.00000E+00         0.00000E+00
 
    0.50596E+05         0.25964E+05         0.00000E+00
    0.25964E+05         0.54529E+04         0.00000E+00
    0.00000E+00         0.00000E+00         0.00000E+00
 
    0.49622E+05         0.27149E+05         0.00000E+00
    0.27149E+05         0.60731E+04         0.00000E+00
    0.00000E+00         0.00000E+00         0.00000E+00
 
    0.48591E+05         0.28311E+05         0.00000E+00
    0.28311E+05         0.67205E+04         0.00000E+00
    0.00000E+00         0.00000E+00         0.00000E+00
 
    0.47504E+05         0.29447E+05         0.00000E+00
    0.29447E+05         0.73943E+04         0.00000E+00
    0.00000E+00         0.00000E+00         0.00000E+00
 
    0.46362E+05         0.30557E+05         0.00000E+00
    0.30557E+05         0.80941E+04         0.00000E+00
    0.00000E+00         0.00000E+00         0.00000E+00
 
    0.45167E+05         0.31639E+05         0.00000E+00
    0.31639E+05         0.88191E+04         0.00000E+00
    0.00000E+00         0.00000E+00         0.00000E+00
 
    0.43917E+05         0.32692E+05         0.00000E+00
    0.32692E+05         0.95687E+04         0.00000E+00
    0.00000E+00         0.00000E+00         0.00000E+00
 
    0.42616E+05         0.33715E+05         0.00000E+00
    0.33715E+05         0.10342E+05         0.00000E+00
    0.00000E+00         0.00000E+00         0.00000E+00
 
    0.41264E+05         0.34707E+05         0.00000E+00
    0.34707E+05         0.11139E+05         0.00000E+00
    0.00000E+00         0.00000E+00         0.00000E+00
 
    0.39862E+05         0.35667E+05         0.00000E+00
    0.35667E+05         0.11958E+05         0.00000E+00
    0.00000E+00         0.00000E+00         0.00000E+00
 
    0.38411E+05         0.36594E+05         0.00000E+00
    0.36594E+05         0.12799E+05         0.00000E+00
    0.00000E+00         0.00000E+00         0.00000E+00
 
    0.36912E+05         0.37486E+05         0.00000E+00
    0.37486E+05         0.13661E+05         0.00000E+00
    0.00000E+00         0.00000E+00         0.00000E+00
 
    0.35366E+05         0.38343E+05         0.00000E+00
    0.38343E+05         0.14543E+05         0.00000E+00
    0.00000E+00         0.00000E+00         0.00000E+00
 
    0.33775E+05         0.39163E+05         0.00000E+00
    0.39163E+05         0.15444E+05         0.00000E+00
    0.00000E+00         0.00000E+00         0.00000E+00
 
    0.32140E+05         0.39945E+05         0.00000E+00
    0.39945E+05         0.16363E+05         0.00000E+00
    0.00000E+00         0.00000E+00         0.00000E+00
 
    0.30461E+05         0.40690E+05         0.00000E+00
    0.40690E+05         0.17300E+05         0.00000E+00
    0.00000E+00         0.00000E+00         0.00000E+00
 
    0.28742E+05         0.41395E+05         0.00000E+00
    0.41395E+05         0.18254E+05         0.00000E+00
    0.00000E+00         0.00000E+00         0.00000E+00
 
    0.26981E+05         0.42060E+05         0.00000E+00
    0.42060E+05         0.19224E+05         0.00000E+00
    0.00000E+00         0.00000E+00         0.00000E+00
 
    0.25182E+05         0.42683E+05         0.00000E+00
    0.42683E+05         0.20209E+05         0.00000E+00
    0.00000E+00         0.00000E+00         0.00000E+00
 
    0.23346E+05         0.43265E+05         0.00000E+00
    0.43265E+05         0.21207E+05         0.00000E+00
    0.00000E+00         0.00000E+00         0.00000E+00
 
    0.21473E+05         0.43804E+05         0.00000E+00
    0.43804E+05         0.22218E+05         0.00000E+00
    0.00000E+00         0.00000E+00         0.00000E+00
 
    0.19565E+05         0.44299E+05         0.00000E+00
    0.44299E+05         0.23242E+05         0.00000E+00
    0.00000E+00         0.00000E+00         0.00000E+00
 
    0.17624E+05         0.44751E+05         0.00000E+00
    0.44751E+05         0.24276E+05         0.00000E+00
    0.00000E+00         0.00000E+00         0.00000E+00
 
    0.15651E+05         0.45157E+05         0.00000E+00
    0.45157E+05         0.25321E+05         0.00000E+00
    0.00000E+00         0.00000E+00         0.00000E+00
 
    0.13648E+05         0.45517E+05         0.00000E+00
    0.45517E+05         0.26374E+05         0.00000E+00
    0.00000E+00         0.00000E+00         0.00000E+00
 
    0.11617E+05         0.45832E+05         0.00000E+00
    0.45832E+05         0.27435E+05         0.00000E+00
    0.00000E+00         0.00000E+00         0.00000E+00
 
    0.95575E+04         0.46099E+05         0.00000E+00
    0.46099E+05         0.28504E+05         0.00000E+00
    0.00000E+00         0.00000E+00         0.00000E+00
 
    0.74728E+04         0.46319E+05         0.00000E+00
    0.46319E+05         0.29578E+05         0.00000E+00
    0.00000E+00         0.00000E+00         0.00000E+00
 
    0.53641E+04         0.46490E+05         0.00000E+00
    0.46490E+05         0.30656E+05         0.00000E+00
    0.00000E+00         0.00000E+00         0.00000E+00
 
    0.32330E+04         0.46614E+05         0.00000E+00
    0.46614E+05         0.31739E+05         0.00000E+00
    0.00000E+00         0.00000E+00         0.00000E+00
 
    0.10810E+04         0.46688E+05         0.00000E+00
    0.46688E+05         0.32824E+05         0.00000E+00
    0.00000E+00         0.00000E+00         0.00000E+00
 
    0.64715E+05         0.76992E+03         0.00000E+00
    0.76992E+03        -0.74692E+03         0.00000E+00
    0.00000E+00         0.00000E+00         0.00000E+00
 
    0.64938E+05         0.23234E+04         0.00000E+00
    0.23234E+04        -0.71032E+03         0.00000E+00
    0.00000E+00         0.00000E+00         0.00000E+00
 
    0.65088E+05         0.38797E+04         0.00000E+00
    0.38797E+04        -0.63706E+03         0.00000E+00
    0.00000E+00         0.00000E+00         0.00000E+00
 
    0.65166E+05         0.54371E+04         0.00000E+00
    0.54371E+04        -0.52713E+03         0.00000E+00
    0.00000E+00         0.00000E+00         0.00000E+00
 
    0.65172E+05         0.69939E+04         0.00000E+00
    0.69939E+04        -0.38061E+03         0.00000E+00
    0.00000E+00         0.00000E+00         0.00000E+00
 
    0.65106E+05         0.85486E+04         0.00000E+00
    0.85486E+04        -0.19757E+03         0.00000E+00
    0.00000E+00         0.00000E+00         0.00000E+00
 
    0.64968E+05         0.10099E+05         0.00000E+00
    0.10099E+05         0.21857E+02         0.00000E+00
    0.00000E+00         0.00000E+00         0.00000E+00
 
    0.64759E+05         0.11645E+05         0.00000E+00
    0.11645E+05         0.27751E+03         0.00000E+00
    0.00000E+00         0.00000E+00         0.00000E+00
 
    0.64478E+05         0.13183E+05         0.00000E+00
    0.13183E+05         0.56918E+03         0.00000E+00
    0.00000E+00         0.00000E+00         0.00000E+00
 
    0.64126E+05         0.14712E+05         0.00000E+00
    0.14712E+05         0.89665E+03         0.00000E+00
    0.00000E+00         0.00000E+00         0.00000E+00
 
    0.63704E+05         0.16231E+05         0.00000E+00
    0.16231E+05         0.12596E+04         0.00000E+00
    0.00000E+00         0.00000E+00         0.00000E+00
 
    0.63211E+05         0.17738E+05         0.00000E+00
    0.17738E+05         0.16578E+04         0.00000E+00
    0.00000E+00         0.00000E+00         0.00000E+00
 
    0.62648E+05         0.19232E+05         0.00000E+00
    0.19232E+05         0.20909E+04         0.00000E+00
    0.00000E+00         0.00000E+00         0.00000E+00
 
    0.62016E+05         0.20710E+05         0.00000E+00
    0.20710E+05         0.25585E+04         0.00000E+00
    0.00000E+00         0.00000E+00         0.00000E+00
 
    0.61316E+05         0.22172E+05         0.00000E+00
    0.22172E+05         0.30601E+04         0.00000E+00
    0.00000E+00         0.00000E+00         0.00000E+00
 
    0.60547E+05         0.23616E+05         0.00000E+00
    0.23616E+05         0.35954E+04         0.00000E+00
    0.00000E+00         0.00000E+00         0.00000E+00
 
    0.59711E+05         0.25040E+05         0.00000E+00
    0.25040E+05         0.41639E+04         0.00000E+00
    0.00000E+00         0.00000E+00         0.00000E+00
 
    0.58808E+05         0.26442E+05         0.00000E+00
    0.26442E+05         0.47650E+04         0.00000E+00
    0.00000E+00         0.00000E+00         0.00000E+00
 
    0.57839E+05         0.27822E+05         0.00000E+00
    0.27822E+05         0.53983E+04         0.00000E+00
    0.00000E+00         0.00000E+00         0.00000E+00
 
    0.56805E+05         0.29178E+05         0.00000E+00
    0.29178E+05         0.60631E+04         0.00000E+00
    0.00000E+00         0.00000E+00         0.00000E+00
 
    0.55707E+05         0.30508E+05         0.00000E+00
    0.30508E+05         0.67589E+04         0.00000E+00
    0.00000E+00         0.00000E+00         0.00000E+00
 
    0.54545E+05         0.31812E+05         0.00000E+00
    0.31812E+05         0.74850E+04         0.00000E+00
    0.00000E+00         0.00000E+00         0.00000E+00
 
    0.53321E+05         0.33087E+05         0.00000E+00
    0.33087E+05         0.82408E+04         0.00000E+00
    0.00000E+00         0.00000E+00         0.00000E+00
 
    0.52036E+05         0.34332E+05         0.00000E+00
    0.34332E+05         0.90256E+04         0.00000E+00
    0.00000E+00         0.00000E+00         0.00000E+00
 
    0.50690E+05         0.35546E+05         0.00000E+00
    0.35546E+05         0.98386E+04         0.00000E+00
    0.00000E+00         0.00000E+00         0.00000E+00
 
    0.49285E+05         0.36727E+05         0.00000E+00
    0.36727E+05         0.10679E+05         0.00000E+00
    0.00000E+00         0.00000E+00         0.00000E+00
 
    0.47822E+05         0.37875E+05         0.00000E+00
    0.37875E+05         0.11546E+05         0.00000E+00
    0.00000E+00         0.00000E+00         0.00000E+00
 
    0.46301E+05         0.38988E+05         0.00000E+00
    0.38988E+05         0.12440E+05         0.00000E+00
    0.00000E+00         0.00000E+00         0.00000E+00
 
    0.44725E+05         0.40065E+05         0.00000E+00
    0.40065E+05         0.13358E+05         0.00000E+00
    0.00000E+00         0.00000E+00         0.00000E+00
 
    0.43094E+05         0.41104E+05         0.00000E+00
    0.41104E+05         0.14301E+05         0.00000E+00
    0.00000E+00         0.00000E+00         0.00000E+00
 
    0.41410E+05         0.42105E+05         0.00000E+00
    0.42105E+05         0.15267E+05         0.00000E+00
    0.00000E+00         0.00000E+00         0.00000E+00
 
    0.39674E+05         0.43066E+05         0.00000E+00
    0.43066E+05         0.16255E+05         0.00000E+00
    0.00000E+00         0.00000E+00         0.00000E+00
 
    0.37887E+05         0.43986E+05         0.00000E+00
    0.43986E+05         0.17265E+05         0.00000E+00
    0.00000E+00         0.00000E+00         0.00000E+00
 
    0.36051E+05         0.44864E+05         0.00000E+00
    0.44864E+05         0.18296E+05         0.00000E+00
    0.00000E+00         0.00000E+00         0.00000E+00
 
    0.34166E+05         0.45699E+05         0.00000E+00
    0.45699E+05         0.19346E+05         0.00000E+00
    0.00000E+00         0.00000E+00         0.00000E+00
 
    0.32236E+05         0.46490E+05         0.00000E+00
    0.46490E+05         0.20415E+05         0.00000E+00
    0.00000E+00         0.00000E+00         0.00000E+00
 
    0.30260E+05         0.47236E+05         0.00000E+00
    0.47236E+05         0.21502E+05         0.00000E+00
    0.00000E+00         0.00000E+00         0.00000E+00
 
    0.28241E+05         0.47935E+05         0.00000E+00
    0.47935E+05         0.22605E+05         0.00000E+00
    0.00000E+00         0.00000E+00         0.00000E+00
 
    0.26180E+05         0.48588E+05         0.00000E+00
    0.48588E+05         0.23724E+05         0.00000E+00
    0.00000E+00         0.00000E+00         0.00000E+00
 
    0.24079E+05         0.49193E+05         0.00000E+00
    0.49193E+05         0.24858E+05         0.00000E+00
    0.00000E+00         0.00000E+00         0.00000E+00
 
    0.21939E+05         0.49750E+05         0.00000E+00
    0.49750E+05         0.26005E+05         0.00000E+00
    0.00000E+00         0.00000E+00         0.00000E+00
 
    0.19762E+05         0.50257E+05         0.00000E+00
    0.50257E+05         0.27164E+05         0.00000E+00
    0.00000E+00         0.00000E+00         0.00000E+00
 
    0.17549E+05         0.50713E+05         0.00000E+00
    0.50713E+05         0.28334E+05         0.00000E+00
    0.00000E+00         0.00000E+00         0.00000E+00
 
    0.15303E+05         0.51119E+05         0.00000E+00
    0.51119E+05         0.29515E+05         0.00000E+00
    0.00000E+00         0.00000E+00         0.00000E+00
 
    0.13024E+05         0.51472E+05         0.00000E+00
    0.51472E+05         0.30704E+05         0.00000E+00
    0.00000E+00         0.00000E+00         0.00000E+00
 
    0.10716E+05         0.51773E+05         0.00000E+00
    0.51773E+05         0.31902E+05         0.00000E+00
    0.00000E+00         0.00000E+00         0.00000E+00
 
    0.83782E+04         0.52022E+05         0.00000E+00
    0.52022E+05         0.33106E+05         0.00000E+00
    0.00000E+00         0.00000E+00         0.00000E+00
 
    0.60139E+04         0.52216E+05         0.00000E+00
    0.52216E+05         0.34315E+05         0.00000E+00
    0.00000E+00         0.00000E+00         0.00000E+00
 
    0.36245E+04         0.52356E+05         0.00000E+00
    0.52356E+05         0.35528E+05         0.00000E+00
    0.00000E+00         0.00000E+00         0.00000E+00
 
    0.12119E+04         0.52441E+05         0.00000E+00
    0.52441E+05         0.36745E+05         0.00000E+00
    0.00000E+00         0.00000E+00         0.00000E+00
 
    0.72786E+05         0.86681E+03         0.00000E+00
    0.86681E+03        -0.90952E+03         0.00000E+00
    0.00000E+00         0.00000E+00         0.00000E+00
 
    0.73027E+05         0.26148E+04         0.00000E+00
    0.26148E+04        -0.86836E+03         0.00000E+00
    0.00000E+00         0.00000E+00         0.00000E+00
 
    0.73187E+05         0.43656E+04         0.00000E+00
    0.43656E+04        -0.78600E+03         0.00000E+00
    0.00000E+00         0.00000E+00         0.00000E+00
 
    0.73266E+05         0.61173E+04         0.00000E+00
    0.61173E+04        -0.66245E+03         0.00000E+00
    0.00000E+00         0.00000E+00         0.00000E+00
 
    0.73263E+05         0.78680E+04         0.00000E+00
    0.78680E+04        -0.49779E+03         0.00000E+00
    0.00000E+00         0.00000E+00         0.00000E+00
 
    0.73181E+05         0.96158E+04         0.00000E+00
    0.96158E+04        -0.29214E+03         0.00000E+00
    0.00000E+00         0.00000E+00         0.00000E+00
 
    0.73017E+05         0.11359E+05         0.00000E+00
    0.11359E+05        -0.45634E+02         0.00000E+00
    0.00000E+00         0.00000E+00         0.00000E+00
 
    0.72774E+05         0.13096E+05         0.00000E+00
    0.13096E+05         0.24152E+03         0.00000E+00
    0.00000E+00         0.00000E+00         0.00000E+00
 
    0.72450E+05         0.14824E+05         0.00000E+00
    0.14824E+05         0.56908E+03         0.00000E+00
    0.00000E+00         0.00000E+00         0.00000E+00
 
    0.72047E+05         0.16543E+05         0.00000E+00
    0.16543E+05         0.93679E+03         0.00000E+00
    0.00000E+00         0.00000E+00         0.00000E+00
 
    0.71564E+05         0.18249E+05         0.00000E+00
    0.18249E+05         0.13443E+04         0.00000E+00
    0.00000E+00         0.00000E+00         0.00000E+00
 
    0.71003E+05         0.19942E+05         0.00000E+00
    0.19942E+05         0.17913E+04         0.00000E+00
    0.00000E+00         0.00000E+00         0.00000E+00
 
    0.70364E+05         0.21619E+05         0.00000E+00
    0.21619E+05         0.22774E+04         0.00000E+00
    0.00000E+00         0.00000E+00         0.00000E+00
 
    0.69647E+05         0.23279E+05         0.00000E+00
    0.23279E+05         0.28021E+04         0.00000E+00
    0.00000E+00         0.00000E+00         0.00000E+00
 
    0.68854E+05         0.24920E+05         0.00000E+00
    0.24920E+05         0.33651E+04         0.00000E+00
    0.00000E+00         0.00000E+00         0.00000E+00
 
    0.67984E+05         0.26541E+05         0.00000E+00
    0.26541E+05         0.39657E+04         0.00000E+00
    0.00000E+00         0.00000E+00         0.00000E+00
 
    0.67039E+05         0.28139E+05         0.00000E+00
    0.28139E+05         0.46034E+04         0.00000E+00
    0.00000E+00         0.00000E+00         0.00000E+00
 
    0.66019E+05         0.29713E+05         0.00000E+00
    0.29713E+05         0.52778E+04         0.00000E+00
    0.00000E+00         0.00000E+00         0.00000E+00
 
    0.64926E+05         0.31262E+05         0.00000E+00
    0.31262E+05         0.59881E+04         0.00000E+00
    0.00000E+00         0.00000E+00         0.00000E+00
 
    0.63760E+05         0.32783E+05         0.00000E+00
    0.32783E+05         0.67337E+04         0.00000E+00
    0.00000E+00         0.00000E+00         0.00000E+00
 
    0.62522E+05         0.34276E+05         0.00000E+00
    0.34276E+05         0.75139E+04         0.00000E+00
    0.00000E+00         0.00000E+00         0.00000E+00
 
    0.61213E+05         0.35738E+05         0.00000E+00
    0.35738E+05         0.83281E+04         0.00000E+00
    0.00000E+00         0.00000E+00         0.00000E+00
 
    0.59835E+05         0.37168E+05         0.00000E+00
    0.37168E+05         0.91755E+04         0.00000E+00
    0.00000E+00         0.00000E+00         0.00000E+00
 
    0.58388E+05         0.38564E+05         0.00000E+00
    0.38564E+05         0.10055E+05         0.00000E+00
    0.00000E+00         0.00000E+00         0.00000E+00
 
    0.56873E+05         0.39926E+05         0.00000E+00
    0.39926E+05         0.10967E+05         0.00000E+00
    0.00000E+00         0.00000E+00         0.00000E+00
 
    0.55293E+05         0.41251E+05         0.00000E+00
    0.41251E+05         0.11909E+05         0.00000E+00
    0.00000E+00         0.00000E+00         0.00000E+00
 
    0.53647E+05         0.42538E+05         0.00000E+00
    0.42538E+05         0.12881E+05         0.00000E+00
    0.00000E+00         0.00000E+00         0.00000E+00
 
    0.51938E+05         0.43786E+05         0.00000E+00
    0.43786E+05         0.13882E+05         0.00000E+00
    0.00000E+00         0.00000E+00         0.00000E+00
 
    0.50167E+05         0.44994E+05         0.00000E+00
    0.44994E+05         0.14911E+05         0.00000E+00
    0.00000E+00         0.00000E+00         0.00000E+00
 
    0.48334E+05         0.46159E+05         0.00000E+00
    0.46159E+05         0.15967E+05         0.00000E+00
    0.00000E+00         0.00000E+00         0.00000E+00
 
    0.46442E+05         0.47281E+05         0.00000E+00
    0.47281E+05         0.17050E+05         0.00000E+00
    0.00000E+00         0.00000E+00         0.00000E+00
 
    0.44492E+05         0.48359E+05         0.00000E+00
    0.48359E+05         0.18158E+05         0.00000E+00
    0.00000E+00         0.00000E+00         0.00000E+00
 
    0.42486E+05         0.49390E+05         0.00000E+00
    0.49390E+05         0.19289E+05         0.00000E+00
    0.00000E+00         0.00000E+00         0.00000E+00
 
    0.40425E+05         0.50375E+05         0.00000E+00
    0.50375E+05         0.20444E+05         0.00000E+00
    0.00000E+00         0.00000E+00         0.00000E+00
 
    0.38310E+05         0.51311E+05         0.00000E+00
    0.51311E+05         0.21621E+05         0.00000E+00
    0.00000E+00         0.00000E+00         0.00000E+00
 
    0.36143E+05         0.52199E+05         0.00000E+00
    0.52199E+05         0.22819E+05         0.00000E+00
    0.00000E+00         0.00000E+00         0.00000E+00
 
    0.33927E+05         0.53035E+05         0.00000E+00
    0.53035E+05         0.24036E+05         0.00000E+00
    0.00000E+00         0.00000E+00         0.00000E+00
 
    0.31662E+05         0.53820E+05         0.00000E+00
    0.53820E+05         0.25272E+05         0.00000E+00
    0.00000E+00         0.00000E+00         0.00000E+00
 
    0.29350E+05         0.54553E+05         0.00000E+00
    0.54553E+05         0.26525E+05         0.00000E+00
    0.00000E+00         0.00000E+00         0.00000E+00
 
    0.26993E+05         0.55232E+05         0.00000E+00
    0.55232E+05         0.27795E+05         0.00000E+00
    0.00000E+00         0.00000E+00         0.00000E+00
 
    0.24593E+05         0.55857E+05         0.00000E+00
    0.55857E+05         0.29080E+05         0.00000E+00
    0.00000E+00         0.00000E+00         0.00000E+00
 
    0.22152E+05         0.56426E+05         0.00000E+00
    0.56426E+05         0.30379E+05         0.00000E+00
    0.00000E+00         0.00000E+00         0.00000E+00
 
    0.19671E+05         0.56939E+05         0.00000E+00
    0.56939E+05         0.31690E+05         0.00000E+00
    0.00000E+00         0.00000E+00         0.00000E+00
 
    0.17152E+05         0.57395E+05         0.00000E+00
    0.57395E+05         0.33012E+05         0.00000E+00
    0.00000E+00         0.00000E+00         0.00000E+00
 
    0.14598E+05         0.57793E+05         0.00000E+00
    0.57793E+05         0.34345E+05         0.00000E+00
    0.00000E+00         0.00000E+00         0.00000E+00
 
    0.12010E+05         0.58132E+05         0.00000E+00
    0.58132E+05         0.35686E+05         0.00000E+00
    0.00000E+00         0.00000E+00         0.00000E+00
 
    0.93899E+04         0.58412E+05         0.00000E+00
    0.58412E+05         0.37035E+05         0.00000E+00
    0.00000E+00         0.00000E+00         0.00000E+00
 
    0.67399E+04         0.58632E+05         0.00000E+00
    0.58632E+05         0.38390E+05         0.00000E+00
    0.00000E+00         0.00000E+00         0.00000E+00
 
    0.40620E+04         0.58792E+05         0.00000E+00
    0.58792E+05         0.39750E+05         0.00000E+00
    0.00000E+00         0.00000E+00         0.00000E+00
 
    0.13582E+04         0.58890E+05         0.00000E+00
    0.58890E+05         0.41113E+05         0.00000E+00
    0.00000E+00         0.00000E+00         0.00000E+00
 
    0.81854E+05         0.97582E+03         0.00000E+00
    0.97582E+03        -0.11070E+04         0.00000E+00
    0.00000E+00         0.00000E+00         0.00000E+00
 
    0.82113E+05         0.29424E+04         0.00000E+00
    0.29424E+04        -0.10608E+04         0.00000E+00
    0.00000E+00         0.00000E+00         0.00000E+00
 
    0.82281E+05         0.49117E+04         0.00000E+00
    0.49117E+04        -0.96819E+03         0.00000E+00
    0.00000E+00         0.00000E+00         0.00000E+00
 
    0.82359E+05         0.68816E+04         0.00000E+00
    0.68816E+04        -0.82936E+03         0.00000E+00
    0.00000E+00         0.00000E+00         0.00000E+00
 
    0.82346E+05         0.88499E+04         0.00000E+00
    0.88499E+04        -0.64436E+03         0.00000E+00
    0.00000E+00         0.00000E+00         0.00000E+00
 
    0.82242E+05         0.10815E+05         0.00000E+00
    0.10815E+05        -0.41335E+03         0.00000E+00
    0.00000E+00         0.00000E+00         0.00000E+00
 
    0.82048E+05         0.12774E+05         0.00000E+00
    0.12774E+05        -0.13650E+03         0.00000E+00
    0.00000E+00         0.00000E+00         0.00000E+00
 
    0.81765E+05         0.14726E+05         0.00000E+00
    0.14726E+05         0.18595E+03         0.00000E+00
    0.00000E+00         0.00000E+00         0.00000E+00
 
    0.81391E+05         0.16667E+05         0.00000E+00
    0.16667E+05         0.55372E+03         0.00000E+00
    0.00000E+00         0.00000E+00         0.00000E+00
 
    0.80929E+05         0.18598E+05         0.00000E+00
    0.18598E+05         0.96649E+03         0.00000E+00
    0.00000E+00         0.00000E+00         0.00000E+00
 
    0.80378E+05         0.20514E+05         0.00000E+00
    0.20514E+05         0.14239E+04         0.00000E+00
    0.00000E+00         0.00000E+00         0.00000E+00
 
    0.79739E+05         0.22415E+05         0.00000E+00
    0.22415E+05         0.19255E+04         0.00000E+00
    0.00000E+00         0.00000E+00         0.00000E+00
 
    0.79012E+05         0.24298E+05         0.00000E+00
    0.24298E+05         0.24710E+04         0.00000E+00
    0.00000E+00         0.00000E+00         0.00000E+00
 
    0.78199E+05         0.26161E+05         0.00000E+00
    0.26161E+05         0.30597E+04         0.00000E+00
    0.00000E+00         0.00000E+00         0.00000E+00
 
    0.77300E+05         0.28003E+05         0.00000E+00
    0.28003E+05         0.36912E+04         0.00000E+00
    0.00000E+00         0.00000E+00         0.00000E+00
 
    0.76316E+05         0.29822E+05         0.00000E+00
    0.29822E+05         0.43649E+04         0.00000E+00
    0.00000E+00         0.00000E+00         0.00000E+00
 
    0.75247E+05         0.31615E+05         0.00000E+00
    0.31615E+05         0.50801E+04         0.00000E+00
    0.00000E+00         0.00000E+00         0.00000E+00
 
    0.74096E+05         0.33382E+05         0.00000E+00
    0.33382E+05         0.58363E+04         0.00000E+00
    0.00000E+00         0.00000E+00         0.00000E+00
 
    0.72862E+05         0.35119E+05         0.00000E+00
    0.35119E+05         0.66327E+04         0.00000E+00
    0.00000E+00         0.00000E+00         0.00000E+00
 
    0.71546E+05         0.36825E+05         0.00000E+00
    0.36825E+05         0.74686E+04         0.00000E+00
    0.00000E+00         0.00000E+00         0.00000E+00
 
    0.70151E+05         0.38499E+05         0.00000E+00
    0.38499E+05         0.83432E+04         0.00000E+00
    0.00000E+00         0.00000E+00         0.00000E+00
 
    0.68676E+05         0.40139E+05         0.00000E+00
    0.40139E+05         0.92559E+04         0.00000E+00
    0.00000E+00         0.00000E+00         0.00000E+00
 
    0.67124E+05         0.41742E+05         0.00000E+00
    0.41742E+05         0.10206E+05         0.00000E+00
    0.00000E+00         0.00000E+00         0.00000E+00
 
    0.65496E+05         0.43308E+05         0.00000E+00
    0.43308E+05         0.11192E+05         0.00000E+00
    0.00000E+00         0.00000E+00         0.00000E+00
 
    0.63792E+05         0.44835E+05         0.00000E+00
    0.44835E+05         0.12213E+05         0.00000E+00
    0.00000E+00         0.00000E+00         0.00000E+00
 
    0.62014E+05         0.46321E+05         0.00000E+00
    0.46321E+05         0.13268E+05         0.00000E+00
    0.00000E+00         0.00000E+00         0.00000E+00
 
    0.60164E+05         0.47764E+05         0.00000E+00
    0.47764E+05         0.14358E+05         0.00000E+00
    0.00000E+00         0.00000E+00         0.00000E+00
 
    0.58243E+05         0.49163E+05         0.00000E+00
    0.49163E+05         0.15479E+05         0.00000E+00
    0.00000E+00         0.00000E+00         0.00000E+00
 
    0.56252E+05         0.50516E+05         0.00000E+00
    0.50516E+05         0.16632E+05         0.00000E+00
    0.00000E+00         0.00000E+00         0.00000E+00
 
    0.54194E+05         0.51822E+05         0.00000E+00
    0.51822E+05         0.17815E+05         0.00000E+00
    0.00000E+00         0.00000E+00         0.00000E+00
 
    0.52069E+05         0.53080E+05         0.00000E+00
    0.53080E+05         0.19028E+05         0.00000E+00
    0.00000E+00         0.00000E+00         0.00000E+00
 
    0.49880E+05         0.54288E+05         0.00000E+00
    0.54288E+05         0.20268E+05         0.00000E+00
    0.00000E+00         0.00000E+00         0.00000E+00
 
    0.47628E+05         0.55445E+05         0.00000E+00
    0.55445E+05         0.21536E+05         0.00000E+00
    0.00000E+00         0.00000E+00         0.00000E+00
 
    0.45314E+05         0.56548E+05         0.00000E+00
    0.56548E+05         0.22829E+05         0.00000E+00
    0.00000E+00         0.00000E+00         0.00000E+00
 
    0.42941E+05         0.57598E+05         0.00000E+00
    0.57598E+05         0.24147E+05         0.00000E+00
    0.00000E+00         0.00000E+00         0.00000E+00
 
    0.40510E+05         0.58593E+05         0.00000E+00
    0.58593E+05         0.25488E+05         0.00000E+00
    0.00000E+00         0.00000E+00         0.00000E+00
 
    0.38024E+05         0.59531E+05         0.00000E+00
    0.59531E+05         0.26851E+05         0.00000E+00
    0.00000E+00         0.00000E+00         0.00000E+00
 
    0.35484E+05         0.60412E+05         0.00000E+00
    0.60412E+05         0.28235E+05         0.00000E+00
    0.00000E+00         0.00000E+00         0.00000E+00
 
    0.32891E+05         0.61233E+05         0.00000E+00
    0.61233E+05         0.29639E+05         0.00000E+00
    0.00000E+00         0.00000E+00         0.00000E+00
 
    0.30249E+05         0.61996E+05         0.00000E+00
    0.61996E+05         0.31061E+05         0.00000E+00
    0.00000E+00         0.00000E+00         0.00000E+00
 
    0.27558E+05         0.62697E+05         0.00000E+00
    0.62697E+05         0.32500E+05         0.00000E+00
    0.00000E+00         0.00000E+00         0.00000E+00
 
    0.24821E+05         0.63336E+05         0.00000E+00
    0.63336E+05         0.33954E+05         0.00000E+00
    0.00000E+00         0.00000E+00         0.00000E+00
 
    0.22041E+05         0.63912E+05         0.00000E+00
    0.63912E+05         0.35422E+05         0.00000E+00
    0.00000E+00         0.00000E+00         0.00000E+00
 
    0.19218E+05         0.64425E+05         0.00000E+00
    0.64425E+05         0.36903E+05         0.00000E+00
    0.00000E+00         0.00000E+00         0.00000E+00
 
    0.16356E+05         0.64873E+05         0.00000E+00
    0.64873E+05         0.38395E+05         0.00000E+00
    0.00000E+00         0.00000E+00         0.00000E+00
 
    0.13455E+05         0.65255E+05         0.00000E+00
    0.65255E+05         0.39898E+05         0.00000E+00
    0.00000E+00         0.00000E+00         0.00000E+00
 
    0.10520E+05         0.65571E+05         0.00000E+00
    0.65571E+05         0.41408E+05         0.00000E+00
    0.00000E+00         0.00000E+00         0.00000E+00
 
    0.75508E+04         0.65820E+05         0.00000E+00
    0.65820E+05         0.42926E+05         0.00000E+00
    0.00000E+00         0.00000E+00         0.00000E+00
 
    0.45506E+04         0.66002E+05         0.00000E+00
    0.66002E+05         0.44449E+05         0.00000E+00
    0.00000E+00         0.00000E+00         0.00000E+00
 
    0.15215E+04         0.66115E+05         0.00000E+00
    0.66115E+05         0.45976E+05         0.00000E+00
    0.00000E+00         0.00000E+00         0.00000E+00
 
    0.92038E+05         0.10984E+04         0.00000E+00
    0.10984E+04        -0.13469E+04         0.00000E+00
    0.00000E+00         0.00000E+00         0.00000E+00
 
    0.92315E+05         0.33107E+04         0.00000E+00
    0.33107E+04        -0.12948E+04         0.00000E+00
    0.00000E+00         0.00000E+00         0.00000E+00
 
    0.92491E+05         0.55254E+04         0.00000E+00
    0.55254E+04        -0.11908E+04         0.00000E+00
    0.00000E+00         0.00000E+00         0.00000E+00
 
    0.92565E+05         0.77402E+04         0.00000E+00
    0.77402E+04        -0.10348E+04         0.00000E+00
    0.00000E+00         0.00000E+00         0.00000E+00
 
    0.92538E+05         0.99530E+04         0.00000E+00
    0.99530E+04        -0.82706E+03         0.00000E+00
    0.00000E+00         0.00000E+00         0.00000E+00
 
    0.92409E+05         0.12161E+05         0.00000E+00
    0.12161E+05        -0.56763E+03         0.00000E+00
    0.00000E+00         0.00000E+00         0.00000E+00
 
    0.92179E+05         0.14363E+05         0.00000E+00
    0.14363E+05        -0.25679E+03         0.00000E+00
    0.00000E+00         0.00000E+00         0.00000E+00
 
    0.91848E+05         0.16555E+05         0.00000E+00
    0.16555E+05         0.10519E+03         0.00000E+00
    0.00000E+00         0.00000E+00         0.00000E+00
 
    0.91417E+05         0.18736E+05         0.00000E+00
    0.18736E+05         0.51797E+03         0.00000E+00
    0.00000E+00         0.00000E+00         0.00000E+00
 
    0.90886E+05         0.20904E+05         0.00000E+00
    0.20904E+05         0.98120E+03         0.00000E+00
    0.00000E+00         0.00000E+00         0.00000E+00
 
    0.90256E+05         0.23056E+05         0.00000E+00
    0.23056E+05         0.14944E+04         0.00000E+00
    0.00000E+00         0.00000E+00         0.00000E+00
 
    0.89528E+05         0.25189E+05         0.00000E+00
    0.25189E+05         0.20572E+04         0.00000E+00
    0.00000E+00         0.00000E+00         0.00000E+00
 
    0.88702E+05         0.27303E+05         0.00000E+00
    0.27303E+05         0.26690E+04         0.00000E+00
    0.00000E+00         0.00000E+00         0.00000E+00
 
    0.87779E+05         0.29394E+05         0.00000E+00
    0.29394E+05         0.33293E+04         0.00000E+00
    0.00000E+00         0.00000E+00         0.00000E+00
 
    0.86760E+05         0.31461E+05         0.00000E+00
    0.31461E+05         0.40374E+04         0.00000E+00
    0.00000E+00         0.00000E+00         0.00000E+00
 
    0.85646E+05         0.33502E+05         0.00000E+00
    0.33502E+05         0.47928E+04         0.00000E+00
    0.00000E+00         0.00000E+00         0.00000E+00
 
    0.84438E+05         0.35513E+05         0.00000E+00
    0.35513E+05         0.55946E+04         0.00000E+00
    0.00000E+00         0.00000E+00         0.00000E+00
 
    0.83137E+05         0.37494E+05         0.00000E+00
    0.37494E+05         0.64423E+04         0.00000E+00
    0.00000E+00         0.00000E+00         0.00000E+00
 
    0.81744E+05         0.39442E+05         0.00000E+00
    0.39442E+05         0.73349E+04         0.00000E+00
    0.00000E+00         0.00000E+00         0.00000E+00
 
    0.80260E+05         0.41356E+05         0.00000E+00
    0.41356E+05         0.82717E+04         0.00000E+00
    0.00000E+00         0.00000E+00         0.00000E+00
 
    0.78687E+05         0.43232E+05         0.00000E+00
    0.43232E+05         0.92518E+04         0.00000E+00
    0.00000E+00         0.00000E+00         0.00000E+00
 
    0.77026E+05         0.45071E+05         0.00000E+00
    0.45071E+05         0.10274E+05         0.00000E+00
    0.00000E+00         0.00000E+00         0.00000E+00
 
    0.75278E+05         0.46868E+05         0.00000E+00
    0.46868E+05         0.11338E+05         0.00000E+00
    0.00000E+00         0.00000E+00         0.00000E+00
 
    0.73445E+05         0.48623E+05         0.00000E+00
    0.48623E+05         0.12443E+05         0.00000E+00
    0.00000E+00         0.00000E+00         0.00000E+00
 
    0.71528E+05         0.50334E+05         0.00000E+00
    0.50334E+05         0.13587E+05         0.00000E+00
    0.00000E+00         0.00000E+00         0.00000E+00
 
    0.69529E+05         0.51999E+05         0.00000E+00
    0.51999E+05         0.14769E+05         0.00000E+00
    0.00000E+00         0.00000E+00         0.00000E+00
 
    0.67449E+05         0.53617E+05         0.00000E+00
    0.53617E+05         0.15989E+05         0.00000E+00
    0.00000E+00         0.00000E+00         0.00000E+00
 
    0.65291E+05         0.55184E+05         0.00000E+00
    0.55184E+05         0.17245E+05         0.00000E+00
    0.00000E+00         0.00000E+00         0.00000E+00
 
    0.63054E+05         0.56701E+05         0.00000E+00
    0.56701E+05         0.18535E+05         0.00000E+00
    0.00000E+00         0.00000E+00         0.00000E+00
 
    0.60743E+05         0.58165E+05         0.00000E+00
    0.58165E+05         0.19860E+05         0.00000E+00
    0.00000E+00         0.00000E+00         0.00000E+00
 
    0.58357E+05         0.59574E+05         0.00000E+00
    0.59574E+05         0.21218E+05         0.00000E+00
    0.00000E+00         0.00000E+00         0.00000E+00
 
    0.55899E+05         0.60927E+05         0.00000E+00
    0.60927E+05         0.22606E+05         0.00000E+00
    0.00000E+00         0.00000E+00         0.00000E+00
 
    0.53372E+05         0.62223E+05         0.00000E+00
    0.62223E+05         0.24025E+05         0.00000E+00
    0.00000E+00         0.00000E+00         0.00000E+00
 
    0.50776E+05         0.63460E+05         0.00000E+00
    0.63460E+05         0.25473E+05         0.00000E+00
    0.00000E+00         0.00000E+00         0.00000E+00
 
    0.48114E+05         0.64637E+05         0.00000E+00
    0.64637E+05         0.26948E+05         0.00000E+00
    0.00000E+00         0.00000E+00         0.00000E+00
 
    0.45388E+05         0.65752E+05         0.00000E+00
    0.65752E+05         0.28450E+05         0.00000E+00
    0.00000E+00         0.00000E+00         0.00000E+00
 
    0.42600E+05         0.66803E+05         0.00000E+00
    0.66803E+05         0.29976E+05         0.00000E+00
    0.00000E+00         0.00000E+00         0.00000E+00
 
    0.39751E+05         0.67791E+05         0.00000E+00
    0.67791E+05         0.31525E+05         0.00000E+00
    0.00000E+00         0.00000E+00         0.00000E+00
 
    0.36845E+05         0.68712E+05         0.00000E+00
    0.68712E+05         0.33096E+05         0.00000E+00
    0.00000E+00         0.00000E+00         0.00000E+00
 
    0.33884E+05         0.69567E+05         0.00000E+00
    0.69567E+05         0.34687E+05         0.00000E+00
    0.00000E+00         0.00000E+00         0.00000E+00
 
    0.30868E+05         0.70354E+05         0.00000E+00
    0.70354E+05         0.36298E+05         0.00000E+00
    0.00000E+00         0.00000E+00         0.00000E+00
 
    0.27802E+05         0.71072E+05         0.00000E+00
    0.71072E+05         0.37925E+05         0.00000E+00
    0.00000E+00         0.00000E+00         0.00000E+00
 
    0.24686E+05         0.71719E+05         0.00000E+00
    0.71719E+05         0.39569E+05         0.00000E+00
    0.00000E+00         0.00000E+00         0.00000E+00
 
    0.21524E+05         0.72295E+05         0.00000E+00
    0.72295E+05         0.41226E+05         0.00000E+00
    0.00000E+00         0.00000E+00         0.00000E+00
 
    0.18317E+05         0.72799E+05         0.00000E+00
    0.72799E+05         0.42897E+05         0.00000E+00
    0.00000E+00         0.00000E+00         0.00000E+00
 
    0.15069E+05         0.73230E+05         0.00000E+00
    0.73230E+05         0.44578E+05         0.00000E+00
    0.00000E+00         0.00000E+00         0.00000E+00
 
    0.11781E+05         0.73587E+05         0.00000E+00
    0.73587E+05         0.46269E+05         0.00000E+00
    0.00000E+00         0.00000E+00         0.00000E+00
 
    0.84557E+04         0.73870E+05         0.00000E+00
    0.73870E+05         0.47968E+05         0.00000E+00
    0.00000E+00         0.00000E+00         0.00000E+00
 
    0.50958E+04         0.74076E+05         0.00000E+00
    0.74076E+05         0.49673E+05         0.00000E+00
    0.00000E+00         0.00000E+00         0.00000E+00
 
    0.17038E+04         0.74207E+05         0.00000E+00
    0.74207E+05         0.51383E+05         0.00000E+00
    0.00000E+00         0.00000E+00         0.00000E+00
 
    0.10347E+06         0.12363E+04         0.00000E+00
    0.12363E+04        -0.16379E+04         0.00000E+00
    0.00000E+00         0.00000E+00         0.00000E+00
 
    0.10377E+06         0.37245E+04         0.00000E+00
    0.37245E+04        -0.15794E+04         0.00000E+00
    0.00000E+00         0.00000E+00         0.00000E+00
 
    0.10395E+06         0.62148E+04         0.00000E+00
    0.62148E+04        -0.14626E+04         0.00000E+00
    0.00000E+00         0.00000E+00         0.00000E+00
 
    0.10402E+06         0.87047E+04         0.00000E+00
    0.87047E+04        -0.12874E+04         0.00000E+00
    0.00000E+00         0.00000E+00         0.00000E+00
 
    0.10397E+06         0.11192E+05         0.00000E+00
    0.11192E+05        -0.10541E+04         0.00000E+00
    0.00000E+00         0.00000E+00         0.00000E+00
 
    0.10381E+06         0.13673E+05         0.00000E+00
    0.13673E+05        -0.76284E+03         0.00000E+00
    0.00000E+00         0.00000E+00         0.00000E+00
 
    0.10354E+06         0.16146E+05         0.00000E+00
    0.16146E+05        -0.41394E+03         0.00000E+00
    0.00000E+00         0.00000E+00         0.00000E+00
 
    0.10315E+06         0.18609E+05         0.00000E+00
    0.18609E+05        -0.77147E+01         0.00000E+00
    0.00000E+00         0.00000E+00         0.00000E+00
 
    0.10265E+06         0.21058E+05         0.00000E+00
    0.21058E+05         0.45545E+03         0.00000E+00
    0.00000E+00         0.00000E+00         0.00000E+00
 
    0.10204E+06         0.23491E+05         0.00000E+00
    0.23491E+05         0.97511E+03         0.00000E+00
    0.00000E+00         0.00000E+00         0.00000E+00
 
    0.10132E+06         0.25907E+05         0.00000E+00
    0.25907E+05         0.15508E+04         0.00000E+00
    0.00000E+00         0.00000E+00         0.00000E+00
 
    0.10049E+06         0.28301E+05         0.00000E+00
    0.28301E+05         0.21819E+04         0.00000E+00
    0.00000E+00         0.00000E+00         0.00000E+00
 
    0.99553E+05         0.30673E+05         0.00000E+00
    0.30673E+05         0.28679E+04         0.00000E+00
    0.00000E+00         0.00000E+00         0.00000E+00
 
    0.98505E+05         0.33019E+05         0.00000E+00
    0.33019E+05         0.36082E+04         0.00000E+00
    0.00000E+00         0.00000E+00         0.00000E+00
 
    0.97350E+05         0.35338E+05         0.00000E+00
    0.35338E+05         0.44020E+04         0.00000E+00
    0.00000E+00         0.00000E+00         0.00000E+00
 
    0.96088E+05         0.37626E+05         0.00000E+00
    0.37626E+05         0.52485E+04         0.00000E+00
    0.00000E+00         0.00000E+00         0.00000E+00
 
    0.94722E+05         0.39882E+05         0.00000E+00
    0.39882E+05         0.61471E+04         0.00000E+00
    0.00000E+00         0.00000E+00         0.00000E+00
 
    0.93252E+05         0.42103E+05         0.00000E+00
    0.42103E+05         0.70969E+04         0.00000E+00
    0.00000E+00         0.00000E+00         0.00000E+00
 
    0.91680E+05         0.44287E+05         0.00000E+00
    0.44287E+05         0.80969E+04         0.00000E+00
    0.00000E+00         0.00000E+00         0.00000E+00
 
    0.90006E+05         0.46432E+05         0.00000E+00
    0.46432E+05         0.91463E+04         0.00000E+00
    0.00000E+00         0.00000E+00         0.00000E+00
 
    0.88233E+05         0.48535E+05         0.00000E+00
    0.48535E+05         0.10244E+05         0.00000E+00
    0.00000E+00         0.00000E+00         0.00000E+00
 
    0.86362E+05         0.50595E+05         0.00000E+00
    0.50595E+05         0.11389E+05         0.00000E+00
    0.00000E+00         0.00000E+00         0.00000E+00
 
    0.84394E+05         0.52609E+05         0.00000E+00
    0.52609E+05         0.12581E+05         0.00000E+00
    0.00000E+00         0.00000E+00         0.00000E+00
 
    0.82331E+05         0.54576E+05         0.00000E+00
    0.54576E+05         0.13817E+05         0.00000E+00
    0.00000E+00         0.00000E+00         0.00000E+00
 
    0.80175E+05         0.56493E+05         0.00000E+00
    0.56493E+05         0.15098E+05         0.00000E+00
    0.00000E+00         0.00000E+00         0.00000E+00
 
    0.77927E+05         0.58358E+05         0.00000E+00
    0.58358E+05         0.16422E+05         0.00000E+00
    0.00000E+00         0.00000E+00         0.00000E+00
 
    0.75590E+05         0.60169E+05         0.00000E+00
    0.60169E+05         0.17787E+05         0.00000E+00
    0.00000E+00         0.00000E+00         0.00000E+00
 
    0.73164E+05         0.61926E+05         0.00000E+00
    0.61926E+05         0.19193E+05         0.00000E+00
    0.00000E+00         0.00000E+00         0.00000E+00
 
    0.70653E+05         0.63624E+05         0.00000E+00
    0.63624E+05         0.20637E+05         0.00000E+00
    0.00000E+00         0.00000E+00         0.00000E+00
 
    0.68057E+05         0.65264E+05         0.00000E+00
    0.65264E+05         0.22120E+05         0.00000E+00
    0.00000E+00         0.00000E+00         0.00000E+00
 
    0.65379E+05         0.66842E+05         0.00000E+00
    0.66842E+05         0.23639E+05         0.00000E+00
    0.00000E+00         0.00000E+00         0.00000E+00
 
    0.62621E+05         0.68358E+05         0.00000E+00
    0.68358E+05         0.25193E+05         0.00000E+00
    0.00000E+00         0.00000E+00         0.00000E+00
 
    0.59785E+05         0.69810E+05         0.00000E+00
    0.69810E+05         0.26781E+05         0.00000E+00
    0.00000E+00         0.00000E+00         0.00000E+00
 
    0.56874E+05         0.71196E+05         0.00000E+00
    0.71196E+05         0.28401E+05         0.00000E+00
    0.00000E+00         0.00000E+00         0.00000E+00
 
    0.53888E+05         0.72514E+05         0.00000E+00
    0.72514E+05         0.30051E+05         0.00000E+00
    0.00000E+00         0.00000E+00         0.00000E+00
 
    0.50832E+05         0.73763E+05         0.00000E+00
    0.73763E+05         0.31731E+05         0.00000E+00
    0.00000E+00         0.00000E+00         0.00000E+00
 
    0.47706E+05         0.74942E+05         0.00000E+00
    0.74942E+05         0.33438E+05         0.00000E+00
    0.00000E+00         0.00000E+00         0.00000E+00
 
    0.44514E+05         0.76048E+05         0.00000E+00
    0.76048E+05         0.35171E+05         0.00000E+00
    0.00000E+00         0.00000E+00         0.00000E+00
 
    0.41258E+05         0.77081E+05         0.00000E+00
    0.77081E+05         0.36929E+05         0.00000E+00
    0.00000E+00         0.00000E+00         0.00000E+00
 
    0.37939E+05         0.78040E+05         0.00000E+00
    0.78040E+05         0.38709E+05         0.00000E+00
    0.00000E+00         0.00000E+00         0.00000E+00
 
    0.34561E+05         0.78923E+05         0.00000E+00
    0.78923E+05         0.40511E+05         0.00000E+00
    0.00000E+00         0.00000E+00         0.00000E+00
 
    0.31126E+05         0.79728E+05         0.00000E+00
    0.79728E+05         0.42331E+05         0.00000E+00
    0.00000E+00         0.00000E+00         0.00000E+00
 
    0.27637E+05         0.80455E+05         0.00000E+00
    0.80455E+05         0.44170E+05         0.00000E+00
    0.00000E+00         0.00000E+00         0.00000E+00
 
    0.24096E+05         0.81103E+05         0.00000E+00
    0.81103E+05         0.46025E+05         0.00000E+00
    0.00000E+00         0.00000E+00         0.00000E+00
 
    0.20505E+05         0.81670E+05         0.00000E+00
    0.81670E+05         0.47894E+05         0.00000E+00
    0.00000E+00         0.00000E+00         0.00000E+00
 
    0.16868E+05         0.82156E+05         0.00000E+00
    0.82156E+05         0.49775E+05         0.00000E+00
    0.00000E+00         0.00000E+00         0.00000E+00
 
    0.13187E+05         0.82559E+05         0.00000E+00
    0.82559E+05         0.51667E+05         0.00000E+00
    0.00000E+00         0.00000E+00         0.00000E+00
 
    0.94648E+04         0.82879E+05         0.00000E+00
    0.82879E+05         0.53568E+05         0.00000E+00
    0.00000E+00         0.00000E+00         0.00000E+00
 
    0.57039E+04         0.83114E+05         0.00000E+00
    0.83114E+05         0.55476E+05         0.00000E+00
    0.00000E+00         0.00000E+00         0.00000E+00
 
    0.19070E+04         0.83265E+05         0.00000E+00
    0.83265E+05         0.57390E+05         0.00000E+00
    0.00000E+00         0.00000E+00         0.00000E+00
 
    0.11631E+06         0.13913E+04         0.00000E+00
    0.13913E+04        -0.19910E+04         0.00000E+00
    0.00000E+00         0.00000E+00         0.00000E+00
 
    0.11662E+06         0.41894E+04         0.00000E+00
    0.41894E+04        -0.19253E+04         0.00000E+00
    0.00000E+00         0.00000E+00         0.00000E+00
 
    0.11681E+06         0.69891E+04         0.00000E+00
    0.69891E+04        -0.17940E+04         0.00000E+00
    0.00000E+00         0.00000E+00         0.00000E+00
 
    0.11686E+06         0.97876E+04         0.00000E+00
    0.97876E+04        -0.15973E+04         0.00000E+00
    0.00000E+00         0.00000E+00         0.00000E+00
 
    0.11679E+06         0.12582E+05         0.00000E+00
    0.12582E+05        -0.13354E+04         0.00000E+00
    0.00000E+00         0.00000E+00         0.00000E+00
 
    0.11659E+06         0.15370E+05         0.00000E+00
    0.15370E+05        -0.10086E+04         0.00000E+00
    0.00000E+00         0.00000E+00         0.00000E+00
 
    0.11627E+06         0.18147E+05         0.00000E+00
    0.18147E+05        -0.61708E+03         0.00000E+00
    0.00000E+00         0.00000E+00         0.00000E+00
 
    0.11582E+06         0.20912E+05         0.00000E+00
    0.20912E+05        -0.16136E+03         0.00000E+00
    0.00000E+00         0.00000E+00         0.00000E+00
 
    0.11524E+06         0.23662E+05         0.00000E+00
    0.23662E+05         0.35813E+03         0.00000E+00
    0.00000E+00         0.00000E+00         0.00000E+00
 
    0.11454E+06         0.26393E+05         0.00000E+00
    0.26393E+05         0.94089E+03         0.00000E+00
    0.00000E+00         0.00000E+00         0.00000E+00
 
    0.11372E+06         0.29104E+05         0.00000E+00
    0.29104E+05         0.15863E+04         0.00000E+00
    0.00000E+00         0.00000E+00         0.00000E+00
 
    0.11277E+06         0.31791E+05         0.00000E+00
    0.31791E+05         0.22939E+04         0.00000E+00
    0.00000E+00         0.00000E+00         0.00000E+00
 
    0.11170E+06         0.34451E+05         0.00000E+00
    0.34451E+05         0.30628E+04         0.00000E+00
    0.00000E+00         0.00000E+00         0.00000E+00
 
    0.11051E+06         0.37082E+05         0.00000E+00
    0.37082E+05         0.38923E+04         0.00000E+00
    0.00000E+00         0.00000E+00         0.00000E+00
 
    0.10920E+06         0.39682E+05         0.00000E+00
    0.39682E+05         0.47817E+04         0.00000E+00
    0.00000E+00         0.00000E+00         0.00000E+00
 
    0.10777E+06         0.42247E+05         0.00000E+00
    0.42247E+05         0.57302E+04         0.00000E+00
    0.00000E+00         0.00000E+00         0.00000E+00
 
    0.10623E+06         0.44776E+05         0.00000E+00
    0.44776E+05         0.67367E+04         0.00000E+00
    0.00000E+00         0.00000E+00         0.00000E+00
 
    0.10456E+06         0.47265E+05         0.00000E+00
    0.47265E+05         0.78004E+04         0.00000E+00
    0.00000E+00         0.00000E+00         0.00000E+00
 
    0.10279E+06         0.49713E+05         0.00000E+00
    0.49713E+05         0.89203E+04         0.00000E+00
    0.00000E+00         0.00000E+00         0.00000E+00
 
    0.10090E+06         0.52116E+05         0.00000E+00
    0.52116E+05         0.10095E+05         0.00000E+00
    0.00000E+00         0.00000E+00         0.00000E+00
 
    0.98903E+05         0.54472E+05         0.00000E+00
    0.54472E+05         0.11324E+05         0.00000E+00
    0.00000E+00         0.00000E+00         0.00000E+00
 
    0.96795E+05         0.56780E+05         0.00000E+00
    0.56780E+05         0.12606E+05         0.00000E+00
    0.00000E+00         0.00000E+00         0.00000E+00
 
    0.94579E+05         0.59036E+05         0.00000E+00
    0.59036E+05         0.13940E+05         0.00000E+00
    0.00000E+00         0.00000E+00         0.00000E+00
 
    0.92258E+05         0.61239E+05         0.00000E+00
    0.61239E+05         0.15324E+05         0.00000E+00
    0.00000E+00         0.00000E+00         0.00000E+00
 
    0.89833E+05         0.63385E+05         0.00000E+00
    0.63385E+05         0.16757E+05         0.00000E+00
    0.00000E+00         0.00000E+00         0.00000E+00
 
    0.87306E+05         0.65474E+05         0.00000E+00
    0.65474E+05         0.18238E+05         0.00000E+00
    0.00000E+00         0.00000E+00         0.00000E+00
 
    0.84679E+05         0.67502E+05         0.00000E+00
    0.67502E+05         0.19765E+05         0.00000E+00
    0.00000E+00         0.00000E+00         0.00000E+00
 
    0.81955E+05         0.69469E+05         0.00000E+00
    0.69469E+05         0.21338E+05         0.00000E+00
    0.00000E+00         0.00000E+00         0.00000E+00
 
    0.79134E+05         0.71371E+05         0.00000E+00
    0.71371E+05         0.22954E+05         0.00000E+00
    0.00000E+00         0.00000E+00         0.00000E+00
 
    0.76221E+05         0.73206E+05         0.00000E+00
    0.73206E+05         0.24612E+05         0.00000E+00
    0.00000E+00         0.00000E+00         0.00000E+00
 
    0.73215E+05         0.74974E+05         0.00000E+00
    0.74974E+05         0.26311E+05         0.00000E+00
    0.00000E+00         0.00000E+00         0.00000E+00
 
    0.70122E+05         0.76671E+05         0.00000E+00
    0.76671E+05         0.28050E+05         0.00000E+00
    0.00000E+00         0.00000E+00         0.00000E+00
 
    0.66941E+05         0.78296E+05         0.00000E+00
    0.78296E+05         0.29825E+05         0.00000E+00
    0.00000E+00         0.00000E+00         0.00000E+00
 
    0.63676E+05         0.79848E+05         0.00000E+00
    0.79848E+05         0.31636E+05         0.00000E+00
    0.00000E+00         0.00000E+00         0.00000E+00
 
    0.60330E+05         0.81324E+05         0.00000E+00
    0.81324E+05         0.33482E+05         0.00000E+00
    0.00000E+00         0.00000E+00         0.00000E+00
 
    0.56904E+05         0.82723E+05         0.00000E+00
    0.82723E+05         0.35360E+05         0.00000E+00
    0.00000E+00         0.00000E+00         0.00000E+00
 
    0.53402E+05         0.84043E+05         0.00000E+00
    0.84043E+05         0.37269E+05         0.00000E+00
    0.00000E+00         0.00000E+00         0.00000E+00
 
    0.49825E+05         0.85283E+05         0.00000E+00
    0.85283E+05         0.39207E+05         0.00000E+00
    0.00000E+00         0.00000E+00         0.00000E+00
 
    0.46178E+05         0.86441E+05         0.00000E+00
    0.86441E+05         0.41172E+05         0.00000E+00
    0.00000E+00         0.00000E+00         0.00000E+00
 
    0.42461E+05         0.87516E+05         0.00000E+00
    0.87516E+05         0.43163E+05         0.00000E+00
    0.00000E+00         0.00000E+00         0.00000E+00
 
    0.38679E+05         0.88506E+05         0.00000E+00
    0.88506E+05         0.45177E+05         0.00000E+00
    0.00000E+00         0.00000E+00         0.00000E+00
 
    0.34833E+05         0.89410E+05         0.00000E+00
    0.89410E+05         0.47213E+05         0.00000E+00
    0.00000E+00         0.00000E+00         0.00000E+00
 
    0.30927E+05         0.90227E+05         0.00000E+00
    0.90227E+05         0.49269E+05         0.00000E+00
    0.00000E+00         0.00000E+00         0.00000E+00
 
    0.26963E+05         0.90955E+05         0.00000E+00
    0.90955E+05         0.51343E+05         0.00000E+00
    0.00000E+00         0.00000E+00         0.00000E+00
 
    0.22944E+05         0.91593E+05         0.00000E+00
    0.91593E+05         0.53433E+05         0.00000E+00
    0.00000E+00         0.00000E+00         0.00000E+00
 
    0.18874E+05         0.92140E+05         0.00000E+00
    0.92140E+05         0.55537E+05         0.00000E+00
    0.00000E+00         0.00000E+00         0.00000E+00
 
    0.14755E+05         0.92596E+05         0.00000E+00
    0.92596E+05         0.57653E+05         0.00000E+00
    0.00000E+00         0.00000E+00         0.00000E+00
 
    0.10589E+05         0.92958E+05         0.00000E+00
    0.92958E+05         0.59779E+05         0.00000E+00
    0.00000E+00         0.00000E+00         0.00000E+00
 
    0.63814E+04         0.93227E+05         0.00000E+00
    0.93227E+05         0.61914E+05         0.00000E+00
    0.00000E+00         0.00000E+00         0.00000E+00
 
    0.21335E+04         0.93401E+05         0.00000E+00
    0.93401E+05         0.64054E+05         0.00000E+00
    0.00000E+00         0.00000E+00         0.00000E+00
 
    0.13071E+06         0.15656E+04         0.00000E+00
    0.15656E+04        -0.24190E+04         0.00000E+00
    0.00000E+00         0.00000E+00         0.00000E+00
 
    0.13104E+06         0.47115E+04         0.00000E+00
    0.47115E+04        -0.23452E+04         0.00000E+00
    0.00000E+00         0.00000E+00         0.00000E+00
 
    0.13123E+06         0.78585E+04         0.00000E+00
    0.78585E+04        -0.21979E+04         0.00000E+00
    0.00000E+00         0.00000E+00         0.00000E+00
 
    0.13127E+06         0.11003E+05         0.00000E+00
    0.11003E+05        -0.19771E+04         0.00000E+00
    0.00000E+00         0.00000E+00         0.00000E+00
 
    0.13116E+06         0.14143E+05         0.00000E+00
    0.14143E+05        -0.16832E+04         0.00000E+00
    0.00000E+00         0.00000E+00         0.00000E+00
 
    0.13092E+06         0.17273E+05         0.00000E+00
    0.17273E+05        -0.13165E+04         0.00000E+00
    0.00000E+00         0.00000E+00         0.00000E+00
 
    0.13053E+06         0.20392E+05         0.00000E+00
    0.20392E+05        -0.87741E+03         0.00000E+00
    0.00000E+00         0.00000E+00         0.00000E+00
 
    0.13001E+06         0.23496E+05         0.00000E+00
    0.23496E+05        -0.36636E+03         0.00000E+00
    0.00000E+00         0.00000E+00         0.00000E+00
 
    0.12934E+06         0.26582E+05         0.00000E+00
    0.26582E+05         0.21608E+03         0.00000E+00
    0.00000E+00         0.00000E+00         0.00000E+00
 
    0.12853E+06         0.29647E+05         0.00000E+00
    0.29647E+05         0.86933E+03         0.00000E+00
    0.00000E+00         0.00000E+00         0.00000E+00
 
    0.12759E+06         0.32687E+05         0.00000E+00
    0.32687E+05         0.15927E+04         0.00000E+00
    0.00000E+00         0.00000E+00         0.00000E+00
 
    0.12651E+06         0.35701E+05         0.00000E+00
    0.35701E+05         0.23855E+04         0.00000E+00
    0.00000E+00         0.00000E+00         0.00000E+00
 
    0.12529E+06         0.38684E+05         0.00000E+00
    0.38684E+05         0.32470E+04         0.00000E+00
    0.00000E+00         0.00000E+00         0.00000E+00
 
    0.12394E+06         0.41634E+05         0.00000E+00
    0.41634E+05         0.41762E+04         0.00000E+00
    0.00000E+00         0.00000E+00         0.00000E+00
 
    0.12245E+06         0.44548E+05         0.00000E+00
    0.44548E+05         0.51723E+04         0.00000E+00
    0.00000E+00         0.00000E+00         0.00000E+00
 
    0.12083E+06         0.47423E+05         0.00000E+00
    0.47423E+05         0.62343E+04         0.00000E+00
    0.00000E+00         0.00000E+00         0.00000E+00
 
    0.11908E+06         0.50256E+05         0.00000E+00
    0.50256E+05         0.73612E+04         0.00000E+00
    0.00000E+00         0.00000E+00         0.00000E+00
 
    0.11721E+06         0.53045E+05         0.00000E+00
    0.53045E+05         0.85520E+04         0.00000E+00
    0.00000E+00         0.00000E+00         0.00000E+00
 
    0.11520E+06         0.55787E+05         0.00000E+00
    0.55787E+05         0.98054E+04         0.00000E+00
    0.00000E+00         0.00000E+00         0.00000E+00
 
    0.11307E+06         0.58478E+05         0.00000E+00
    0.58478E+05         0.11120E+05         0.00000E+00
    0.00000E+00         0.00000E+00         0.00000E+00
 
    0.11082E+06         0.61117E+05         0.00000E+00
    0.61117E+05         0.12495E+05         0.00000E+00
    0.00000E+00         0.00000E+00         0.00000E+00
 
    0.10845E+06         0.63701E+05         0.00000E+00
    0.63701E+05         0.13930E+05         0.00000E+00
    0.00000E+00         0.00000E+00         0.00000E+00
 
    0.10595E+06         0.66227E+05         0.00000E+00
    0.66227E+05         0.15421E+05         0.00000E+00
    0.00000E+00         0.00000E+00         0.00000E+00
 
    0.10334E+06         0.68693E+05         0.00000E+00
    0.68693E+05         0.16970E+05         0.00000E+00
    0.00000E+00         0.00000E+00         0.00000E+00
 
    0.10061E+06         0.71096E+05         0.00000E+00
    0.71096E+05         0.18572E+05         0.00000E+00
    0.00000E+00         0.00000E+00         0.00000E+00
 
    0.97773E+05         0.73434E+05         0.00000E+00
    0.73434E+05         0.20229E+05         0.00000E+00
    0.00000E+00         0.00000E+00         0.00000E+00
 
    0.94822E+05         0.75704E+05         0.00000E+00
    0.75704E+05         0.21937E+05         0.00000E+00
    0.00000E+00         0.00000E+00         0.00000E+00
 
    0.91762E+05         0.77905E+05         0.00000E+00
    0.77905E+05         0.23695E+05         0.00000E+00
    0.00000E+00         0.00000E+00         0.00000E+00
 
    0.88596E+05         0.80033E+05         0.00000E+00
    0.80033E+05         0.25502E+05         0.00000E+00
    0.00000E+00         0.00000E+00         0.00000E+00
 
    0.85326E+05         0.82088E+05         0.00000E+00
    0.82088E+05         0.27356E+05         0.00000E+00
    0.00000E+00         0.00000E+00         0.00000E+00
 
    0.81955E+05         0.84065E+05         0.00000E+00
    0.84065E+05         0.29255E+05         0.00000E+00
    0.00000E+00         0.00000E+00         0.00000E+00
 
    0.78485E+05         0.85965E+05         0.00000E+00
    0.85965E+05         0.31198E+05         0.00000E+00
    0.00000E+00         0.00000E+00         0.00000E+00
 
    0.74919E+05         0.87784E+05         0.00000E+00
    0.87784E+05         0.33182E+05         0.00000E+00
    0.00000E+00         0.00000E+00         0.00000E+00
 
    0.71260E+05         0.89521E+05         0.00000E+00
    0.89521E+05         0.35207E+05         0.00000E+00
    0.00000E+00         0.00000E+00         0.00000E+00
 
    0.67510E+05         0.91173E+05         0.00000E+00
    0.91173E+05         0.37270E+05         0.00000E+00
    0.00000E+00         0.00000E+00         0.00000E+00
 
    0.63672E+05         0.92740E+05         0.00000E+00
    0.92740E+05         0.39369E+05         0.00000E+00
    0.00000E+00         0.00000E+00         0.00000E+00
 
    0.59749E+05         0.94218E+05         0.00000E+00
    0.94218E+05         0.41502E+05         0.00000E+00
    0.00000E+00         0.00000E+00         0.00000E+00
 
    0.55744E+05         0.95607E+05         0.00000E+00
    0.95607E+05         0.43667E+05         0.00000E+00
    0.00000E+00         0.00000E+00         0.00000E+00
 
    0.51659E+05         0.96904E+05         0.00000E+00
    0.96904E+05         0.45864E+05         0.00000E+00
    0.00000E+00         0.00000E+00         0.00000E+00
 
    0.47499E+05         0.98109E+05         0.00000E+00
    0.98109E+05         0.48088E+05         0.00000E+00
    0.00000E+00         0.00000E+00         0.00000E+00
 
    0.43265E+05         0.99219E+05         0.00000E+00
    0.99219E+05         0.50339E+05         0.00000E+00
    0.00000E+00         0.00000E+00         0.00000E+00
 
    0.38961E+05         0.10023E+06         0.00000E+00
    0.10023E+06         0.52614E+05         0.00000E+00
    0.00000E+00         0.00000E+00         0.00000E+00
 
    0.34590E+05         0.10115E+06         0.00000E+00
    0.10115E+06         0.54912E+05         0.00000E+00
    0.00000E+00         0.00000E+00         0.00000E+00
 
    0.30155E+05         0.10197E+06         0.00000E+00
    0.10197E+06         0.57230E+05         0.00000E+00
    0.00000E+00         0.00000E+00         0.00000E+00
 
    0.25660E+05         0.10269E+06         0.00000E+00
    0.10269E+06         0.59565E+05         0.00000E+00
    0.00000E+00         0.00000E+00         0.00000E+00
 
    0.21107E+05         0.10330E+06         0.00000E+00
    0.10330E+06         0.61917E+05         0.00000E+00
    0.00000E+00         0.00000E+00         0.00000E+00
 
    0.16500E+05         0.10382E+06         0.00000E+00
    0.10382E+06         0.64282E+05         0.00000E+00
    0.00000E+00         0.00000E+00         0.00000E+00
 
    0.11842E+05         0.10423E+06         0.00000E+00
    0.10423E+06         0.66659E+05         0.00000E+00
    0.00000E+00         0.00000E+00         0.00000E+00
 
    0.71357E+04         0.10454E+06         0.00000E+00
    0.10454E+06         0.69045E+05         0.00000E+00
    0.00000E+00         0.00000E+00         0.00000E+00
 
    0.23857E+04         0.10474E+06         0.00000E+00
    0.10474E+06         0.71438E+05         0.00000E+00
    0.00000E+00         0.00000E+00         0.00000E+00
 
    0.14687E+06         0.17614E+04         0.00000E+00
    0.17614E+04        -0.29377E+04         0.00000E+00
    0.00000E+00         0.00000E+00         0.00000E+00
 
    0.14721E+06         0.52978E+04         0.00000E+00
    0.52978E+04        -0.28549E+04         0.00000E+00
    0.00000E+00         0.00000E+00         0.00000E+00
 
    0.14739E+06         0.88342E+04         0.00000E+00
    0.88342E+04        -0.26895E+04         0.00000E+00
    0.00000E+00         0.00000E+00         0.00000E+00
 
    0.14741E+06         0.12367E+05         0.00000E+00
    0.12367E+05        -0.24418E+04         0.00000E+00
    0.00000E+00         0.00000E+00         0.00000E+00
 
    0.14727E+06         0.15893E+05         0.00000E+00
    0.15893E+05        -0.21121E+04         0.00000E+00
    0.00000E+00         0.00000E+00         0.00000E+00
 
    0.14697E+06         0.19408E+05         0.00000E+00
    0.19408E+05        -0.17009E+04         0.00000E+00
    0.00000E+00         0.00000E+00         0.00000E+00
 
    0.14651E+06         0.22909E+05         0.00000E+00
    0.22909E+05        -0.12086E+04         0.00000E+00
    0.00000E+00         0.00000E+00         0.00000E+00
 
    0.14589E+06         0.26393E+05         0.00000E+00
    0.26393E+05        -0.63577E+03         0.00000E+00
    0.00000E+00         0.00000E+00         0.00000E+00
 
    0.14512E+06         0.29855E+05         0.00000E+00
    0.29855E+05         0.16962E+02         0.00000E+00
    0.00000E+00         0.00000E+00         0.00000E+00
 
    0.14419E+06         0.33292E+05         0.00000E+00
    0.33292E+05         0.74889E+03         0.00000E+00
    0.00000E+00         0.00000E+00         0.00000E+00
 
    0.14311E+06         0.36702E+05         0.00000E+00
    0.36702E+05         0.15592E+04         0.00000E+00
    0.00000E+00         0.00000E+00         0.00000E+00
 
    0.14187E+06         0.40081E+05         0.00000E+00
    0.40081E+05         0.24472E+04         0.00000E+00
    0.00000E+00         0.00000E+00         0.00000E+00
 
    0.14048E+06         0.43425E+05         0.00000E+00
    0.43425E+05         0.34118E+04         0.00000E+00
    0.00000E+00         0.00000E+00         0.00000E+00
 
    0.13895E+06         0.46731E+05         0.00000E+00
    0.46731E+05         0.44522E+04         0.00000E+00
    0.00000E+00         0.00000E+00         0.00000E+00
 
    0.13726E+06         0.49996E+05         0.00000E+00
    0.49996E+05         0.55672E+04         0.00000E+00
    0.00000E+00         0.00000E+00         0.00000E+00
 
    0.13543E+06         0.53217E+05         0.00000E+00
    0.53217E+05         0.67558E+04         0.00000E+00
    0.00000E+00         0.00000E+00         0.00000E+00
 
    0.13345E+06         0.56390E+05         0.00000E+00
    0.56390E+05         0.80168E+04         0.00000E+00
    0.00000E+00         0.00000E+00         0.00000E+00
 
    0.13133E+06         0.59513E+05         0.00000E+00
    0.59513E+05         0.93491E+04         0.00000E+00
    0.00000E+00         0.00000E+00         0.00000E+00
 
    0.12906E+06         0.62583E+05         0.00000E+00
    0.62583E+05         0.10751E+05         0.00000E+00
    0.00000E+00         0.00000E+00         0.00000E+00
 
    0.12666E+06         0.65596E+05         0.00000E+00
    0.65596E+05         0.12222E+05         0.00000E+00
    0.00000E+00         0.00000E+00         0.00000E+00
 
    0.12412E+06         0.68550E+05         0.00000E+00
    0.68550E+05         0.13760E+05         0.00000E+00
    0.00000E+00         0.00000E+00         0.00000E+00
 
    0.12145E+06         0.71442E+05         0.00000E+00
    0.71442E+05         0.15364E+05         0.00000E+00
    0.00000E+00         0.00000E+00         0.00000E+00
 
    0.11864E+06         0.74269E+05         0.00000E+00
    0.74269E+05         0.17031E+05         0.00000E+00
    0.00000E+00         0.00000E+00         0.00000E+00
 
    0.11570E+06         0.77028E+05         0.00000E+00
    0.77028E+05         0.18762E+05         0.00000E+00
    0.00000E+00         0.00000E+00         0.00000E+00
 
    0.11264E+06         0.79717E+05         0.00000E+00
    0.79717E+05         0.20554E+05         0.00000E+00
    0.00000E+00         0.00000E+00         0.00000E+00
 
    0.10945E+06         0.82332E+05         0.00000E+00
    0.82332E+05         0.22405E+05         0.00000E+00
    0.00000E+00         0.00000E+00         0.00000E+00
 
    0.10613E+06         0.84872E+05         0.00000E+00
    0.84872E+05         0.24314E+05         0.00000E+00
    0.00000E+00         0.00000E+00         0.00000E+00
 
    0.10270E+06         0.87334E+05         0.00000E+00
    0.87334E+05         0.26278E+05         0.00000E+00
    0.00000E+00         0.00000E+00         0.00000E+00
 
    0.99142E+05         0.89715E+05         0.00000E+00
    0.89715E+05         0.28297E+05         0.00000E+00
    0.00000E+00         0.00000E+00         0.00000E+00
 
    0.95474E+05         0.92013E+05         0.00000E+00
    0.92013E+05         0.30369E+05         0.00000E+00
    0.00000E+00         0.00000E+00         0.00000E+00
 
    0.91693E+05         0.94225E+05         0.00000E+00
    0.94225E+05         0.32490E+05         0.00000E+00
    0.00000E+00         0.00000E+00         0.00000E+00
 
    0.87803E+05         0.96350E+05         0.00000E+00
    0.96350E+05         0.34661E+05         0.00000E+00
    0.00000E+00         0.00000E+00         0.00000E+00
 
    0.83807E+05         0.98385E+05         0.00000E+00
    0.98385E+05         0.36877E+05         0.00000E+00
    0.00000E+00         0.00000E+00         0.00000E+00
 
    0.79706E+05         0.10033E+06         0.00000E+00
    0.10033E+06         0.39139E+05         0.00000E+00
    0.00000E+00         0.00000E+00         0.00000E+00
 
    0.75506E+05         0.10218E+06         0.00000E+00
    0.10218E+06         0.41443E+05         0.00000E+00
    0.00000E+00         0.00000E+00         0.00000E+00
 
    0.71208E+05         0.10393E+06         0.00000E+00
    0.10393E+06         0.43787E+05         0.00000E+00
    0.00000E+00         0.00000E+00         0.00000E+00
 
    0.66816E+05         0.10558E+06         0.00000E+00
    0.10558E+06         0.46169E+05         0.00000E+00
    0.00000E+00         0.00000E+00         0.00000E+00
 
    0.62333E+05         0.10714E+06         0.00000E+00
    0.10714E+06         0.48588E+05         0.00000E+00
    0.00000E+00         0.00000E+00         0.00000E+00
 
    0.57762E+05         0.10859E+06         0.00000E+00
    0.10859E+06         0.51041E+05         0.00000E+00
    0.00000E+00         0.00000E+00         0.00000E+00
 
    0.53106E+05         0.10994E+06         0.00000E+00
    0.10994E+06         0.53525E+05         0.00000E+00
    0.00000E+00         0.00000E+00         0.00000E+00
 
    0.48370E+05         0.11119E+06         0.00000E+00
    0.11119E+06         0.56039E+05         0.00000E+00
    0.00000E+00         0.00000E+00         0.00000E+00
 
    0.43556E+05         0.11232E+06         0.00000E+00
    0.11232E+06         0.58580E+05         0.00000E+00
    0.00000E+00         0.00000E+00         0.00000E+00
 
    0.38667E+05         0.11335E+06         0.00000E+00
    0.11335E+06         0.61146E+05         0.00000E+00
    0.00000E+00         0.00000E+00         0.00000E+00
 
    0.33708E+05         0.11427E+06         0.00000E+00
    0.11427E+06         0.63735E+05         0.00000E+00
    0.00000E+00         0.00000E+00         0.00000E+00
 
    0.28682E+05         0.11508E+06         0.00000E+00
    0.11508E+06         0.66344E+05         0.00000E+00
    0.00000E+00         0.00000E+00         0.00000E+00
 
    0.23591E+05         0.11578E+06         0.00000E+00
    0.11578E+06         0.68970E+05         0.00000E+00
    0.00000E+00         0.00000E+00         0.00000E+00
 
    0.18441E+05         0.11636E+06         0.00000E+00
    0.11636E+06         0.71613E+05         0.00000E+00
    0.00000E+00         0.00000E+00         0.00000E+00
 
    0.13234E+05         0.11682E+06         0.00000E+00
    0.11682E+06         0.74268E+05         0.00000E+00
    0.00000E+00         0.00000E+00         0.00000E+00
 
    0.79749E+04         0.11717E+06         0.00000E+00
    0.11717E+06         0.76934E+05         0.00000E+00
    0.00000E+00         0.00000E+00         0.00000E+00
 
    0.26662E+04         0.11741E+06         0.00000E+00
    0.11741E+06         0.79608E+05         0.00000E+00
    0.00000E+00         0.00000E+00         0.00000E+00
 
    0.16500E+06         0.19814E+04         0.00000E+00
    0.19814E+04        -0.35660E+04         0.00000E+00
    0.00000E+00         0.00000E+00         0.00000E+00
 
    0.16534E+06         0.59558E+04         0.00000E+00
    0.59558E+04        -0.34730E+04         0.00000E+00
    0.00000E+00         0.00000E+00         0.00000E+00
 
    0.16551E+06         0.99290E+04         0.00000E+00
    0.99290E+04        -0.32875E+04         0.00000E+00
    0.00000E+00         0.00000E+00         0.00000E+00
 
    0.16549E+06         0.13897E+05         0.00000E+00
    0.13897E+05        -0.30097E+04         0.00000E+00
    0.00000E+00         0.00000E+00         0.00000E+00
 
    0.16530E+06         0.17856E+05         0.00000E+00
    0.17856E+05        -0.26401E+04         0.00000E+00
    0.00000E+00         0.00000E+00         0.00000E+00
 
    0.16493E+06         0.21802E+05         0.00000E+00
    0.21802E+05        -0.21791E+04         0.00000E+00
    0.00000E+00         0.00000E+00         0.00000E+00
 
    0.16439E+06         0.25730E+05         0.00000E+00
    0.25730E+05        -0.16274E+04         0.00000E+00
    0.00000E+00         0.00000E+00         0.00000E+00
 
    0.16366E+06         0.29638E+05         0.00000E+00
    0.29638E+05        -0.98559E+03         0.00000E+00
    0.00000E+00         0.00000E+00         0.00000E+00
 
    0.16277E+06         0.33521E+05         0.00000E+00
    0.33521E+05        -0.25445E+03         0.00000E+00
    0.00000E+00         0.00000E+00         0.00000E+00
 
    0.16170E+06         0.37376E+05         0.00000E+00
    0.37376E+05         0.56523E+03         0.00000E+00
    0.00000E+00         0.00000E+00         0.00000E+00
 
    0.16046E+06         0.41198E+05         0.00000E+00
    0.41198E+05         0.14725E+04         0.00000E+00
    0.00000E+00         0.00000E+00         0.00000E+00
 
    0.15904E+06         0.44985E+05         0.00000E+00
    0.44985E+05         0.24665E+04         0.00000E+00
    0.00000E+00         0.00000E+00         0.00000E+00
 
    0.15746E+06         0.48731E+05         0.00000E+00
    0.48731E+05         0.35461E+04         0.00000E+00
    0.00000E+00         0.00000E+00         0.00000E+00
 
    0.15571E+06         0.52435E+05         0.00000E+00
    0.52435E+05         0.47103E+04         0.00000E+00
    0.00000E+00         0.00000E+00         0.00000E+00
 
    0.15380E+06         0.56092E+05         0.00000E+00
    0.56092E+05         0.59577E+04         0.00000E+00
    0.00000E+00         0.00000E+00         0.00000E+00
 
    0.15172E+06         0.59699E+05         0.00000E+00
    0.59699E+05         0.72873E+04         0.00000E+00
    0.00000E+00         0.00000E+00         0.00000E+00
 
    0.14949E+06         0.63252E+05         0.00000E+00
    0.63252E+05         0.86976E+04         0.00000E+00
    0.00000E+00         0.00000E+00         0.00000E+00
 
    0.14709E+06         0.66747E+05         0.00000E+00
    0.66747E+05         0.10187E+05         0.00000E+00
    0.00000E+00         0.00000E+00         0.00000E+00
 
    0.14453E+06         0.70183E+05         0.00000E+00
    0.70183E+05         0.11755E+05         0.00000E+00
    0.00000E+00         0.00000E+00         0.00000E+00
 
    0.14182E+06         0.73555E+05         0.00000E+00
    0.73555E+05         0.13399E+05         0.00000E+00
    0.00000E+00         0.00000E+00         0.00000E+00
 
    0.13896E+06         0.76860E+05         0.00000E+00
    0.76860E+05         0.15118E+05         0.00000E+00
    0.00000E+00         0.00000E+00         0.00000E+00
 
    0.13595E+06         0.80095E+05         0.00000E+00
    0.80095E+05         0.16910E+05         0.00000E+00
    0.00000E+00         0.00000E+00         0.00000E+00
 
    0.13279E+06         0.83257E+05         0.00000E+00
    0.83257E+05         0.18774E+05         0.00000E+00
    0.00000E+00         0.00000E+00         0.00000E+00
 
    0.12949E+06         0.86342E+05         0.00000E+00
    0.86342E+05         0.20707E+05         0.00000E+00
    0.00000E+00         0.00000E+00         0.00000E+00
 
    0.12604E+06         0.89349E+05         0.00000E+00
    0.89349E+05         0.22708E+05         0.00000E+00
    0.00000E+00         0.00000E+00         0.00000E+00
 
    0.12245E+06         0.92274E+05         0.00000E+00
    0.92274E+05         0.24776E+05         0.00000E+00
    0.00000E+00         0.00000E+00         0.00000E+00
 
    0.11873E+06         0.95114E+05         0.00000E+00
    0.95114E+05         0.26908E+05         0.00000E+00
    0.00000E+00         0.00000E+00         0.00000E+00
 
    0.11488E+06         0.97866E+05         0.00000E+00
    0.97866E+05         0.29102E+05         0.00000E+00
    0.00000E+00         0.00000E+00         0.00000E+00
 
    0.11089E+06         0.10053E+06         0.00000E+00
    0.10053E+06         0.31356E+05         0.00000E+00
    0.00000E+00         0.00000E+00         0.00000E+00
 
    0.10677E+06         0.10310E+06         0.00000E+00
    0.10310E+06         0.33669E+05         0.00000E+00
    0.00000E+00         0.00000E+00         0.00000E+00
 
    0.10254E+06         0.10557E+06         0.00000E+00
    0.10557E+06         0.36038E+05         0.00000E+00
    0.00000E+00         0.00000E+00         0.00000E+00
 
    0.98177E+05         0.10795E+06         0.00000E+00
    0.10795E+06         0.38460E+05         0.00000E+00
    0.00000E+00         0.00000E+00         0.00000E+00
 
    0.93699E+05         0.11022E+06         0.00000E+00
    0.11022E+06         0.40935E+05         0.00000E+00
    0.00000E+00         0.00000E+00         0.00000E+00
 
    0.89107E+05         0.11240E+06         0.00000E+00
    0.11240E+06         0.43459E+05         0.00000E+00
    0.00000E+00         0.00000E+00         0.00000E+00
 
    0.84404E+05         0.11446E+06         0.00000E+00
    0.11446E+06         0.46031E+05         0.00000E+00
    0.00000E+00         0.00000E+00         0.00000E+00
 
    0.79593E+05         0.11642E+06         0.00000E+00
    0.11642E+06         0.48647E+05         0.00000E+00
    0.00000E+00         0.00000E+00         0.00000E+00
 
    0.74678E+05         0.11827E+06         0.00000E+00
    0.11827E+06         0.51306E+05         0.00000E+00
    0.00000E+00         0.00000E+00         0.00000E+00
 
    0.69662E+05         0.12001E+06         0.00000E+00
    0.12001E+06         0.54006E+05         0.00000E+00
    0.00000E+00         0.00000E+00         0.00000E+00
 
    0.64549E+05         0.12164E+06         0.00000E+00
    0.12164E+06         0.56743E+05         0.00000E+00
    0.00000E+00         0.00000E+00         0.00000E+00
 
    0.59342E+05         0.12315E+06         0.00000E+00
    0.12315E+06         0.59516E+05         0.00000E+00
    0.00000E+00         0.00000E+00         0.00000E+00
 
    0.54046E+05         0.12455E+06         0.00000E+00
    0.12455E+06         0.62321E+05         0.00000E+00
    0.00000E+00         0.00000E+00         0.00000E+00
 
    0.48664E+05         0.12582E+06         0.00000E+00
    0.12582E+06         0.65158E+05         0.00000E+00
    0.00000E+00         0.00000E+00         0.00000E+00
 
    0.43200E+05         0.12698E+06         0.00000E+00
    0.12698E+06         0.68022E+05         0.00000E+00
    0.00000E+00         0.00000E+00         0.00000E+00
 
    0.37657E+05         0.12801E+06         0.00000E+00
    0.12801E+06         0.70911E+05         0.00000E+00
    0.00000E+00         0.00000E+00         0.00000E+00
 
    0.32040E+05         0.12892E+06         0.00000E+00
    0.12892E+06         0.73823E+05         0.00000E+00
    0.00000E+00         0.00000E+00         0.00000E+00
 
    0.26353E+05         0.12970E+06         0.00000E+00
    0.12970E+06         0.76755E+05         0.00000E+00
    0.00000E+00         0.00000E+00         0.00000E+00
 
    0.20599E+05         0.13036E+06         0.00000E+00
    0.13036E+06         0.79705E+05         0.00000E+00
    0.00000E+00         0.00000E+00         0.00000E+00
 
    0.14782E+05         0.13089E+06         0.00000E+00
    0.13089E+06         0.82670E+05         0.00000E+00
    0.00000E+00         0.00000E+00         0.00000E+00
 
    0.89074E+04         0.13129E+06         0.00000E+00
    0.13129E+06         0.85646E+05         0.00000E+00
    0.00000E+00         0.00000E+00         0.00000E+00
 
    0.29779E+04         0.13156E+06         0.00000E+00
    0.13156E+06         0.88632E+05         0.00000E+00
    0.00000E+00         0.00000E+00         0.00000E+00
 
    0.18531E+06         0.22284E+04         0.00000E+00
    0.22284E+04        -0.43265E+04         0.00000E+00
    0.00000E+00         0.00000E+00         0.00000E+00
 
    0.18565E+06         0.66940E+04         0.00000E+00
    0.66940E+04        -0.42222E+04         0.00000E+00
    0.00000E+00         0.00000E+00         0.00000E+00
 
    0.18580E+06         0.11157E+05         0.00000E+00
    0.11157E+05        -0.40142E+04         0.00000E+00
    0.00000E+00         0.00000E+00         0.00000E+00
 
    0.18574E+06         0.15612E+05         0.00000E+00
    0.15612E+05        -0.37028E+04         0.00000E+00
    0.00000E+00         0.00000E+00         0.00000E+00
 
    0.18549E+06         0.20056E+05         0.00000E+00
    0.20056E+05        -0.32885E+04         0.00000E+00
    0.00000E+00         0.00000E+00         0.00000E+00
 
    0.18504E+06         0.24483E+05         0.00000E+00
    0.24483E+05        -0.27721E+04         0.00000E+00
    0.00000E+00         0.00000E+00         0.00000E+00
 
    0.18439E+06         0.28891E+05         0.00000E+00
    0.28891E+05        -0.21541E+04         0.00000E+00
    0.00000E+00         0.00000E+00         0.00000E+00
 
    0.18354E+06         0.33273E+05         0.00000E+00
    0.33273E+05        -0.14354E+04         0.00000E+00
    0.00000E+00         0.00000E+00         0.00000E+00
 
    0.18250E+06         0.37627E+05         0.00000E+00
    0.37627E+05        -0.61690E+03         0.00000E+00
    0.00000E+00         0.00000E+00         0.00000E+00
 
    0.18127E+06         0.41947E+05         0.00000E+00
    0.41947E+05         0.30055E+03         0.00000E+00
    0.00000E+00         0.00000E+00         0.00000E+00
 
    0.17984E+06         0.46230E+05         0.00000E+00
    0.46230E+05         0.13159E+04         0.00000E+00
    0.00000E+00         0.00000E+00         0.00000E+00
 
    0.17823E+06         0.50472E+05         0.00000E+00
    0.50472E+05         0.24279E+04         0.00000E+00
    0.00000E+00         0.00000E+00         0.00000E+00
 
    0.17642E+06         0.54669E+05         0.00000E+00
    0.54669E+05         0.36355E+04         0.00000E+00
    0.00000E+00         0.00000E+00         0.00000E+00
 
    0.17444E+06         0.58816E+05         0.00000E+00
    0.58816E+05         0.49374E+04         0.00000E+00
    0.00000E+00         0.00000E+00         0.00000E+00
 
    0.17226E+06         0.62909E+05         0.00000E+00
    0.62909E+05         0.63321E+04         0.00000E+00
    0.00000E+00         0.00000E+00         0.00000E+00
 
    0.16991E+06         0.66946E+05         0.00000E+00
    0.66946E+05         0.78184E+04         0.00000E+00
    0.00000E+00         0.00000E+00         0.00000E+00
 
    0.16738E+06         0.70922E+05         0.00000E+00
    0.70922E+05         0.93947E+04         0.00000E+00
    0.00000E+00         0.00000E+00         0.00000E+00
 
    0.16467E+06         0.74833E+05         0.00000E+00
    0.74833E+05         0.11059E+05         0.00000E+00
    0.00000E+00         0.00000E+00         0.00000E+00
 
    0.16178E+06         0.78676E+05         0.00000E+00
    0.78676E+05         0.12811E+05         0.00000E+00
    0.00000E+00         0.00000E+00         0.00000E+00
 
    0.15873E+06         0.82447E+05         0.00000E+00
    0.82447E+05         0.14647E+05         0.00000E+00
    0.00000E+00         0.00000E+00         0.00000E+00
 
    0.15550E+06         0.86143E+05         0.00000E+00
    0.86143E+05         0.16567E+05         0.00000E+00
    0.00000E+00         0.00000E+00         0.00000E+00
 
    0.15211E+06         0.89760E+05         0.00000E+00
    0.89760E+05         0.18569E+05         0.00000E+00
    0.00000E+00         0.00000E+00         0.00000E+00
 
    0.14855E+06         0.93295E+05         0.00000E+00
    0.93295E+05         0.20650E+05         0.00000E+00
    0.00000E+00         0.00000E+00         0.00000E+00
 
    0.14484E+06         0.96744E+05         0.00000E+00
    0.96744E+05         0.22808E+05         0.00000E+00
    0.00000E+00         0.00000E+00         0.00000E+00
 
    0.14096E+06         0.10010E+06         0.00000E+00
    0.10010E+06         0.25042E+05         0.00000E+00
    0.00000E+00         0.00000E+00         0.00000E+00
 
    0.13694E+06         0.10337E+06         0.00000E+00
    0.10337E+06         0.27350E+05         0.00000E+00
    0.00000E+00         0.00000E+00         0.00000E+00
 
    0.13276E+06         0.10655E+06         0.00000E+00
    0.10655E+06         0.29729E+05         0.00000E+00
    0.00000E+00         0.00000E+00         0.00000E+00
 
    0.12843E+06         0.10962E+06         0.00000E+00
    0.10962E+06         0.32178E+05         0.00000E+00
    0.00000E+00         0.00000E+00         0.00000E+00
 
    0.12396E+06         0.11260E+06         0.00000E+00
    0.11260E+06         0.34693E+05         0.00000E+00
    0.00000E+00         0.00000E+00         0.00000E+00
 
    0.11935E+06         0.11547E+06         0.00000E+00
    0.11547E+06         0.37274E+05         0.00000E+00
    0.00000E+00         0.00000E+00         0.00000E+00
 
    0.11460E+06         0.11823E+06         0.00000E+00
    0.11823E+06         0.39916E+05         0.00000E+00
    0.00000E+00         0.00000E+00         0.00000E+00
 
    0.10971E+06         0.12089E+06         0.00000E+00
    0.12089E+06         0.42619E+05         0.00000E+00
    0.00000E+00         0.00000E+00         0.00000E+00
 
    0.10470E+06         0.12343E+06         0.00000E+00
    0.12343E+06         0.45379E+05         0.00000E+00
    0.00000E+00         0.00000E+00         0.00000E+00
 
    0.99559E+05         0.12586E+06         0.00000E+00
    0.12586E+06         0.48195E+05         0.00000E+00
    0.00000E+00         0.00000E+00         0.00000E+00
 
    0.94296E+05         0.12817E+06         0.00000E+00
    0.12817E+06         0.51063E+05         0.00000E+00
    0.00000E+00         0.00000E+00         0.00000E+00
 
    0.88913E+05         0.13036E+06         0.00000E+00
    0.13036E+06         0.53981E+05         0.00000E+00
    0.00000E+00         0.00000E+00         0.00000E+00
 
    0.83415E+05         0.13243E+06         0.00000E+00
    0.13243E+06         0.56947E+05         0.00000E+00
    0.00000E+00         0.00000E+00         0.00000E+00
 
    0.77806E+05         0.13438E+06         0.00000E+00
    0.13438E+06         0.59957E+05         0.00000E+00
    0.00000E+00         0.00000E+00         0.00000E+00
 
    0.72090E+05         0.13620E+06         0.00000E+00
    0.13620E+06         0.63010E+05         0.00000E+00
    0.00000E+00         0.00000E+00         0.00000E+00
 
    0.66271E+05         0.13789E+06         0.00000E+00
    0.13789E+06         0.66103E+05         0.00000E+00
    0.00000E+00         0.00000E+00         0.00000E+00
 
    0.60352E+05         0.13945E+06         0.00000E+00
    0.13945E+06         0.69232E+05         0.00000E+00
    0.00000E+00         0.00000E+00         0.00000E+00
 
    0.54338E+05         0.14088E+06         0.00000E+00
    0.14088E+06         0.72395E+05         0.00000E+00
    0.00000E+00         0.00000E+00         0.00000E+00
 
    0.48234E+05         0.14218E+06         0.00000E+00
    0.14218E+06         0.75590E+05         0.00000E+00
    0.00000E+00         0.00000E+00         0.00000E+00
 
    0.42043E+05         0.14334E+06         0.00000E+00
    0.14334E+06         0.78812E+05         0.00000E+00
    0.00000E+00         0.00000E+00         0.00000E+00
 
    0.35770E+05         0.14436E+06         0.00000E+00
    0.14436E+06         0.82061E+05         0.00000E+00
    0.00000E+00         0.00000E+00         0.00000E+00
 
    0.29419E+05         0.14525E+06         0.00000E+00
    0.14525E+06         0.85332E+05         0.00000E+00
    0.00000E+00         0.00000E+00         0.00000E+00
 
    0.22995E+05         0.14599E+06         0.00000E+00
    0.14599E+06         0.88623E+05         0.00000E+00
    0.00000E+00         0.00000E+00         0.00000E+00
 
    0.16501E+05         0.14659E+06         0.00000E+00
    0.14659E+06         0.91930E+05         0.00000E+00
    0.00000E+00         0.00000E+00         0.00000E+00
 
    0.99427E+04         0.14705E+06         0.00000E+00
    0.14705E+06         0.95252E+05         0.00000E+00
    0.00000E+00         0.00000E+00         0.00000E+00
 
    0.33239E+04         0.14736E+06         0.00000E+00
    0.14736E+06         0.98584E+05         0.00000E+00
    0.00000E+00         0.00000E+00         0.00000E+00
 
    0.20806E+06         0.25058E+04         0.00000E+00
    0.25058E+04        -0.52467E+04         0.00000E+00
    0.00000E+00         0.00000E+00         0.00000E+00
 
    0.20840E+06         0.75218E+04         0.00000E+00
    0.75218E+04        -0.51298E+04         0.00000E+00
    0.00000E+00         0.00000E+00         0.00000E+00
 
    0.20852E+06         0.12533E+05         0.00000E+00
    0.12533E+05        -0.48966E+04         0.00000E+00
    0.00000E+00         0.00000E+00         0.00000E+00
 
    0.20841E+06         0.17534E+05         0.00000E+00
    0.17534E+05        -0.45477E+04         0.00000E+00
    0.00000E+00         0.00000E+00         0.00000E+00
 
    0.20808E+06         0.22520E+05         0.00000E+00
    0.22520E+05        -0.40837E+04         0.00000E+00
    0.00000E+00         0.00000E+00         0.00000E+00
 
    0.20752E+06         0.27487E+05         0.00000E+00
    0.27487E+05        -0.35054E+04         0.00000E+00
    0.00000E+00         0.00000E+00         0.00000E+00
 
    0.20675E+06         0.32429E+05         0.00000E+00
    0.32429E+05        -0.28136E+04         0.00000E+00
    0.00000E+00         0.00000E+00         0.00000E+00
 
    0.20576E+06         0.37342E+05         0.00000E+00
    0.37342E+05        -0.20093E+04         0.00000E+00
    0.00000E+00         0.00000E+00         0.00000E+00
 
    0.20455E+06         0.42221E+05         0.00000E+00
    0.42221E+05        -0.10934E+04         0.00000E+00
    0.00000E+00         0.00000E+00         0.00000E+00
 
    0.20313E+06         0.47062E+05         0.00000E+00
    0.47062E+05        -0.67171E+02         0.00000E+00
    0.00000E+00         0.00000E+00         0.00000E+00
 
    0.20149E+06         0.51859E+05         0.00000E+00
    0.51859E+05         0.10683E+04         0.00000E+00
    0.00000E+00         0.00000E+00         0.00000E+00
 
    0.19964E+06         0.56609E+05         0.00000E+00
    0.56609E+05         0.23117E+04         0.00000E+00
    0.00000E+00         0.00000E+00         0.00000E+00
 
    0.19759E+06         0.61307E+05         0.00000E+00
    0.61307E+05         0.36615E+04         0.00000E+00
    0.00000E+00         0.00000E+00         0.00000E+00
 
    0.19532E+06         0.65948E+05         0.00000E+00
    0.65948E+05         0.51165E+04         0.00000E+00
    0.00000E+00         0.00000E+00         0.00000E+00
 
    0.19286E+06         0.70529E+05         0.00000E+00
    0.70529E+05         0.66750E+04         0.00000E+00
    0.00000E+00         0.00000E+00         0.00000E+00
 
    0.19019E+06         0.75045E+05         0.00000E+00
    0.75045E+05         0.83353E+04         0.00000E+00
    0.00000E+00         0.00000E+00         0.00000E+00
 
    0.18732E+06         0.79491E+05         0.00000E+00
    0.79491E+05         0.10096E+05         0.00000E+00
    0.00000E+00         0.00000E+00         0.00000E+00
 
    0.18426E+06         0.83865E+05         0.00000E+00
    0.83865E+05         0.11955E+05         0.00000E+00
    0.00000E+00         0.00000E+00         0.00000E+00
 
    0.18100E+06         0.88162E+05         0.00000E+00
    0.88162E+05         0.13910E+05         0.00000E+00
    0.00000E+00         0.00000E+00         0.00000E+00
 
    0.17755E+06         0.92377E+05         0.00000E+00
    0.92377E+05         0.15961E+05         0.00000E+00
    0.00000E+00         0.00000E+00         0.00000E+00
 
    0.17392E+06         0.96508E+05         0.00000E+00
    0.96508E+05         0.18103E+05         0.00000E+00
    0.00000E+00         0.00000E+00         0.00000E+00
 
    0.17010E+06         0.10055E+06         0.00000E+00
    0.10055E+06         0.20337E+05         0.00000E+00
    0.00000E+00         0.00000E+00         0.00000E+00
 
    0.16610E+06         0.10450E+06         0.00000E+00
    0.10450E+06         0.22659E+05         0.00000E+00
    0.00000E+00         0.00000E+00         0.00000E+00
 
    0.16192E+06         0.10835E+06         0.00000E+00
    0.10835E+06         0.25067E+05         0.00000E+00
    0.00000E+00         0.00000E+00         0.00000E+00
 
    0.15757E+06         0.11211E+06         0.00000E+00
    0.11211E+06         0.27559E+05         0.00000E+00
    0.00000E+00         0.00000E+00         0.00000E+00
 
    0.15305E+06         0.11576E+06         0.00000E+00
    0.11576E+06         0.30133E+05         0.00000E+00
    0.00000E+00         0.00000E+00         0.00000E+00
 
    0.14836E+06         0.11930E+06         0.00000E+00
    0.11930E+06         0.32786E+05         0.00000E+00
    0.00000E+00         0.00000E+00         0.00000E+00
 
    0.14350E+06         0.12274E+06         0.00000E+00
    0.12274E+06         0.35517E+05         0.00000E+00
    0.00000E+00         0.00000E+00         0.00000E+00
 
    0.13849E+06         0.12606E+06         0.00000E+00
    0.12606E+06         0.38321E+05         0.00000E+00
    0.00000E+00         0.00000E+00         0.00000E+00
 
    0.13332E+06         0.12927E+06         0.00000E+00
    0.12927E+06         0.41198E+05         0.00000E+00
    0.00000E+00         0.00000E+00         0.00000E+00
 
    0.12800E+06         0.13235E+06         0.00000E+00
    0.13235E+06         0.44144E+05         0.00000E+00
    0.00000E+00         0.00000E+00         0.00000E+00
 
    0.12253E+06         0.13532E+06         0.00000E+00
    0.13532E+06         0.47157E+05         0.00000E+00
    0.00000E+00         0.00000E+00         0.00000E+00
 
    0.11692E+06         0.13816E+06         0.00000E+00
    0.13816E+06         0.50233E+05         0.00000E+00
    0.00000E+00         0.00000E+00         0.00000E+00
 
    0.11117E+06         0.14087E+06         0.00000E+00
    0.14087E+06         0.53371E+05         0.00000E+00
    0.00000E+00         0.00000E+00         0.00000E+00
 
    0.10528E+06         0.14345E+06         0.00000E+00
    0.14345E+06         0.56568E+05         0.00000E+00
    0.00000E+00         0.00000E+00         0.00000E+00
 
    0.99262E+05         0.14590E+06         0.00000E+00
    0.14590E+06         0.59820E+05         0.00000E+00
    0.00000E+00         0.00000E+00         0.00000E+00
 
    0.93116E+05         0.14822E+06         0.00000E+00
    0.14822E+06         0.63125E+05         0.00000E+00
    0.00000E+00         0.00000E+00         0.00000E+00
 
    0.86848E+05         0.15039E+06         0.00000E+00
    0.15039E+06         0.66481E+05         0.00000E+00
    0.00000E+00         0.00000E+00         0.00000E+00
 
    0.80461E+05         0.15243E+06         0.00000E+00
    0.15243E+06         0.69883E+05         0.00000E+00
    0.00000E+00         0.00000E+00         0.00000E+00
 
    0.73960E+05         0.15432E+06         0.00000E+00
    0.15432E+06         0.73329E+05         0.00000E+00
    0.00000E+00         0.00000E+00         0.00000E+00
 
    0.67350E+05         0.15607E+06         0.00000E+00
    0.15607E+06         0.76816E+05         0.00000E+00
    0.00000E+00         0.00000E+00         0.00000E+00
 
    0.60635E+05         0.15768E+06         0.00000E+00
    0.15768E+06         0.80342E+05         0.00000E+00
    0.00000E+00         0.00000E+00         0.00000E+00
 
    0.53820E+05         0.15913E+06         0.00000E+00
    0.15913E+06         0.83902E+05         0.00000E+00
    0.00000E+00         0.00000E+00         0.00000E+00
 
    0.46909E+05         0.16043E+06         0.00000E+00
    0.16043E+06         0.87494E+05         0.00000E+00
    0.00000E+00         0.00000E+00         0.00000E+00
 
    0.39908E+05         0.16158E+06         0.00000E+00
    0.16158E+06         0.91115E+05         0.00000E+00
    0.00000E+00         0.00000E+00         0.00000E+00
 
    0.32821E+05         0.16258E+06         0.00000E+00
    0.16258E+06         0.94761E+05         0.00000E+00
    0.00000E+00         0.00000E+00         0.00000E+00
 
    0.25652E+05         0.16342E+06         0.00000E+00
    0.16342E+06         0.98430E+05         0.00000E+00
    0.00000E+00         0.00000E+00         0.00000E+00
 
    0.18407E+05         0.16411E+06         0.00000E+00
    0.16411E+06         0.10212E+06         0.00000E+00
    0.00000E+00         0.00000E+00         0.00000E+00
 
    0.11091E+05         0.16463E+06         0.00000E+00
    0.16463E+06         0.10582E+06         0.00000E+00
    0.00000E+00         0.00000E+00         0.00000E+00
 
    0.37076E+04         0.16499E+06         0.00000E+00
    0.16499E+06         0.10954E+06         0.00000E+00
    0.00000E+00         0.00000E+00         0.00000E+00
 
    0.23355E+06         0.28169E+04         0.00000E+00
    0.28169E+04        -0.63595E+04         0.00000E+00
    0.00000E+00         0.00000E+00         0.00000E+00
 
    0.23387E+06         0.84497E+04         0.00000E+00
    0.84497E+04        -0.62284E+04         0.00000E+00
    0.00000E+00         0.00000E+00         0.00000E+00
 
    0.23394E+06         0.14075E+05         0.00000E+00
    0.14075E+05        -0.59671E+04         0.00000E+00
    0.00000E+00         0.00000E+00         0.00000E+00
 
    0.23376E+06         0.19686E+05         0.00000E+00
    0.19686E+05        -0.55764E+04         0.00000E+00
    0.00000E+00         0.00000E+00         0.00000E+00
 
    0.23333E+06         0.25280E+05         0.00000E+00
    0.25280E+05        -0.50570E+04         0.00000E+00
    0.00000E+00         0.00000E+00         0.00000E+00
 
    0.23266E+06         0.30849E+05         0.00000E+00
    0.30849E+05        -0.44099E+04         0.00000E+00
    0.00000E+00         0.00000E+00         0.00000E+00
 
    0.23174E+06         0.36389E+05         0.00000E+00
    0.36389E+05        -0.36359E+04         0.00000E+00
    0.00000E+00         0.00000E+00         0.00000E+00
 
    0.23057E+06         0.41894E+05         0.00000E+00
    0.41894E+05        -0.27363E+04         0.00000E+00
    0.00000E+00         0.00000E+00         0.00000E+00
 
    0.22917E+06         0.47359E+05         0.00000E+00
    0.47359E+05        -0.17123E+04         0.00000E+00
    0.00000E+00         0.00000E+00         0.00000E+00
 
    0.22753E+06         0.52780E+05         0.00000E+00
    0.52780E+05        -0.56505E+03         0.00000E+00
    0.00000E+00         0.00000E+00         0.00000E+00
 
    0.22565E+06         0.58151E+05         0.00000E+00
    0.58151E+05         0.70392E+03         0.00000E+00
    0.00000E+00         0.00000E+00         0.00000E+00
 
    0.22353E+06         0.63467E+05         0.00000E+00
    0.63467E+05         0.20932E+04         0.00000E+00
    0.00000E+00         0.00000E+00         0.00000E+00
 
    0.22119E+06         0.68723E+05         0.00000E+00
    0.68723E+05         0.36010E+04         0.00000E+00
    0.00000E+00         0.00000E+00         0.00000E+00
 
    0.21861E+06         0.73915E+05         0.00000E+00
    0.73915E+05         0.52259E+04         0.00000E+00
    0.00000E+00         0.00000E+00         0.00000E+00
 
    0.21581E+06         0.79038E+05         0.00000E+00
    0.79038E+05         0.69660E+04         0.00000E+00
    0.00000E+00         0.00000E+00         0.00000E+00
 
    0.21278E+06         0.84087E+05         0.00000E+00
    0.84087E+05         0.88195E+04         0.00000E+00
    0.00000E+00         0.00000E+00         0.00000E+00
 
    0.20954E+06         0.89058E+05         0.00000E+00
    0.89058E+05         0.10784E+05         0.00000E+00
    0.00000E+00         0.00000E+00         0.00000E+00
 
    0.20607E+06         0.93946E+05         0.00000E+00
    0.93946E+05         0.12859E+05         0.00000E+00
    0.00000E+00         0.00000E+00         0.00000E+00
 
    0.20239E+06         0.98747E+05         0.00000E+00
    0.98747E+05         0.15041E+05         0.00000E+00
    0.00000E+00         0.00000E+00         0.00000E+00
 
    0.19851E+06         0.10346E+06         0.00000E+00
    0.10346E+06         0.17327E+05         0.00000E+00
    0.00000E+00         0.00000E+00         0.00000E+00
 
    0.19441E+06         0.10807E+06         0.00000E+00
    0.10807E+06         0.19717E+05         0.00000E+00
    0.00000E+00         0.00000E+00         0.00000E+00
 
    0.19011E+06         0.11258E+06         0.00000E+00
    0.11258E+06         0.22208E+05         0.00000E+00
    0.00000E+00         0.00000E+00         0.00000E+00
 
    0.18561E+06         0.11699E+06         0.00000E+00
    0.11699E+06         0.24796E+05         0.00000E+00
    0.00000E+00         0.00000E+00         0.00000E+00
 
    0.18091E+06         0.12130E+06         0.00000E+00
    0.12130E+06         0.27481E+05         0.00000E+00
    0.00000E+00         0.00000E+00         0.00000E+00
 
    0.17603E+06         0.12549E+06         0.00000E+00
    0.12549E+06         0.30259E+05         0.00000E+00
    0.00000E+00         0.00000E+00         0.00000E+00
 
    0.17095E+06         0.12956E+06         0.00000E+00
    0.12956E+06         0.33127E+05         0.00000E+00
    0.00000E+00         0.00000E+00         0.00000E+00
 
    0.16569E+06         0.13352E+06         0.00000E+00
    0.13352E+06         0.36084E+05         0.00000E+00
    0.00000E+00         0.00000E+00         0.00000E+00
 
    0.16025E+06         0.13735E+06         0.00000E+00
    0.13735E+06         0.39126E+05         0.00000E+00
    0.00000E+00         0.00000E+00         0.00000E+00
 
    0.15463E+06         0.14106E+06         0.00000E+00
    0.14106E+06         0.42250E+05         0.00000E+00
    0.00000E+00         0.00000E+00         0.00000E+00
 
    0.14884E+06         0.14464E+06         0.00000E+00
    0.14464E+06         0.45455E+05         0.00000E+00
    0.00000E+00         0.00000E+00         0.00000E+00
 
    0.14288E+06         0.14809E+06         0.00000E+00
    0.14809E+06         0.48736E+05         0.00000E+00
    0.00000E+00         0.00000E+00         0.00000E+00
 
    0.13676E+06         0.15140E+06         0.00000E+00
    0.15140E+06         0.52092E+05         0.00000E+00
    0.00000E+00         0.00000E+00         0.00000E+00
 
    0.13048E+06         0.15457E+06         0.00000E+00
    0.15457E+06         0.55518E+05         0.00000E+00
    0.00000E+00         0.00000E+00         0.00000E+00
 
    0.12405E+06         0.15760E+06         0.00000E+00
    0.15760E+06         0.59013E+05         0.00000E+00
    0.00000E+00         0.00000E+00         0.00000E+00
 
    0.11747E+06         0.16048E+06         0.00000E+00
    0.16048E+06         0.62573E+05         0.00000E+00
    0.00000E+00         0.00000E+00         0.00000E+00
 
    0.11074E+06         0.16322E+06         0.00000E+00
    0.16322E+06         0.66194E+05         0.00000E+00
    0.00000E+00         0.00000E+00         0.00000E+00
 
    0.10388E+06         0.16580E+06         0.00000E+00
    0.16580E+06         0.69874E+05         0.00000E+00
    0.00000E+00         0.00000E+00         0.00000E+00
 
    0.96873E+05         0.16823E+06         0.00000E+00
    0.16823E+06         0.73610E+05         0.00000E+00
    0.00000E+00         0.00000E+00         0.00000E+00
 
    0.89741E+05         0.17051E+06         0.00000E+00
    0.17051E+06         0.77399E+05         0.00000E+00
    0.00000E+00         0.00000E+00         0.00000E+00
 
    0.82484E+05         0.17263E+06         0.00000E+00
    0.17263E+06         0.81236E+05         0.00000E+00
    0.00000E+00         0.00000E+00         0.00000E+00
 
    0.75106E+05         0.17459E+06         0.00000E+00
    0.17459E+06         0.85119E+05         0.00000E+00
    0.00000E+00         0.00000E+00         0.00000E+00
 
    0.67613E+05         0.17638E+06         0.00000E+00
    0.17638E+06         0.89045E+05         0.00000E+00
    0.00000E+00         0.00000E+00         0.00000E+00
 
    0.60009E+05         0.17801E+06         0.00000E+00
    0.17801E+06         0.93010E+05         0.00000E+00
    0.00000E+00         0.00000E+00         0.00000E+00
 
    0.52301E+05         0.17948E+06         0.00000E+00
    0.17948E+06         0.97010E+05         0.00000E+00
    0.00000E+00         0.00000E+00         0.00000E+00
 
    0.44492E+05         0.18077E+06         0.00000E+00
    0.18077E+06         0.10104E+06         0.00000E+00
    0.00000E+00         0.00000E+00         0.00000E+00
 
    0.36589E+05         0.18190E+06         0.00000E+00
    0.18190E+06         0.10510E+06         0.00000E+00
    0.00000E+00         0.00000E+00         0.00000E+00
 
    0.28596E+05         0.18285E+06         0.00000E+00
    0.18285E+06         0.10919E+06         0.00000E+00
    0.00000E+00         0.00000E+00         0.00000E+00
 
    0.20518E+05         0.18363E+06         0.00000E+00
    0.18363E+06         0.11330E+06         0.00000E+00
    0.00000E+00         0.00000E+00         0.00000E+00
 
    0.12362E+05         0.18423E+06         0.00000E+00
    0.18423E+06         0.11743E+06         0.00000E+00
    0.00000E+00         0.00000E+00         0.00000E+00
 
    0.41326E+04         0.18465E+06         0.00000E+00
    0.18465E+06         0.12157E+06         0.00000E+00
    0.00000E+00         0.00000E+00         0.00000E+00
 
    0.26207E+06         0.31659E+04         0.00000E+00
    0.31659E+04        -0.77042E+04         0.00000E+00
    0.00000E+00         0.00000E+00         0.00000E+00
 
    0.26236E+06         0.94891E+04         0.00000E+00
    0.94891E+04        -0.75574E+04         0.00000E+00
    0.00000E+00         0.00000E+00         0.00000E+00
 
    0.26237E+06         0.15801E+05         0.00000E+00
    0.15801E+05        -0.72649E+04         0.00000E+00
    0.00000E+00         0.00000E+00         0.00000E+00
 
    0.26210E+06         0.22096E+05         0.00000E+00
    0.22096E+05        -0.68277E+04         0.00000E+00
    0.00000E+00         0.00000E+00         0.00000E+00
 
    0.26155E+06         0.28367E+05         0.00000E+00
    0.28367E+05        -0.62466E+04         0.00000E+00
    0.00000E+00         0.00000E+00         0.00000E+00
 
    0.26073E+06         0.34609E+05         0.00000E+00
    0.34609E+05        -0.55229E+04         0.00000E+00
    0.00000E+00         0.00000E+00         0.00000E+00
 
    0.25964E+06         0.40816E+05         0.00000E+00
    0.40816E+05        -0.46576E+04         0.00000E+00
    0.00000E+00         0.00000E+00         0.00000E+00
 
    0.25827E+06         0.46982E+05         0.00000E+00
    0.46982E+05        -0.36522E+04         0.00000E+00
    0.00000E+00         0.00000E+00         0.00000E+00
 
    0.25664E+06         0.53102E+05         0.00000E+00
    0.53102E+05        -0.25079E+04         0.00000E+00
    0.00000E+00         0.00000E+00         0.00000E+00
 
    0.25474E+06         0.59169E+05         0.00000E+00
    0.59169E+05        -0.12264E+04         0.00000E+00
    0.00000E+00         0.00000E+00         0.00000E+00
 
    0.25258E+06         0.65179E+05         0.00000E+00
    0.65179E+05         0.19072E+03         0.00000E+00
    0.00000E+00         0.00000E+00         0.00000E+00
 
    0.25016E+06         0.71126E+05         0.00000E+00
    0.71126E+05         0.17418E+04         0.00000E+00
    0.00000E+00         0.00000E+00         0.00000E+00
 
    0.24748E+06         0.77004E+05         0.00000E+00
    0.77004E+05         0.34249E+04         0.00000E+00
    0.00000E+00         0.00000E+00         0.00000E+00
 
    0.24455E+06         0.82809E+05         0.00000E+00
    0.82809E+05         0.52381E+04         0.00000E+00
    0.00000E+00         0.00000E+00         0.00000E+00
 
    0.24136E+06         0.88535E+05         0.00000E+00
    0.88535E+05         0.71795E+04         0.00000E+00
    0.00000E+00         0.00000E+00         0.00000E+00
 
    0.23793E+06         0.94177E+05         0.00000E+00
    0.94177E+05         0.92470E+04         0.00000E+00
    0.00000E+00         0.00000E+00         0.00000E+00
 
    0.23426E+06         0.99730E+05         0.00000E+00
    0.99730E+05         0.11438E+05         0.00000E+00
    0.00000E+00         0.00000E+00         0.00000E+00
 
    0.23034E+06         0.10519E+06         0.00000E+00
    0.10519E+06         0.13751E+05         0.00000E+00
    0.00000E+00         0.00000E+00         0.00000E+00
 
    0.22619E+06         0.11055E+06         0.00000E+00
    0.11055E+06         0.16183E+05         0.00000E+00
    0.00000E+00         0.00000E+00         0.00000E+00
 
    0.22180E+06         0.11581E+06         0.00000E+00
    0.11581E+06         0.18732E+05         0.00000E+00
    0.00000E+00         0.00000E+00         0.00000E+00
 
    0.21719E+06         0.12096E+06         0.00000E+00
    0.12096E+06         0.21395E+05         0.00000E+00
    0.00000E+00         0.00000E+00         0.00000E+00
 
    0.21235E+06         0.12600E+06         0.00000E+00
    0.12600E+06         0.24170E+05         0.00000E+00
    0.00000E+00         0.00000E+00         0.00000E+00
 
    0.20729E+06         0.13092E+06         0.00000E+00
    0.13092E+06         0.27053E+05         0.00000E+00
    0.00000E+00         0.00000E+00         0.00000E+00
 
    0.20201E+06         0.13572E+06         0.00000E+00
    0.13572E+06         0.30043E+05         0.00000E+00
    0.00000E+00         0.00000E+00         0.00000E+00
 
    0.19652E+06         0.14039E+06         0.00000E+00
    0.14039E+06         0.33137E+05         0.00000E+00
    0.00000E+00         0.00000E+00         0.00000E+00
 
    0.19082E+06         0.14494E+06         0.00000E+00
    0.14494E+06         0.36331E+05         0.00000E+00
    0.00000E+00         0.00000E+00         0.00000E+00
 
    0.18492E+06         0.14935E+06         0.00000E+00
    0.14935E+06         0.39622E+05         0.00000E+00
    0.00000E+00         0.00000E+00         0.00000E+00
 
    0.17883E+06         0.15363E+06         0.00000E+00
    0.15363E+06         0.43009E+05         0.00000E+00
    0.00000E+00         0.00000E+00         0.00000E+00
 
    0.17253E+06         0.15777E+06         0.00000E+00
    0.15777E+06         0.46486E+05         0.00000E+00
    0.00000E+00         0.00000E+00         0.00000E+00
 
    0.16605E+06         0.16176E+06         0.00000E+00
    0.16176E+06         0.50053E+05         0.00000E+00
    0.00000E+00         0.00000E+00         0.00000E+00
 
    0.15938E+06         0.16560E+06         0.00000E+00
    0.16560E+06         0.53705E+05         0.00000E+00
    0.00000E+00         0.00000E+00         0.00000E+00
 
    0.15254E+06         0.16929E+06         0.00000E+00
    0.16929E+06         0.57438E+05         0.00000E+00
    0.00000E+00         0.00000E+00         0.00000E+00
 
    0.14552E+06         0.17283E+06         0.00000E+00
    0.17283E+06         0.61251E+05         0.00000E+00
    0.00000E+00         0.00000E+00         0.00000E+00
 
    0.13833E+06         0.17621E+06         0.00000E+00
    0.17621E+06         0.65139E+05         0.00000E+00
    0.00000E+00         0.00000E+00         0.00000E+00
 
    0.13097E+06         0.17943E+06         0.00000E+00
    0.17943E+06         0.69100E+05         0.00000E+00
    0.00000E+00         0.00000E+00         0.00000E+00
 
    0.12346E+06         0.18248E+06         0.00000E+00
    0.18248E+06         0.73129E+05         0.00000E+00
    0.00000E+00         0.00000E+00         0.00000E+00
 
    0.11579E+06         0.18537E+06         0.00000E+00
    0.18537E+06         0.77223E+05         0.00000E+00
    0.00000E+00         0.00000E+00         0.00000E+00
 
    0.10798E+06         0.18809E+06         0.00000E+00
    0.18809E+06         0.81380E+05         0.00000E+00
    0.00000E+00         0.00000E+00         0.00000E+00
 
    0.10002E+06         0.19063E+06         0.00000E+00
    0.19063E+06         0.85594E+05         0.00000E+00
    0.00000E+00         0.00000E+00         0.00000E+00
 
    0.91922E+05         0.19300E+06         0.00000E+00
    0.19300E+06         0.89863E+05         0.00000E+00
    0.00000E+00         0.00000E+00         0.00000E+00
 
    0.83693E+05         0.19519E+06         0.00000E+00
    0.19519E+06         0.94184E+05         0.00000E+00
    0.00000E+00         0.00000E+00         0.00000E+00
 
    0.75337E+05         0.19721E+06         0.00000E+00
    0.19721E+06         0.98551E+05         0.00000E+00
    0.00000E+00         0.00000E+00         0.00000E+00
 
    0.66860E+05         0.19903E+06         0.00000E+00
    0.19903E+06         0.10296E+06         0.00000E+00
    0.00000E+00         0.00000E+00         0.00000E+00
 
    0.58267E+05         0.20068E+06         0.00000E+00
    0.20068E+06         0.10741E+06         0.00000E+00
    0.00000E+00         0.00000E+00         0.00000E+00
 
    0.49565E+05         0.20214E+06         0.00000E+00
    0.20214E+06         0.11190E+06         0.00000E+00
    0.00000E+00         0.00000E+00         0.00000E+00
 
    0.40758E+05         0.20340E+06         0.00000E+00
    0.20340E+06         0.11642E+06         0.00000E+00
    0.00000E+00         0.00000E+00         0.00000E+00
 
    0.31852E+05         0.20448E+06         0.00000E+00
    0.20448E+06         0.12097E+06         0.00000E+00
    0.00000E+00         0.00000E+00         0.00000E+00
 
    0.22854E+05         0.20536E+06         0.00000E+00
    0.20536E+06         0.12554E+06         0.00000E+00
    0.00000E+00         0.00000E+00         0.00000E+00
 
    0.13769E+05         0.20605E+06         0.00000E+00
    0.20605E+06         0.13014E+06         0.00000E+00
    0.00000E+00         0.00000E+00         0.00000E+00
 
    0.46026E+04         0.20655E+06         0.00000E+00
    0.20655E+06         0.13475E+06         0.00000E+00
    0.00000E+00         0.00000E+00         0.00000E+00
 
    0.29398E+06         0.35570E+04         0.00000E+00
    0.35570E+04        -0.93284E+04         0.00000E+00
    0.00000E+00         0.00000E+00         0.00000E+00
 
    0.29422E+06         0.10653E+05         0.00000E+00
    0.10653E+05        -0.91640E+04         0.00000E+00
    0.00000E+00         0.00000E+00         0.00000E+00
 
    0.29414E+06         0.17733E+05         0.00000E+00
    0.17733E+05        -0.88368E+04         0.00000E+00
    0.00000E+00         0.00000E+00         0.00000E+00
 
    0.29376E+06         0.24790E+05         0.00000E+00
    0.24790E+05        -0.83479E+04         0.00000E+00
    0.00000E+00         0.00000E+00         0.00000E+00
 
    0.29307E+06         0.31819E+05         0.00000E+00
    0.31819E+05        -0.76983E+04         0.00000E+00
    0.00000E+00         0.00000E+00         0.00000E+00
 
    0.29207E+06         0.38812E+05         0.00000E+00
    0.38812E+05        -0.68895E+04         0.00000E+00
    0.00000E+00         0.00000E+00         0.00000E+00
 
    0.29077E+06         0.45763E+05         0.00000E+00
    0.45763E+05        -0.59229E+04         0.00000E+00
    0.00000E+00         0.00000E+00         0.00000E+00
 
    0.28917E+06         0.52666E+05         0.00000E+00
    0.52666E+05        -0.48000E+04         0.00000E+00
    0.00000E+00         0.00000E+00         0.00000E+00
 
    0.28727E+06         0.59515E+05         0.00000E+00
    0.59515E+05        -0.35225E+04         0.00000E+00
    0.00000E+00         0.00000E+00         0.00000E+00
 
    0.28507E+06         0.66303E+05         0.00000E+00
    0.66303E+05        -0.20921E+04         0.00000E+00
    0.00000E+00         0.00000E+00         0.00000E+00
 
    0.28258E+06         0.73024E+05         0.00000E+00
    0.73024E+05        -0.51080E+03         0.00000E+00
    0.00000E+00         0.00000E+00         0.00000E+00
 
    0.27981E+06         0.79672E+05         0.00000E+00
    0.79672E+05         0.12195E+04         0.00000E+00
    0.00000E+00         0.00000E+00         0.00000E+00
 
    0.27675E+06         0.86242E+05         0.00000E+00
    0.86242E+05         0.30966E+04         0.00000E+00
    0.00000E+00         0.00000E+00         0.00000E+00
 
    0.27341E+06         0.92728E+05         0.00000E+00
    0.92728E+05         0.51183E+04         0.00000E+00
    0.00000E+00         0.00000E+00         0.00000E+00
 
    0.26979E+06         0.99124E+05         0.00000E+00
    0.99124E+05         0.72824E+04         0.00000E+00
    0.00000E+00         0.00000E+00         0.00000E+00
 
    0.26590E+06         0.10542E+06         0.00000E+00
    0.10542E+06         0.95865E+04         0.00000E+00
    0.00000E+00         0.00000E+00         0.00000E+00
 
    0.26174E+06         0.11162E+06         0.00000E+00
    0.11162E+06         0.12028E+05         0.00000E+00
    0.00000E+00         0.00000E+00         0.00000E+00
 
    0.25731E+06         0.11772E+06         0.00000E+00
    0.11772E+06         0.14604E+05         0.00000E+00
    0.00000E+00         0.00000E+00         0.00000E+00
 
    0.25262E+06         0.12370E+06         0.00000E+00
    0.12370E+06         0.17313E+05         0.00000E+00
    0.00000E+00         0.00000E+00         0.00000E+00
 
    0.24768E+06         0.12957E+06         0.00000E+00
    0.12957E+06         0.20151E+05         0.00000E+00
    0.00000E+00         0.00000E+00         0.00000E+00
 
    0.24248E+06         0.13531E+06         0.00000E+00
    0.13531E+06         0.23116E+05         0.00000E+00
    0.00000E+00         0.00000E+00         0.00000E+00
 
    0.23703E+06         0.14093E+06         0.00000E+00
    0.14093E+06         0.26204E+05         0.00000E+00
    0.00000E+00         0.00000E+00         0.00000E+00
 
    0.23134E+06         0.14642E+06         0.00000E+00
    0.14642E+06         0.29414E+05         0.00000E+00
    0.00000E+00         0.00000E+00         0.00000E+00
 
    0.22542E+06         0.15177E+06         0.00000E+00
    0.15177E+06         0.32741E+05         0.00000E+00
    0.00000E+00         0.00000E+00         0.00000E+00
 
    0.21925E+06         0.15699E+06         0.00000E+00
    0.15699E+06         0.36182E+05         0.00000E+00
    0.00000E+00         0.00000E+00         0.00000E+00
 
    0.21286E+06         0.16205E+06         0.00000E+00
    0.16205E+06         0.39735E+05         0.00000E+00
    0.00000E+00         0.00000E+00         0.00000E+00
 
    0.20625E+06         0.16697E+06         0.00000E+00
    0.16697E+06         0.43396E+05         0.00000E+00
    0.00000E+00         0.00000E+00         0.00000E+00
 
    0.19942E+06         0.17174E+06         0.00000E+00
    0.17174E+06         0.47162E+05         0.00000E+00
    0.00000E+00         0.00000E+00         0.00000E+00
 
    0.19237E+06         0.17635E+06         0.00000E+00
    0.17635E+06         0.51030E+05         0.00000E+00
    0.00000E+00         0.00000E+00         0.00000E+00
 
    0.18512E+06         0.18080E+06         0.00000E+00
    0.18080E+06         0.54995E+05         0.00000E+00
    0.00000E+00         0.00000E+00         0.00000E+00
 
    0.17766E+06         0.18509E+06         0.00000E+00
    0.18509E+06         0.59055E+05         0.00000E+00
    0.00000E+00         0.00000E+00         0.00000E+00
 
    0.17001E+06         0.18920E+06         0.00000E+00
    0.18920E+06         0.63206E+05         0.00000E+00
    0.00000E+00         0.00000E+00         0.00000E+00
 
    0.16216E+06         0.19315E+06         0.00000E+00
    0.19315E+06         0.67444E+05         0.00000E+00
    0.00000E+00         0.00000E+00         0.00000E+00
 
    0.15413E+06         0.19691E+06         0.00000E+00
    0.19691E+06         0.71766E+05         0.00000E+00
    0.00000E+00         0.00000E+00         0.00000E+00
 
    0.14592E+06         0.20050E+06         0.00000E+00
    0.20050E+06         0.76168E+05         0.00000E+00
    0.00000E+00         0.00000E+00         0.00000E+00
 
    0.13753E+06         0.20391E+06         0.00000E+00
    0.20391E+06         0.80647E+05         0.00000E+00
    0.00000E+00         0.00000E+00         0.00000E+00
 
    0.12898E+06         0.20713E+06         0.00000E+00
    0.20713E+06         0.85198E+05         0.00000E+00
    0.00000E+00         0.00000E+00         0.00000E+00
 
    0.12026E+06         0.21017E+06         0.00000E+00
    0.21017E+06         0.89817E+05         0.00000E+00
    0.00000E+00         0.00000E+00         0.00000E+00
 
    0.11138E+06         0.21301E+06         0.00000E+00
    0.21301E+06         0.94501E+05         0.00000E+00
    0.00000E+00         0.00000E+00         0.00000E+00
 
    0.10236E+06         0.21566E+06         0.00000E+00
    0.21566E+06         0.99246E+05         0.00000E+00
    0.00000E+00         0.00000E+00         0.00000E+00
 
    0.93186E+05         0.21811E+06         0.00000E+00
    0.21811E+06         0.10405E+06         0.00000E+00
    0.00000E+00         0.00000E+00         0.00000E+00
 
    0.83876E+05         0.22036E+06         0.00000E+00
    0.22036E+06         0.10890E+06         0.00000E+00
    0.00000E+00         0.00000E+00         0.00000E+00
 
    0.74432E+05         0.22241E+06         0.00000E+00
    0.22241E+06         0.11381E+06         0.00000E+00
    0.00000E+00         0.00000E+00         0.00000E+00
 
    0.64861E+05         0.22426E+06         0.00000E+00
    0.22426E+06         0.11876E+06         0.00000E+00
    0.00000E+00         0.00000E+00         0.00000E+00
 
    0.55170E+05         0.22590E+06         0.00000E+00
    0.22590E+06         0.12374E+06         0.00000E+00
    0.00000E+00         0.00000E+00         0.00000E+00
 
    0.45364E+05         0.22733E+06         0.00000E+00
    0.22733E+06         0.12877E+06         0.00000E+00
    0.00000E+00         0.00000E+00         0.00000E+00
 
    0.35450E+05         0.22855E+06         0.00000E+00
    0.22855E+06         0.13383E+06         0.00000E+00
    0.00000E+00         0.00000E+00         0.00000E+00
 
    0.25434E+05         0.22956E+06         0.00000E+00
    0.22956E+06         0.13892E+06         0.00000E+00
    0.00000E+00         0.00000E+00         0.00000E+00
 
    0.15323E+05         0.23035E+06         0.00000E+00
    0.23035E+06         0.14403E+06         0.00000E+00
    0.00000E+00         0.00000E+00         0.00000E+00
 
    0.51219E+04         0.23092E+06         0.00000E+00
    0.23092E+06         0.14916E+06         0.00000E+00
    0.00000E+00         0.00000E+00         0.00000E+00
 
    0.32965E+06         0.39951E+04         0.00000E+00
    0.39951E+04        -0.11289E+05         0.00000E+00
    0.00000E+00         0.00000E+00         0.00000E+00
 
    0.32981E+06         0.11954E+05         0.00000E+00
    0.11954E+05        -0.11105E+05         0.00000E+00
    0.00000E+00         0.00000E+00         0.00000E+00
 
    0.32963E+06         0.19893E+05         0.00000E+00
    0.19893E+05        -0.10739E+05         0.00000E+00
    0.00000E+00         0.00000E+00         0.00000E+00
 
    0.32910E+06         0.27802E+05         0.00000E+00
    0.27802E+05        -0.10193E+05         0.00000E+00
    0.00000E+00         0.00000E+00         0.00000E+00
 
    0.32823E+06         0.35676E+05         0.00000E+00
    0.35676E+05        -0.94674E+04         0.00000E+00
    0.00000E+00         0.00000E+00         0.00000E+00
 
    0.32702E+06         0.43507E+05         0.00000E+00
    0.43507E+05        -0.85643E+04         0.00000E+00
    0.00000E+00         0.00000E+00         0.00000E+00
 
    0.32547E+06         0.51287E+05         0.00000E+00
    0.51287E+05        -0.74853E+04         0.00000E+00
    0.00000E+00         0.00000E+00         0.00000E+00
 
    0.32359E+06         0.59011E+05         0.00000E+00
    0.59011E+05        -0.62323E+04         0.00000E+00
    0.00000E+00         0.00000E+00         0.00000E+00
 
    0.32138E+06         0.66671E+05         0.00000E+00
    0.66671E+05        -0.48072E+04         0.00000E+00
    0.00000E+00         0.00000E+00         0.00000E+00
 
    0.31884E+06         0.74260E+05         0.00000E+00
    0.74260E+05        -0.32121E+04         0.00000E+00
    0.00000E+00         0.00000E+00         0.00000E+00
 
    0.31598E+06         0.81772E+05         0.00000E+00
    0.81772E+05        -0.14491E+04         0.00000E+00
    0.00000E+00         0.00000E+00         0.00000E+00
 
    0.31280E+06         0.89201E+05         0.00000E+00
    0.89201E+05         0.47931E+03         0.00000E+00
    0.00000E+00         0.00000E+00         0.00000E+00
 
    0.30931E+06         0.96539E+05         0.00000E+00
    0.96539E+05         0.25709E+04         0.00000E+00
    0.00000E+00         0.00000E+00         0.00000E+00
 
    0.30550E+06         0.10378E+06         0.00000E+00
    0.10378E+06         0.48230E+04         0.00000E+00
    0.00000E+00         0.00000E+00         0.00000E+00
 
    0.30139E+06         0.11092E+06         0.00000E+00
    0.11092E+06         0.72330E+04         0.00000E+00
    0.00000E+00         0.00000E+00         0.00000E+00
 
    0.29697E+06         0.11795E+06         0.00000E+00
    0.11795E+06         0.97983E+04         0.00000E+00
    0.00000E+00         0.00000E+00         0.00000E+00
 
    0.29226E+06         0.12487E+06         0.00000E+00
    0.12487E+06         0.12516E+05         0.00000E+00
    0.00000E+00         0.00000E+00         0.00000E+00
 
    0.28726E+06         0.13167E+06         0.00000E+00
    0.13167E+06         0.15383E+05         0.00000E+00
    0.00000E+00         0.00000E+00         0.00000E+00
 
    0.28196E+06         0.13834E+06         0.00000E+00
    0.13834E+06         0.18397E+05         0.00000E+00
    0.00000E+00         0.00000E+00         0.00000E+00
 
    0.27639E+06         0.14488E+06         0.00000E+00
    0.14488E+06         0.21554E+05         0.00000E+00
    0.00000E+00         0.00000E+00         0.00000E+00
 
    0.27053E+06         0.15128E+06         0.00000E+00
    0.15128E+06         0.24851E+05         0.00000E+00
    0.00000E+00         0.00000E+00         0.00000E+00
 
    0.26440E+06         0.15755E+06         0.00000E+00
    0.15755E+06         0.28286E+05         0.00000E+00
    0.00000E+00         0.00000E+00         0.00000E+00
 
    0.25801E+06         0.16366E+06         0.00000E+00
    0.16366E+06         0.31854E+05         0.00000E+00
    0.00000E+00         0.00000E+00         0.00000E+00
 
    0.25135E+06         0.16963E+06         0.00000E+00
    0.16963E+06         0.35552E+05         0.00000E+00
    0.00000E+00         0.00000E+00         0.00000E+00
 
    0.24444E+06         0.17543E+06         0.00000E+00
    0.17543E+06         0.39377E+05         0.00000E+00
    0.00000E+00         0.00000E+00         0.00000E+00
 
    0.23727E+06         0.18108E+06         0.00000E+00
    0.18108E+06         0.43325E+05         0.00000E+00
    0.00000E+00         0.00000E+00         0.00000E+00
 
    0.22986E+06         0.18656E+06         0.00000E+00
    0.18656E+06         0.47393E+05         0.00000E+00
    0.00000E+00         0.00000E+00         0.00000E+00
 
    0.22221E+06         0.19187E+06         0.00000E+00
    0.19187E+06         0.51577E+05         0.00000E+00
    0.00000E+00         0.00000E+00         0.00000E+00
 
    0.21433E+06         0.19701E+06         0.00000E+00
    0.19701E+06         0.55873E+05         0.00000E+00
    0.00000E+00         0.00000E+00         0.00000E+00
 
    0.20621E+06         0.20196E+06         0.00000E+00
    0.20196E+06         0.60278E+05         0.00000E+00
    0.00000E+00         0.00000E+00         0.00000E+00
 
    0.19788E+06         0.20673E+06         0.00000E+00
    0.20673E+06         0.64787E+05         0.00000E+00
    0.00000E+00         0.00000E+00         0.00000E+00
 
    0.18933E+06         0.21132E+06         0.00000E+00
    0.21132E+06         0.69397E+05         0.00000E+00
    0.00000E+00         0.00000E+00         0.00000E+00
 
    0.18056E+06         0.21571E+06         0.00000E+00
    0.21571E+06         0.74103E+05         0.00000E+00
    0.00000E+00         0.00000E+00         0.00000E+00
 
    0.17160E+06         0.21991E+06         0.00000E+00
    0.21991E+06         0.78902E+05         0.00000E+00
    0.00000E+00         0.00000E+00         0.00000E+00
 
    0.16244E+06         0.22392E+06         0.00000E+00
    0.22392E+06         0.83790E+05         0.00000E+00
    0.00000E+00         0.00000E+00         0.00000E+00
 
    0.15308E+06         0.22771E+06         0.00000E+00
    0.22771E+06         0.88762E+05         0.00000E+00
    0.00000E+00         0.00000E+00         0.00000E+00
 
    0.14354E+06         0.23131E+06         0.00000E+00
    0.23131E+06         0.93815E+05         0.00000E+00
    0.00000E+00         0.00000E+00         0.00000E+00
 
    0.13383E+06         0.23469E+06         0.00000E+00
    0.23469E+06         0.98944E+05         0.00000E+00
    0.00000E+00         0.00000E+00         0.00000E+00
 
    0.12394E+06         0.23787E+06         0.00000E+00
    0.23787E+06         0.10414E+06         0.00000E+00
    0.00000E+00         0.00000E+00         0.00000E+00
 
    0.11388E+06         0.24083E+06         0.00000E+00
    0.24083E+06         0.10941E+06         0.00000E+00
    0.00000E+00         0.00000E+00         0.00000E+00
 
    0.10367E+06         0.24357E+06         0.00000E+00
    0.24357E+06         0.11475E+06         0.00000E+00
    0.00000E+00         0.00000E+00         0.00000E+00
 
    0.93302E+05         0.24609E+06         0.00000E+00
    0.24609E+06         0.12014E+06         0.00000E+00
    0.00000E+00         0.00000E+00         0.00000E+00
 
    0.82790E+05         0.24839E+06         0.00000E+00
    0.24839E+06         0.12558E+06         0.00000E+00
    0.00000E+00         0.00000E+00         0.00000E+00
 
    0.72139E+05         0.25046E+06         0.00000E+00
    0.25046E+06         0.13108E+06         0.00000E+00
    0.00000E+00         0.00000E+00         0.00000E+00
 
    0.61356E+05         0.25231E+06         0.00000E+00
    0.25231E+06         0.13662E+06         0.00000E+00
    0.00000E+00         0.00000E+00         0.00000E+00
 
    0.50447E+05         0.25392E+06         0.00000E+00
    0.25392E+06         0.14220E+06         0.00000E+00
    0.00000E+00         0.00000E+00         0.00000E+00
 
    0.39420E+05         0.25530E+06         0.00000E+00
    0.25530E+06         0.14782E+06         0.00000E+00
    0.00000E+00         0.00000E+00         0.00000E+00
 
    0.28281E+05         0.25645E+06         0.00000E+00
    0.25645E+06         0.15347E+06         0.00000E+00
    0.00000E+00         0.00000E+00         0.00000E+00
 
    0.17037E+05         0.25736E+06         0.00000E+00
    0.25736E+06         0.15915E+06         0.00000E+00
    0.00000E+00         0.00000E+00         0.00000E+00
 
    0.56946E+04         0.25803E+06         0.00000E+00
    0.25803E+06         0.16486E+06         0.00000E+00
    0.00000E+00         0.00000E+00         0.00000E+00
 
    0.36950E+06         0.44855E+04         0.00000E+00
    0.44855E+04        -0.13654E+05         0.00000E+00
    0.00000E+00         0.00000E+00         0.00000E+00
 
    0.36956E+06         0.13410E+05         0.00000E+00
    0.13410E+05        -0.13449E+05         0.00000E+00
    0.00000E+00         0.00000E+00         0.00000E+00
 
    0.36923E+06         0.22306E+05         0.00000E+00
    0.22306E+05        -0.13040E+05         0.00000E+00
    0.00000E+00         0.00000E+00         0.00000E+00
 
    0.36852E+06         0.31166E+05         0.00000E+00
    0.31166E+05        -0.12430E+05         0.00000E+00
    0.00000E+00         0.00000E+00         0.00000E+00
 
    0.36743E+06         0.39981E+05         0.00000E+00
    0.39981E+05        -0.11620E+05         0.00000E+00
    0.00000E+00         0.00000E+00         0.00000E+00
 
    0.36597E+06         0.48745E+05         0.00000E+00
    0.48745E+05        -0.10613E+05         0.00000E+00
    0.00000E+00         0.00000E+00         0.00000E+00
 
    0.36413E+06         0.57449E+05         0.00000E+00
    0.57449E+05        -0.94094E+04         0.00000E+00
    0.00000E+00         0.00000E+00         0.00000E+00
 
    0.36192E+06         0.66086E+05         0.00000E+00
    0.66086E+05        -0.80125E+04         0.00000E+00
    0.00000E+00         0.00000E+00         0.00000E+00
 
    0.35934E+06         0.74648E+05         0.00000E+00
    0.74648E+05        -0.64243E+04         0.00000E+00
    0.00000E+00         0.00000E+00         0.00000E+00
 
    0.35641E+06         0.83128E+05         0.00000E+00
    0.83128E+05        -0.46472E+04         0.00000E+00
    0.00000E+00         0.00000E+00         0.00000E+00
 
    0.35311E+06         0.91519E+05         0.00000E+00
    0.91519E+05        -0.26837E+04         0.00000E+00
    0.00000E+00         0.00000E+00         0.00000E+00
 
    0.34947E+06         0.99814E+05         0.00000E+00
    0.99814E+05        -0.53651E+03         0.00000E+00
    0.00000E+00         0.00000E+00         0.00000E+00
 
    0.34547E+06         0.10800E+06         0.00000E+00
    0.10800E+06         0.17916E+04         0.00000E+00
    0.00000E+00         0.00000E+00         0.00000E+00
 
    0.34114E+06         0.11609E+06         0.00000E+00
    0.11609E+06         0.42978E+04         0.00000E+00
    0.00000E+00         0.00000E+00         0.00000E+00
 
    0.33646E+06         0.12405E+06         0.00000E+00
    0.12405E+06         0.69790E+04         0.00000E+00
    0.00000E+00         0.00000E+00         0.00000E+00
 
    0.33145E+06         0.13189E+06         0.00000E+00
    0.13189E+06         0.98322E+04         0.00000E+00
    0.00000E+00         0.00000E+00         0.00000E+00
 
    0.32612E+06         0.13960E+06         0.00000E+00
    0.13960E+06         0.12854E+05         0.00000E+00
    0.00000E+00         0.00000E+00         0.00000E+00
 
    0.32046E+06         0.14718E+06         0.00000E+00
    0.14718E+06         0.16042E+05         0.00000E+00
    0.00000E+00         0.00000E+00         0.00000E+00
 
    0.31448E+06         0.15462E+06         0.00000E+00
    0.15462E+06         0.19391E+05         0.00000E+00
    0.00000E+00         0.00000E+00         0.00000E+00
 
    0.30820E+06         0.16190E+06         0.00000E+00
    0.16190E+06         0.22899E+05         0.00000E+00
    0.00000E+00         0.00000E+00         0.00000E+00
 
    0.30161E+06         0.16904E+06         0.00000E+00
    0.16904E+06         0.26563E+05         0.00000E+00
    0.00000E+00         0.00000E+00         0.00000E+00
 
    0.29471E+06         0.17601E+06         0.00000E+00
    0.17601E+06         0.30377E+05         0.00000E+00
    0.00000E+00         0.00000E+00         0.00000E+00
 
    0.28753E+06         0.18282E+06         0.00000E+00
    0.18282E+06         0.34340E+05         0.00000E+00
    0.00000E+00         0.00000E+00         0.00000E+00
 
    0.28006E+06         0.18946E+06         0.00000E+00
    0.18946E+06         0.38446E+05         0.00000E+00
    0.00000E+00         0.00000E+00         0.00000E+00
 
    0.27230E+06         0.19593E+06         0.00000E+00
    0.19593E+06         0.42693E+05         0.00000E+00
    0.00000E+00         0.00000E+00         0.00000E+00
 
    0.26427E+06         0.20221E+06         0.00000E+00
    0.20221E+06         0.47075E+05         0.00000E+00
    0.00000E+00         0.00000E+00         0.00000E+00
 
    0.25597E+06         0.20831E+06         0.00000E+00
    0.20831E+06         0.51590E+05         0.00000E+00
    0.00000E+00         0.00000E+00         0.00000E+00
 
    0.24741E+06         0.21422E+06         0.00000E+00
    0.21422E+06         0.56233E+05         0.00000E+00
    0.00000E+00         0.00000E+00         0.00000E+00
 
    0.23859E+06         0.21993E+06         0.00000E+00
    0.21993E+06         0.61000E+05         0.00000E+00
    0.00000E+00         0.00000E+00         0.00000E+00
 
    0.22952E+06         0.22545E+06         0.00000E+00
    0.22545E+06         0.65886E+05         0.00000E+00
    0.00000E+00         0.00000E+00         0.00000E+00
 
    0.22021E+06         0.23076E+06         0.00000E+00
    0.23076E+06         0.70889E+05         0.00000E+00
    0.00000E+00         0.00000E+00         0.00000E+00
 
    0.21066E+06         0.23587E+06         0.00000E+00
    0.23587E+06         0.76002E+05         0.00000E+00
    0.00000E+00         0.00000E+00         0.00000E+00
 
    0.20088E+06         0.24076E+06         0.00000E+00
    0.24076E+06         0.81223E+05         0.00000E+00
    0.00000E+00         0.00000E+00         0.00000E+00
 
    0.19088E+06         0.24544E+06         0.00000E+00
    0.24544E+06         0.86546E+05         0.00000E+00
    0.00000E+00         0.00000E+00         0.00000E+00
 
    0.18067E+06         0.24989E+06         0.00000E+00
    0.24989E+06         0.91967E+05         0.00000E+00
    0.00000E+00         0.00000E+00         0.00000E+00
 
    0.17024E+06         0.25413E+06         0.00000E+00
    0.25413E+06         0.97481E+05         0.00000E+00
    0.00000E+00         0.00000E+00         0.00000E+00
 
    0.15961E+06         0.25813E+06         0.00000E+00
    0.25813E+06         0.10309E+06         0.00000E+00
    0.00000E+00         0.00000E+00         0.00000E+00
 
    0.14879E+06         0.26191E+06         0.00000E+00
    0.26191E+06         0.10877E+06         0.00000E+00
    0.00000E+00         0.00000E+00         0.00000E+00
 
    0.13778E+06         0.26545E+06         0.00000E+00
    0.26545E+06         0.11454E+06         0.00000E+00
    0.00000E+00         0.00000E+00         0.00000E+00
 
    0.12659E+06         0.26876E+06         0.00000E+00
    0.26876E+06         0.12039E+06         0.00000E+00
    0.00000E+00         0.00000E+00         0.00000E+00
 
    0.11522E+06         0.27182E+06         0.00000E+00
    0.27182E+06         0.12630E+06         0.00000E+00
    0.00000E+00         0.00000E+00         0.00000E+00
 
    0.10369E+06         0.27464E+06         0.00000E+00
    0.27464E+06         0.13228E+06         0.00000E+00
    0.00000E+00         0.00000E+00         0.00000E+00
 
    0.92000E+05         0.27722E+06         0.00000E+00
    0.27722E+06         0.13832E+06         0.00000E+00
    0.00000E+00         0.00000E+00         0.00000E+00
 
    0.80158E+05         0.27955E+06         0.00000E+00
    0.27955E+06         0.14442E+06         0.00000E+00
    0.00000E+00         0.00000E+00         0.00000E+00
 
    0.68170E+05         0.28162E+06         0.00000E+00
    0.28162E+06         0.15057E+06         0.00000E+00
    0.00000E+00         0.00000E+00         0.00000E+00
 
    0.56046E+05         0.28345E+06         0.00000E+00
    0.28345E+06         0.15676E+06         0.00000E+00
    0.00000E+00         0.00000E+00         0.00000E+00
 
    0.43792E+05         0.28501E+06         0.00000E+00
    0.28501E+06         0.16300E+06         0.00000E+00
    0.00000E+00         0.00000E+00         0.00000E+00
 
    0.31416E+05         0.28632E+06         0.00000E+00
    0.28632E+06         0.16927E+06         0.00000E+00
    0.00000E+00         0.00000E+00         0.00000E+00
 
    0.18924E+05         0.28737E+06         0.00000E+00
    0.28737E+06         0.17558E+06         0.00000E+00
    0.00000E+00         0.00000E+00         0.00000E+00
 
    0.63254E+04         0.28815E+06         0.00000E+00
    0.28815E+06         0.18191E+06         0.00000E+00
    0.00000E+00         0.00000E+00         0.00000E+00
 
    0.41397E+06         0.50339E+04         0.00000E+00
    0.50339E+04        -0.16505E+05         0.00000E+00
    0.00000E+00         0.00000E+00         0.00000E+00
 
    0.41389E+06         0.15035E+05         0.00000E+00
    0.15035E+05        -0.16276E+05         0.00000E+00
    0.00000E+00         0.00000E+00         0.00000E+00
 
    0.41339E+06         0.24999E+05         0.00000E+00
    0.24999E+05        -0.15820E+05         0.00000E+00
    0.00000E+00         0.00000E+00         0.00000E+00
 
    0.41245E+06         0.34918E+05         0.00000E+00
    0.34918E+05        -0.15139E+05         0.00000E+00
    0.00000E+00         0.00000E+00         0.00000E+00
 
    0.41110E+06         0.44783E+05         0.00000E+00
    0.44783E+05        -0.14237E+05         0.00000E+00
    0.00000E+00         0.00000E+00         0.00000E+00
 
    0.40933E+06         0.54585E+05         0.00000E+00
    0.54585E+05        -0.13114E+05         0.00000E+00
    0.00000E+00         0.00000E+00         0.00000E+00
 
    0.40714E+06         0.64317E+05         0.00000E+00
    0.64317E+05        -0.11773E+05         0.00000E+00
    0.00000E+00         0.00000E+00         0.00000E+00
 
    0.40454E+06         0.73969E+05         0.00000E+00
    0.73969E+05        -0.10217E+05         0.00000E+00
    0.00000E+00         0.00000E+00         0.00000E+00
 
    0.40155E+06         0.83533E+05         0.00000E+00
    0.83533E+05        -0.84494E+04         0.00000E+00
    0.00000E+00         0.00000E+00         0.00000E+00
 
    0.39815E+06         0.93002E+05         0.00000E+00
    0.93002E+05        -0.64716E+04         0.00000E+00
    0.00000E+00         0.00000E+00         0.00000E+00
 
    0.39436E+06         0.10237E+06         0.00000E+00
    0.10237E+06        -0.42871E+04         0.00000E+00
    0.00000E+00         0.00000E+00         0.00000E+00
 
    0.39017E+06         0.11162E+06         0.00000E+00
    0.11162E+06        -0.18989E+04         0.00000E+00
    0.00000E+00         0.00000E+00         0.00000E+00
 
    0.38561E+06         0.12076E+06         0.00000E+00
    0.12076E+06         0.68965E+03         0.00000E+00
    0.00000E+00         0.00000E+00         0.00000E+00
 
    0.38067E+06         0.12977E+06         0.00000E+00
    0.12977E+06         0.34754E+04         0.00000E+00
    0.00000E+00         0.00000E+00         0.00000E+00
 
    0.37535E+06         0.13865E+06         0.00000E+00
    0.13865E+06         0.64549E+04         0.00000E+00
    0.00000E+00         0.00000E+00         0.00000E+00
 
    0.36967E+06         0.14739E+06         0.00000E+00
    0.14739E+06         0.96247E+04         0.00000E+00
    0.00000E+00         0.00000E+00         0.00000E+00
 
    0.36363E+06         0.15598E+06         0.00000E+00
    0.15598E+06         0.12981E+05         0.00000E+00
    0.00000E+00         0.00000E+00         0.00000E+00
 
    0.35723E+06         0.16441E+06         0.00000E+00
    0.16441E+06         0.16520E+05         0.00000E+00
    0.00000E+00         0.00000E+00         0.00000E+00
 
    0.35049E+06         0.17269E+06         0.00000E+00
    0.17269E+06         0.20239E+05         0.00000E+00
    0.00000E+00         0.00000E+00         0.00000E+00
 
    0.34341E+06         0.18080E+06         0.00000E+00
    0.18080E+06         0.24133E+05         0.00000E+00
    0.00000E+00         0.00000E+00         0.00000E+00
 
    0.33598E+06         0.18874E+06         0.00000E+00
    0.18874E+06         0.28197E+05         0.00000E+00
    0.00000E+00         0.00000E+00         0.00000E+00
 
    0.32824E+06         0.19650E+06         0.00000E+00
    0.19650E+06         0.32430E+05         0.00000E+00
    0.00000E+00         0.00000E+00         0.00000E+00
 
    0.32016E+06         0.20408E+06         0.00000E+00
    0.20408E+06         0.36825E+05         0.00000E+00
    0.00000E+00         0.00000E+00         0.00000E+00
 
    0.31178E+06         0.21147E+06         0.00000E+00
    0.21147E+06         0.41379E+05         0.00000E+00
    0.00000E+00         0.00000E+00         0.00000E+00
 
    0.30308E+06         0.21866E+06         0.00000E+00
    0.21866E+06         0.46087E+05         0.00000E+00
    0.00000E+00         0.00000E+00         0.00000E+00
 
    0.29409E+06         0.22565E+06         0.00000E+00
    0.22565E+06         0.50946E+05         0.00000E+00
    0.00000E+00         0.00000E+00         0.00000E+00
 
    0.28480E+06         0.23243E+06         0.00000E+00
    0.23243E+06         0.55951E+05         0.00000E+00
    0.00000E+00         0.00000E+00         0.00000E+00
 
    0.27522E+06         0.23900E+06         0.00000E+00
    0.23900E+06         0.61097E+05         0.00000E+00
    0.00000E+00         0.00000E+00         0.00000E+00
 
    0.26536E+06         0.24536E+06         0.00000E+00
    0.24536E+06         0.66380E+05         0.00000E+00
    0.00000E+00         0.00000E+00         0.00000E+00
 
    0.25523E+06         0.25149E+06         0.00000E+00
    0.25149E+06         0.71795E+05         0.00000E+00
    0.00000E+00         0.00000E+00         0.00000E+00
 
    0.24484E+06         0.25740E+06         0.00000E+00
    0.25740E+06         0.77337E+05         0.00000E+00
    0.00000E+00         0.00000E+00         0.00000E+00
 
    0.23418E+06         0.26308E+06         0.00000E+00
    0.26308E+06         0.83003E+05         0.00000E+00
    0.00000E+00         0.00000E+00         0.00000E+00
 
    0.22328E+06         0.26852E+06         0.00000E+00
    0.26852E+06         0.88786E+05         0.00000E+00
    0.00000E+00         0.00000E+00         0.00000E+00
 
    0.21213E+06         0.27373E+06         0.00000E+00
    0.27373E+06         0.94683E+05         0.00000E+00
    0.00000E+00         0.00000E+00         0.00000E+00
 
    0.20075E+06         0.27869E+06         0.00000E+00
    0.27869E+06         0.10069E+06         0.00000E+00
    0.00000E+00         0.00000E+00         0.00000E+00
 
    0.18914E+06         0.28340E+06         0.00000E+00
    0.28340E+06         0.10680E+06         0.00000E+00
    0.00000E+00         0.00000E+00         0.00000E+00
 
    0.17731E+06         0.28787E+06         0.00000E+00
    0.28787E+06         0.11300E+06         0.00000E+00
    0.00000E+00         0.00000E+00         0.00000E+00
 
    0.16527E+06         0.29208E+06         0.00000E+00
    0.29208E+06         0.11931E+06         0.00000E+00
    0.00000E+00         0.00000E+00         0.00000E+00
 
    0.15302E+06         0.29603E+06         0.00000E+00
    0.29603E+06         0.12570E+06         0.00000E+00
    0.00000E+00         0.00000E+00         0.00000E+00
 
    0.14057E+06         0.29972E+06         0.00000E+00
    0.29972E+06         0.13217E+06         0.00000E+00
    0.00000E+00         0.00000E+00         0.00000E+00
 
    0.12794E+06         0.30314E+06         0.00000E+00
    0.30314E+06         0.13872E+06         0.00000E+00
    0.00000E+00         0.00000E+00         0.00000E+00
 
    0.11512E+06         0.30630E+06         0.00000E+00
    0.30630E+06         0.14535E+06         0.00000E+00
    0.00000E+00         0.00000E+00         0.00000E+00
 
    0.10213E+06         0.30919E+06         0.00000E+00
    0.30919E+06         0.15204E+06         0.00000E+00
    0.00000E+00         0.00000E+00         0.00000E+00
 
    0.88978E+05         0.31180E+06         0.00000E+00
    0.31180E+06         0.15880E+06         0.00000E+00
    0.00000E+00         0.00000E+00         0.00000E+00
 
    0.75666E+05         0.31414E+06         0.00000E+00
    0.31414E+06         0.16561E+06         0.00000E+00
    0.00000E+00         0.00000E+00         0.00000E+00
 
    0.62204E+05         0.31619E+06         0.00000E+00
    0.31619E+06         0.17248E+06         0.00000E+00
    0.00000E+00         0.00000E+00         0.00000E+00
 
    0.48600E+05         0.31797E+06         0.00000E+00
    0.31797E+06         0.17939E+06         0.00000E+00
    0.00000E+00         0.00000E+00         0.00000E+00
 
    0.34862E+05         0.31946E+06         0.00000E+00
    0.31946E+06         0.18635E+06         0.00000E+00
    0.00000E+00         0.00000E+00         0.00000E+00
 
    0.20999E+05         0.32066E+06         0.00000E+00
    0.32066E+06         0.19334E+06         0.00000E+00
    0.00000E+00         0.00000E+00         0.00000E+00
 
    0.70187E+04         0.32158E+06         0.00000E+00
    0.32158E+06         0.20037E+06         0.00000E+00
    0.00000E+00         0.00000E+00         0.00000E+00
 
    0.46357E+06         0.56468E+04         0.00000E+00
    0.56468E+04        -0.19940E+05         0.00000E+00
    0.00000E+00         0.00000E+00         0.00000E+00
 
    0.46331E+06         0.16848E+05         0.00000E+00
    0.16848E+05        -0.19684E+05         0.00000E+00
    0.00000E+00         0.00000E+00         0.00000E+00
 
    0.46257E+06         0.28003E+05         0.00000E+00
    0.28003E+05        -0.19176E+05         0.00000E+00
    0.00000E+00         0.00000E+00         0.00000E+00
 
    0.46136E+06         0.39101E+05         0.00000E+00
    0.39101E+05        -0.18418E+05         0.00000E+00
    0.00000E+00         0.00000E+00         0.00000E+00
 
    0.45969E+06         0.50133E+05         0.00000E+00
    0.50133E+05        -0.17412E+05         0.00000E+00
    0.00000E+00         0.00000E+00         0.00000E+00
 
    0.45755E+06         0.61090E+05         0.00000E+00
    0.61090E+05        -0.16162E+05         0.00000E+00
    0.00000E+00         0.00000E+00         0.00000E+00
 
    0.45495E+06         0.71962E+05         0.00000E+00
    0.71962E+05        -0.14670E+05         0.00000E+00
    0.00000E+00         0.00000E+00         0.00000E+00
 
    0.45191E+06         0.82740E+05         0.00000E+00
    0.82740E+05        -0.12940E+05         0.00000E+00
    0.00000E+00         0.00000E+00         0.00000E+00
 
    0.44841E+06         0.93417E+05         0.00000E+00
    0.93417E+05        -0.10974E+05         0.00000E+00
    0.00000E+00         0.00000E+00         0.00000E+00
 
    0.44448E+06         0.10398E+06         0.00000E+00
    0.10398E+06        -0.87752E+04         0.00000E+00
    0.00000E+00         0.00000E+00         0.00000E+00
 
    0.44011E+06         0.11443E+06         0.00000E+00
    0.11443E+06        -0.63477E+04         0.00000E+00
    0.00000E+00         0.00000E+00         0.00000E+00
 
    0.43531E+06         0.12475E+06         0.00000E+00
    0.12475E+06        -0.36948E+04         0.00000E+00
    0.00000E+00         0.00000E+00         0.00000E+00
 
    0.43010E+06         0.13493E+06         0.00000E+00
    0.13493E+06        -0.82008E+03         0.00000E+00
    0.00000E+00         0.00000E+00         0.00000E+00
 
    0.42446E+06         0.14497E+06         0.00000E+00
    0.14497E+06         0.22726E+04         0.00000E+00
    0.00000E+00         0.00000E+00         0.00000E+00
 
    0.41842E+06         0.15486E+06         0.00000E+00
    0.15486E+06         0.55795E+04         0.00000E+00
    0.00000E+00         0.00000E+00         0.00000E+00
 
    0.41198E+06         0.16458E+06         0.00000E+00
    0.16458E+06         0.90966E+04         0.00000E+00
    0.00000E+00         0.00000E+00         0.00000E+00
 
    0.40514E+06         0.17415E+06         0.00000E+00
    0.17415E+06         0.12820E+05         0.00000E+00
    0.00000E+00         0.00000E+00         0.00000E+00
 
    0.39791E+06         0.18354E+06         0.00000E+00
    0.18354E+06         0.16745E+05         0.00000E+00
    0.00000E+00         0.00000E+00         0.00000E+00
 
    0.39030E+06         0.19275E+06         0.00000E+00
    0.19275E+06         0.20867E+05         0.00000E+00
    0.00000E+00         0.00000E+00         0.00000E+00
 
    0.38231E+06         0.20177E+06         0.00000E+00
    0.20177E+06         0.25183E+05         0.00000E+00
    0.00000E+00         0.00000E+00         0.00000E+00
 
    0.37396E+06         0.21060E+06         0.00000E+00
    0.21060E+06         0.29688E+05         0.00000E+00
    0.00000E+00         0.00000E+00         0.00000E+00
 
    0.36525E+06         0.21922E+06         0.00000E+00
    0.21922E+06         0.34377E+05         0.00000E+00
    0.00000E+00         0.00000E+00         0.00000E+00
 
    0.35619E+06         0.22765E+06         0.00000E+00
    0.22765E+06         0.39246E+05         0.00000E+00
    0.00000E+00         0.00000E+00         0.00000E+00
 
    0.34678E+06         0.23586E+06         0.00000E+00
    0.23586E+06         0.44290E+05         0.00000E+00
    0.00000E+00         0.00000E+00         0.00000E+00
 
    0.33704E+06         0.24385E+06         0.00000E+00
    0.24385E+06         0.49504E+05         0.00000E+00
    0.00000E+00         0.00000E+00         0.00000E+00
 
    0.32697E+06         0.25161E+06         0.00000E+00
    0.25161E+06         0.54884E+05         0.00000E+00
    0.00000E+00         0.00000E+00         0.00000E+00
 
    0.31658E+06         0.25915E+06         0.00000E+00
    0.25915E+06         0.60424E+05         0.00000E+00
    0.00000E+00         0.00000E+00         0.00000E+00
 
    0.30587E+06         0.26645E+06         0.00000E+00
    0.26645E+06         0.66120E+05         0.00000E+00
    0.00000E+00         0.00000E+00         0.00000E+00
 
    0.29486E+06         0.27352E+06         0.00000E+00
    0.27352E+06         0.71967E+05         0.00000E+00
    0.00000E+00         0.00000E+00         0.00000E+00
 
    0.28355E+06         0.28033E+06         0.00000E+00
    0.28033E+06         0.77959E+05         0.00000E+00
    0.00000E+00         0.00000E+00         0.00000E+00
 
    0.27196E+06         0.28690E+06         0.00000E+00
    0.28690E+06         0.84093E+05         0.00000E+00
    0.00000E+00         0.00000E+00         0.00000E+00
 
    0.26008E+06         0.29321E+06         0.00000E+00
    0.29321E+06         0.90361E+05         0.00000E+00
    0.00000E+00         0.00000E+00         0.00000E+00
 
    0.24793E+06         0.29926E+06         0.00000E+00
    0.29926E+06         0.96760E+05         0.00000E+00
    0.00000E+00         0.00000E+00         0.00000E+00
 
    0.23551E+06         0.30505E+06         0.00000E+00
    0.30505E+06         0.10328E+06         0.00000E+00
    0.00000E+00         0.00000E+00         0.00000E+00
 
    0.22284E+06         0.31057E+06         0.00000E+00
    0.31057E+06         0.10993E+06         0.00000E+00
    0.00000E+00         0.00000E+00         0.00000E+00
 
    0.20992E+06         0.31581E+06         0.00000E+00
    0.31581E+06         0.11669E+06         0.00000E+00
    0.00000E+00         0.00000E+00         0.00000E+00
 
    0.19677E+06         0.32078E+06         0.00000E+00
    0.32078E+06         0.12355E+06         0.00000E+00
    0.00000E+00         0.00000E+00         0.00000E+00
 
    0.18338E+06         0.32547E+06         0.00000E+00
    0.32547E+06         0.13052E+06         0.00000E+00
    0.00000E+00         0.00000E+00         0.00000E+00
 
    0.16977E+06         0.32988E+06         0.00000E+00
    0.32988E+06         0.13759E+06         0.00000E+00
    0.00000E+00         0.00000E+00         0.00000E+00
 
    0.15594E+06         0.33399E+06         0.00000E+00
    0.33399E+06         0.14475E+06         0.00000E+00
    0.00000E+00         0.00000E+00         0.00000E+00
 
    0.14191E+06         0.33782E+06         0.00000E+00
    0.33782E+06         0.15200E+06         0.00000E+00
    0.00000E+00         0.00000E+00         0.00000E+00
 
    0.12768E+06         0.34135E+06         0.00000E+00
    0.34135E+06         0.15934E+06         0.00000E+00
    0.00000E+00         0.00000E+00         0.00000E+00
 
    0.11326E+06         0.34459E+06         0.00000E+00
    0.34459E+06         0.16674E+06         0.00000E+00
    0.00000E+00         0.00000E+00         0.00000E+00
 
    0.98664E+05         0.34752E+06         0.00000E+00
    0.34752E+06         0.17422E+06         0.00000E+00
    0.00000E+00         0.00000E+00         0.00000E+00
 
    0.83895E+05         0.35015E+06         0.00000E+00
    0.35015E+06         0.18176E+06         0.00000E+00
    0.00000E+00         0.00000E+00         0.00000E+00
 
    0.68963E+05         0.35247E+06         0.00000E+00
    0.35247E+06         0.18937E+06         0.00000E+00
    0.00000E+00         0.00000E+00         0.00000E+00
 
    0.53877E+05         0.35449E+06         0.00000E+00
    0.35449E+06         0.19702E+06         0.00000E+00
    0.00000E+00         0.00000E+00         0.00000E+00
 
    0.38645E+05         0.35619E+06         0.00000E+00
    0.35619E+06         0.20473E+06         0.00000E+00
    0.00000E+00         0.00000E+00         0.00000E+00
 
    0.23277E+05         0.35758E+06         0.00000E+00
    0.35758E+06         0.21247E+06         0.00000E+00
    0.00000E+00         0.00000E+00         0.00000E+00
 
    0.77795E+04         0.35865E+06         0.00000E+00
    0.35865E+06         0.22026E+06         0.00000E+00
    0.00000E+00         0.00000E+00         0.00000E+00
 
    0.51884E+06         0.63309E+04         0.00000E+00
    0.63309E+04        -0.24075E+05         0.00000E+00
    0.00000E+00         0.00000E+00         0.00000E+00
 
    0.51834E+06         0.18869E+05         0.00000E+00
    0.18869E+05        -0.23790E+05         0.00000E+00
    0.00000E+00         0.00000E+00         0.00000E+00
 
    0.51731E+06         0.31348E+05         0.00000E+00
    0.31348E+05        -0.23224E+05         0.00000E+00
    0.00000E+00         0.00000E+00         0.00000E+00
 
    0.51576E+06         0.43757E+05         0.00000E+00
    0.43757E+05        -0.22380E+05         0.00000E+00
    0.00000E+00         0.00000E+00         0.00000E+00
 
    0.51370E+06         0.56086E+05         0.00000E+00
    0.56086E+05        -0.21262E+05         0.00000E+00
    0.00000E+00         0.00000E+00         0.00000E+00
 
    0.51112E+06         0.68324E+05         0.00000E+00
    0.68324E+05        -0.19872E+05         0.00000E+00
    0.00000E+00         0.00000E+00         0.00000E+00
 
    0.50804E+06         0.80462E+05         0.00000E+00
    0.80462E+05        -0.18214E+05         0.00000E+00
    0.00000E+00         0.00000E+00         0.00000E+00
 
    0.50446E+06         0.92490E+05         0.00000E+00
    0.92490E+05        -0.16291E+05         0.00000E+00
    0.00000E+00         0.00000E+00         0.00000E+00
 
    0.50039E+06         0.10440E+06         0.00000E+00
    0.10440E+06        -0.14108E+05         0.00000E+00
    0.00000E+00         0.00000E+00         0.00000E+00
 
    0.49584E+06         0.11618E+06         0.00000E+00
    0.11618E+06        -0.11667E+05         0.00000E+00
    0.00000E+00         0.00000E+00         0.00000E+00
 
    0.49081E+06         0.12782E+06         0.00000E+00
    0.12782E+06        -0.89731E+04         0.00000E+00
    0.00000E+00         0.00000E+00         0.00000E+00
 
    0.48530E+06         0.13931E+06         0.00000E+00
    0.13931E+06        -0.60299E+04         0.00000E+00
    0.00000E+00         0.00000E+00         0.00000E+00
 
    0.47934E+06         0.15065E+06         0.00000E+00
    0.15065E+06        -0.28418E+04         0.00000E+00
    0.00000E+00         0.00000E+00         0.00000E+00
 
    0.47292E+06         0.16183E+06         0.00000E+00
    0.16183E+06         0.58709E+03         0.00000E+00
    0.00000E+00         0.00000E+00         0.00000E+00
 
    0.46605E+06         0.17283E+06         0.00000E+00
    0.17283E+06         0.42523E+04         0.00000E+00
    0.00000E+00         0.00000E+00         0.00000E+00
 
    0.45874E+06         0.18365E+06         0.00000E+00
    0.18365E+06         0.81493E+04         0.00000E+00
    0.00000E+00         0.00000E+00         0.00000E+00
 
    0.45099E+06         0.19429E+06         0.00000E+00
    0.19429E+06         0.12273E+05         0.00000E+00
    0.00000E+00         0.00000E+00         0.00000E+00
 
    0.44282E+06         0.20472E+06         0.00000E+00
    0.20472E+06         0.16620E+05         0.00000E+00
    0.00000E+00         0.00000E+00         0.00000E+00
 
    0.43424E+06         0.21496E+06         0.00000E+00
    0.21496E+06         0.21185E+05         0.00000E+00
    0.00000E+00         0.00000E+00         0.00000E+00
 
    0.42525E+06         0.22498E+06         0.00000E+00
    0.22498E+06         0.25962E+05         0.00000E+00
    0.00000E+00         0.00000E+00         0.00000E+00
 
    0.41585E+06         0.23479E+06         0.00000E+00
    0.23479E+06         0.30947E+05         0.00000E+00
    0.00000E+00         0.00000E+00         0.00000E+00
 
    0.40607E+06         0.24438E+06         0.00000E+00
    0.24438E+06         0.36135E+05         0.00000E+00
    0.00000E+00         0.00000E+00         0.00000E+00
 
    0.39590E+06         0.25373E+06         0.00000E+00
    0.25373E+06         0.41521E+05         0.00000E+00
    0.00000E+00         0.00000E+00         0.00000E+00
 
    0.38535E+06         0.26284E+06         0.00000E+00
    0.26284E+06         0.47099E+05         0.00000E+00
    0.00000E+00         0.00000E+00         0.00000E+00
 
    0.37444E+06         0.27172E+06         0.00000E+00
    0.27172E+06         0.52865E+05         0.00000E+00
    0.00000E+00         0.00000E+00         0.00000E+00
 
    0.36317E+06         0.28034E+06         0.00000E+00
    0.28034E+06         0.58813E+05         0.00000E+00
    0.00000E+00         0.00000E+00         0.00000E+00
 
    0.35155E+06         0.28871E+06         0.00000E+00
    0.28871E+06         0.64937E+05         0.00000E+00
    0.00000E+00         0.00000E+00         0.00000E+00
 
    0.33959E+06         0.29681E+06         0.00000E+00
    0.29681E+06         0.71233E+05         0.00000E+00
    0.00000E+00         0.00000E+00         0.00000E+00
 
    0.32730E+06         0.30465E+06         0.00000E+00
    0.30465E+06         0.77695E+05         0.00000E+00
    0.00000E+00         0.00000E+00         0.00000E+00
 
    0.31469E+06         0.31222E+06         0.00000E+00
    0.31222E+06         0.84317E+05         0.00000E+00
    0.00000E+00         0.00000E+00         0.00000E+00
 
    0.30176E+06         0.31951E+06         0.00000E+00
    0.31951E+06         0.91094E+05         0.00000E+00
    0.00000E+00         0.00000E+00         0.00000E+00
 
    0.28853E+06         0.32652E+06         0.00000E+00
    0.32652E+06         0.98020E+05         0.00000E+00
    0.00000E+00         0.00000E+00         0.00000E+00
 
    0.27501E+06         0.33324E+06         0.00000E+00
    0.33324E+06         0.10509E+06         0.00000E+00
    0.00000E+00         0.00000E+00         0.00000E+00
 
    0.26119E+06         0.33967E+06         0.00000E+00
    0.33967E+06         0.11230E+06         0.00000E+00
    0.00000E+00         0.00000E+00         0.00000E+00
 
    0.24710E+06         0.34581E+06         0.00000E+00
    0.34581E+06         0.11964E+06         0.00000E+00
    0.00000E+00         0.00000E+00         0.00000E+00
 
    0.23274E+06         0.35164E+06         0.00000E+00
    0.35164E+06         0.12710E+06         0.00000E+00
    0.00000E+00         0.00000E+00         0.00000E+00
 
    0.21812E+06         0.35717E+06         0.00000E+00
    0.35717E+06         0.13469E+06         0.00000E+00
    0.00000E+00         0.00000E+00         0.00000E+00
 
    0.20325E+06         0.36239E+06         0.00000E+00
    0.36239E+06         0.14239E+06         0.00000E+00
    0.00000E+00         0.00000E+00         0.00000E+00
 
    0.18814E+06         0.36730E+06         0.00000E+00
    0.36730E+06         0.15020E+06         0.00000E+00
    0.00000E+00         0.00000E+00         0.00000E+00
 
    0.17279E+06         0.37189E+06         0.00000E+00
    0.37189E+06         0.15811E+06         0.00000E+00
    0.00000E+00         0.00000E+00         0.00000E+00
 
    0.15722E+06         0.37617E+06         0.00000E+00
    0.37617E+06         0.16612E+06         0.00000E+00
    0.00000E+00         0.00000E+00         0.00000E+00
 
    0.14144E+06         0.38011E+06         0.00000E+00
    0.38011E+06         0.17422E+06         0.00000E+00
    0.00000E+00         0.00000E+00         0.00000E+00
 
    0.12546E+06         0.38374E+06         0.00000E+00
    0.38374E+06         0.18241E+06         0.00000E+00
    0.00000E+00         0.00000E+00         0.00000E+00
 
    0.10928E+06         0.38703E+06         0.00000E+00
    0.38703E+06         0.19068E+06         0.00000E+00
    0.00000E+00         0.00000E+00         0.00000E+00
 
    0.92912E+05         0.38999E+06         0.00000E+00
    0.38999E+06         0.19902E+06         0.00000E+00
    0.00000E+00         0.00000E+00         0.00000E+00
 
    0.76369E+05         0.39261E+06         0.00000E+00
    0.39261E+06         0.20742E+06         0.00000E+00
    0.00000E+00         0.00000E+00         0.00000E+00
 
    0.59658E+05         0.39490E+06         0.00000E+00
    0.39490E+06         0.21589E+06         0.00000E+00
    0.00000E+00         0.00000E+00         0.00000E+00
 
    0.42789E+05         0.39685E+06         0.00000E+00
    0.39685E+06         0.22441E+06         0.00000E+00
    0.00000E+00         0.00000E+00         0.00000E+00
 
    0.25771E+05         0.39845E+06         0.00000E+00
    0.39845E+06         0.23298E+06         0.00000E+00
    0.00000E+00         0.00000E+00         0.00000E+00
 
    0.86127E+04         0.39970E+06         0.00000E+00
    0.39970E+06         0.24160E+06         0.00000E+00
    0.00000E+00         0.00000E+00         0.00000E+00
 
    0.58036E+06         0.70938E+04         0.00000E+00
    0.70938E+04        -0.29050E+05         0.00000E+00
    0.00000E+00         0.00000E+00         0.00000E+00
 
    0.57955E+06         0.21119E+05         0.00000E+00
    0.21119E+05        -0.28732E+05         0.00000E+00
    0.00000E+00         0.00000E+00         0.00000E+00
 
    0.57816E+06         0.35070E+05         0.00000E+00
    0.35070E+05        -0.28103E+05         0.00000E+00
    0.00000E+00         0.00000E+00         0.00000E+00
 
    0.57620E+06         0.48935E+05         0.00000E+00
    0.48935E+05        -0.27165E+05         0.00000E+00
    0.00000E+00         0.00000E+00         0.00000E+00
 
    0.57366E+06         0.62703E+05         0.00000E+00
    0.62703E+05        -0.25923E+05         0.00000E+00
    0.00000E+00         0.00000E+00         0.00000E+00
 
    0.57056E+06         0.76362E+05         0.00000E+00
    0.76362E+05        -0.24380E+05         0.00000E+00
    0.00000E+00         0.00000E+00         0.00000E+00
 
    0.56691E+06         0.89902E+05         0.00000E+00
    0.89902E+05        -0.22539E+05         0.00000E+00
    0.00000E+00         0.00000E+00         0.00000E+00
 
    0.56271E+06         0.10331E+06         0.00000E+00
    0.10331E+06        -0.20406E+05         0.00000E+00
    0.00000E+00         0.00000E+00         0.00000E+00
 
    0.55797E+06         0.11658E+06         0.00000E+00
    0.11658E+06        -0.17985E+05         0.00000E+00
    0.00000E+00         0.00000E+00         0.00000E+00
 
    0.55269E+06         0.12970E+06         0.00000E+00
    0.12970E+06        -0.15279E+05         0.00000E+00
    0.00000E+00         0.00000E+00         0.00000E+00
 
    0.54690E+06         0.14267E+06         0.00000E+00
    0.14267E+06        -0.12294E+05         0.00000E+00
    0.00000E+00         0.00000E+00         0.00000E+00
 
    0.54058E+06         0.15546E+06         0.00000E+00
    0.15546E+06        -0.90333E+04         0.00000E+00
    0.00000E+00         0.00000E+00         0.00000E+00
 
    0.53376E+06         0.16807E+06         0.00000E+00
    0.16807E+06        -0.55027E+04         0.00000E+00
    0.00000E+00         0.00000E+00         0.00000E+00
 
    0.52644E+06         0.18050E+06         0.00000E+00
    0.18050E+06        -0.17068E+04         0.00000E+00
    0.00000E+00         0.00000E+00         0.00000E+00
 
    0.51863E+06         0.19273E+06         0.00000E+00
    0.19273E+06         0.23495E+04         0.00000E+00
    0.00000E+00         0.00000E+00         0.00000E+00
 
    0.51034E+06         0.20476E+06         0.00000E+00
    0.20476E+06         0.66610E+04         0.00000E+00
    0.00000E+00         0.00000E+00         0.00000E+00
 
    0.50158E+06         0.21657E+06         0.00000E+00
    0.21657E+06         0.11223E+05         0.00000E+00
    0.00000E+00         0.00000E+00         0.00000E+00
 
    0.49235E+06         0.22817E+06         0.00000E+00
    0.22817E+06         0.16029E+05         0.00000E+00
    0.00000E+00         0.00000E+00         0.00000E+00
 
    0.48267E+06         0.23953E+06         0.00000E+00
    0.23953E+06         0.21075E+05         0.00000E+00
    0.00000E+00         0.00000E+00         0.00000E+00
 
    0.47254E+06         0.25066E+06         0.00000E+00
    0.25066E+06         0.26354E+05         0.00000E+00
    0.00000E+00         0.00000E+00         0.00000E+00
 
    0.46198E+06         0.26155E+06         0.00000E+00
    0.26155E+06         0.31863E+05         0.00000E+00
    0.00000E+00         0.00000E+00         0.00000E+00
 
    0.45099E+06         0.27218E+06         0.00000E+00
    0.27218E+06         0.37594E+05         0.00000E+00
    0.00000E+00         0.00000E+00         0.00000E+00
 
    0.43958E+06         0.28256E+06         0.00000E+00
    0.28256E+06         0.43542E+05         0.00000E+00
    0.00000E+00         0.00000E+00         0.00000E+00
 
    0.42777E+06         0.29267E+06         0.00000E+00
    0.29267E+06         0.49702E+05         0.00000E+00
    0.00000E+00         0.00000E+00         0.00000E+00
 
    0.41555E+06         0.30251E+06         0.00000E+00
    0.30251E+06         0.56068E+05         0.00000E+00
    0.00000E+00         0.00000E+00         0.00000E+00
 
    0.40295E+06         0.31207E+06         0.00000E+00
    0.31207E+06         0.62633E+05         0.00000E+00
    0.00000E+00         0.00000E+00         0.00000E+00
 
    0.38997E+06         0.32135E+06         0.00000E+00
    0.32135E+06         0.69393E+05         0.00000E+00
    0.00000E+00         0.00000E+00         0.00000E+00
 
    0.37663E+06         0.33034E+06         0.00000E+00
    0.33034E+06         0.76341E+05         0.00000E+00
    0.00000E+00         0.00000E+00         0.00000E+00
 
    0.36292E+06         0.33904E+06         0.00000E+00
    0.33904E+06         0.83471E+05         0.00000E+00
    0.00000E+00         0.00000E+00         0.00000E+00
 
    0.34886E+06         0.34743E+06         0.00000E+00
    0.34743E+06         0.90777E+05         0.00000E+00
    0.00000E+00         0.00000E+00         0.00000E+00
 
    0.33447E+06         0.35552E+06         0.00000E+00
    0.35552E+06         0.98253E+05         0.00000E+00
    0.00000E+00         0.00000E+00         0.00000E+00
 
    0.31974E+06         0.36330E+06         0.00000E+00
    0.36330E+06         0.10589E+06         0.00000E+00
    0.00000E+00         0.00000E+00         0.00000E+00
 
    0.30469E+06         0.37076E+06         0.00000E+00
    0.37076E+06         0.11369E+06         0.00000E+00
    0.00000E+00         0.00000E+00         0.00000E+00
 
    0.28934E+06         0.37789E+06         0.00000E+00
    0.37789E+06         0.12164E+06         0.00000E+00
    0.00000E+00         0.00000E+00         0.00000E+00
 
    0.27368E+06         0.38471E+06         0.00000E+00
    0.38471E+06         0.12974E+06         0.00000E+00
    0.00000E+00         0.00000E+00         0.00000E+00
 
    0.25773E+06         0.39119E+06         0.00000E+00
    0.39119E+06         0.13797E+06         0.00000E+00
    0.00000E+00         0.00000E+00         0.00000E+00
 
    0.24150E+06         0.39734E+06         0.00000E+00
    0.39734E+06         0.14634E+06         0.00000E+00
    0.00000E+00         0.00000E+00         0.00000E+00
 
    0.22500E+06         0.40315E+06         0.00000E+00
    0.40315E+06         0.15484E+06         0.00000E+00
    0.00000E+00         0.00000E+00         0.00000E+00
 
    0.20825E+06         0.40862E+06         0.00000E+00
    0.40862E+06         0.16345E+06         0.00000E+00
    0.00000E+00         0.00000E+00         0.00000E+00
 
    0.19124E+06         0.41374E+06         0.00000E+00
    0.41374E+06         0.17218E+06         0.00000E+00
    0.00000E+00         0.00000E+00         0.00000E+00
 
    0.17398E+06         0.41850E+06         0.00000E+00
    0.41850E+06         0.18102E+06         0.00000E+00
    0.00000E+00         0.00000E+00         0.00000E+00
 
    0.15650E+06         0.42292E+06         0.00000E+00
    0.42292E+06         0.18996E+06         0.00000E+00
    0.00000E+00         0.00000E+00         0.00000E+00
 
    0.13880E+06         0.42698E+06         0.00000E+00
    0.42698E+06         0.19899E+06         0.00000E+00
    0.00000E+00         0.00000E+00         0.00000E+00
 
    0.12089E+06         0.43067E+06         0.00000E+00
    0.43067E+06         0.20812E+06         0.00000E+00
    0.00000E+00         0.00000E+00         0.00000E+00
 
    0.10277E+06         0.43401E+06         0.00000E+00
    0.43401E+06         0.21732E+06         0.00000E+00
    0.00000E+00         0.00000E+00         0.00000E+00
 
    0.84465E+05         0.43697E+06         0.00000E+00
    0.43697E+06         0.22661E+06         0.00000E+00
    0.00000E+00         0.00000E+00         0.00000E+00
 
    0.65977E+05         0.43957E+06         0.00000E+00
    0.43957E+06         0.23596E+06         0.00000E+00
    0.00000E+00         0.00000E+00         0.00000E+00
 
    0.47317E+05         0.44179E+06         0.00000E+00
    0.44179E+06         0.24537E+06         0.00000E+00
    0.00000E+00         0.00000E+00         0.00000E+00
 
    0.28496E+05         0.44364E+06         0.00000E+00
    0.44364E+06         0.25484E+06         0.00000E+00
    0.00000E+00         0.00000E+00         0.00000E+00
 
    0.95232E+04         0.44511E+06         0.00000E+00
    0.44511E+06         0.26436E+06         0.00000E+00
    0.00000E+00         0.00000E+00         0.00000E+00
 
    0.64875E+06         0.79433E+04         0.00000E+00
    0.79433E+04        -0.35030E+05         0.00000E+00
    0.00000E+00         0.00000E+00         0.00000E+00
 
    0.64756E+06         0.23621E+05         0.00000E+00
    0.23621E+05        -0.34677E+05         0.00000E+00
    0.00000E+00         0.00000E+00         0.00000E+00
 
    0.64572E+06         0.39205E+05         0.00000E+00
    0.39205E+05        -0.33978E+05         0.00000E+00
    0.00000E+00         0.00000E+00         0.00000E+00
 
    0.64325E+06         0.54684E+05         0.00000E+00
    0.54684E+05        -0.32937E+05         0.00000E+00
    0.00000E+00         0.00000E+00         0.00000E+00
 
    0.64015E+06         0.70046E+05         0.00000E+00
    0.70046E+05        -0.31559E+05         0.00000E+00
    0.00000E+00         0.00000E+00         0.00000E+00
 
    0.63643E+06         0.85278E+05         0.00000E+00
    0.85278E+05        -0.29848E+05         0.00000E+00
    0.00000E+00         0.00000E+00         0.00000E+00
 
    0.63210E+06         0.10037E+06         0.00000E+00
    0.10037E+06        -0.27809E+05         0.00000E+00
    0.00000E+00         0.00000E+00         0.00000E+00
 
    0.62717E+06         0.11531E+06         0.00000E+00
    0.11531E+06        -0.25446E+05         0.00000E+00
    0.00000E+00         0.00000E+00         0.00000E+00
 
    0.62165E+06         0.13008E+06         0.00000E+00
    0.13008E+06        -0.22765E+05         0.00000E+00
    0.00000E+00         0.00000E+00         0.00000E+00
 
    0.61554E+06         0.14469E+06         0.00000E+00
    0.14469E+06        -0.19770E+05         0.00000E+00
    0.00000E+00         0.00000E+00         0.00000E+00
 
    0.60886E+06         0.15910E+06         0.00000E+00
    0.15910E+06        -0.16467E+05         0.00000E+00
    0.00000E+00         0.00000E+00         0.00000E+00
 
    0.60162E+06         0.17333E+06         0.00000E+00
    0.17333E+06        -0.12861E+05         0.00000E+00
    0.00000E+00         0.00000E+00         0.00000E+00
 
    0.59382E+06         0.18735E+06         0.00000E+00
    0.18735E+06        -0.89578E+04         0.00000E+00
    0.00000E+00         0.00000E+00         0.00000E+00
 
    0.58548E+06         0.20116E+06         0.00000E+00
    0.20116E+06        -0.47624E+04         0.00000E+00
    0.00000E+00         0.00000E+00         0.00000E+00
 
    0.57660E+06         0.21474E+06         0.00000E+00
    0.21474E+06        -0.28081E+03         0.00000E+00
    0.00000E+00         0.00000E+00         0.00000E+00
 
    0.56720E+06         0.22809E+06         0.00000E+00
    0.22809E+06         0.44814E+04         0.00000E+00
    0.00000E+00         0.00000E+00         0.00000E+00
 
    0.55728E+06         0.24120E+06         0.00000E+00
    0.24120E+06         0.95182E+04         0.00000E+00
    0.00000E+00         0.00000E+00         0.00000E+00
 
    0.54686E+06         0.25407E+06         0.00000E+00
    0.25407E+06         0.14824E+05         0.00000E+00
    0.00000E+00         0.00000E+00         0.00000E+00
 
    0.53594E+06         0.26667E+06         0.00000E+00
    0.26667E+06         0.20392E+05         0.00000E+00
    0.00000E+00         0.00000E+00         0.00000E+00
 
    0.52454E+06         0.27901E+06         0.00000E+00
    0.27901E+06         0.26218E+05         0.00000E+00
    0.00000E+00         0.00000E+00         0.00000E+00
 
    0.51267E+06         0.29108E+06         0.00000E+00
    0.29108E+06         0.32293E+05         0.00000E+00
    0.00000E+00         0.00000E+00         0.00000E+00
 
    0.50034E+06         0.30287E+06         0.00000E+00
    0.30287E+06         0.38614E+05         0.00000E+00
    0.00000E+00         0.00000E+00         0.00000E+00
 
    0.48755E+06         0.31436E+06         0.00000E+00
    0.31436E+06         0.45172E+05         0.00000E+00
    0.00000E+00         0.00000E+00         0.00000E+00
 
    0.47432E+06         0.32557E+06         0.00000E+00
    0.32557E+06         0.51963E+05         0.00000E+00
    0.00000E+00         0.00000E+00         0.00000E+00
 
    0.46067E+06         0.33647E+06         0.00000E+00
    0.33647E+06         0.58979E+05         0.00000E+00
    0.00000E+00         0.00000E+00         0.00000E+00
 
    0.44659E+06         0.34707E+06         0.00000E+00
    0.34707E+06         0.66214E+05         0.00000E+00
    0.00000E+00         0.00000E+00         0.00000E+00
 
    0.43210E+06         0.35735E+06         0.00000E+00
    0.35735E+06         0.73662E+05         0.00000E+00
    0.00000E+00         0.00000E+00         0.00000E+00
 
    0.41721E+06         0.36731E+06         0.00000E+00
    0.36731E+06         0.81316E+05         0.00000E+00
    0.00000E+00         0.00000E+00         0.00000E+00
 
    0.40194E+06         0.37694E+06         0.00000E+00
    0.37694E+06         0.89171E+05         0.00000E+00
    0.00000E+00         0.00000E+00         0.00000E+00
 
    0.38628E+06         0.38624E+06         0.00000E+00
    0.38624E+06         0.97218E+05         0.00000E+00
    0.00000E+00         0.00000E+00         0.00000E+00
 
    0.37027E+06         0.39521E+06         0.00000E+00
    0.39521E+06         0.10545E+06         0.00000E+00
    0.00000E+00         0.00000E+00         0.00000E+00
 
    0.35389E+06         0.40383E+06         0.00000E+00
    0.40383E+06         0.11387E+06         0.00000E+00
    0.00000E+00         0.00000E+00         0.00000E+00
 
    0.33717E+06         0.41210E+06         0.00000E+00
    0.41210E+06         0.12245E+06         0.00000E+00
    0.00000E+00         0.00000E+00         0.00000E+00
 
    0.32012E+06         0.42002E+06         0.00000E+00
    0.42002E+06         0.13121E+06         0.00000E+00
    0.00000E+00         0.00000E+00         0.00000E+00
 
    0.30274E+06         0.42758E+06         0.00000E+00
    0.42758E+06         0.14012E+06         0.00000E+00
    0.00000E+00         0.00000E+00         0.00000E+00
 
    0.28505E+06         0.43478E+06         0.00000E+00
    0.43478E+06         0.14919E+06         0.00000E+00
    0.00000E+00         0.00000E+00         0.00000E+00
 
    0.26706E+06         0.44161E+06         0.00000E+00
    0.44161E+06         0.15841E+06         0.00000E+00
    0.00000E+00         0.00000E+00         0.00000E+00
 
    0.24877E+06         0.44807E+06         0.00000E+00
    0.44807E+06         0.16776E+06         0.00000E+00
    0.00000E+00         0.00000E+00         0.00000E+00
 
    0.23021E+06         0.45416E+06         0.00000E+00
    0.45416E+06         0.17725E+06         0.00000E+00
    0.00000E+00         0.00000E+00         0.00000E+00
 
    0.21138E+06         0.45986E+06         0.00000E+00
    0.45986E+06         0.18687E+06         0.00000E+00
    0.00000E+00         0.00000E+00         0.00000E+00
 
    0.19228E+06         0.46519E+06         0.00000E+00
    0.46519E+06         0.19661E+06         0.00000E+00
    0.00000E+00         0.00000E+00         0.00000E+00
 
    0.17294E+06         0.47012E+06         0.00000E+00
    0.47012E+06         0.20646E+06         0.00000E+00
    0.00000E+00         0.00000E+00         0.00000E+00
 
    0.15336E+06         0.47467E+06         0.00000E+00
    0.47467E+06         0.21641E+06         0.00000E+00
    0.00000E+00         0.00000E+00         0.00000E+00
 
    0.13355E+06         0.47882E+06         0.00000E+00
    0.47882E+06         0.22647E+06         0.00000E+00
    0.00000E+00         0.00000E+00         0.00000E+00
 
    0.11353E+06         0.48257E+06         0.00000E+00
    0.48257E+06         0.23661E+06         0.00000E+00
    0.00000E+00         0.00000E+00         0.00000E+00
 
    0.93296E+05         0.48592E+06         0.00000E+00
    0.48592E+06         0.24685E+06         0.00000E+00
    0.00000E+00         0.00000E+00         0.00000E+00
 
    0.72868E+05         0.48887E+06         0.00000E+00
    0.48887E+06         0.25716E+06         0.00000E+00
    0.00000E+00         0.00000E+00         0.00000E+00
 
    0.52256E+05         0.49142E+06         0.00000E+00
    0.49142E+06         0.26755E+06         0.00000E+00
    0.00000E+00         0.00000E+00         0.00000E+00
 
    0.31468E+05         0.49355E+06         0.00000E+00
    0.49355E+06         0.27800E+06         0.00000E+00
    0.00000E+00         0.00000E+00         0.00000E+00
 
    0.10516E+05         0.49528E+06         0.00000E+00
    0.49528E+06         0.28850E+06         0.00000E+00
    0.00000E+00         0.00000E+00         0.00000E+00
 
    0.72470E+06         0.88881E+04         0.00000E+00
    0.88881E+04        -0.42213E+05         0.00000E+00
    0.00000E+00         0.00000E+00         0.00000E+00
 
    0.72302E+06         0.26398E+05         0.00000E+00
    0.26398E+05        -0.41822E+05         0.00000E+00
    0.00000E+00         0.00000E+00         0.00000E+00
 
    0.72063E+06         0.43792E+05         0.00000E+00
    0.43792E+05        -0.41047E+05         0.00000E+00
    0.00000E+00         0.00000E+00         0.00000E+00
 
    0.71754E+06         0.61058E+05         0.00000E+00
    0.61058E+05        -0.39894E+05         0.00000E+00
    0.00000E+00         0.00000E+00         0.00000E+00
 
    0.71376E+06         0.78182E+05         0.00000E+00
    0.78182E+05        -0.38368E+05         0.00000E+00
    0.00000E+00         0.00000E+00         0.00000E+00
 
    0.70931E+06         0.95152E+05         0.00000E+00
    0.95152E+05        -0.36474E+05         0.00000E+00
    0.00000E+00         0.00000E+00         0.00000E+00
 
    0.70418E+06         0.11196E+06         0.00000E+00
    0.11196E+06        -0.34218E+05         0.00000E+00
    0.00000E+00         0.00000E+00         0.00000E+00
 
    0.69840E+06         0.12858E+06         0.00000E+00
    0.12858E+06        -0.31605E+05         0.00000E+00
    0.00000E+00         0.00000E+00         0.00000E+00
 
    0.69197E+06         0.14502E+06         0.00000E+00
    0.14502E+06        -0.28641E+05         0.00000E+00
    0.00000E+00         0.00000E+00         0.00000E+00
 
    0.68490E+06         0.16125E+06         0.00000E+00
    0.16125E+06        -0.25332E+05         0.00000E+00
    0.00000E+00         0.00000E+00         0.00000E+00
 
    0.67720E+06         0.17727E+06         0.00000E+00
    0.17727E+06        -0.21684E+05         0.00000E+00
    0.00000E+00         0.00000E+00         0.00000E+00
 
    0.66889E+06         0.19307E+06         0.00000E+00
    0.19307E+06        -0.17703E+05         0.00000E+00
    0.00000E+00         0.00000E+00         0.00000E+00
 
    0.65998E+06         0.20864E+06         0.00000E+00
    0.20864E+06        -0.13395E+05         0.00000E+00
    0.00000E+00         0.00000E+00         0.00000E+00
 
    0.65047E+06         0.22396E+06         0.00000E+00
    0.22396E+06        -0.87668E+04         0.00000E+00
    0.00000E+00         0.00000E+00         0.00000E+00
 
    0.64038E+06         0.23903E+06         0.00000E+00
    0.23903E+06        -0.38241E+04         0.00000E+00
    0.00000E+00         0.00000E+00         0.00000E+00
 
    0.62972E+06         0.25383E+06         0.00000E+00
    0.25383E+06         0.14262E+04         0.00000E+00
    0.00000E+00         0.00000E+00         0.00000E+00
 
    0.61850E+06         0.26837E+06         0.00000E+00
    0.26837E+06         0.69777E+04         0.00000E+00
    0.00000E+00         0.00000E+00         0.00000E+00
 
    0.60674E+06         0.28262E+06         0.00000E+00
    0.28262E+06         0.12824E+05         0.00000E+00
    0.00000E+00         0.00000E+00         0.00000E+00
 
    0.59444E+06         0.29659E+06         0.00000E+00
    0.29659E+06         0.18958E+05         0.00000E+00
    0.00000E+00         0.00000E+00         0.00000E+00
 
    0.58162E+06         0.31026E+06         0.00000E+00
    0.31026E+06         0.25373E+05         0.00000E+00
    0.00000E+00         0.00000E+00         0.00000E+00
 
    0.56828E+06         0.32362E+06         0.00000E+00
    0.32362E+06         0.32062E+05         0.00000E+00
    0.00000E+00         0.00000E+00         0.00000E+00
 
    0.55445E+06         0.33667E+06         0.00000E+00
    0.33667E+06         0.39020E+05         0.00000E+00
    0.00000E+00         0.00000E+00         0.00000E+00
 
    0.54012E+06         0.34940E+06         0.00000E+00
    0.34940E+06         0.46237E+05         0.00000E+00
    0.00000E+00         0.00000E+00         0.00000E+00
 
    0.52532E+06         0.36180E+06         0.00000E+00
    0.36180E+06         0.53709E+05         0.00000E+00
    0.00000E+00         0.00000E+00         0.00000E+00
 
    0.51006E+06         0.37387E+06         0.00000E+00
    0.37387E+06         0.61427E+05         0.00000E+00
    0.00000E+00         0.00000E+00         0.00000E+00
 
    0.49434E+06         0.38559E+06         0.00000E+00
    0.38559E+06         0.69386E+05         0.00000E+00
    0.00000E+00         0.00000E+00         0.00000E+00
 
    0.47818E+06         0.39697E+06         0.00000E+00
    0.39697E+06         0.77577E+05         0.00000E+00
    0.00000E+00         0.00000E+00         0.00000E+00
 
    0.46159E+06         0.40799E+06         0.00000E+00
    0.40799E+06         0.85994E+05         0.00000E+00
    0.00000E+00         0.00000E+00         0.00000E+00
 
    0.44459E+06         0.41866E+06         0.00000E+00
    0.41866E+06         0.94630E+05         0.00000E+00
    0.00000E+00         0.00000E+00         0.00000E+00
 
    0.42718E+06         0.42895E+06         0.00000E+00
    0.42895E+06         0.10348E+06         0.00000E+00
    0.00000E+00         0.00000E+00         0.00000E+00
 
    0.40937E+06         0.43888E+06         0.00000E+00
    0.43888E+06         0.11253E+06         0.00000E+00
    0.00000E+00         0.00000E+00         0.00000E+00
 
    0.39118E+06         0.44843E+06         0.00000E+00
    0.44843E+06         0.12178E+06         0.00000E+00
    0.00000E+00         0.00000E+00         0.00000E+00
 
    0.37262E+06         0.45759E+06         0.00000E+00
    0.45759E+06         0.13122E+06         0.00000E+00
    0.00000E+00         0.00000E+00         0.00000E+00
 
    0.35371E+06         0.46637E+06         0.00000E+00
    0.46637E+06         0.14084E+06         0.00000E+00
    0.00000E+00         0.00000E+00         0.00000E+00
 
    0.33444E+06         0.47475E+06         0.00000E+00
    0.47475E+06         0.15064E+06         0.00000E+00
    0.00000E+00         0.00000E+00         0.00000E+00
 
    0.31484E+06         0.48274E+06         0.00000E+00
    0.48274E+06         0.16061E+06         0.00000E+00
    0.00000E+00         0.00000E+00         0.00000E+00
 
    0.29492E+06         0.49033E+06         0.00000E+00
    0.49033E+06         0.17074E+06         0.00000E+00
    0.00000E+00         0.00000E+00         0.00000E+00
 
    0.27468E+06         0.49751E+06         0.00000E+00
    0.49751E+06         0.18103E+06         0.00000E+00
    0.00000E+00         0.00000E+00         0.00000E+00
 
    0.25415E+06         0.50428E+06         0.00000E+00
    0.50428E+06         0.19146E+06         0.00000E+00
    0.00000E+00         0.00000E+00         0.00000E+00
 
    0.23332E+06         0.51063E+06         0.00000E+00
    0.51063E+06         0.20204E+06         0.00000E+00
    0.00000E+00         0.00000E+00         0.00000E+00
 
    0.21221E+06         0.51657E+06         0.00000E+00
    0.51657E+06         0.21274E+06         0.00000E+00
    0.00000E+00         0.00000E+00         0.00000E+00
 
    0.19084E+06         0.52208E+06         0.00000E+00
    0.52208E+06         0.22358E+06         0.00000E+00
    0.00000E+00         0.00000E+00         0.00000E+00
 
    0.16921E+06         0.52717E+06         0.00000E+00
    0.52717E+06         0.23453E+06         0.00000E+00
    0.00000E+00         0.00000E+00         0.00000E+00
 
    0.14734E+06         0.53184E+06         0.00000E+00
    0.53184E+06         0.24559E+06         0.00000E+00
    0.00000E+00         0.00000E+00         0.00000E+00
 
    0.12523E+06         0.53606E+06         0.00000E+00
    0.53606E+06         0.25676E+06         0.00000E+00
    0.00000E+00         0.00000E+00         0.00000E+00
 
    0.10290E+06         0.53986E+06         0.00000E+00
    0.53986E+06         0.26802E+06         0.00000E+00
    0.00000E+00         0.00000E+00         0.00000E+00
 
    0.80365E+05         0.54321E+06         0.00000E+00
    0.54321E+06         0.27938E+06         0.00000E+00
    0.00000E+00         0.00000E+00         0.00000E+00
 
    0.57627E+05         0.54612E+06         0.00000E+00
    0.54612E+06         0.29082E+06         0.00000E+00
    0.00000E+00         0.00000E+00         0.00000E+00
 
    0.34700E+05         0.54859E+06         0.00000E+00
    0.54859E+06         0.30233E+06         0.00000E+00
    0.00000E+00         0.00000E+00         0.00000E+00
 
    0.11595E+05         0.55061E+06         0.00000E+00
    0.55061E+06         0.31391E+06         0.00000E+00
    0.00000E+00         0.00000E+00         0.00000E+00
 
    0.80891E+06         0.99370E+04         0.00000E+00
    0.99370E+04        -0.50835E+05         0.00000E+00
    0.00000E+00         0.00000E+00         0.00000E+00
 
    0.80662E+06         0.29475E+05         0.00000E+00
    0.29475E+05        -0.50401E+05         0.00000E+00
    0.00000E+00         0.00000E+00         0.00000E+00
 
    0.80356E+06         0.48871E+05         0.00000E+00
    0.48871E+05        -0.49543E+05         0.00000E+00
    0.00000E+00         0.00000E+00         0.00000E+00
 
    0.79973E+06         0.68112E+05         0.00000E+00
    0.68112E+05        -0.48268E+05         0.00000E+00
    0.00000E+00         0.00000E+00         0.00000E+00
 
    0.79514E+06         0.87182E+05         0.00000E+00
    0.87182E+05        -0.46581E+05         0.00000E+00
    0.00000E+00         0.00000E+00         0.00000E+00
 
    0.78981E+06         0.10607E+06         0.00000E+00
    0.10607E+06        -0.44489E+05         0.00000E+00
    0.00000E+00         0.00000E+00         0.00000E+00
 
    0.78375E+06         0.12476E+06         0.00000E+00
    0.12476E+06        -0.41998E+05         0.00000E+00
    0.00000E+00         0.00000E+00         0.00000E+00
 
    0.77697E+06         0.14324E+06         0.00000E+00
    0.14324E+06        -0.39114E+05         0.00000E+00
    0.00000E+00         0.00000E+00         0.00000E+00
 
    0.76948E+06         0.16150E+06         0.00000E+00
    0.16150E+06        -0.35844E+05         0.00000E+00
    0.00000E+00         0.00000E+00         0.00000E+00
 
    0.76130E+06         0.17953E+06         0.00000E+00
    0.17953E+06        -0.32195E+05         0.00000E+00
    0.00000E+00         0.00000E+00         0.00000E+00
 
    0.75244E+06         0.19731E+06         0.00000E+00
    0.19731E+06        -0.28174E+05         0.00000E+00
    0.00000E+00         0.00000E+00         0.00000E+00
 
    0.74290E+06         0.21484E+06         0.00000E+00
    0.21484E+06        -0.23788E+05         0.00000E+00
    0.00000E+00         0.00000E+00         0.00000E+00
 
    0.73272E+06         0.23210E+06         0.00000E+00
    0.23210E+06        -0.19043E+05         0.00000E+00
    0.00000E+00         0.00000E+00         0.00000E+00
 
    0.72188E+06         0.24909E+06         0.00000E+00
    0.24909E+06        -0.13947E+05         0.00000E+00
    0.00000E+00         0.00000E+00         0.00000E+00
 
    0.71042E+06         0.26578E+06         0.00000E+00
    0.26578E+06        -0.85067E+04         0.00000E+00
    0.00000E+00         0.00000E+00         0.00000E+00
 
    0.69834E+06         0.28218E+06         0.00000E+00
    0.28218E+06        -0.27298E+04         0.00000E+00
    0.00000E+00         0.00000E+00         0.00000E+00
 
    0.68566E+06         0.29828E+06         0.00000E+00
    0.29828E+06         0.33766E+04         0.00000E+00
    0.00000E+00         0.00000E+00         0.00000E+00
 
    0.67238E+06         0.31405E+06         0.00000E+00
    0.31405E+06         0.98051E+04         0.00000E+00
    0.00000E+00         0.00000E+00         0.00000E+00
 
    0.65853E+06         0.32951E+06         0.00000E+00
    0.32951E+06         0.16548E+05         0.00000E+00
    0.00000E+00         0.00000E+00         0.00000E+00
 
    0.64411E+06         0.34463E+06         0.00000E+00
    0.34463E+06         0.23599E+05         0.00000E+00
    0.00000E+00         0.00000E+00         0.00000E+00
 
    0.62914E+06         0.35941E+06         0.00000E+00
    0.35941E+06         0.30949E+05         0.00000E+00
    0.00000E+00         0.00000E+00         0.00000E+00
 
    0.61364E+06         0.37384E+06         0.00000E+00
    0.37384E+06         0.38591E+05         0.00000E+00
    0.00000E+00         0.00000E+00         0.00000E+00
 
    0.59760E+06         0.38791E+06         0.00000E+00
    0.38791E+06         0.46518E+05         0.00000E+00
    0.00000E+00         0.00000E+00         0.00000E+00
 
    0.58106E+06         0.40162E+06         0.00000E+00
    0.40162E+06         0.54723E+05         0.00000E+00
    0.00000E+00         0.00000E+00         0.00000E+00
 
    0.56401E+06         0.41496E+06         0.00000E+00
    0.41496E+06         0.63196E+05         0.00000E+00
    0.00000E+00         0.00000E+00         0.00000E+00
 
    0.54648E+06         0.42792E+06         0.00000E+00
    0.42792E+06         0.71932E+05         0.00000E+00
    0.00000E+00         0.00000E+00         0.00000E+00
 
    0.52848E+06         0.44050E+06         0.00000E+00
    0.44050E+06         0.80922E+05         0.00000E+00
    0.00000E+00         0.00000E+00         0.00000E+00
 
    0.51001E+06         0.45269E+06         0.00000E+00
    0.45269E+06         0.90159E+05         0.00000E+00
    0.00000E+00         0.00000E+00         0.00000E+00
 
    0.49110E+06         0.46448E+06         0.00000E+00
    0.46448E+06         0.99636E+05         0.00000E+00
    0.00000E+00         0.00000E+00         0.00000E+00
 
    0.47175E+06         0.47586E+06         0.00000E+00
    0.47586E+06         0.10934E+06         0.00000E+00
    0.00000E+00         0.00000E+00         0.00000E+00
 
    0.45198E+06         0.48684E+06         0.00000E+00
    0.48684E+06         0.11928E+06         0.00000E+00
    0.00000E+00         0.00000E+00         0.00000E+00
 
    0.43180E+06         0.49740E+06         0.00000E+00
    0.49740E+06         0.12942E+06         0.00000E+00
    0.00000E+00         0.00000E+00         0.00000E+00
 
    0.41123E+06         0.50755E+06         0.00000E+00
    0.50755E+06         0.13978E+06         0.00000E+00
    0.00000E+00         0.00000E+00         0.00000E+00
 
    0.39027E+06         0.51727E+06         0.00000E+00
    0.51727E+06         0.15034E+06         0.00000E+00
    0.00000E+00         0.00000E+00         0.00000E+00
 
    0.36894E+06         0.52656E+06         0.00000E+00
    0.52656E+06         0.16109E+06         0.00000E+00
    0.00000E+00         0.00000E+00         0.00000E+00
 
    0.34725E+06         0.53541E+06         0.00000E+00
    0.53541E+06         0.17203E+06         0.00000E+00
    0.00000E+00         0.00000E+00         0.00000E+00
 
    0.32522E+06         0.54383E+06         0.00000E+00
    0.54383E+06         0.18314E+06         0.00000E+00
    0.00000E+00         0.00000E+00         0.00000E+00
 
    0.30285E+06         0.55180E+06         0.00000E+00
    0.55180E+06         0.19443E+06         0.00000E+00
    0.00000E+00         0.00000E+00         0.00000E+00
 
    0.28016E+06         0.55933E+06         0.00000E+00
    0.55933E+06         0.20588E+06         0.00000E+00
    0.00000E+00         0.00000E+00         0.00000E+00
 
    0.25716E+06         0.56641E+06         0.00000E+00
    0.56641E+06         0.21748E+06         0.00000E+00
    0.00000E+00         0.00000E+00         0.00000E+00
 
    0.23386E+06         0.57303E+06         0.00000E+00
    0.57303E+06         0.22924E+06         0.00000E+00
    0.00000E+00         0.00000E+00         0.00000E+00
 
    0.21028E+06         0.57919E+06         0.00000E+00
    0.57919E+06         0.24113E+06         0.00000E+00
    0.00000E+00         0.00000E+00         0.00000E+00
 
    0.18642E+06         0.58489E+06         0.00000E+00
    0.58489E+06         0.25316E+06         0.00000E+00
    0.00000E+00         0.00000E+00         0.00000E+00
 
    0.16230E+06         0.59013E+06         0.00000E+00
    0.59013E+06         0.26531E+06         0.00000E+00
    0.00000E+00         0.00000E+00         0.00000E+00
 
    0.13794E+06         0.59489E+06         0.00000E+00
    0.59489E+06         0.27758E+06         0.00000E+00
    0.00000E+00         0.00000E+00         0.00000E+00
 
    0.11333E+06         0.59918E+06         0.00000E+00
    0.59918E+06         0.28996E+06         0.00000E+00
    0.00000E+00         0.00000E+00         0.00000E+00
 
    0.88500E+05         0.60300E+06         0.00000E+00
    0.60300E+06         0.30244E+06         0.00000E+00
    0.00000E+00         0.00000E+00         0.00000E+00
 
    0.63454E+05         0.60634E+06         0.00000E+00
    0.60634E+06         0.31502E+06         0.00000E+00
    0.00000E+00         0.00000E+00         0.00000E+00
 
    0.38206E+05         0.60920E+06         0.00000E+00
    0.60920E+06         0.32769E+06         0.00000E+00
    0.00000E+00         0.00000E+00         0.00000E+00
 
    0.12766E+05         0.61157E+06         0.00000E+00
    0.61157E+06         0.34043E+06         0.00000E+00
    0.00000E+00         0.00000E+00         0.00000E+00
 
    0.90214E+06         0.11099E+05         0.00000E+00
    0.11099E+05        -0.61174E+05         0.00000E+00
    0.00000E+00         0.00000E+00         0.00000E+00
 
    0.89911E+06         0.32879E+05         0.00000E+00
    0.32879E+05        -0.60694E+05         0.00000E+00
    0.00000E+00         0.00000E+00         0.00000E+00
 
    0.89522E+06         0.54485E+05         0.00000E+00
    0.54485E+05        -0.59747E+05         0.00000E+00
    0.00000E+00         0.00000E+00         0.00000E+00
 
    0.89049E+06         0.75903E+05         0.00000E+00
    0.75903E+05        -0.58339E+05         0.00000E+00
    0.00000E+00         0.00000E+00         0.00000E+00
 
    0.88494E+06         0.97117E+05         0.00000E+00
    0.97117E+05        -0.56478E+05         0.00000E+00
    0.00000E+00         0.00000E+00         0.00000E+00
 
    0.87858E+06         0.11811E+06         0.00000E+00
    0.11811E+06        -0.54172E+05         0.00000E+00
    0.00000E+00         0.00000E+00         0.00000E+00
 
    0.87142E+06         0.13888E+06         0.00000E+00
    0.13888E+06        -0.51427E+05         0.00000E+00
    0.00000E+00         0.00000E+00         0.00000E+00
 
    0.86348E+06         0.15940E+06         0.00000E+00
    0.15940E+06        -0.48251E+05         0.00000E+00
    0.00000E+00         0.00000E+00         0.00000E+00
 
    0.85476E+06         0.17967E+06         0.00000E+00
    0.17967E+06        -0.44651E+05         0.00000E+00
    0.00000E+00         0.00000E+00         0.00000E+00
 
    0.84530E+06         0.19966E+06         0.00000E+00
    0.19966E+06        -0.40636E+05         0.00000E+00
    0.00000E+00         0.00000E+00         0.00000E+00
 
    0.83509E+06         0.21938E+06         0.00000E+00
    0.21938E+06        -0.36213E+05         0.00000E+00
    0.00000E+00         0.00000E+00         0.00000E+00
 
    0.82416E+06         0.23880E+06         0.00000E+00
    0.23880E+06        -0.31391E+05         0.00000E+00
    0.00000E+00         0.00000E+00         0.00000E+00
 
    0.81252E+06         0.25791E+06         0.00000E+00
    0.25791E+06        -0.26176E+05         0.00000E+00
    0.00000E+00         0.00000E+00         0.00000E+00
 
    0.80019E+06         0.27672E+06         0.00000E+00
    0.27672E+06        -0.20577E+05         0.00000E+00
    0.00000E+00         0.00000E+00         0.00000E+00
 
    0.78717E+06         0.29519E+06         0.00000E+00
    0.29519E+06        -0.14603E+05         0.00000E+00
    0.00000E+00         0.00000E+00         0.00000E+00
 
    0.77349E+06         0.31333E+06         0.00000E+00
    0.31333E+06        -0.82608E+04         0.00000E+00
    0.00000E+00         0.00000E+00         0.00000E+00
 
    0.75916E+06         0.33113E+06         0.00000E+00
    0.33113E+06        -0.15591E+04         0.00000E+00
    0.00000E+00         0.00000E+00         0.00000E+00
 
    0.74418E+06         0.34857E+06         0.00000E+00
    0.34857E+06         0.54939E+04         0.00000E+00
    0.00000E+00         0.00000E+00         0.00000E+00
 
    0.72859E+06         0.36565E+06         0.00000E+00
    0.36565E+06         0.12890E+05         0.00000E+00
    0.00000E+00         0.00000E+00         0.00000E+00
 
    0.71239E+06         0.38235E+06         0.00000E+00
    0.38235E+06         0.20621E+05         0.00000E+00
    0.00000E+00         0.00000E+00         0.00000E+00
 
    0.69560E+06         0.39868E+06         0.00000E+00
    0.39868E+06         0.28679E+05         0.00000E+00
    0.00000E+00         0.00000E+00         0.00000E+00
 
    0.67823E+06         0.41462E+06         0.00000E+00
    0.41462E+06         0.37056E+05         0.00000E+00
    0.00000E+00         0.00000E+00         0.00000E+00
 
    0.66030E+06         0.43016E+06         0.00000E+00
    0.43016E+06         0.45742E+05         0.00000E+00
    0.00000E+00         0.00000E+00         0.00000E+00
 
    0.64182E+06         0.44530E+06         0.00000E+00
    0.44530E+06         0.54731E+05         0.00000E+00
    0.00000E+00         0.00000E+00         0.00000E+00
 
    0.62280E+06         0.46002E+06         0.00000E+00
    0.46002E+06         0.64013E+05         0.00000E+00
    0.00000E+00         0.00000E+00         0.00000E+00
 
    0.60327E+06         0.47433E+06         0.00000E+00
    0.47433E+06         0.73581E+05         0.00000E+00
    0.00000E+00         0.00000E+00         0.00000E+00
 
    0.58323E+06         0.48822E+06         0.00000E+00
    0.48822E+06         0.83427E+05         0.00000E+00
    0.00000E+00         0.00000E+00         0.00000E+00
 
    0.56270E+06         0.50168E+06         0.00000E+00
    0.50168E+06         0.93541E+05         0.00000E+00
    0.00000E+00         0.00000E+00         0.00000E+00
 
    0.54169E+06         0.51469E+06         0.00000E+00
    0.51469E+06         0.10392E+06         0.00000E+00
    0.00000E+00         0.00000E+00         0.00000E+00
 
    0.52021E+06         0.52727E+06         0.00000E+00
    0.52727E+06         0.11454E+06         0.00000E+00
    0.00000E+00         0.00000E+00         0.00000E+00
 
    0.49829E+06         0.53940E+06         0.00000E+00
    0.53940E+06         0.12542E+06         0.00000E+00
    0.00000E+00         0.00000E+00         0.00000E+00
 
    0.47593E+06         0.55107E+06         0.00000E+00
    0.55107E+06         0.13653E+06         0.00000E+00
    0.00000E+00         0.00000E+00         0.00000E+00
 
    0.45315E+06         0.56229E+06         0.00000E+00
    0.56229E+06         0.14786E+06         0.00000E+00
    0.00000E+00         0.00000E+00         0.00000E+00
 
    0.42996E+06         0.57304E+06         0.00000E+00
    0.57304E+06         0.15942E+06         0.00000E+00
    0.00000E+00         0.00000E+00         0.00000E+00
 
    0.40637E+06         0.58333E+06         0.00000E+00
    0.58333E+06         0.17119E+06         0.00000E+00
    0.00000E+00         0.00000E+00         0.00000E+00
 
    0.38241E+06         0.59314E+06         0.00000E+00
    0.59314E+06         0.18317E+06         0.00000E+00
    0.00000E+00         0.00000E+00         0.00000E+00
 
    0.35807E+06         0.60247E+06         0.00000E+00
    0.60247E+06         0.19534E+06         0.00000E+00
    0.00000E+00         0.00000E+00         0.00000E+00
 
    0.33338E+06         0.61133E+06         0.00000E+00
    0.61133E+06         0.20770E+06         0.00000E+00
    0.00000E+00         0.00000E+00         0.00000E+00
 
    0.30835E+06         0.61969E+06         0.00000E+00
    0.61969E+06         0.22024E+06         0.00000E+00
    0.00000E+00         0.00000E+00         0.00000E+00
 
    0.28299E+06         0.62757E+06         0.00000E+00
    0.62757E+06         0.23295E+06         0.00000E+00
    0.00000E+00         0.00000E+00         0.00000E+00
 
    0.25731E+06         0.63495E+06         0.00000E+00
    0.63495E+06         0.24583E+06         0.00000E+00
    0.00000E+00         0.00000E+00         0.00000E+00
 
    0.23133E+06         0.64184E+06         0.00000E+00
    0.64184E+06         0.25886E+06         0.00000E+00
    0.00000E+00         0.00000E+00         0.00000E+00
 
    0.20505E+06         0.64822E+06         0.00000E+00
    0.64822E+06         0.27204E+06         0.00000E+00
    0.00000E+00         0.00000E+00         0.00000E+00
 
    0.17850E+06         0.65410E+06         0.00000E+00
    0.65410E+06         0.28537E+06         0.00000E+00
    0.00000E+00         0.00000E+00         0.00000E+00
 
    0.15168E+06         0.65947E+06         0.00000E+00
    0.65947E+06         0.29882E+06         0.00000E+00
    0.00000E+00         0.00000E+00         0.00000E+00
 
    0.12461E+06         0.66433E+06         0.00000E+00
    0.66433E+06         0.31240E+06         0.00000E+00
    0.00000E+00         0.00000E+00         0.00000E+00
 
    0.97299E+05         0.66868E+06         0.00000E+00
    0.66868E+06         0.32610E+06         0.00000E+00
    0.00000E+00         0.00000E+00         0.00000E+00
 
    0.69757E+05         0.67251E+06         0.00000E+00
    0.67251E+06         0.33991E+06         0.00000E+00
    0.00000E+00         0.00000E+00         0.00000E+00
 
    0.41997E+05         0.67582E+06         0.00000E+00
    0.67582E+06         0.35381E+06         0.00000E+00
    0.00000E+00         0.00000E+00         0.00000E+00
 
    0.14032E+05         0.67860E+06         0.00000E+00
    0.67860E+06         0.36781E+06         0.00000E+00
    0.00000E+00         0.00000E+00         0.00000E+00
 
    0.10052E+07         0.12385E+05         0.00000E+00
    0.12385E+05        -0.73561E+05         0.00000E+00
    0.00000E+00         0.00000E+00         0.00000E+00
 
    0.10012E+07         0.36636E+05         0.00000E+00
    0.36636E+05        -0.73032E+05         0.00000E+00
    0.00000E+00         0.00000E+00         0.00000E+00
 
    0.99635E+06         0.60677E+05         0.00000E+00
    0.60677E+05        -0.71988E+05         0.00000E+00
    0.00000E+00         0.00000E+00         0.00000E+00
 
    0.99055E+06         0.84490E+05         0.00000E+00
    0.84490E+05        -0.70438E+05         0.00000E+00
    0.00000E+00         0.00000E+00         0.00000E+00
 
    0.98385E+06         0.10806E+06         0.00000E+00
    0.10806E+06        -0.68391E+05         0.00000E+00
    0.00000E+00         0.00000E+00         0.00000E+00
 
    0.97627E+06         0.13138E+06         0.00000E+00
    0.13138E+06        -0.65854E+05         0.00000E+00
    0.00000E+00         0.00000E+00         0.00000E+00
 
    0.96782E+06         0.15442E+06         0.00000E+00
    0.15442E+06        -0.62836E+05         0.00000E+00
    0.00000E+00         0.00000E+00         0.00000E+00
 
    0.95853E+06         0.17718E+06         0.00000E+00
    0.17718E+06        -0.59346E+05         0.00000E+00
    0.00000E+00         0.00000E+00         0.00000E+00
 
    0.94840E+06         0.19964E+06         0.00000E+00
    0.19964E+06        -0.55393E+05         0.00000E+00
    0.00000E+00         0.00000E+00         0.00000E+00
 
    0.93745E+06         0.22178E+06         0.00000E+00
    0.22178E+06        -0.50985E+05         0.00000E+00
    0.00000E+00         0.00000E+00         0.00000E+00
 
    0.92571E+06         0.24361E+06         0.00000E+00
    0.24361E+06        -0.46133E+05         0.00000E+00
    0.00000E+00         0.00000E+00         0.00000E+00
 
    0.91318E+06         0.26510E+06         0.00000E+00
    0.26510E+06        -0.40843E+05         0.00000E+00
    0.00000E+00         0.00000E+00         0.00000E+00
 
    0.89989E+06         0.28624E+06         0.00000E+00
    0.28624E+06        -0.35126E+05         0.00000E+00
    0.00000E+00         0.00000E+00         0.00000E+00
 
    0.88584E+06         0.30703E+06         0.00000E+00
    0.30703E+06        -0.28990E+05         0.00000E+00
    0.00000E+00         0.00000E+00         0.00000E+00
 
    0.87107E+06         0.32745E+06         0.00000E+00
    0.32745E+06        -0.22445E+05         0.00000E+00
    0.00000E+00         0.00000E+00         0.00000E+00
 
    0.85558E+06         0.34749E+06         0.00000E+00
    0.34749E+06        -0.15500E+05         0.00000E+00
    0.00000E+00         0.00000E+00         0.00000E+00
 
    0.83939E+06         0.36714E+06         0.00000E+00
    0.36714E+06        -0.81629E+04         0.00000E+00
    0.00000E+00         0.00000E+00         0.00000E+00
 
    0.82252E+06         0.38639E+06         0.00000E+00
    0.38639E+06        -0.44366E+03         0.00000E+00
    0.00000E+00         0.00000E+00         0.00000E+00
 
    0.80498E+06         0.40524E+06         0.00000E+00
    0.40524E+06         0.76489E+04         0.00000E+00
    0.00000E+00         0.00000E+00         0.00000E+00
 
    0.78680E+06         0.42367E+06         0.00000E+00
    0.42367E+06         0.16106E+05         0.00000E+00
    0.00000E+00         0.00000E+00         0.00000E+00
 
    0.76798E+06         0.44168E+06         0.00000E+00
    0.44168E+06         0.24918E+05         0.00000E+00
    0.00000E+00         0.00000E+00         0.00000E+00
 
    0.74854E+06         0.45925E+06         0.00000E+00
    0.45925E+06         0.34076E+05         0.00000E+00
    0.00000E+00         0.00000E+00         0.00000E+00
 
    0.72851E+06         0.47639E+06         0.00000E+00
    0.47639E+06         0.43571E+05         0.00000E+00
    0.00000E+00         0.00000E+00         0.00000E+00
 
    0.70788E+06         0.49308E+06         0.00000E+00
    0.49308E+06         0.53395E+05         0.00000E+00
    0.00000E+00         0.00000E+00         0.00000E+00
 
    0.68669E+06         0.50932E+06         0.00000E+00
    0.50932E+06         0.63538E+05         0.00000E+00
    0.00000E+00         0.00000E+00         0.00000E+00
 
    0.66495E+06         0.52510E+06         0.00000E+00
    0.52510E+06         0.73992E+05         0.00000E+00
    0.00000E+00         0.00000E+00         0.00000E+00
 
    0.64267E+06         0.54041E+06         0.00000E+00
    0.54041E+06         0.84747E+05         0.00000E+00
    0.00000E+00         0.00000E+00         0.00000E+00
 
    0.61986E+06         0.55525E+06         0.00000E+00
    0.55525E+06         0.95796E+05         0.00000E+00
    0.00000E+00         0.00000E+00         0.00000E+00
 
    0.59655E+06         0.56961E+06         0.00000E+00
    0.56961E+06         0.10713E+06         0.00000E+00
    0.00000E+00         0.00000E+00         0.00000E+00
 
    0.57275E+06         0.58349E+06         0.00000E+00
    0.58349E+06         0.11874E+06         0.00000E+00
    0.00000E+00         0.00000E+00         0.00000E+00
 
    0.54847E+06         0.59687E+06         0.00000E+00
    0.59687E+06         0.13061E+06         0.00000E+00
    0.00000E+00         0.00000E+00         0.00000E+00
 
    0.52372E+06         0.60976E+06         0.00000E+00
    0.60976E+06         0.14274E+06         0.00000E+00
    0.00000E+00         0.00000E+00         0.00000E+00
 
    0.49853E+06         0.62215E+06         0.00000E+00
    0.62215E+06         0.15513E+06         0.00000E+00
    0.00000E+00         0.00000E+00         0.00000E+00
 
    0.47291E+06         0.63404E+06         0.00000E+00
    0.63404E+06         0.16775E+06         0.00000E+00
    0.00000E+00         0.00000E+00         0.00000E+00
 
    0.44687E+06         0.64541E+06         0.00000E+00
    0.64541E+06         0.18061E+06         0.00000E+00
    0.00000E+00         0.00000E+00         0.00000E+00
 
    0.42043E+06         0.65628E+06         0.00000E+00
    0.65628E+06         0.19369E+06         0.00000E+00
    0.00000E+00         0.00000E+00         0.00000E+00
 
    0.39359E+06         0.66662E+06         0.00000E+00
    0.66662E+06         0.20699E+06         0.00000E+00
    0.00000E+00         0.00000E+00         0.00000E+00
 
    0.36638E+06         0.67644E+06         0.00000E+00
    0.67644E+06         0.22049E+06         0.00000E+00
    0.00000E+00         0.00000E+00         0.00000E+00
 
    0.33881E+06         0.68573E+06         0.00000E+00
    0.68573E+06         0.23419E+06         0.00000E+00
    0.00000E+00         0.00000E+00         0.00000E+00
 
    0.31089E+06         0.69450E+06         0.00000E+00
    0.69450E+06         0.24809E+06         0.00000E+00
    0.00000E+00         0.00000E+00         0.00000E+00
 
    0.28263E+06         0.70273E+06         0.00000E+00
    0.70273E+06         0.26217E+06         0.00000E+00
    0.00000E+00         0.00000E+00         0.00000E+00
 
    0.25405E+06         0.71042E+06         0.00000E+00
    0.71042E+06         0.27642E+06         0.00000E+00
    0.00000E+00         0.00000E+00         0.00000E+00
 
    0.22516E+06         0.71757E+06         0.00000E+00
    0.71757E+06         0.29084E+06         0.00000E+00
    0.00000E+00         0.00000E+00         0.00000E+00
 
    0.19598E+06         0.72417E+06         0.00000E+00
    0.72417E+06         0.30541E+06         0.00000E+00
    0.00000E+00         0.00000E+00         0.00000E+00
 
    0.16651E+06         0.73023E+06         0.00000E+00
    0.73023E+06         0.32014E+06         0.00000E+00
    0.00000E+00         0.00000E+00         0.00000E+00
 
    0.13678E+06         0.73574E+06         0.00000E+00
    0.73574E+06         0.33501E+06         0.00000E+00
    0.00000E+00         0.00000E+00         0.00000E+00
 
    0.10679E+06         0.74069E+06         0.00000E+00
    0.74069E+06         0.35001E+06         0.00000E+00
    0.00000E+00         0.00000E+00         0.00000E+00
 
    0.76552E+05         0.74509E+06         0.00000E+00
    0.74509E+06         0.36514E+06         0.00000E+00
    0.00000E+00         0.00000E+00         0.00000E+00
 
    0.46084E+05         0.74892E+06         0.00000E+00
    0.74892E+06         0.38038E+06         0.00000E+00
    0.00000E+00         0.00000E+00         0.00000E+00
 
    0.15397E+05         0.75219E+06         0.00000E+00
    0.75219E+06         0.39573E+06         0.00000E+00
    0.00000E+00         0.00000E+00         0.00000E+00
 
    0.11189E+07         0.13804E+05         0.00000E+00
    0.13804E+05        -0.88390E+05         0.00000E+00
    0.00000E+00         0.00000E+00         0.00000E+00
 
    0.11138E+07         0.40774E+05         0.00000E+00
    0.40774E+05        -0.87808E+05         0.00000E+00
    0.00000E+00         0.00000E+00         0.00000E+00
 
    0.11077E+07         0.67489E+05         0.00000E+00
    0.67489E+05        -0.86661E+05         0.00000E+00
    0.00000E+00         0.00000E+00         0.00000E+00
 
    0.11006E+07         0.93931E+05         0.00000E+00
    0.93931E+05        -0.84958E+05         0.00000E+00
    0.00000E+00         0.00000E+00         0.00000E+00
 
    0.10926E+07         0.12009E+06         0.00000E+00
    0.12009E+06        -0.82710E+05         0.00000E+00
    0.00000E+00         0.00000E+00         0.00000E+00
 
    0.10835E+07         0.14594E+06         0.00000E+00
    0.14594E+06        -0.79927E+05         0.00000E+00
    0.00000E+00         0.00000E+00         0.00000E+00
 
    0.10736E+07         0.17147E+06         0.00000E+00
    0.17147E+06        -0.76618E+05         0.00000E+00
    0.00000E+00         0.00000E+00         0.00000E+00
 
    0.10627E+07         0.19668E+06         0.00000E+00
    0.19668E+06        -0.72794E+05         0.00000E+00
    0.00000E+00         0.00000E+00         0.00000E+00
 
    0.10510E+07         0.22153E+06         0.00000E+00
    0.22153E+06        -0.68464E+05         0.00000E+00
    0.00000E+00         0.00000E+00         0.00000E+00
 
    0.10383E+07         0.24603E+06         0.00000E+00
    0.24603E+06        -0.63639E+05         0.00000E+00
    0.00000E+00         0.00000E+00         0.00000E+00
 
    0.10248E+07         0.27016E+06         0.00000E+00
    0.27016E+06        -0.58328E+05         0.00000E+00
    0.00000E+00         0.00000E+00         0.00000E+00
 
    0.10104E+07         0.29390E+06         0.00000E+00
    0.29390E+06        -0.52542E+05         0.00000E+00
    0.00000E+00         0.00000E+00         0.00000E+00
 
    0.99528E+06         0.31725E+06         0.00000E+00
    0.31725E+06        -0.46292E+05         0.00000E+00
    0.00000E+00         0.00000E+00         0.00000E+00
 
    0.97930E+06         0.34020E+06         0.00000E+00
    0.34020E+06        -0.39586E+05         0.00000E+00
    0.00000E+00         0.00000E+00         0.00000E+00
 
    0.96255E+06         0.36273E+06         0.00000E+00
    0.36273E+06        -0.32435E+05         0.00000E+00
    0.00000E+00         0.00000E+00         0.00000E+00
 
    0.94502E+06         0.38483E+06         0.00000E+00
    0.38483E+06        -0.24849E+05         0.00000E+00
    0.00000E+00         0.00000E+00         0.00000E+00
 
    0.92675E+06         0.40650E+06         0.00000E+00
    0.40650E+06        -0.16839E+05         0.00000E+00
    0.00000E+00         0.00000E+00         0.00000E+00
 
    0.90775E+06         0.42772E+06         0.00000E+00
    0.42772E+06        -0.84137E+04         0.00000E+00
    0.00000E+00         0.00000E+00         0.00000E+00
 
    0.88805E+06         0.44849E+06         0.00000E+00
    0.44849E+06         0.41644E+03         0.00000E+00
    0.00000E+00         0.00000E+00         0.00000E+00
 
    0.86765E+06         0.46879E+06         0.00000E+00
    0.46879E+06         0.96416E+04         0.00000E+00
    0.00000E+00         0.00000E+00         0.00000E+00
 
    0.84658E+06         0.48863E+06         0.00000E+00
    0.48863E+06         0.19252E+05         0.00000E+00
    0.00000E+00         0.00000E+00         0.00000E+00
 
    0.82485E+06         0.50799E+06         0.00000E+00
    0.50799E+06         0.29238E+05         0.00000E+00
    0.00000E+00         0.00000E+00         0.00000E+00
 
    0.80248E+06         0.52686E+06         0.00000E+00
    0.52686E+06         0.39589E+05         0.00000E+00
    0.00000E+00         0.00000E+00         0.00000E+00
 
    0.77950E+06         0.54524E+06         0.00000E+00
    0.54524E+06         0.50297E+05         0.00000E+00
    0.00000E+00         0.00000E+00         0.00000E+00
 
    0.75591E+06         0.56311E+06         0.00000E+00
    0.56311E+06         0.61350E+05         0.00000E+00
    0.00000E+00         0.00000E+00         0.00000E+00
 
    0.73173E+06         0.58049E+06         0.00000E+00
    0.58049E+06         0.72741E+05         0.00000E+00
    0.00000E+00         0.00000E+00         0.00000E+00
 
    0.70699E+06         0.59735E+06         0.00000E+00
    0.59735E+06         0.84460E+05         0.00000E+00
    0.00000E+00         0.00000E+00         0.00000E+00
 
    0.68170E+06         0.61369E+06         0.00000E+00
    0.61369E+06         0.96497E+05         0.00000E+00
    0.00000E+00         0.00000E+00         0.00000E+00
 
    0.65587E+06         0.62951E+06         0.00000E+00
    0.62951E+06         0.10884E+06         0.00000E+00
    0.00000E+00         0.00000E+00         0.00000E+00
 
    0.62952E+06         0.64480E+06         0.00000E+00
    0.64480E+06         0.12149E+06         0.00000E+00
    0.00000E+00         0.00000E+00         0.00000E+00
 
    0.60267E+06         0.65956E+06         0.00000E+00
    0.65956E+06         0.13442E+06         0.00000E+00
    0.00000E+00         0.00000E+00         0.00000E+00
 
    0.57533E+06         0.67378E+06         0.00000E+00
    0.67378E+06         0.14764E+06         0.00000E+00
    0.00000E+00         0.00000E+00         0.00000E+00
 
    0.54752E+06         0.68745E+06         0.00000E+00
    0.68745E+06         0.16113E+06         0.00000E+00
    0.00000E+00         0.00000E+00         0.00000E+00
 
    0.51925E+06         0.70058E+06         0.00000E+00
    0.70058E+06         0.17488E+06         0.00000E+00
    0.00000E+00         0.00000E+00         0.00000E+00
 
    0.49054E+06         0.71315E+06         0.00000E+00
    0.71315E+06         0.18889E+06         0.00000E+00
    0.00000E+00         0.00000E+00         0.00000E+00
 
    0.46141E+06         0.72516E+06         0.00000E+00
    0.72516E+06         0.20315E+06         0.00000E+00
    0.00000E+00         0.00000E+00         0.00000E+00
 
    0.43187E+06         0.73662E+06         0.00000E+00
    0.73662E+06         0.21764E+06         0.00000E+00
    0.00000E+00         0.00000E+00         0.00000E+00
 
    0.40193E+06         0.74751E+06         0.00000E+00
    0.74751E+06         0.23236E+06         0.00000E+00
    0.00000E+00         0.00000E+00         0.00000E+00
 
    0.37161E+06         0.75783E+06         0.00000E+00
    0.75783E+06         0.24730E+06         0.00000E+00
    0.00000E+00         0.00000E+00         0.00000E+00
 
    0.34092E+06         0.76757E+06         0.00000E+00
    0.76757E+06         0.26245E+06         0.00000E+00
    0.00000E+00         0.00000E+00         0.00000E+00
 
    0.30988E+06         0.77675E+06         0.00000E+00
    0.77675E+06         0.27780E+06         0.00000E+00
    0.00000E+00         0.00000E+00         0.00000E+00
 
    0.27850E+06         0.78534E+06         0.00000E+00
    0.78534E+06         0.29335E+06         0.00000E+00
    0.00000E+00         0.00000E+00         0.00000E+00
 
    0.24679E+06         0.79335E+06         0.00000E+00
    0.79335E+06         0.30909E+06         0.00000E+00
    0.00000E+00         0.00000E+00         0.00000E+00
 
    0.21478E+06         0.80077E+06         0.00000E+00
    0.80077E+06         0.32500E+06         0.00000E+00
    0.00000E+00         0.00000E+00         0.00000E+00
 
    0.18246E+06         0.80761E+06         0.00000E+00
    0.80761E+06         0.34108E+06         0.00000E+00
    0.00000E+00         0.00000E+00         0.00000E+00
 
    0.14986E+06         0.81385E+06         0.00000E+00
    0.81385E+06         0.35733E+06         0.00000E+00
    0.00000E+00         0.00000E+00         0.00000E+00
 
    0.11699E+06         0.81949E+06         0.00000E+00
    0.81949E+06         0.37372E+06         0.00000E+00
    0.00000E+00         0.00000E+00         0.00000E+00
 
    0.83854E+05         0.82454E+06         0.00000E+00
    0.82454E+06         0.39026E+06         0.00000E+00
    0.00000E+00         0.00000E+00         0.00000E+00
 
    0.50475E+05         0.82899E+06         0.00000E+00
    0.82899E+06         0.40694E+06         0.00000E+00
    0.00000E+00         0.00000E+00         0.00000E+00
 
    0.16863E+05         0.83283E+06         0.00000E+00
    0.83283E+06         0.42375E+06         0.00000E+00
    0.00000E+00         0.00000E+00         0.00000E+00
 
    0.12440E+07         0.15366E+05         0.00000E+00
    0.15366E+05        -0.10613E+06         0.00000E+00
    0.00000E+00         0.00000E+00         0.00000E+00
 
    0.12376E+07         0.45319E+05         0.00000E+00
    0.45319E+05        -0.10549E+06         0.00000E+00
    0.00000E+00         0.00000E+00         0.00000E+00
 
    0.12300E+07         0.74964E+05         0.00000E+00
    0.74964E+05        -0.10423E+06         0.00000E+00
    0.00000E+00         0.00000E+00         0.00000E+00
 
    0.12214E+07         0.10428E+06         0.00000E+00
    0.10428E+06        -0.10236E+06         0.00000E+00
    0.00000E+00         0.00000E+00         0.00000E+00
 
    0.12118E+07         0.13326E+06         0.00000E+00
    0.13326E+06        -0.99903E+05         0.00000E+00
    0.00000E+00         0.00000E+00         0.00000E+00
 
    0.12011E+07         0.16189E+06         0.00000E+00
    0.16189E+06        -0.96859E+05         0.00000E+00
    0.00000E+00         0.00000E+00         0.00000E+00
 
    0.11894E+07         0.19014E+06         0.00000E+00
    0.19014E+06        -0.93241E+05         0.00000E+00
    0.00000E+00         0.00000E+00         0.00000E+00
 
    0.11767E+07         0.21801E+06         0.00000E+00
    0.21801E+06        -0.89063E+05         0.00000E+00
    0.00000E+00         0.00000E+00         0.00000E+00
 
    0.11630E+07         0.24547E+06         0.00000E+00
    0.24547E+06        -0.84334E+05         0.00000E+00
    0.00000E+00         0.00000E+00         0.00000E+00
 
    0.11484E+07         0.27253E+06         0.00000E+00
    0.27253E+06        -0.79067E+05         0.00000E+00
    0.00000E+00         0.00000E+00         0.00000E+00
 
    0.11329E+07         0.29916E+06         0.00000E+00
    0.29916E+06        -0.73274E+05         0.00000E+00
    0.00000E+00         0.00000E+00         0.00000E+00
 
    0.11164E+07         0.32536E+06         0.00000E+00
    0.32536E+06        -0.66964E+05         0.00000E+00
    0.00000E+00         0.00000E+00         0.00000E+00
 
    0.10991E+07         0.35110E+06         0.00000E+00
    0.35110E+06        -0.60150E+05         0.00000E+00
    0.00000E+00         0.00000E+00         0.00000E+00
 
    0.10810E+07         0.37639E+06         0.00000E+00
    0.37639E+06        -0.52843E+05         0.00000E+00
    0.00000E+00         0.00000E+00         0.00000E+00
 
    0.10620E+07         0.40121E+06         0.00000E+00
    0.40121E+06        -0.45054E+05         0.00000E+00
    0.00000E+00         0.00000E+00         0.00000E+00
 
    0.10422E+07         0.42555E+06         0.00000E+00
    0.42555E+06        -0.36795E+05         0.00000E+00
    0.00000E+00         0.00000E+00         0.00000E+00
 
    0.10216E+07         0.44940E+06         0.00000E+00
    0.44940E+06        -0.28076E+05         0.00000E+00
    0.00000E+00         0.00000E+00         0.00000E+00
 
    0.10002E+07         0.47275E+06         0.00000E+00
    0.47275E+06        -0.18908E+05         0.00000E+00
    0.00000E+00         0.00000E+00         0.00000E+00
 
    0.97808E+06         0.49560E+06         0.00000E+00
    0.49560E+06        -0.93019E+04         0.00000E+00
    0.00000E+00         0.00000E+00         0.00000E+00
 
    0.95523E+06         0.51794E+06         0.00000E+00
    0.51794E+06         0.73102E+03         0.00000E+00
    0.00000E+00         0.00000E+00         0.00000E+00
 
    0.93166E+06         0.53975E+06         0.00000E+00
    0.53975E+06         0.11180E+05         0.00000E+00
    0.00000E+00         0.00000E+00         0.00000E+00
 
    0.90740E+06         0.56103E+06         0.00000E+00
    0.56103E+06         0.22036E+05         0.00000E+00
    0.00000E+00         0.00000E+00         0.00000E+00
 
    0.88246E+06         0.58178E+06         0.00000E+00
    0.58178E+06         0.33286E+05         0.00000E+00
    0.00000E+00         0.00000E+00         0.00000E+00
 
    0.85687E+06         0.60199E+06         0.00000E+00
    0.60199E+06         0.44922E+05         0.00000E+00
    0.00000E+00         0.00000E+00         0.00000E+00
 
    0.83065E+06         0.62165E+06         0.00000E+00
    0.62165E+06         0.56933E+05         0.00000E+00
    0.00000E+00         0.00000E+00         0.00000E+00
 
    0.80381E+06         0.64075E+06         0.00000E+00
    0.64075E+06         0.69308E+05         0.00000E+00
    0.00000E+00         0.00000E+00         0.00000E+00
 
    0.77637E+06         0.65929E+06         0.00000E+00
    0.65929E+06         0.82038E+05         0.00000E+00
    0.00000E+00         0.00000E+00         0.00000E+00
 
    0.74836E+06         0.67727E+06         0.00000E+00
    0.67727E+06         0.95114E+05         0.00000E+00
    0.00000E+00         0.00000E+00         0.00000E+00
 
    0.71978E+06         0.69467E+06         0.00000E+00
    0.69467E+06         0.10852E+06         0.00000E+00
    0.00000E+00         0.00000E+00         0.00000E+00
 
    0.69065E+06         0.71150E+06         0.00000E+00
    0.71150E+06         0.12226E+06         0.00000E+00
    0.00000E+00         0.00000E+00         0.00000E+00
 
    0.66100E+06         0.72775E+06         0.00000E+00
    0.72775E+06         0.13631E+06         0.00000E+00
    0.00000E+00         0.00000E+00         0.00000E+00
 
    0.63084E+06         0.74342E+06         0.00000E+00
    0.74342E+06         0.15067E+06         0.00000E+00
    0.00000E+00         0.00000E+00         0.00000E+00
 
    0.60019E+06         0.75849E+06         0.00000E+00
    0.75849E+06         0.16532E+06         0.00000E+00
    0.00000E+00         0.00000E+00         0.00000E+00
 
    0.56906E+06         0.77297E+06         0.00000E+00
    0.77297E+06         0.18027E+06         0.00000E+00
    0.00000E+00         0.00000E+00         0.00000E+00
 
    0.53746E+06         0.78685E+06         0.00000E+00
    0.78685E+06         0.19549E+06         0.00000E+00
    0.00000E+00         0.00000E+00         0.00000E+00
 
    0.50543E+06         0.80013E+06         0.00000E+00
    0.80013E+06         0.21098E+06         0.00000E+00
    0.00000E+00         0.00000E+00         0.00000E+00
 
    0.47296E+06         0.81281E+06         0.00000E+00
    0.81281E+06         0.22673E+06         0.00000E+00
    0.00000E+00         0.00000E+00         0.00000E+00
 
    0.44008E+06         0.82488E+06         0.00000E+00
    0.82488E+06         0.24273E+06         0.00000E+00
    0.00000E+00         0.00000E+00         0.00000E+00
 
    0.40679E+06         0.83633E+06         0.00000E+00
    0.83633E+06         0.25898E+06         0.00000E+00
    0.00000E+00         0.00000E+00         0.00000E+00
 
    0.37313E+06         0.84717E+06         0.00000E+00
    0.84717E+06         0.27546E+06         0.00000E+00
    0.00000E+00         0.00000E+00         0.00000E+00
 
    0.33909E+06         0.85739E+06         0.00000E+00
    0.85739E+06         0.29217E+06         0.00000E+00
    0.00000E+00         0.00000E+00         0.00000E+00
 
    0.30470E+06         0.86699E+06         0.00000E+00
    0.86699E+06         0.30909E+06         0.00000E+00
    0.00000E+00         0.00000E+00         0.00000E+00
 
    0.26997E+06         0.87596E+06         0.00000E+00
    0.87596E+06         0.32622E+06         0.00000E+00
    0.00000E+00         0.00000E+00         0.00000E+00
 
    0.23491E+06         0.88431E+06         0.00000E+00
    0.88431E+06         0.34355E+06         0.00000E+00
    0.00000E+00         0.00000E+00         0.00000E+00
 
    0.19954E+06         0.89202E+06         0.00000E+00
    0.89202E+06         0.36108E+06         0.00000E+00
    0.00000E+00         0.00000E+00         0.00000E+00
 
    0.16386E+06         0.89910E+06         0.00000E+00
    0.89910E+06         0.37878E+06         0.00000E+00
    0.00000E+00         0.00000E+00         0.00000E+00
 
    0.12790E+06         0.90555E+06         0.00000E+00
    0.90555E+06         0.39666E+06         0.00000E+00
    0.00000E+00         0.00000E+00         0.00000E+00
 
    0.91670E+05         0.91135E+06         0.00000E+00
    0.91135E+06         0.41471E+06         0.00000E+00
    0.00000E+00         0.00000E+00         0.00000E+00
 
    0.55175E+05         0.91651E+06         0.00000E+00
    0.91651E+06         0.43292E+06         0.00000E+00
    0.00000E+00         0.00000E+00         0.00000E+00
 
    0.18432E+05         0.92103E+06         0.00000E+00
    0.92103E+06         0.45127E+06         0.00000E+00
    0.00000E+00         0.00000E+00         0.00000E+00
 
    0.13814E+07         0.17081E+05         0.00000E+00
    0.17081E+05        -0.12731E+06         0.00000E+00
    0.00000E+00         0.00000E+00         0.00000E+00
 
    0.13734E+07         0.50295E+05         0.00000E+00
    0.50295E+05        -0.12661E+06         0.00000E+00
    0.00000E+00         0.00000E+00         0.00000E+00
 
    0.13641E+07         0.83141E+05         0.00000E+00
    0.83141E+05        -0.12524E+06         0.00000E+00
    0.00000E+00         0.00000E+00         0.00000E+00
 
    0.13537E+07         0.11560E+06         0.00000E+00
    0.11560E+06        -0.12320E+06         0.00000E+00
    0.00000E+00         0.00000E+00         0.00000E+00
 
    0.13421E+07         0.14766E+06         0.00000E+00
    0.14766E+06        -0.12052E+06         0.00000E+00
    0.00000E+00         0.00000E+00         0.00000E+00
 
    0.13294E+07         0.17930E+06         0.00000E+00
    0.17930E+06        -0.11720E+06         0.00000E+00
    0.00000E+00         0.00000E+00         0.00000E+00
 
    0.13157E+07         0.21051E+06         0.00000E+00
    0.21051E+06        -0.11326E+06         0.00000E+00
    0.00000E+00         0.00000E+00         0.00000E+00
 
    0.13009E+07         0.24127E+06         0.00000E+00
    0.24127E+06        -0.10871E+06         0.00000E+00
    0.00000E+00         0.00000E+00         0.00000E+00
 
    0.12851E+07         0.27157E+06         0.00000E+00
    0.27157E+06        -0.10356E+06         0.00000E+00
    0.00000E+00         0.00000E+00         0.00000E+00
 
    0.12682E+07         0.30140E+06         0.00000E+00
    0.30140E+06        -0.97833E+05         0.00000E+00
    0.00000E+00         0.00000E+00         0.00000E+00
 
    0.12504E+07         0.33074E+06         0.00000E+00
    0.33074E+06        -0.91533E+05         0.00000E+00
    0.00000E+00         0.00000E+00         0.00000E+00
 
    0.12316E+07         0.35959E+06         0.00000E+00
    0.35959E+06        -0.84675E+05         0.00000E+00
    0.00000E+00         0.00000E+00         0.00000E+00
 
    0.12119E+07         0.38793E+06         0.00000E+00
    0.38793E+06        -0.77272E+05         0.00000E+00
    0.00000E+00         0.00000E+00         0.00000E+00
 
    0.11913E+07         0.41575E+06         0.00000E+00
    0.41575E+06        -0.69337E+05         0.00000E+00
    0.00000E+00         0.00000E+00         0.00000E+00
 
    0.11698E+07         0.44304E+06         0.00000E+00
    0.44304E+06        -0.60882E+05         0.00000E+00
    0.00000E+00         0.00000E+00         0.00000E+00
 
    0.11474E+07         0.46980E+06         0.00000E+00
    0.46980E+06        -0.51919E+05         0.00000E+00
    0.00000E+00         0.00000E+00         0.00000E+00
 
    0.11242E+07         0.49601E+06         0.00000E+00
    0.49601E+06        -0.42461E+05         0.00000E+00
    0.00000E+00         0.00000E+00         0.00000E+00
 
    0.11002E+07         0.52167E+06         0.00000E+00
    0.52167E+06        -0.32518E+05         0.00000E+00
    0.00000E+00         0.00000E+00         0.00000E+00
 
    0.10754E+07         0.54676E+06         0.00000E+00
    0.54676E+06        -0.22104E+05         0.00000E+00
    0.00000E+00         0.00000E+00         0.00000E+00
 
    0.10498E+07         0.57129E+06         0.00000E+00
    0.57129E+06        -0.11229E+05         0.00000E+00
    0.00000E+00         0.00000E+00         0.00000E+00
 
    0.10234E+07         0.59524E+06         0.00000E+00
    0.59524E+06         0.94243E+02         0.00000E+00
    0.00000E+00         0.00000E+00         0.00000E+00
 
    0.99638E+06         0.61860E+06         0.00000E+00
    0.61860E+06         0.11855E+05         0.00000E+00
    0.00000E+00         0.00000E+00         0.00000E+00
 
    0.96862E+06         0.64138E+06         0.00000E+00
    0.64138E+06         0.24043E+05         0.00000E+00
    0.00000E+00         0.00000E+00         0.00000E+00
 
    0.94017E+06         0.66356E+06         0.00000E+00
    0.66356E+06         0.36646E+05         0.00000E+00
    0.00000E+00         0.00000E+00         0.00000E+00
 
    0.91106E+06         0.68514E+06         0.00000E+00
    0.68514E+06         0.49653E+05         0.00000E+00
    0.00000E+00         0.00000E+00         0.00000E+00
 
    0.88131E+06         0.70611E+06         0.00000E+00
    0.70611E+06         0.63054E+05         0.00000E+00
    0.00000E+00         0.00000E+00         0.00000E+00
 
    0.85093E+06         0.72647E+06         0.00000E+00
    0.72647E+06         0.76839E+05         0.00000E+00
    0.00000E+00         0.00000E+00         0.00000E+00
 
    0.81995E+06         0.74622E+06         0.00000E+00
    0.74622E+06         0.90996E+05         0.00000E+00
    0.00000E+00         0.00000E+00         0.00000E+00
 
    0.78838E+06         0.76534E+06         0.00000E+00
    0.76534E+06         0.10552E+06         0.00000E+00
    0.00000E+00         0.00000E+00         0.00000E+00
 
    0.75624E+06         0.78384E+06         0.00000E+00
    0.78384E+06         0.12039E+06         0.00000E+00
    0.00000E+00         0.00000E+00         0.00000E+00
 
    0.72356E+06         0.80171E+06         0.00000E+00
    0.80171E+06         0.13560E+06         0.00000E+00
    0.00000E+00         0.00000E+00         0.00000E+00
 
    0.69034E+06         0.81895E+06         0.00000E+00
    0.81895E+06         0.15115E+06         0.00000E+00
    0.00000E+00         0.00000E+00         0.00000E+00
 
    0.65661E+06         0.83555E+06         0.00000E+00
    0.83555E+06         0.16703E+06         0.00000E+00
    0.00000E+00         0.00000E+00         0.00000E+00
 
    0.62239E+06         0.85151E+06         0.00000E+00
    0.85151E+06         0.18321E+06         0.00000E+00
    0.00000E+00         0.00000E+00         0.00000E+00
 
    0.58768E+06         0.86683E+06         0.00000E+00
    0.86683E+06         0.19970E+06         0.00000E+00
    0.00000E+00         0.00000E+00         0.00000E+00
 
    0.55252E+06         0.88150E+06         0.00000E+00
    0.88150E+06         0.21649E+06         0.00000E+00
    0.00000E+00         0.00000E+00         0.00000E+00
 
    0.51690E+06         0.89552E+06         0.00000E+00
    0.89552E+06         0.23356E+06         0.00000E+00
    0.00000E+00         0.00000E+00         0.00000E+00
 
    0.48086E+06         0.90888E+06         0.00000E+00
    0.90888E+06         0.25091E+06         0.00000E+00
    0.00000E+00         0.00000E+00         0.00000E+00
 
    0.44440E+06         0.92159E+06         0.00000E+00
    0.92159E+06         0.26853E+06         0.00000E+00
    0.00000E+00         0.00000E+00         0.00000E+00
 
    0.40754E+06         0.93364E+06         0.00000E+00
    0.93364E+06         0.28640E+06         0.00000E+00
    0.00000E+00         0.00000E+00         0.00000E+00
 
    0.37029E+06         0.94503E+06         0.00000E+00
    0.94503E+06         0.30453E+06         0.00000E+00
    0.00000E+00         0.00000E+00         0.00000E+00
 
    0.33268E+06         0.95576E+06         0.00000E+00
    0.95576E+06         0.32290E+06         0.00000E+00
    0.00000E+00         0.00000E+00         0.00000E+00
 
    0.29471E+06         0.96581E+06         0.00000E+00
    0.96581E+06         0.34151E+06         0.00000E+00
    0.00000E+00         0.00000E+00         0.00000E+00
 
    0.25640E+06         0.97520E+06         0.00000E+00
    0.97520E+06         0.36033E+06         0.00000E+00
    0.00000E+00         0.00000E+00         0.00000E+00
 
    0.21776E+06         0.98391E+06         0.00000E+00
    0.98391E+06         0.37938E+06         0.00000E+00
    0.00000E+00         0.00000E+00         0.00000E+00
 
    0.17880E+06         0.99195E+06         0.00000E+00
    0.99195E+06         0.39863E+06         0.00000E+00
    0.00000E+00         0.00000E+00         0.00000E+00
 
    0.13955E+06         0.99931E+06         0.00000E+00
    0.99931E+06         0.41809E+06         0.00000E+00
    0.00000E+00         0.00000E+00         0.00000E+00
 
    0.10000E+06         0.10060E+07         0.00000E+00
    0.10060E+07         0.43774E+06         0.00000E+00
    0.00000E+00         0.00000E+00         0.00000E+00
 
    0.60185E+05         0.10120E+07         0.00000E+00
    0.10120E+07         0.45757E+06         0.00000E+00
    0.00000E+00         0.00000E+00         0.00000E+00
 
    0.20104E+05         0.10173E+07         0.00000E+00
    0.10173E+07         0.47757E+06         0.00000E+00
    0.00000E+00         0.00000E+00         0.00000E+00
 
    0.15320E+07         0.18956E+05         0.00000E+00
    0.18956E+05        -0.15260E+06         0.00000E+00
    0.00000E+00         0.00000E+00         0.00000E+00
 
    0.15219E+07         0.55726E+05         0.00000E+00
    0.55726E+05        -0.15184E+06         0.00000E+00
    0.00000E+00         0.00000E+00         0.00000E+00
 
    0.15106E+07         0.92057E+05         0.00000E+00
    0.92057E+05        -0.15034E+06         0.00000E+00
    0.00000E+00         0.00000E+00         0.00000E+00
 
    0.14980E+07         0.12793E+06         0.00000E+00
    0.12793E+06        -0.14813E+06         0.00000E+00
    0.00000E+00         0.00000E+00         0.00000E+00
 
    0.14843E+07         0.16333E+06         0.00000E+00
    0.16333E+06        -0.14521E+06         0.00000E+00
    0.00000E+00         0.00000E+00         0.00000E+00
 
    0.14693E+07         0.19824E+06         0.00000E+00
    0.19824E+06        -0.14161E+06         0.00000E+00
    0.00000E+00         0.00000E+00         0.00000E+00
 
    0.14532E+07         0.23266E+06         0.00000E+00
    0.23266E+06        -0.13733E+06         0.00000E+00
    0.00000E+00         0.00000E+00         0.00000E+00
 
    0.14359E+07         0.26655E+06         0.00000E+00
    0.26655E+06        -0.13239E+06         0.00000E+00
    0.00000E+00         0.00000E+00         0.00000E+00
 
    0.14176E+07         0.29992E+06         0.00000E+00
    0.29992E+06        -0.12681E+06         0.00000E+00
    0.00000E+00         0.00000E+00         0.00000E+00
 
    0.13982E+07         0.33274E+06         0.00000E+00
    0.33274E+06        -0.12060E+06         0.00000E+00
    0.00000E+00         0.00000E+00         0.00000E+00
 
    0.13777E+07         0.36501E+06         0.00000E+00
    0.36501E+06        -0.11378E+06         0.00000E+00
    0.00000E+00         0.00000E+00         0.00000E+00
 
    0.13563E+07         0.39672E+06         0.00000E+00
    0.39672E+06        -0.10635E+06         0.00000E+00
    0.00000E+00         0.00000E+00         0.00000E+00
 
    0.13339E+07         0.42785E+06         0.00000E+00
    0.42785E+06        -0.98339E+05         0.00000E+00
    0.00000E+00         0.00000E+00         0.00000E+00
 
    0.13105E+07         0.45841E+06         0.00000E+00
    0.45841E+06        -0.89755E+05         0.00000E+00
    0.00000E+00         0.00000E+00         0.00000E+00
 
    0.12861E+07         0.48837E+06         0.00000E+00
    0.48837E+06        -0.80611E+05         0.00000E+00
    0.00000E+00         0.00000E+00         0.00000E+00
 
    0.12609E+07         0.51772E+06         0.00000E+00
    0.51772E+06        -0.70922E+05         0.00000E+00
    0.00000E+00         0.00000E+00         0.00000E+00
 
    0.12348E+07         0.54647E+06         0.00000E+00
    0.54647E+06        -0.60700E+05         0.00000E+00
    0.00000E+00         0.00000E+00         0.00000E+00
 
    0.12078E+07         0.57461E+06         0.00000E+00
    0.57461E+06        -0.49958E+05         0.00000E+00
    0.00000E+00         0.00000E+00         0.00000E+00
 
    0.11800E+07         0.60212E+06         0.00000E+00
    0.60212E+06        -0.38710E+05         0.00000E+00
    0.00000E+00         0.00000E+00         0.00000E+00
 
    0.11514E+07         0.62900E+06         0.00000E+00
    0.62900E+06        -0.26967E+05         0.00000E+00
    0.00000E+00         0.00000E+00         0.00000E+00
 
    0.11221E+07         0.65525E+06         0.00000E+00
    0.65525E+06        -0.14742E+05         0.00000E+00
    0.00000E+00         0.00000E+00         0.00000E+00
 
    0.10919E+07         0.68085E+06         0.00000E+00
    0.68085E+06        -0.20464E+04         0.00000E+00
    0.00000E+00         0.00000E+00         0.00000E+00
 
    0.10611E+07         0.70581E+06         0.00000E+00
    0.70581E+06         0.11107E+05         0.00000E+00
    0.00000E+00         0.00000E+00         0.00000E+00
 
    0.10295E+07         0.73012E+06         0.00000E+00
    0.73012E+06         0.24707E+05         0.00000E+00
    0.00000E+00         0.00000E+00         0.00000E+00
 
    0.99723E+06         0.75377E+06         0.00000E+00
    0.75377E+06         0.38743E+05         0.00000E+00
    0.00000E+00         0.00000E+00         0.00000E+00
 
    0.96430E+06         0.77676E+06         0.00000E+00
    0.77676E+06         0.53202E+05         0.00000E+00
    0.00000E+00         0.00000E+00         0.00000E+00
 
    0.93072E+06         0.79908E+06         0.00000E+00
    0.79908E+06         0.68075E+05         0.00000E+00
    0.00000E+00         0.00000E+00         0.00000E+00
 
    0.89651E+06         0.82074E+06         0.00000E+00
    0.82074E+06         0.83350E+05         0.00000E+00
    0.00000E+00         0.00000E+00         0.00000E+00
 
    0.86170E+06         0.84173E+06         0.00000E+00
    0.84173E+06         0.99017E+05         0.00000E+00
    0.00000E+00         0.00000E+00         0.00000E+00
 
    0.82631E+06         0.86204E+06         0.00000E+00
    0.86204E+06         0.11507E+06         0.00000E+00
    0.00000E+00         0.00000E+00         0.00000E+00
 
    0.79035E+06         0.88167E+06         0.00000E+00
    0.88167E+06         0.13149E+06         0.00000E+00
    0.00000E+00         0.00000E+00         0.00000E+00
 
    0.75383E+06         0.90061E+06         0.00000E+00
    0.90061E+06         0.14827E+06         0.00000E+00
    0.00000E+00         0.00000E+00         0.00000E+00
 
    0.71679E+06         0.91888E+06         0.00000E+00
    0.91888E+06         0.16540E+06         0.00000E+00
    0.00000E+00         0.00000E+00         0.00000E+00
 
    0.67924E+06         0.93645E+06         0.00000E+00
    0.93645E+06         0.18287E+06         0.00000E+00
    0.00000E+00         0.00000E+00         0.00000E+00
 
    0.64119E+06         0.95334E+06         0.00000E+00
    0.95334E+06         0.20068E+06         0.00000E+00
    0.00000E+00         0.00000E+00         0.00000E+00
 
    0.60267E+06         0.96953E+06         0.00000E+00
    0.96953E+06         0.21881E+06         0.00000E+00
    0.00000E+00         0.00000E+00         0.00000E+00
 
    0.56369E+06         0.98503E+06         0.00000E+00
    0.98503E+06         0.23726E+06         0.00000E+00
    0.00000E+00         0.00000E+00         0.00000E+00
 
    0.52426E+06         0.99982E+06         0.00000E+00
    0.99982E+06         0.25601E+06         0.00000E+00
    0.00000E+00         0.00000E+00         0.00000E+00
 
    0.48440E+06         0.10139E+07         0.00000E+00
    0.10139E+07         0.27505E+06         0.00000E+00
    0.00000E+00         0.00000E+00         0.00000E+00
 
    0.44413E+06         0.10273E+07         0.00000E+00
    0.10273E+07         0.29439E+06         0.00000E+00
    0.00000E+00         0.00000E+00         0.00000E+00
 
    0.40346E+06         0.10400E+07         0.00000E+00
    0.10400E+07         0.31400E+06         0.00000E+00
    0.00000E+00         0.00000E+00         0.00000E+00
 
    0.36241E+06         0.10520E+07         0.00000E+00
    0.10520E+07         0.33388E+06         0.00000E+00
    0.00000E+00         0.00000E+00         0.00000E+00
 
    0.32099E+06         0.10633E+07         0.00000E+00
    0.10633E+07         0.35403E+06         0.00000E+00
    0.00000E+00         0.00000E+00         0.00000E+00
 
    0.27922E+06         0.10738E+07         0.00000E+00
    0.10738E+07         0.37443E+06         0.00000E+00
    0.00000E+00         0.00000E+00         0.00000E+00
 
    0.23710E+06         0.10837E+07         0.00000E+00
    0.10837E+07         0.39508E+06         0.00000E+00
    0.00000E+00         0.00000E+00         0.00000E+00
 
    0.19466E+06         0.10928E+07         0.00000E+00
    0.10928E+07         0.41596E+06         0.00000E+00
    0.00000E+00         0.00000E+00         0.00000E+00
 
    0.15190E+06         0.11012E+07         0.00000E+00
    0.11012E+07         0.43707E+06         0.00000E+00
    0.00000E+00         0.00000E+00         0.00000E+00
 
    0.10885E+06         0.11089E+07         0.00000E+00
    0.11089E+07         0.45841E+06         0.00000E+00
    0.00000E+00         0.00000E+00         0.00000E+00
 
    0.65500E+05         0.11159E+07         0.00000E+00
    0.11159E+07         0.47996E+06         0.00000E+00
    0.00000E+00         0.00000E+00         0.00000E+00
 
    0.21878E+05         0.11221E+07         0.00000E+00
    0.11221E+07         0.50171E+06         0.00000E+00
    0.00000E+00         0.00000E+00         0.00000E+00
 
    0.16964E+07         0.21000E+05         0.00000E+00
    0.21000E+05        -0.18275E+06         0.00000E+00
    0.00000E+00         0.00000E+00         0.00000E+00
 
    0.16840E+07         0.61631E+05         0.00000E+00
    0.61631E+05        -0.18193E+06         0.00000E+00
    0.00000E+00         0.00000E+00         0.00000E+00
 
    0.16702E+07         0.10174E+06         0.00000E+00
    0.10174E+06        -0.18030E+06         0.00000E+00
    0.00000E+00         0.00000E+00         0.00000E+00
 
    0.16551E+07         0.14131E+06         0.00000E+00
    0.14131E+06        -0.17791E+06         0.00000E+00
    0.00000E+00         0.00000E+00         0.00000E+00
 
    0.16388E+07         0.18033E+06         0.00000E+00
    0.18033E+06        -0.17475E+06         0.00000E+00
    0.00000E+00         0.00000E+00         0.00000E+00
 
    0.16211E+07         0.21877E+06         0.00000E+00
    0.21877E+06        -0.17085E+06         0.00000E+00
    0.00000E+00         0.00000E+00         0.00000E+00
 
    0.16023E+07         0.25664E+06         0.00000E+00
    0.25664E+06        -0.16622E+06         0.00000E+00
    0.00000E+00         0.00000E+00         0.00000E+00
 
    0.15822E+07         0.29391E+06         0.00000E+00
    0.29391E+06        -0.16089E+06         0.00000E+00
    0.00000E+00         0.00000E+00         0.00000E+00
 
    0.15610E+07         0.33058E+06         0.00000E+00
    0.33058E+06        -0.15486E+06         0.00000E+00
    0.00000E+00         0.00000E+00         0.00000E+00
 
    0.15387E+07         0.36663E+06         0.00000E+00
    0.36663E+06        -0.14816E+06         0.00000E+00
    0.00000E+00         0.00000E+00         0.00000E+00
 
    0.15153E+07         0.40205E+06         0.00000E+00
    0.40205E+06        -0.14080E+06         0.00000E+00
    0.00000E+00         0.00000E+00         0.00000E+00
 
    0.14908E+07         0.43683E+06         0.00000E+00
    0.43683E+06        -0.13279E+06         0.00000E+00
    0.00000E+00         0.00000E+00         0.00000E+00
 
    0.14653E+07         0.47097E+06         0.00000E+00
    0.47097E+06        -0.12416E+06         0.00000E+00
    0.00000E+00         0.00000E+00         0.00000E+00
 
    0.14388E+07         0.50445E+06         0.00000E+00
    0.50445E+06        -0.11491E+06         0.00000E+00
    0.00000E+00         0.00000E+00         0.00000E+00
 
    0.14113E+07         0.53727E+06         0.00000E+00
    0.53727E+06        -0.10507E+06         0.00000E+00
    0.00000E+00         0.00000E+00         0.00000E+00
 
    0.13829E+07         0.56941E+06         0.00000E+00
    0.56941E+06        -0.94636E+05         0.00000E+00
    0.00000E+00         0.00000E+00         0.00000E+00
 
    0.13535E+07         0.60089E+06         0.00000E+00
    0.60089E+06        -0.83636E+05         0.00000E+00
    0.00000E+00         0.00000E+00         0.00000E+00
 
    0.13233E+07         0.63168E+06         0.00000E+00
    0.63168E+06        -0.72080E+05         0.00000E+00
    0.00000E+00         0.00000E+00         0.00000E+00
 
    0.12922E+07         0.66178E+06         0.00000E+00
    0.66178E+06        -0.59982E+05         0.00000E+00
    0.00000E+00         0.00000E+00         0.00000E+00
 
    0.12603E+07         0.69119E+06         0.00000E+00
    0.69119E+06        -0.47354E+05         0.00000E+00
    0.00000E+00         0.00000E+00         0.00000E+00
 
    0.12276E+07         0.71990E+06         0.00000E+00
    0.71990E+06        -0.34211E+05         0.00000E+00
    0.00000E+00         0.00000E+00         0.00000E+00
 
    0.11941E+07         0.74790E+06         0.00000E+00
    0.74790E+06        -0.20564E+05         0.00000E+00
    0.00000E+00         0.00000E+00         0.00000E+00
 
    0.11598E+07         0.77521E+06         0.00000E+00
    0.77521E+06        -0.64267E+04         0.00000E+00
    0.00000E+00         0.00000E+00         0.00000E+00
 
    0.11248E+07         0.80180E+06         0.00000E+00
    0.80180E+06         0.81897E+04         0.00000E+00
    0.00000E+00         0.00000E+00         0.00000E+00
 
    0.10891E+07         0.82767E+06         0.00000E+00
    0.82767E+06         0.23273E+05         0.00000E+00
    0.00000E+00         0.00000E+00         0.00000E+00
 
    0.10528E+07         0.85283E+06         0.00000E+00
    0.85283E+06         0.38812E+05         0.00000E+00
    0.00000E+00         0.00000E+00         0.00000E+00
 
    0.10157E+07         0.87727E+06         0.00000E+00
    0.87727E+06         0.54795E+05         0.00000E+00
    0.00000E+00         0.00000E+00         0.00000E+00
 
    0.97803E+06         0.90099E+06         0.00000E+00
    0.90099E+06         0.71211E+05         0.00000E+00
    0.00000E+00         0.00000E+00         0.00000E+00
 
    0.93972E+06         0.92399E+06         0.00000E+00
    0.92399E+06         0.88049E+05         0.00000E+00
    0.00000E+00         0.00000E+00         0.00000E+00
 
    0.90081E+06         0.94625E+06         0.00000E+00
    0.94625E+06         0.10530E+06         0.00000E+00
    0.00000E+00         0.00000E+00         0.00000E+00
 
    0.86132E+06         0.96779E+06         0.00000E+00
    0.96779E+06         0.12295E+06         0.00000E+00
    0.00000E+00         0.00000E+00         0.00000E+00
 
    0.82127E+06         0.98859E+06         0.00000E+00
    0.98859E+06         0.14100E+06         0.00000E+00
    0.00000E+00         0.00000E+00         0.00000E+00
 
    0.78068E+06         0.10087E+07         0.00000E+00
    0.10087E+07         0.15942E+06         0.00000E+00
    0.00000E+00         0.00000E+00         0.00000E+00
 
    0.73956E+06         0.10280E+07         0.00000E+00
    0.10280E+07         0.17822E+06         0.00000E+00
    0.00000E+00         0.00000E+00         0.00000E+00
 
    0.69794E+06         0.10466E+07         0.00000E+00
    0.10466E+07         0.19738E+06         0.00000E+00
    0.00000E+00         0.00000E+00         0.00000E+00
 
    0.65583E+06         0.10645E+07         0.00000E+00
    0.10645E+07         0.21690E+06         0.00000E+00
    0.00000E+00         0.00000E+00         0.00000E+00
 
    0.61325E+06         0.10816E+07         0.00000E+00
    0.10816E+07         0.23675E+06         0.00000E+00
    0.00000E+00         0.00000E+00         0.00000E+00
 
    0.57022E+06         0.10980E+07         0.00000E+00
    0.10980E+07         0.25695E+06         0.00000E+00
    0.00000E+00         0.00000E+00         0.00000E+00
 
    0.52675E+06         0.11136E+07         0.00000E+00
    0.11136E+07         0.27747E+06         0.00000E+00
    0.00000E+00         0.00000E+00         0.00000E+00
 
    0.48285E+06         0.11285E+07         0.00000E+00
    0.11285E+07         0.29832E+06         0.00000E+00
    0.00000E+00         0.00000E+00         0.00000E+00
 
    0.43855E+06         0.11426E+07         0.00000E+00
    0.11426E+07         0.31947E+06         0.00000E+00
    0.00000E+00         0.00000E+00         0.00000E+00
 
    0.39385E+06         0.11560E+07         0.00000E+00
    0.11560E+07         0.34093E+06         0.00000E+00
    0.00000E+00         0.00000E+00         0.00000E+00
 
    0.34878E+06         0.11687E+07         0.00000E+00
    0.11687E+07         0.36268E+06         0.00000E+00
    0.00000E+00         0.00000E+00         0.00000E+00
 
    0.30334E+06         0.11806E+07         0.00000E+00
    0.11806E+07         0.38471E+06         0.00000E+00
    0.00000E+00         0.00000E+00         0.00000E+00
 
    0.25754E+06         0.11917E+07         0.00000E+00
    0.11917E+07         0.40703E+06         0.00000E+00
    0.00000E+00         0.00000E+00         0.00000E+00
 
    0.21141E+06         0.12021E+07         0.00000E+00
    0.12021E+07         0.42962E+06         0.00000E+00
    0.00000E+00         0.00000E+00         0.00000E+00
 
    0.16496E+06         0.12117E+07         0.00000E+00
    0.12117E+07         0.45247E+06         0.00000E+00
    0.00000E+00         0.00000E+00         0.00000E+00
 
    0.11818E+06         0.12206E+07         0.00000E+00
    0.12206E+07         0.47557E+06         0.00000E+00
    0.00000E+00         0.00000E+00         0.00000E+00
 
    0.71113E+05         0.12287E+07         0.00000E+00
    0.12287E+07         0.49893E+06         0.00000E+00
    0.00000E+00         0.00000E+00         0.00000E+00
 
    0.23751E+05         0.12360E+07         0.00000E+00
    0.12360E+07         0.52252E+06         0.00000E+00
    0.00000E+00         0.00000E+00         0.00000E+00
 
    0.18754E+07         0.23219E+05         0.00000E+00
    0.23219E+05        -0.21866E+06         0.00000E+00
    0.00000E+00         0.00000E+00         0.00000E+00
 
    0.18602E+07         0.68023E+05         0.00000E+00
    0.68023E+05        -0.21777E+06         0.00000E+00
    0.00000E+00         0.00000E+00         0.00000E+00
 
    0.18435E+07         0.11221E+06         0.00000E+00
    0.11221E+06        -0.21602E+06         0.00000E+00
    0.00000E+00         0.00000E+00         0.00000E+00
 
    0.18255E+07         0.15576E+06         0.00000E+00
    0.15576E+06        -0.21343E+06         0.00000E+00
    0.00000E+00         0.00000E+00         0.00000E+00
 
    0.18061E+07         0.19867E+06         0.00000E+00
    0.19867E+06        -0.21003E+06         0.00000E+00
    0.00000E+00         0.00000E+00         0.00000E+00
 
    0.17853E+07         0.24092E+06         0.00000E+00
    0.24092E+06        -0.20583E+06         0.00000E+00
    0.00000E+00         0.00000E+00         0.00000E+00
 
    0.17633E+07         0.28250E+06         0.00000E+00
    0.28250E+06        -0.20085E+06         0.00000E+00
    0.00000E+00         0.00000E+00         0.00000E+00
 
    0.17400E+07         0.32340E+06         0.00000E+00
    0.32340E+06        -0.19512E+06         0.00000E+00
    0.00000E+00         0.00000E+00         0.00000E+00
 
    0.17156E+07         0.36360E+06         0.00000E+00
    0.36360E+06        -0.18864E+06         0.00000E+00
    0.00000E+00         0.00000E+00         0.00000E+00
 
    0.16899E+07         0.40310E+06         0.00000E+00
    0.40310E+06        -0.18144E+06         0.00000E+00
    0.00000E+00         0.00000E+00         0.00000E+00
 
    0.16631E+07         0.44189E+06         0.00000E+00
    0.44189E+06        -0.17354E+06         0.00000E+00
    0.00000E+00         0.00000E+00         0.00000E+00
 
    0.16352E+07         0.47996E+06         0.00000E+00
    0.47996E+06        -0.16495E+06         0.00000E+00
    0.00000E+00         0.00000E+00         0.00000E+00
 
    0.16063E+07         0.51730E+06         0.00000E+00
    0.51730E+06        -0.15569E+06         0.00000E+00
    0.00000E+00         0.00000E+00         0.00000E+00
 
    0.15763E+07         0.55391E+06         0.00000E+00
    0.55391E+06        -0.14578E+06         0.00000E+00
    0.00000E+00         0.00000E+00         0.00000E+00
 
    0.15453E+07         0.58979E+06         0.00000E+00
    0.58979E+06        -0.13523E+06         0.00000E+00
    0.00000E+00         0.00000E+00         0.00000E+00
 
    0.15133E+07         0.62491E+06         0.00000E+00
    0.62491E+06        -0.12405E+06         0.00000E+00
    0.00000E+00         0.00000E+00         0.00000E+00
 
    0.14804E+07         0.65929E+06         0.00000E+00
    0.65929E+06        -0.11227E+06         0.00000E+00
    0.00000E+00         0.00000E+00         0.00000E+00
 
    0.14466E+07         0.69292E+06         0.00000E+00
    0.69292E+06        -0.99901E+05         0.00000E+00
    0.00000E+00         0.00000E+00         0.00000E+00
 
    0.14119E+07         0.72578E+06         0.00000E+00
    0.72578E+06        -0.86950E+05         0.00000E+00
    0.00000E+00         0.00000E+00         0.00000E+00
 
    0.13763E+07         0.75789E+06         0.00000E+00
    0.75789E+06        -0.73436E+05         0.00000E+00
    0.00000E+00         0.00000E+00         0.00000E+00
 
    0.13399E+07         0.78923E+06         0.00000E+00
    0.78923E+06        -0.59372E+05         0.00000E+00
    0.00000E+00         0.00000E+00         0.00000E+00
 
    0.13028E+07         0.81981E+06         0.00000E+00
    0.81981E+06        -0.44771E+05         0.00000E+00
    0.00000E+00         0.00000E+00         0.00000E+00
 
    0.12648E+07         0.84962E+06         0.00000E+00
    0.84962E+06        -0.29646E+05         0.00000E+00
    0.00000E+00         0.00000E+00         0.00000E+00
 
    0.12261E+07         0.87865E+06         0.00000E+00
    0.87865E+06        -0.14009E+05         0.00000E+00
    0.00000E+00         0.00000E+00         0.00000E+00
 
    0.11867E+07         0.90692E+06         0.00000E+00
    0.90692E+06         0.21271E+04         0.00000E+00
    0.00000E+00         0.00000E+00         0.00000E+00
 
    0.11466E+07         0.93441E+06         0.00000E+00
    0.93441E+06         0.18751E+05         0.00000E+00
    0.00000E+00         0.00000E+00         0.00000E+00
 
    0.11058E+07         0.96112E+06         0.00000E+00
    0.96112E+06         0.35851E+05         0.00000E+00
    0.00000E+00         0.00000E+00         0.00000E+00
 
    0.10644E+07         0.98705E+06         0.00000E+00
    0.98705E+06         0.53416E+05         0.00000E+00
    0.00000E+00         0.00000E+00         0.00000E+00
 
    0.10223E+07         0.10122E+07         0.00000E+00
    0.10122E+07         0.71435E+05         0.00000E+00
    0.00000E+00         0.00000E+00         0.00000E+00
 
    0.97961E+06         0.10366E+07         0.00000E+00
    0.10366E+07         0.89899E+05         0.00000E+00
    0.00000E+00         0.00000E+00         0.00000E+00
 
    0.93634E+06         0.10602E+07         0.00000E+00
    0.10602E+07         0.10880E+06         0.00000E+00
    0.00000E+00         0.00000E+00         0.00000E+00
 
    0.89251E+06         0.10830E+07         0.00000E+00
    0.10830E+07         0.12812E+06         0.00000E+00
    0.00000E+00         0.00000E+00         0.00000E+00
 
    0.84813E+06         0.11050E+07         0.00000E+00
    0.11050E+07         0.14785E+06         0.00000E+00
    0.00000E+00         0.00000E+00         0.00000E+00
 
    0.80322E+06         0.11263E+07         0.00000E+00
    0.11263E+07         0.16799E+06         0.00000E+00
    0.00000E+00         0.00000E+00         0.00000E+00
 
    0.75780E+06         0.11468E+07         0.00000E+00
    0.11468E+07         0.18853E+06         0.00000E+00
    0.00000E+00         0.00000E+00         0.00000E+00
 
    0.71188E+06         0.11665E+07         0.00000E+00
    0.11665E+07         0.20945E+06         0.00000E+00
    0.00000E+00         0.00000E+00         0.00000E+00
 
    0.66549E+06         0.11854E+07         0.00000E+00
    0.11854E+07         0.23076E+06         0.00000E+00
    0.00000E+00         0.00000E+00         0.00000E+00
 
    0.61863E+06         0.12035E+07         0.00000E+00
    0.12035E+07         0.25243E+06         0.00000E+00
    0.00000E+00         0.00000E+00         0.00000E+00
 
    0.57134E+06         0.12208E+07         0.00000E+00
    0.12208E+07         0.27447E+06         0.00000E+00
    0.00000E+00         0.00000E+00         0.00000E+00
 
    0.52361E+06         0.12374E+07         0.00000E+00
    0.12374E+07         0.29685E+06         0.00000E+00
    0.00000E+00         0.00000E+00         0.00000E+00
 
    0.47547E+06         0.12531E+07         0.00000E+00
    0.12531E+07         0.31959E+06         0.00000E+00
    0.00000E+00         0.00000E+00         0.00000E+00
 
    0.42692E+06         0.12681E+07         0.00000E+00
    0.12681E+07         0.34266E+06         0.00000E+00
    0.00000E+00         0.00000E+00         0.00000E+00
 
    0.37799E+06         0.12823E+07         0.00000E+00
    0.12823E+07         0.36607E+06         0.00000E+00
    0.00000E+00         0.00000E+00         0.00000E+00
 
    0.32869E+06         0.12957E+07         0.00000E+00
    0.12957E+07         0.38980E+06         0.00000E+00
    0.00000E+00         0.00000E+00         0.00000E+00
 
    0.27903E+06         0.13083E+07         0.00000E+00
    0.13083E+07         0.41385E+06         0.00000E+00
    0.00000E+00         0.00000E+00         0.00000E+00
 
    0.22901E+06         0.13201E+07         0.00000E+00
    0.13201E+07         0.43820E+06         0.00000E+00
    0.00000E+00         0.00000E+00         0.00000E+00
 
    0.17866E+06         0.13311E+07         0.00000E+00
    0.13311E+07         0.46286E+06         0.00000E+00
    0.00000E+00         0.00000E+00         0.00000E+00
 
    0.12799E+06         0.13414E+07         0.00000E+00
    0.13414E+07         0.48781E+06         0.00000E+00
    0.00000E+00         0.00000E+00         0.00000E+00
 
    0.77006E+05         0.13508E+07         0.00000E+00
    0.13508E+07         0.51305E+06         0.00000E+00
    0.00000E+00         0.00000E+00         0.00000E+00
 
    0.25718E+05         0.13594E+07         0.00000E+00
    0.13594E+07         0.53857E+06         0.00000E+00
    0.00000E+00         0.00000E+00         0.00000E+00
 
    0.20694E+07         0.25616E+05         0.00000E+00
    0.25616E+05        -0.26137E+06         0.00000E+00
    0.00000E+00         0.00000E+00         0.00000E+00
 
    0.20509E+07         0.74908E+05         0.00000E+00
    0.74908E+05        -0.26041E+06         0.00000E+00
    0.00000E+00         0.00000E+00         0.00000E+00
 
    0.20309E+07         0.12347E+06         0.00000E+00
    0.12347E+06        -0.25853E+06         0.00000E+00
    0.00000E+00         0.00000E+00         0.00000E+00
 
    0.20094E+07         0.17130E+06         0.00000E+00
    0.17130E+06        -0.25576E+06         0.00000E+00
    0.00000E+00         0.00000E+00         0.00000E+00
 
    0.19865E+07         0.21838E+06         0.00000E+00
    0.21838E+06        -0.25211E+06         0.00000E+00
    0.00000E+00         0.00000E+00         0.00000E+00
 
    0.19622E+07         0.26470E+06         0.00000E+00
    0.26470E+06        -0.24761E+06         0.00000E+00
    0.00000E+00         0.00000E+00         0.00000E+00
 
    0.19365E+07         0.31024E+06         0.00000E+00
    0.31024E+06        -0.24229E+06         0.00000E+00
    0.00000E+00         0.00000E+00         0.00000E+00
 
    0.19096E+07         0.35500E+06         0.00000E+00
    0.35500E+06        -0.23616E+06         0.00000E+00
    0.00000E+00         0.00000E+00         0.00000E+00
 
    0.18814E+07         0.39898E+06         0.00000E+00
    0.39898E+06        -0.22924E+06         0.00000E+00
    0.00000E+00         0.00000E+00         0.00000E+00
 
    0.18520E+07         0.44216E+06         0.00000E+00
    0.44216E+06        -0.22155E+06         0.00000E+00
    0.00000E+00         0.00000E+00         0.00000E+00
 
    0.18214E+07         0.48453E+06         0.00000E+00
    0.48453E+06        -0.21311E+06         0.00000E+00
    0.00000E+00         0.00000E+00         0.00000E+00
 
    0.17897E+07         0.52610E+06         0.00000E+00
    0.52610E+06        -0.20395E+06         0.00000E+00
    0.00000E+00         0.00000E+00         0.00000E+00
 
    0.17568E+07         0.56685E+06         0.00000E+00
    0.56685E+06        -0.19407E+06         0.00000E+00
    0.00000E+00         0.00000E+00         0.00000E+00
 
    0.17230E+07         0.60679E+06         0.00000E+00
    0.60679E+06        -0.18350E+06         0.00000E+00
    0.00000E+00         0.00000E+00         0.00000E+00
 
    0.16881E+07         0.64591E+06         0.00000E+00
    0.64591E+06        -0.17226E+06         0.00000E+00
    0.00000E+00         0.00000E+00         0.00000E+00
 
    0.16522E+07         0.68420E+06         0.00000E+00
    0.68420E+06        -0.16035E+06         0.00000E+00
    0.00000E+00         0.00000E+00         0.00000E+00
 
    0.16153E+07         0.72167E+06         0.00000E+00
    0.72167E+06        -0.14781E+06         0.00000E+00
    0.00000E+00         0.00000E+00         0.00000E+00
 
    0.15775E+07         0.75830E+06         0.00000E+00
    0.75830E+06        -0.13463E+06         0.00000E+00
    0.00000E+00         0.00000E+00         0.00000E+00
 
    0.15388E+07         0.79411E+06         0.00000E+00
    0.79411E+06        -0.12084E+06         0.00000E+00
    0.00000E+00         0.00000E+00         0.00000E+00
 
    0.14993E+07         0.82909E+06         0.00000E+00
    0.82909E+06        -0.10646E+06         0.00000E+00
    0.00000E+00         0.00000E+00         0.00000E+00
 
    0.14589E+07         0.86323E+06         0.00000E+00
    0.86323E+06        -0.91486E+05         0.00000E+00
    0.00000E+00         0.00000E+00         0.00000E+00
 
    0.14178E+07         0.89654E+06         0.00000E+00
    0.89654E+06        -0.75945E+05         0.00000E+00
    0.00000E+00         0.00000E+00         0.00000E+00
 
    0.13758E+07         0.92902E+06         0.00000E+00
    0.92902E+06        -0.59848E+05         0.00000E+00
    0.00000E+00         0.00000E+00         0.00000E+00
 
    0.13331E+07         0.96067E+06         0.00000E+00
    0.96067E+06        -0.43206E+05         0.00000E+00
    0.00000E+00         0.00000E+00         0.00000E+00
 
    0.12897E+07         0.99148E+06         0.00000E+00
    0.99148E+06        -0.26031E+05         0.00000E+00
    0.00000E+00         0.00000E+00         0.00000E+00
 
    0.12455E+07         0.10215E+07         0.00000E+00
    0.10215E+07        -0.83363E+04         0.00000E+00
    0.00000E+00         0.00000E+00         0.00000E+00
 
    0.12007E+07         0.10506E+07         0.00000E+00
    0.10506E+07         0.98678E+04         0.00000E+00
    0.00000E+00         0.00000E+00         0.00000E+00
 
    0.11552E+07         0.10789E+07         0.00000E+00
    0.10789E+07         0.28570E+05         0.00000E+00
    0.00000E+00         0.00000E+00         0.00000E+00
 
    0.11092E+07         0.11064E+07         0.00000E+00
    0.11064E+07         0.47761E+05         0.00000E+00
    0.00000E+00         0.00000E+00         0.00000E+00
 
    0.10625E+07         0.11331E+07         0.00000E+00
    0.11331E+07         0.67428E+05         0.00000E+00
    0.00000E+00         0.00000E+00         0.00000E+00
 
    0.10152E+07         0.11589E+07         0.00000E+00
    0.11589E+07         0.87564E+05         0.00000E+00
    0.00000E+00         0.00000E+00         0.00000E+00
 
    0.96732E+06         0.11839E+07         0.00000E+00
    0.11839E+07         0.10816E+06         0.00000E+00
    0.00000E+00         0.00000E+00         0.00000E+00
 
    0.91892E+06         0.12081E+07         0.00000E+00
    0.12081E+07         0.12920E+06         0.00000E+00
    0.00000E+00         0.00000E+00         0.00000E+00
 
    0.86999E+06         0.12314E+07         0.00000E+00
    0.12314E+07         0.15069E+06         0.00000E+00
    0.00000E+00         0.00000E+00         0.00000E+00
 
    0.82055E+06         0.12539E+07         0.00000E+00
    0.12539E+07         0.17260E+06         0.00000E+00
    0.00000E+00         0.00000E+00         0.00000E+00
 
    0.77061E+06         0.12756E+07         0.00000E+00
    0.12756E+07         0.19494E+06         0.00000E+00
    0.00000E+00         0.00000E+00         0.00000E+00
 
    0.72020E+06         0.12965E+07         0.00000E+00
    0.12965E+07         0.21770E+06         0.00000E+00
    0.00000E+00         0.00000E+00         0.00000E+00
 
    0.66932E+06         0.13166E+07         0.00000E+00
    0.13166E+07         0.24086E+06         0.00000E+00
    0.00000E+00         0.00000E+00         0.00000E+00
 
    0.61800E+06         0.13358E+07         0.00000E+00
    0.13358E+07         0.26443E+06         0.00000E+00
    0.00000E+00         0.00000E+00         0.00000E+00
 
    0.56624E+06         0.13542E+07         0.00000E+00
    0.13542E+07         0.28838E+06         0.00000E+00
    0.00000E+00         0.00000E+00         0.00000E+00
 
    0.51407E+06         0.13717E+07         0.00000E+00
    0.13717E+07         0.31273E+06         0.00000E+00
    0.00000E+00         0.00000E+00         0.00000E+00
 
    0.46149E+06         0.13885E+07         0.00000E+00
    0.13885E+07         0.33745E+06         0.00000E+00
    0.00000E+00         0.00000E+00         0.00000E+00
 
    0.40852E+06         0.14044E+07         0.00000E+00
    0.14044E+07         0.36255E+06         0.00000E+00
    0.00000E+00         0.00000E+00         0.00000E+00
 
    0.35518E+06         0.14195E+07         0.00000E+00
    0.14195E+07         0.38801E+06         0.00000E+00
    0.00000E+00         0.00000E+00         0.00000E+00
 
    0.30146E+06         0.14338E+07         0.00000E+00
    0.14338E+07         0.41384E+06         0.00000E+00
    0.00000E+00         0.00000E+00         0.00000E+00
 
    0.24739E+06         0.14473E+07         0.00000E+00
    0.14473E+07         0.44001E+06         0.00000E+00
    0.00000E+00         0.00000E+00         0.00000E+00
 
    0.19298E+06         0.14599E+07         0.00000E+00
    0.14599E+07         0.46654E+06         0.00000E+00
    0.00000E+00         0.00000E+00         0.00000E+00
 
    0.13823E+06         0.14717E+07         0.00000E+00
    0.14717E+07         0.49340E+06         0.00000E+00
    0.00000E+00         0.00000E+00         0.00000E+00
 
    0.83157E+05         0.14826E+07         0.00000E+00
    0.14826E+07         0.52060E+06         0.00000E+00
    0.00000E+00         0.00000E+00         0.00000E+00
 
    0.27771E+05         0.14927E+07         0.00000E+00
    0.14927E+07         0.54813E+06         0.00000E+00
    0.00000E+00         0.00000E+00         0.00000E+00
 
    0.22790E+07         0.28190E+05         0.00000E+00
    0.28190E+05        -0.31211E+06         0.00000E+00
    0.00000E+00         0.00000E+00         0.00000E+00
 
    0.22566E+07         0.82282E+05         0.00000E+00
    0.82282E+05        -0.31108E+06         0.00000E+00
    0.00000E+00         0.00000E+00         0.00000E+00
 
    0.22326E+07         0.13553E+06         0.00000E+00
    0.13553E+06        -0.30908E+06         0.00000E+00
    0.00000E+00         0.00000E+00         0.00000E+00
 
    0.22071E+07         0.18791E+06         0.00000E+00
    0.18791E+06        -0.30612E+06         0.00000E+00
    0.00000E+00         0.00000E+00         0.00000E+00
 
    0.21801E+07         0.23943E+06         0.00000E+00
    0.23943E+06        -0.30224E+06         0.00000E+00
    0.00000E+00         0.00000E+00         0.00000E+00
 
    0.21517E+07         0.29006E+06         0.00000E+00
    0.29006E+06        -0.29746E+06         0.00000E+00
    0.00000E+00         0.00000E+00         0.00000E+00
 
    0.21219E+07         0.33982E+06         0.00000E+00
    0.33982E+06        -0.29179E+06         0.00000E+00
    0.00000E+00         0.00000E+00         0.00000E+00
 
    0.20908E+07         0.38869E+06         0.00000E+00
    0.38869E+06        -0.28528E+06         0.00000E+00
    0.00000E+00         0.00000E+00         0.00000E+00
 
    0.20583E+07         0.43666E+06         0.00000E+00
    0.43666E+06        -0.27793E+06         0.00000E+00
    0.00000E+00         0.00000E+00         0.00000E+00
 
    0.20247E+07         0.48373E+06         0.00000E+00
    0.48373E+06        -0.26977E+06         0.00000E+00
    0.00000E+00         0.00000E+00         0.00000E+00
 
    0.19898E+07         0.52990E+06         0.00000E+00
    0.52990E+06        -0.26082E+06         0.00000E+00
    0.00000E+00         0.00000E+00         0.00000E+00
 
    0.19538E+07         0.57517E+06         0.00000E+00
    0.57517E+06        -0.25110E+06         0.00000E+00
    0.00000E+00         0.00000E+00         0.00000E+00
 
    0.19167E+07         0.61953E+06         0.00000E+00
    0.61953E+06        -0.24064E+06         0.00000E+00
    0.00000E+00         0.00000E+00         0.00000E+00
 
    0.18785E+07         0.66298E+06         0.00000E+00
    0.66298E+06        -0.22944E+06         0.00000E+00
    0.00000E+00         0.00000E+00         0.00000E+00
 
    0.18393E+07         0.70553E+06         0.00000E+00
    0.70553E+06        -0.21753E+06         0.00000E+00
    0.00000E+00         0.00000E+00         0.00000E+00
 
    0.17991E+07         0.74716E+06         0.00000E+00
    0.74716E+06        -0.20493E+06         0.00000E+00
    0.00000E+00         0.00000E+00         0.00000E+00
 
    0.17579E+07         0.78789E+06         0.00000E+00
    0.78789E+06        -0.19164E+06         0.00000E+00
    0.00000E+00         0.00000E+00         0.00000E+00
 
    0.17157E+07         0.82772E+06         0.00000E+00
    0.82772E+06        -0.17770E+06         0.00000E+00
    0.00000E+00         0.00000E+00         0.00000E+00
 
    0.16727E+07         0.86663E+06         0.00000E+00
    0.86663E+06        -0.16311E+06         0.00000E+00
    0.00000E+00         0.00000E+00         0.00000E+00
 
    0.16289E+07         0.90465E+06         0.00000E+00
    0.90465E+06        -0.14789E+06         0.00000E+00
    0.00000E+00         0.00000E+00         0.00000E+00
 
    0.15842E+07         0.94176E+06         0.00000E+00
    0.94176E+06        -0.13205E+06         0.00000E+00
    0.00000E+00         0.00000E+00         0.00000E+00
 
    0.15386E+07         0.97797E+06         0.00000E+00
    0.97797E+06        -0.11561E+06         0.00000E+00
    0.00000E+00         0.00000E+00         0.00000E+00
 
    0.14924E+07         0.10133E+07         0.00000E+00
    0.10133E+07        -0.98576E+05         0.00000E+00
    0.00000E+00         0.00000E+00         0.00000E+00
 
    0.14453E+07         0.10477E+07         0.00000E+00
    0.10477E+07        -0.80967E+05         0.00000E+00
    0.00000E+00         0.00000E+00         0.00000E+00
 
    0.13976E+07         0.10812E+07         0.00000E+00
    0.10812E+07        -0.62793E+05         0.00000E+00
    0.00000E+00         0.00000E+00         0.00000E+00
 
    0.13492E+07         0.11139E+07         0.00000E+00
    0.11139E+07        -0.44064E+05         0.00000E+00
    0.00000E+00         0.00000E+00         0.00000E+00
 
    0.13001E+07         0.11456E+07         0.00000E+00
    0.11456E+07        -0.24793E+05         0.00000E+00
    0.00000E+00         0.00000E+00         0.00000E+00
 
    0.12503E+07         0.11765E+07         0.00000E+00
    0.11765E+07        -0.49891E+04         0.00000E+00
    0.00000E+00         0.00000E+00         0.00000E+00
 
    0.12000E+07         0.12065E+07         0.00000E+00
    0.12065E+07         0.15337E+05         0.00000E+00
    0.00000E+00         0.00000E+00         0.00000E+00
 
    0.11490E+07         0.12356E+07         0.00000E+00
    0.12356E+07         0.36177E+05         0.00000E+00
    0.00000E+00         0.00000E+00         0.00000E+00
 
    0.10975E+07         0.12638E+07         0.00000E+00
    0.12638E+07         0.57520E+05         0.00000E+00
    0.00000E+00         0.00000E+00         0.00000E+00
 
    0.10454E+07         0.12912E+07         0.00000E+00
    0.12912E+07         0.79359E+05         0.00000E+00
    0.00000E+00         0.00000E+00         0.00000E+00
 
    0.99271E+06         0.13177E+07         0.00000E+00
    0.13177E+07         0.10168E+06         0.00000E+00
    0.00000E+00         0.00000E+00         0.00000E+00
 
    0.93955E+06         0.13433E+07         0.00000E+00
    0.13433E+07         0.12449E+06         0.00000E+00
    0.00000E+00         0.00000E+00         0.00000E+00
 
    0.88588E+06         0.13680E+07         0.00000E+00
    0.13680E+07         0.14776E+06         0.00000E+00
    0.00000E+00         0.00000E+00         0.00000E+00
 
    0.83173E+06         0.13919E+07         0.00000E+00
    0.13919E+07         0.17150E+06         0.00000E+00
    0.00000E+00         0.00000E+00         0.00000E+00
 
    0.77710E+06         0.14150E+07         0.00000E+00
    0.14150E+07         0.19570E+06         0.00000E+00
    0.00000E+00         0.00000E+00         0.00000E+00
 
    0.72202E+06         0.14372E+07         0.00000E+00
    0.14372E+07         0.22035E+06         0.00000E+00
    0.00000E+00         0.00000E+00         0.00000E+00
 
    0.66649E+06         0.14585E+07         0.00000E+00
    0.14585E+07         0.24544E+06         0.00000E+00
    0.00000E+00         0.00000E+00         0.00000E+00
 
    0.61053E+06         0.14789E+07         0.00000E+00
    0.14789E+07         0.27097E+06         0.00000E+00
    0.00000E+00         0.00000E+00         0.00000E+00
 
    0.55416E+06         0.14985E+07         0.00000E+00
    0.14985E+07         0.29693E+06         0.00000E+00
    0.00000E+00         0.00000E+00         0.00000E+00
 
    0.49738E+06         0.15173E+07         0.00000E+00
    0.15173E+07         0.32332E+06         0.00000E+00
    0.00000E+00         0.00000E+00         0.00000E+00
 
    0.44021E+06         0.15352E+07         0.00000E+00
    0.15352E+07         0.35012E+06         0.00000E+00
    0.00000E+00         0.00000E+00         0.00000E+00
 
    0.38266E+06         0.15522E+07         0.00000E+00
    0.15522E+07         0.37734E+06         0.00000E+00
    0.00000E+00         0.00000E+00         0.00000E+00
 
    0.32474E+06         0.15684E+07         0.00000E+00
    0.15684E+07         0.40497E+06         0.00000E+00
    0.00000E+00         0.00000E+00         0.00000E+00
 
    0.26645E+06         0.15837E+07         0.00000E+00
    0.15837E+07         0.43301E+06         0.00000E+00
    0.00000E+00         0.00000E+00         0.00000E+00
 
    0.20782E+06         0.15982E+07         0.00000E+00
    0.15982E+07         0.46145E+06         0.00000E+00
    0.00000E+00         0.00000E+00         0.00000E+00
 
    0.14884E+06         0.16118E+07         0.00000E+00
    0.16118E+07         0.49027E+06         0.00000E+00
    0.00000E+00         0.00000E+00         0.00000E+00
 
    0.89534E+05         0.16245E+07         0.00000E+00
    0.16245E+07         0.51949E+06         0.00000E+00
    0.00000E+00         0.00000E+00         0.00000E+00
 
    0.29898E+05         0.16364E+07         0.00000E+00
    0.16364E+07         0.54909E+06         0.00000E+00
    0.00000E+00         0.00000E+00         0.00000E+00
 
    0.25042E+07         0.30938E+05         0.00000E+00
    0.30938E+05        -0.37231E+06         0.00000E+00
    0.00000E+00         0.00000E+00         0.00000E+00
 
    0.24773E+07         0.90128E+05         0.00000E+00
    0.90128E+05        -0.37122E+06         0.00000E+00
    0.00000E+00         0.00000E+00         0.00000E+00
 
    0.24487E+07         0.14833E+06         0.00000E+00
    0.14833E+06        -0.36910E+06         0.00000E+00
    0.00000E+00         0.00000E+00         0.00000E+00
 
    0.24185E+07         0.20554E+06         0.00000E+00
    0.20554E+06        -0.36597E+06         0.00000E+00
    0.00000E+00         0.00000E+00         0.00000E+00
 
    0.23868E+07         0.26175E+06         0.00000E+00
    0.26175E+06        -0.36187E+06         0.00000E+00
    0.00000E+00         0.00000E+00         0.00000E+00
 
    0.23537E+07         0.31695E+06         0.00000E+00
    0.31695E+06        -0.35681E+06         0.00000E+00
    0.00000E+00         0.00000E+00         0.00000E+00
 
    0.23192E+07         0.37115E+06         0.00000E+00
    0.37115E+06        -0.35084E+06         0.00000E+00
    0.00000E+00         0.00000E+00         0.00000E+00
 
    0.22833E+07         0.42434E+06         0.00000E+00
    0.42434E+06        -0.34396E+06         0.00000E+00
    0.00000E+00         0.00000E+00         0.00000E+00
 
    0.22461E+07         0.47652E+06         0.00000E+00
    0.47652E+06        -0.33622E+06         0.00000E+00
    0.00000E+00         0.00000E+00         0.00000E+00
 
    0.22077E+07         0.52769E+06         0.00000E+00
    0.52769E+06        -0.32762E+06         0.00000E+00
    0.00000E+00         0.00000E+00         0.00000E+00
 
    0.21681E+07         0.57785E+06         0.00000E+00
    0.57785E+06        -0.31820E+06         0.00000E+00
    0.00000E+00         0.00000E+00         0.00000E+00
 
    0.21273E+07         0.62700E+06         0.00000E+00
    0.62700E+06        -0.30797E+06         0.00000E+00
    0.00000E+00         0.00000E+00         0.00000E+00
 
    0.20854E+07         0.67515E+06         0.00000E+00
    0.67515E+06        -0.29696E+06         0.00000E+00
    0.00000E+00         0.00000E+00         0.00000E+00
 
    0.20424E+07         0.72229E+06         0.00000E+00
    0.72229E+06        -0.28518E+06         0.00000E+00
    0.00000E+00         0.00000E+00         0.00000E+00
 
    0.19984E+07         0.76844E+06         0.00000E+00
    0.76844E+06        -0.27266E+06         0.00000E+00
    0.00000E+00         0.00000E+00         0.00000E+00
 
    0.19534E+07         0.81358E+06         0.00000E+00
    0.81358E+06        -0.25941E+06         0.00000E+00
    0.00000E+00         0.00000E+00         0.00000E+00
 
    0.19075E+07         0.85774E+06         0.00000E+00
    0.85774E+06        -0.24545E+06         0.00000E+00
    0.00000E+00         0.00000E+00         0.00000E+00
 
    0.18607E+07         0.90091E+06         0.00000E+00
    0.90091E+06        -0.23079E+06         0.00000E+00
    0.00000E+00         0.00000E+00         0.00000E+00
 
    0.18129E+07         0.94310E+06         0.00000E+00
    0.94310E+06        -0.21546E+06         0.00000E+00
    0.00000E+00         0.00000E+00         0.00000E+00
 
    0.17644E+07         0.98431E+06         0.00000E+00
    0.98431E+06        -0.19947E+06         0.00000E+00
    0.00000E+00         0.00000E+00         0.00000E+00
 
    0.17150E+07         0.10246E+07         0.00000E+00
    0.10246E+07        -0.18283E+06         0.00000E+00
    0.00000E+00         0.00000E+00         0.00000E+00
 
    0.16648E+07         0.10638E+07         0.00000E+00
    0.10638E+07        -0.16555E+06         0.00000E+00
    0.00000E+00         0.00000E+00         0.00000E+00
 
    0.16139E+07         0.11021E+07         0.00000E+00
    0.11021E+07        -0.14766E+06         0.00000E+00
    0.00000E+00         0.00000E+00         0.00000E+00
 
    0.15623E+07         0.11395E+07         0.00000E+00
    0.11395E+07        -0.12915E+06         0.00000E+00
    0.00000E+00         0.00000E+00         0.00000E+00
 
    0.15100E+07         0.11759E+07         0.00000E+00
    0.11759E+07        -0.11004E+06         0.00000E+00
    0.00000E+00         0.00000E+00         0.00000E+00
 
    0.14569E+07         0.12114E+07         0.00000E+00
    0.12114E+07        -0.90346E+05         0.00000E+00
    0.00000E+00         0.00000E+00         0.00000E+00
 
    0.14033E+07         0.12459E+07         0.00000E+00
    0.12459E+07        -0.70075E+05         0.00000E+00
    0.00000E+00         0.00000E+00         0.00000E+00
 
    0.13490E+07         0.12795E+07         0.00000E+00
    0.12795E+07        -0.49235E+05         0.00000E+00
    0.00000E+00         0.00000E+00         0.00000E+00
 
    0.12941E+07         0.13122E+07         0.00000E+00
    0.13122E+07        -0.27837E+05         0.00000E+00
    0.00000E+00         0.00000E+00         0.00000E+00
 
    0.12387E+07         0.13439E+07         0.00000E+00
    0.13439E+07        -0.58879E+04         0.00000E+00
    0.00000E+00         0.00000E+00         0.00000E+00
 
    0.11827E+07         0.13747E+07         0.00000E+00
    0.13747E+07         0.16603E+05         0.00000E+00
    0.00000E+00         0.00000E+00         0.00000E+00
 
    0.11261E+07         0.14046E+07         0.00000E+00
    0.14046E+07         0.39628E+05         0.00000E+00
    0.00000E+00         0.00000E+00         0.00000E+00
 
    0.10690E+07         0.14337E+07         0.00000E+00
    0.14337E+07         0.63181E+05         0.00000E+00
    0.00000E+00         0.00000E+00         0.00000E+00
 
    0.10115E+07         0.14618E+07         0.00000E+00
    0.14618E+07         0.87254E+05         0.00000E+00
    0.00000E+00         0.00000E+00         0.00000E+00
 
    0.95339E+06         0.14890E+07         0.00000E+00
    0.14890E+07         0.11184E+06         0.00000E+00
    0.00000E+00         0.00000E+00         0.00000E+00
 
    0.89484E+06         0.15153E+07         0.00000E+00
    0.15153E+07         0.13694E+06         0.00000E+00
    0.00000E+00         0.00000E+00         0.00000E+00
 
    0.83583E+06         0.15407E+07         0.00000E+00
    0.15407E+07         0.16254E+06         0.00000E+00
    0.00000E+00         0.00000E+00         0.00000E+00
 
    0.77638E+06         0.15652E+07         0.00000E+00
    0.15652E+07         0.18863E+06         0.00000E+00
    0.00000E+00         0.00000E+00         0.00000E+00
 
    0.71649E+06         0.15888E+07         0.00000E+00
    0.15888E+07         0.21522E+06         0.00000E+00
    0.00000E+00         0.00000E+00         0.00000E+00
 
    0.65618E+06         0.16116E+07         0.00000E+00
    0.16116E+07         0.24230E+06         0.00000E+00
    0.00000E+00         0.00000E+00         0.00000E+00
 
    0.59547E+06         0.16335E+07         0.00000E+00
    0.16335E+07         0.26986E+06         0.00000E+00
    0.00000E+00         0.00000E+00         0.00000E+00
 
    0.53435E+06         0.16545E+07         0.00000E+00
    0.16545E+07         0.29789E+06         0.00000E+00
    0.00000E+00         0.00000E+00         0.00000E+00
 
    0.47284E+06         0.16746E+07         0.00000E+00
    0.16746E+07         0.32641E+06         0.00000E+00
    0.00000E+00         0.00000E+00         0.00000E+00
 
    0.41095E+06         0.16938E+07         0.00000E+00
    0.16938E+07         0.35539E+06         0.00000E+00
    0.00000E+00         0.00000E+00         0.00000E+00
 
    0.34869E+06         0.17122E+07         0.00000E+00
    0.17122E+07         0.38484E+06         0.00000E+00
    0.00000E+00         0.00000E+00         0.00000E+00
 
    0.28607E+06         0.17296E+07         0.00000E+00
    0.17296E+07         0.41475E+06         0.00000E+00
    0.00000E+00         0.00000E+00         0.00000E+00
 
    0.22309E+06         0.17462E+07         0.00000E+00
    0.17462E+07         0.44512E+06         0.00000E+00
    0.00000E+00         0.00000E+00         0.00000E+00
 
    0.15976E+06         0.17620E+07         0.00000E+00
    0.17620E+07         0.47595E+06         0.00000E+00
    0.00000E+00         0.00000E+00         0.00000E+00
 
    0.96093E+05         0.17768E+07         0.00000E+00
    0.17768E+07         0.50722E+06         0.00000E+00
    0.00000E+00         0.00000E+00         0.00000E+00
 
    0.32087E+05         0.17908E+07         0.00000E+00
    0.17908E+07         0.53895E+06         0.00000E+00
    0.00000E+00         0.00000E+00         0.00000E+00
 
    0.27449E+07         0.33848E+05         0.00000E+00
    0.33848E+05        -0.44364E+06         0.00000E+00
    0.00000E+00         0.00000E+00         0.00000E+00
 
    0.27126E+07         0.98412E+05         0.00000E+00
    0.98412E+05        -0.44249E+06         0.00000E+00
    0.00000E+00         0.00000E+00         0.00000E+00
 
    0.26787E+07         0.16183E+06         0.00000E+00
    0.16183E+06        -0.44026E+06         0.00000E+00
    0.00000E+00         0.00000E+00         0.00000E+00
 
    0.26432E+07         0.22411E+06         0.00000E+00
    0.22411E+06        -0.43698E+06         0.00000E+00
    0.00000E+00         0.00000E+00         0.00000E+00
 
    0.26061E+07         0.28524E+06         0.00000E+00
    0.28524E+06        -0.43268E+06         0.00000E+00
    0.00000E+00         0.00000E+00         0.00000E+00
 
    0.25676E+07         0.34522E+06         0.00000E+00
    0.34522E+06        -0.42738E+06         0.00000E+00
    0.00000E+00         0.00000E+00         0.00000E+00
 
    0.25278E+07         0.40407E+06         0.00000E+00
    0.40407E+06        -0.42113E+06         0.00000E+00
    0.00000E+00         0.00000E+00         0.00000E+00
 
    0.24865E+07         0.46177E+06         0.00000E+00
    0.46177E+06        -0.41394E+06         0.00000E+00
    0.00000E+00         0.00000E+00         0.00000E+00
 
    0.24440E+07         0.51834E+06         0.00000E+00
    0.51834E+06        -0.40585E+06         0.00000E+00
    0.00000E+00         0.00000E+00         0.00000E+00
 
    0.24002E+07         0.57379E+06         0.00000E+00
    0.57379E+06        -0.39687E+06         0.00000E+00
    0.00000E+00         0.00000E+00         0.00000E+00
 
    0.23553E+07         0.62811E+06         0.00000E+00
    0.62811E+06        -0.38703E+06         0.00000E+00
    0.00000E+00         0.00000E+00         0.00000E+00
 
    0.23092E+07         0.68131E+06         0.00000E+00
    0.68131E+06        -0.37635E+06         0.00000E+00
    0.00000E+00         0.00000E+00         0.00000E+00
 
    0.22620E+07         0.73341E+06         0.00000E+00
    0.73341E+06        -0.36487E+06         0.00000E+00
    0.00000E+00         0.00000E+00         0.00000E+00
 
    0.22138E+07         0.78440E+06         0.00000E+00
    0.78440E+06        -0.35259E+06         0.00000E+00
    0.00000E+00         0.00000E+00         0.00000E+00
 
    0.21646E+07         0.83430E+06         0.00000E+00
    0.83430E+06        -0.33953E+06         0.00000E+00
    0.00000E+00         0.00000E+00         0.00000E+00
 
    0.21145E+07         0.88311E+06         0.00000E+00
    0.88311E+06        -0.32572E+06         0.00000E+00
    0.00000E+00         0.00000E+00         0.00000E+00
 
    0.20634E+07         0.93085E+06         0.00000E+00
    0.93085E+06        -0.31117E+06         0.00000E+00
    0.00000E+00         0.00000E+00         0.00000E+00
 
    0.20114E+07         0.97752E+06         0.00000E+00
    0.97752E+06        -0.29590E+06         0.00000E+00
    0.00000E+00         0.00000E+00         0.00000E+00
 
    0.19586E+07         0.10231E+07         0.00000E+00
    0.10231E+07        -0.27992E+06         0.00000E+00
    0.00000E+00         0.00000E+00         0.00000E+00
 
    0.19050E+07         0.10677E+07         0.00000E+00
    0.10677E+07        -0.26325E+06         0.00000E+00
    0.00000E+00         0.00000E+00         0.00000E+00
 
    0.18506E+07         0.11112E+07         0.00000E+00
    0.11112E+07        -0.24591E+06         0.00000E+00
    0.00000E+00         0.00000E+00         0.00000E+00
 
    0.17955E+07         0.11537E+07         0.00000E+00
    0.11537E+07        -0.22790E+06         0.00000E+00
    0.00000E+00         0.00000E+00         0.00000E+00
 
    0.17396E+07         0.11952E+07         0.00000E+00
    0.11952E+07        -0.20923E+06         0.00000E+00
    0.00000E+00         0.00000E+00         0.00000E+00
 
    0.16831E+07         0.12356E+07         0.00000E+00
    0.12356E+07        -0.18993E+06         0.00000E+00
    0.00000E+00         0.00000E+00         0.00000E+00
 
    0.16259E+07         0.12751E+07         0.00000E+00
    0.12751E+07        -0.16999E+06         0.00000E+00
    0.00000E+00         0.00000E+00         0.00000E+00
 
    0.15681E+07         0.13136E+07         0.00000E+00
    0.13136E+07        -0.14944E+06         0.00000E+00
    0.00000E+00         0.00000E+00         0.00000E+00
 
    0.15096E+07         0.13510E+07         0.00000E+00
    0.13510E+07        -0.12827E+06         0.00000E+00
    0.00000E+00         0.00000E+00         0.00000E+00
 
    0.14506E+07         0.13875E+07         0.00000E+00
    0.13875E+07        -0.10649E+06         0.00000E+00
    0.00000E+00         0.00000E+00         0.00000E+00
 
    0.13910E+07         0.14231E+07         0.00000E+00
    0.14231E+07        -0.84123E+05         0.00000E+00
    0.00000E+00         0.00000E+00         0.00000E+00
 
    0.13308E+07         0.14576E+07         0.00000E+00
    0.14576E+07        -0.61163E+05         0.00000E+00
    0.00000E+00         0.00000E+00         0.00000E+00
 
    0.12702E+07         0.14913E+07         0.00000E+00
    0.14913E+07        -0.37621E+05         0.00000E+00
    0.00000E+00         0.00000E+00         0.00000E+00
 
    0.12090E+07         0.15239E+07         0.00000E+00
    0.15239E+07        -0.13502E+05         0.00000E+00
    0.00000E+00         0.00000E+00         0.00000E+00
 
    0.11473E+07         0.15557E+07         0.00000E+00
    0.15557E+07         0.11188E+05         0.00000E+00
    0.00000E+00         0.00000E+00         0.00000E+00
 
    0.10851E+07         0.15865E+07         0.00000E+00
    0.15865E+07         0.36445E+05         0.00000E+00
    0.00000E+00         0.00000E+00         0.00000E+00
 
    0.10225E+07         0.16164E+07         0.00000E+00
    0.16164E+07         0.62263E+05         0.00000E+00
    0.00000E+00         0.00000E+00         0.00000E+00
 
    0.95942E+06         0.16453E+07         0.00000E+00
    0.16453E+07         0.88639E+05         0.00000E+00
    0.00000E+00         0.00000E+00         0.00000E+00
 
    0.89590E+06         0.16734E+07         0.00000E+00
    0.16734E+07         0.11557E+06         0.00000E+00
    0.00000E+00         0.00000E+00         0.00000E+00
 
    0.83196E+06         0.17005E+07         0.00000E+00
    0.17005E+07         0.14305E+06         0.00000E+00
    0.00000E+00         0.00000E+00         0.00000E+00
 
    0.76759E+06         0.17267E+07         0.00000E+00
    0.17267E+07         0.17107E+06         0.00000E+00
    0.00000E+00         0.00000E+00         0.00000E+00
 
    0.70282E+06         0.17520E+07         0.00000E+00
    0.17520E+07         0.19964E+06         0.00000E+00
    0.00000E+00         0.00000E+00         0.00000E+00
 
    0.63765E+06         0.17764E+07         0.00000E+00
    0.17764E+07         0.22875E+06         0.00000E+00
    0.00000E+00         0.00000E+00         0.00000E+00
 
    0.57209E+06         0.18000E+07         0.00000E+00
    0.18000E+07         0.25840E+06         0.00000E+00
    0.00000E+00         0.00000E+00         0.00000E+00
 
    0.50614E+06         0.18226E+07         0.00000E+00
    0.18226E+07         0.28859E+06         0.00000E+00
    0.00000E+00         0.00000E+00         0.00000E+00
 
    0.43982E+06         0.18443E+07         0.00000E+00
    0.18443E+07         0.31931E+06         0.00000E+00
    0.00000E+00         0.00000E+00         0.00000E+00
 
    0.37313E+06         0.18652E+07         0.00000E+00
    0.18652E+07         0.35056E+06         0.00000E+00
    0.00000E+00         0.00000E+00         0.00000E+00
 
    0.30608E+06         0.18851E+07         0.00000E+00
    0.18851E+07         0.38234E+06         0.00000E+00
    0.00000E+00         0.00000E+00         0.00000E+00
 
    0.23867E+06         0.19042E+07         0.00000E+00
    0.19042E+07         0.41465E+06         0.00000E+00
    0.00000E+00         0.00000E+00         0.00000E+00
 
    0.17090E+06         0.19223E+07         0.00000E+00
    0.19223E+07         0.44749E+06         0.00000E+00
    0.00000E+00         0.00000E+00         0.00000E+00
 
    0.10278E+06         0.19396E+07         0.00000E+00
    0.19396E+07         0.48085E+06         0.00000E+00
    0.00000E+00         0.00000E+00         0.00000E+00
 
    0.34319E+05         0.19560E+07         0.00000E+00
    0.19560E+07         0.51473E+06         0.00000E+00
    0.00000E+00         0.00000E+00         0.00000E+00
 
    0.30004E+07         0.36903E+05         0.00000E+00
    0.36903E+05        -0.52803E+06         0.00000E+00
    0.00000E+00         0.00000E+00         0.00000E+00
 
    0.29620E+07         0.10708E+06         0.00000E+00
    0.10708E+06        -0.52683E+06         0.00000E+00
    0.00000E+00         0.00000E+00         0.00000E+00
 
    0.29219E+07         0.17594E+06         0.00000E+00
    0.17594E+06        -0.52451E+06         0.00000E+00
    0.00000E+00         0.00000E+00         0.00000E+00
 
    0.28803E+07         0.24348E+06         0.00000E+00
    0.24348E+06        -0.52110E+06         0.00000E+00
    0.00000E+00         0.00000E+00         0.00000E+00
 
    0.28371E+07         0.30973E+06         0.00000E+00
    0.30973E+06        -0.51664E+06         0.00000E+00
    0.00000E+00         0.00000E+00         0.00000E+00
 
    0.27926E+07         0.37467E+06         0.00000E+00
    0.37467E+06        -0.51115E+06         0.00000E+00
    0.00000E+00         0.00000E+00         0.00000E+00
 
    0.27466E+07         0.43833E+06         0.00000E+00
    0.43833E+06        -0.50467E+06         0.00000E+00
    0.00000E+00         0.00000E+00         0.00000E+00
 
    0.26994E+07         0.50072E+06         0.00000E+00
    0.50072E+06        -0.49723E+06         0.00000E+00
    0.00000E+00         0.00000E+00         0.00000E+00
 
    0.26509E+07         0.56183E+06         0.00000E+00
    0.56183E+06        -0.48886E+06         0.00000E+00
    0.00000E+00         0.00000E+00         0.00000E+00
 
    0.26012E+07         0.62169E+06         0.00000E+00
    0.62169E+06        -0.47957E+06         0.00000E+00
    0.00000E+00         0.00000E+00         0.00000E+00
 
    0.25503E+07         0.68031E+06         0.00000E+00
    0.68031E+06        -0.46941E+06         0.00000E+00
    0.00000E+00         0.00000E+00         0.00000E+00
 
    0.24984E+07         0.73770E+06         0.00000E+00
    0.73770E+06        -0.45838E+06         0.00000E+00
    0.00000E+00         0.00000E+00         0.00000E+00
 
    0.24455E+07         0.79387E+06         0.00000E+00
    0.79387E+06        -0.44652E+06         0.00000E+00
    0.00000E+00         0.00000E+00         0.00000E+00
 
    0.23915E+07         0.84884E+06         0.00000E+00
    0.84884E+06        -0.43384E+06         0.00000E+00
    0.00000E+00         0.00000E+00         0.00000E+00
 
    0.23366E+07         0.90262E+06         0.00000E+00
    0.90262E+06        -0.42036E+06         0.00000E+00
    0.00000E+00         0.00000E+00         0.00000E+00
 
    0.22809E+07         0.95523E+06         0.00000E+00
    0.95523E+06        -0.40611E+06         0.00000E+00
    0.00000E+00         0.00000E+00         0.00000E+00
 
    0.22242E+07         0.10067E+07         0.00000E+00
    0.10067E+07        -0.39109E+06         0.00000E+00
    0.00000E+00         0.00000E+00         0.00000E+00
 
    0.21667E+07         0.10570E+07         0.00000E+00
    0.10570E+07        -0.37533E+06         0.00000E+00
    0.00000E+00         0.00000E+00         0.00000E+00
 
    0.21085E+07         0.11061E+07         0.00000E+00
    0.11061E+07        -0.35884E+06         0.00000E+00
    0.00000E+00         0.00000E+00         0.00000E+00
 
    0.20495E+07         0.11542E+07         0.00000E+00
    0.11542E+07        -0.34163E+06         0.00000E+00
    0.00000E+00         0.00000E+00         0.00000E+00
 
    0.19898E+07         0.12011E+07         0.00000E+00
    0.12011E+07        -0.32372E+06         0.00000E+00
    0.00000E+00         0.00000E+00         0.00000E+00
 
    0.19294E+07         0.12470E+07         0.00000E+00
    0.12470E+07        -0.30511E+06         0.00000E+00
    0.00000E+00         0.00000E+00         0.00000E+00
 
    0.18683E+07         0.12918E+07         0.00000E+00
    0.12918E+07        -0.28583E+06         0.00000E+00
    0.00000E+00         0.00000E+00         0.00000E+00
 
    0.18066E+07         0.13355E+07         0.00000E+00
    0.13355E+07        -0.26587E+06         0.00000E+00
    0.00000E+00         0.00000E+00         0.00000E+00
 
    0.17443E+07         0.13782E+07         0.00000E+00
    0.13782E+07        -0.24525E+06         0.00000E+00
    0.00000E+00         0.00000E+00         0.00000E+00
 
    0.16814E+07         0.14198E+07         0.00000E+00
    0.14198E+07        -0.22398E+06         0.00000E+00
    0.00000E+00         0.00000E+00         0.00000E+00
 
    0.16180E+07         0.14604E+07         0.00000E+00
    0.14604E+07        -0.20205E+06         0.00000E+00
    0.00000E+00         0.00000E+00         0.00000E+00
 
    0.15540E+07         0.15000E+07         0.00000E+00
    0.15000E+07        -0.17949E+06         0.00000E+00
    0.00000E+00         0.00000E+00         0.00000E+00
 
    0.14895E+07         0.15386E+07         0.00000E+00
    0.15386E+07        -0.15629E+06         0.00000E+00
    0.00000E+00         0.00000E+00         0.00000E+00
 
    0.14245E+07         0.15762E+07         0.00000E+00
    0.15762E+07        -0.13246E+06         0.00000E+00
    0.00000E+00         0.00000E+00         0.00000E+00
 
    0.13590E+07         0.16128E+07         0.00000E+00
    0.16128E+07        -0.10800E+06         0.00000E+00
    0.00000E+00         0.00000E+00         0.00000E+00
 
    0.12931E+07         0.16485E+07         0.00000E+00
    0.16485E+07        -0.82925E+05         0.00000E+00
    0.00000E+00         0.00000E+00         0.00000E+00
 
    0.12267E+07         0.16832E+07         0.00000E+00
    0.16832E+07        -0.57228E+05         0.00000E+00
    0.00000E+00         0.00000E+00         0.00000E+00
 
    0.11598E+07         0.17169E+07         0.00000E+00
    0.17169E+07        -0.30915E+05         0.00000E+00
    0.00000E+00         0.00000E+00         0.00000E+00
 
    0.10925E+07         0.17497E+07         0.00000E+00
    0.17497E+07        -0.39874E+04         0.00000E+00
    0.00000E+00         0.00000E+00         0.00000E+00
 
    0.10248E+07         0.17816E+07         0.00000E+00
    0.17816E+07         0.23552E+05         0.00000E+00
    0.00000E+00         0.00000E+00         0.00000E+00
 
    0.95670E+06         0.18126E+07         0.00000E+00
    0.18126E+07         0.51701E+05         0.00000E+00
    0.00000E+00         0.00000E+00         0.00000E+00
 
    0.88818E+06         0.18426E+07         0.00000E+00
    0.18426E+07         0.80459E+05         0.00000E+00
    0.00000E+00         0.00000E+00         0.00000E+00
 
    0.81926E+06         0.18717E+07         0.00000E+00
    0.18717E+07         0.10983E+06         0.00000E+00
    0.00000E+00         0.00000E+00         0.00000E+00
 
    0.74996E+06         0.18999E+07         0.00000E+00
    0.18999E+07         0.13980E+06         0.00000E+00
    0.00000E+00         0.00000E+00         0.00000E+00
 
    0.68028E+06         0.19272E+07         0.00000E+00
    0.19272E+07         0.17038E+06         0.00000E+00
    0.00000E+00         0.00000E+00         0.00000E+00
 
    0.61022E+06         0.19535E+07         0.00000E+00
    0.19535E+07         0.20157E+06         0.00000E+00
    0.00000E+00         0.00000E+00         0.00000E+00
 
    0.53978E+06         0.19790E+07         0.00000E+00
    0.19790E+07         0.23336E+06         0.00000E+00
    0.00000E+00         0.00000E+00         0.00000E+00
 
    0.46898E+06         0.20036E+07         0.00000E+00
    0.20036E+07         0.26577E+06         0.00000E+00
    0.00000E+00         0.00000E+00         0.00000E+00
 
    0.39781E+06         0.20273E+07         0.00000E+00
    0.20273E+07         0.29878E+06         0.00000E+00
    0.00000E+00         0.00000E+00         0.00000E+00
 
    0.32629E+06         0.20501E+07         0.00000E+00
    0.20501E+07         0.33239E+06         0.00000E+00
    0.00000E+00         0.00000E+00         0.00000E+00
 
    0.25439E+06         0.20720E+07         0.00000E+00
    0.20720E+07         0.36662E+06         0.00000E+00
    0.00000E+00         0.00000E+00         0.00000E+00
 
    0.18215E+06         0.20930E+07         0.00000E+00
    0.20930E+07         0.40145E+06         0.00000E+00
    0.00000E+00         0.00000E+00         0.00000E+00
 
    0.10954E+06         0.21130E+07         0.00000E+00
    0.21130E+07         0.43689E+06         0.00000E+00
    0.00000E+00         0.00000E+00         0.00000E+00
 
    0.36572E+05         0.21322E+07         0.00000E+00
    0.21322E+07         0.47295E+06         0.00000E+00
    0.00000E+00         0.00000E+00         0.00000E+00
 
    0.32697E+07         0.40077E+05         0.00000E+00
    0.40077E+05        -0.62772E+06         0.00000E+00
    0.00000E+00         0.00000E+00         0.00000E+00
 
    0.32242E+07         0.11605E+06         0.00000E+00
    0.11605E+06        -0.62649E+06         0.00000E+00
    0.00000E+00         0.00000E+00         0.00000E+00
 
    0.31771E+07         0.19051E+06         0.00000E+00
    0.19051E+06        -0.62410E+06         0.00000E+00
    0.00000E+00         0.00000E+00         0.00000E+00
 
    0.31285E+07         0.26348E+06         0.00000E+00
    0.26348E+06        -0.62060E+06         0.00000E+00
    0.00000E+00         0.00000E+00         0.00000E+00
 
    0.30784E+07         0.33498E+06         0.00000E+00
    0.33498E+06        -0.61603E+06         0.00000E+00
    0.00000E+00         0.00000E+00         0.00000E+00
 
    0.30270E+07         0.40501E+06         0.00000E+00
    0.40501E+06        -0.61041E+06         0.00000E+00
    0.00000E+00         0.00000E+00         0.00000E+00
 
    0.29742E+07         0.47361E+06         0.00000E+00
    0.47361E+06        -0.60378E+06         0.00000E+00
    0.00000E+00         0.00000E+00         0.00000E+00
 
    0.29203E+07         0.54078E+06         0.00000E+00
    0.54078E+06        -0.59617E+06         0.00000E+00
    0.00000E+00         0.00000E+00         0.00000E+00
 
    0.28651E+07         0.60654E+06         0.00000E+00
    0.60654E+06        -0.58761E+06         0.00000E+00
    0.00000E+00         0.00000E+00         0.00000E+00
 
    0.28089E+07         0.67092E+06         0.00000E+00
    0.67092E+06        -0.57813E+06         0.00000E+00
    0.00000E+00         0.00000E+00         0.00000E+00
 
    0.27516E+07         0.73393E+06         0.00000E+00
    0.73393E+06        -0.56775E+06         0.00000E+00
    0.00000E+00         0.00000E+00         0.00000E+00
 
    0.26933E+07         0.79560E+06         0.00000E+00
    0.79560E+06        -0.55650E+06         0.00000E+00
    0.00000E+00         0.00000E+00         0.00000E+00
 
    0.26340E+07         0.85594E+06         0.00000E+00
    0.85594E+06        -0.54440E+06         0.00000E+00
    0.00000E+00         0.00000E+00         0.00000E+00
 
    0.25738E+07         0.91498E+06         0.00000E+00
    0.91498E+06        -0.53146E+06         0.00000E+00
    0.00000E+00         0.00000E+00         0.00000E+00
 
    0.25128E+07         0.97274E+06         0.00000E+00
    0.97274E+06        -0.51772E+06         0.00000E+00
    0.00000E+00         0.00000E+00         0.00000E+00
 
    0.24510E+07         0.10292E+07         0.00000E+00
    0.10292E+07        -0.50318E+06         0.00000E+00
    0.00000E+00         0.00000E+00         0.00000E+00
 
    0.23884E+07         0.10845E+07         0.00000E+00
    0.10845E+07        -0.48786E+06         0.00000E+00
    0.00000E+00         0.00000E+00         0.00000E+00
 
    0.23250E+07         0.11385E+07         0.00000E+00
    0.11385E+07        -0.47178E+06         0.00000E+00
    0.00000E+00         0.00000E+00         0.00000E+00
 
    0.22610E+07         0.11914E+07         0.00000E+00
    0.11914E+07        -0.45495E+06         0.00000E+00
    0.00000E+00         0.00000E+00         0.00000E+00
 
    0.21963E+07         0.12430E+07         0.00000E+00
    0.12430E+07        -0.43739E+06         0.00000E+00
    0.00000E+00         0.00000E+00         0.00000E+00
 
    0.21310E+07         0.12935E+07         0.00000E+00
    0.12935E+07        -0.41910E+06         0.00000E+00
    0.00000E+00         0.00000E+00         0.00000E+00
 
    0.20650E+07         0.13429E+07         0.00000E+00
    0.13429E+07        -0.40009E+06         0.00000E+00
    0.00000E+00         0.00000E+00         0.00000E+00
 
    0.19985E+07         0.13911E+07         0.00000E+00
    0.13911E+07        -0.38037E+06         0.00000E+00
    0.00000E+00         0.00000E+00         0.00000E+00
 
    0.19314E+07         0.14382E+07         0.00000E+00
    0.14382E+07        -0.35995E+06         0.00000E+00
    0.00000E+00         0.00000E+00         0.00000E+00
 
    0.18638E+07         0.14843E+07         0.00000E+00
    0.14843E+07        -0.33884E+06         0.00000E+00
    0.00000E+00         0.00000E+00         0.00000E+00
 
    0.17957E+07         0.15292E+07         0.00000E+00
    0.15292E+07        -0.31705E+06         0.00000E+00
    0.00000E+00         0.00000E+00         0.00000E+00
 
    0.17271E+07         0.15732E+07         0.00000E+00
    0.15732E+07        -0.29456E+06         0.00000E+00
    0.00000E+00         0.00000E+00         0.00000E+00
 
    0.16580E+07         0.16160E+07         0.00000E+00
    0.16160E+07        -0.27140E+06         0.00000E+00
    0.00000E+00         0.00000E+00         0.00000E+00
 
    0.15885E+07         0.16579E+07         0.00000E+00
    0.16579E+07        -0.24757E+06         0.00000E+00
    0.00000E+00         0.00000E+00         0.00000E+00
 
    0.15186E+07         0.16988E+07         0.00000E+00
    0.16988E+07        -0.22305E+06         0.00000E+00
    0.00000E+00         0.00000E+00         0.00000E+00
 
    0.14482E+07         0.17386E+07         0.00000E+00
    0.17386E+07        -0.19787E+06         0.00000E+00
    0.00000E+00         0.00000E+00         0.00000E+00
 
    0.13774E+07         0.17775E+07         0.00000E+00
    0.17775E+07        -0.17201E+06         0.00000E+00
    0.00000E+00         0.00000E+00         0.00000E+00
 
    0.13062E+07         0.18154E+07         0.00000E+00
    0.18154E+07        -0.14549E+06         0.00000E+00
    0.00000E+00         0.00000E+00         0.00000E+00
 
    0.12346E+07         0.18524E+07         0.00000E+00
    0.18524E+07        -0.11829E+06         0.00000E+00
    0.00000E+00         0.00000E+00         0.00000E+00
 
    0.11626E+07         0.18884E+07         0.00000E+00
    0.18884E+07        -0.90423E+05         0.00000E+00
    0.00000E+00         0.00000E+00         0.00000E+00
 
    0.10902E+07         0.19235E+07         0.00000E+00
    0.19235E+07        -0.61882E+05         0.00000E+00
    0.00000E+00         0.00000E+00         0.00000E+00
 
    0.10175E+07         0.19576E+07         0.00000E+00
    0.19576E+07        -0.32667E+05         0.00000E+00
    0.00000E+00         0.00000E+00         0.00000E+00
 
    0.94434E+06         0.19909E+07         0.00000E+00
    0.19909E+07        -0.27760E+04         0.00000E+00
    0.00000E+00         0.00000E+00         0.00000E+00
 
    0.87087E+06         0.20232E+07         0.00000E+00
    0.20232E+07         0.27792E+05         0.00000E+00
    0.00000E+00         0.00000E+00         0.00000E+00
 
    0.79703E+06         0.20546E+07         0.00000E+00
    0.20546E+07         0.59040E+05         0.00000E+00
    0.00000E+00         0.00000E+00         0.00000E+00
 
    0.72283E+06         0.20851E+07         0.00000E+00
    0.20851E+07         0.90970E+05         0.00000E+00
    0.00000E+00         0.00000E+00         0.00000E+00
 
    0.64827E+06         0.21147E+07         0.00000E+00
    0.21147E+07         0.12359E+06         0.00000E+00
    0.00000E+00         0.00000E+00         0.00000E+00
 
    0.57335E+06         0.21434E+07         0.00000E+00
    0.21434E+07         0.15689E+06         0.00000E+00
    0.00000E+00         0.00000E+00         0.00000E+00
 
    0.49807E+06         0.21713E+07         0.00000E+00
    0.21713E+07         0.19088E+06         0.00000E+00
    0.00000E+00         0.00000E+00         0.00000E+00
 
    0.42244E+06         0.21982E+07         0.00000E+00
    0.21982E+07         0.22557E+06         0.00000E+00
    0.00000E+00         0.00000E+00         0.00000E+00
 
    0.34644E+06         0.22242E+07         0.00000E+00
    0.22242E+07         0.26096E+06         0.00000E+00
    0.00000E+00         0.00000E+00         0.00000E+00
 
    0.27009E+06         0.22494E+07         0.00000E+00
    0.22494E+07         0.29704E+06         0.00000E+00
    0.00000E+00         0.00000E+00         0.00000E+00
 
    0.19337E+06         0.22737E+07         0.00000E+00
    0.22737E+07         0.33383E+06         0.00000E+00
    0.00000E+00         0.00000E+00         0.00000E+00
 
    0.11628E+06         0.22970E+07         0.00000E+00
    0.22970E+07         0.37132E+06         0.00000E+00
    0.00000E+00         0.00000E+00         0.00000E+00
 
    0.38822E+05         0.23195E+07         0.00000E+00
    0.23195E+07         0.40952E+06         0.00000E+00
    0.00000E+00         0.00000E+00         0.00000E+00
 
    0.35509E+07         0.43332E+05         0.00000E+00
    0.43332E+05        -0.74529E+06         0.00000E+00
    0.00000E+00         0.00000E+00         0.00000E+00
 
    0.34973E+07         0.12521E+06         0.00000E+00
    0.12521E+06        -0.74404E+06         0.00000E+00
    0.00000E+00         0.00000E+00         0.00000E+00
 
    0.34422E+07         0.20537E+06         0.00000E+00
    0.20537E+06        -0.74163E+06         0.00000E+00
    0.00000E+00         0.00000E+00         0.00000E+00
 
    0.33857E+07         0.28384E+06         0.00000E+00
    0.28384E+06        -0.73809E+06         0.00000E+00
    0.00000E+00         0.00000E+00         0.00000E+00
 
    0.33278E+07         0.36066E+06         0.00000E+00
    0.36066E+06        -0.73347E+06         0.00000E+00
    0.00000E+00         0.00000E+00         0.00000E+00
 
    0.32687E+07         0.43584E+06         0.00000E+00
    0.43584E+06        -0.72781E+06         0.00000E+00
    0.00000E+00         0.00000E+00         0.00000E+00
 
    0.32085E+07         0.50942E+06         0.00000E+00
    0.50942E+06        -0.72112E+06         0.00000E+00
    0.00000E+00         0.00000E+00         0.00000E+00
 
    0.31471E+07         0.58143E+06         0.00000E+00
    0.58143E+06        -0.71346E+06         0.00000E+00
    0.00000E+00         0.00000E+00         0.00000E+00
 
    0.30846E+07         0.65188E+06         0.00000E+00
    0.65188E+06        -0.70485E+06         0.00000E+00
    0.00000E+00         0.00000E+00         0.00000E+00
 
    0.30211E+07         0.72082E+06         0.00000E+00
    0.72082E+06        -0.69531E+06         0.00000E+00
    0.00000E+00         0.00000E+00         0.00000E+00
 
    0.29568E+07         0.78826E+06         0.00000E+00
    0.78826E+06        -0.68487E+06         0.00000E+00
    0.00000E+00         0.00000E+00         0.00000E+00
 
    0.28915E+07         0.85425E+06         0.00000E+00
    0.85425E+06        -0.67356E+06         0.00000E+00
    0.00000E+00         0.00000E+00         0.00000E+00
 
    0.28254E+07         0.91881E+06         0.00000E+00
    0.91881E+06        -0.66139E+06         0.00000E+00
    0.00000E+00         0.00000E+00         0.00000E+00
 
    0.27586E+07         0.98197E+06         0.00000E+00
    0.98197E+06        -0.64839E+06         0.00000E+00
    0.00000E+00         0.00000E+00         0.00000E+00
 
    0.26910E+07         0.10438E+07         0.00000E+00
    0.10438E+07        -0.63457E+06         0.00000E+00
    0.00000E+00         0.00000E+00         0.00000E+00
 
    0.26227E+07         0.11042E+07         0.00000E+00
    0.11042E+07        -0.61996E+06         0.00000E+00
    0.00000E+00         0.00000E+00         0.00000E+00
 
    0.25537E+07         0.11633E+07         0.00000E+00
    0.11633E+07        -0.60455E+06         0.00000E+00
    0.00000E+00         0.00000E+00         0.00000E+00
 
    0.24842E+07         0.12212E+07         0.00000E+00
    0.12212E+07        -0.58838E+06         0.00000E+00
    0.00000E+00         0.00000E+00         0.00000E+00
 
    0.24141E+07         0.12778E+07         0.00000E+00
    0.12778E+07        -0.57144E+06         0.00000E+00
    0.00000E+00         0.00000E+00         0.00000E+00
 
    0.23434E+07         0.13331E+07         0.00000E+00
    0.13331E+07        -0.55375E+06         0.00000E+00
    0.00000E+00         0.00000E+00         0.00000E+00
 
    0.22722E+07         0.13873E+07         0.00000E+00
    0.13873E+07        -0.53532E+06         0.00000E+00
    0.00000E+00         0.00000E+00         0.00000E+00
 
    0.22005E+07         0.14402E+07         0.00000E+00
    0.14402E+07        -0.51615E+06         0.00000E+00
    0.00000E+00         0.00000E+00         0.00000E+00
 
    0.21283E+07         0.14920E+07         0.00000E+00
    0.14920E+07        -0.49625E+06         0.00000E+00
    0.00000E+00         0.00000E+00         0.00000E+00
 
    0.20557E+07         0.15427E+07         0.00000E+00
    0.15427E+07        -0.47563E+06         0.00000E+00
    0.00000E+00         0.00000E+00         0.00000E+00
 
    0.19827E+07         0.15923E+07         0.00000E+00
    0.15923E+07        -0.45428E+06         0.00000E+00
    0.00000E+00         0.00000E+00         0.00000E+00
 
    0.19092E+07         0.16408E+07         0.00000E+00
    0.16408E+07        -0.43221E+06         0.00000E+00
    0.00000E+00         0.00000E+00         0.00000E+00
 
    0.18354E+07         0.16882E+07         0.00000E+00
    0.16882E+07        -0.40942E+06         0.00000E+00
    0.00000E+00         0.00000E+00         0.00000E+00
 
    0.17611E+07         0.17346E+07         0.00000E+00
    0.17346E+07        -0.38591E+06         0.00000E+00
    0.00000E+00         0.00000E+00         0.00000E+00
 
    0.16865E+07         0.17799E+07         0.00000E+00
    0.17799E+07        -0.36168E+06         0.00000E+00
    0.00000E+00         0.00000E+00         0.00000E+00
 
    0.16116E+07         0.18243E+07         0.00000E+00
    0.18243E+07        -0.33673E+06         0.00000E+00
    0.00000E+00         0.00000E+00         0.00000E+00
 
    0.15363E+07         0.18676E+07         0.00000E+00
    0.18676E+07        -0.31107E+06         0.00000E+00
    0.00000E+00         0.00000E+00         0.00000E+00
 
    0.14606E+07         0.19100E+07         0.00000E+00
    0.19100E+07        -0.28467E+06         0.00000E+00
    0.00000E+00         0.00000E+00         0.00000E+00
 
    0.13846E+07         0.19514E+07         0.00000E+00
    0.19514E+07        -0.25755E+06         0.00000E+00
    0.00000E+00         0.00000E+00         0.00000E+00
 
    0.13083E+07         0.19919E+07         0.00000E+00
    0.19919E+07        -0.22970E+06         0.00000E+00
    0.00000E+00         0.00000E+00         0.00000E+00
 
    0.12316E+07         0.20314E+07         0.00000E+00
    0.20314E+07        -0.20111E+06         0.00000E+00
    0.00000E+00         0.00000E+00         0.00000E+00
 
    0.11546E+07         0.20700E+07         0.00000E+00
    0.20700E+07        -0.17178E+06         0.00000E+00
    0.00000E+00         0.00000E+00         0.00000E+00
 
    0.10773E+07         0.21077E+07         0.00000E+00
    0.21077E+07        -0.14170E+06         0.00000E+00
    0.00000E+00         0.00000E+00         0.00000E+00
 
    0.99962E+06         0.21445E+07         0.00000E+00
    0.21445E+07        -0.11087E+06         0.00000E+00
    0.00000E+00         0.00000E+00         0.00000E+00
 
    0.92163E+06         0.21804E+07         0.00000E+00
    0.21804E+07        -0.79293E+05         0.00000E+00
    0.00000E+00         0.00000E+00         0.00000E+00
 
    0.84332E+06         0.22155E+07         0.00000E+00
    0.22155E+07        -0.46948E+05         0.00000E+00
    0.00000E+00         0.00000E+00         0.00000E+00
 
    0.76467E+06         0.22496E+07         0.00000E+00
    0.22496E+07        -0.13836E+05         0.00000E+00
    0.00000E+00         0.00000E+00         0.00000E+00
 
    0.68568E+06         0.22829E+07         0.00000E+00
    0.22829E+07         0.20050E+05         0.00000E+00
    0.00000E+00         0.00000E+00         0.00000E+00
 
    0.60636E+06         0.23153E+07         0.00000E+00
    0.23153E+07         0.54717E+05         0.00000E+00
    0.00000E+00         0.00000E+00         0.00000E+00
 
    0.52668E+06         0.23468E+07         0.00000E+00
    0.23468E+07         0.90170E+05         0.00000E+00
    0.00000E+00         0.00000E+00         0.00000E+00
 
    0.44666E+06         0.23774E+07         0.00000E+00
    0.23774E+07         0.12642E+06         0.00000E+00
    0.00000E+00         0.00000E+00         0.00000E+00
 
    0.36627E+06         0.24072E+07         0.00000E+00
    0.24072E+07         0.16346E+06         0.00000E+00
    0.00000E+00         0.00000E+00         0.00000E+00
 
    0.28553E+06         0.24362E+07         0.00000E+00
    0.24362E+07         0.20131E+06         0.00000E+00
    0.00000E+00         0.00000E+00         0.00000E+00
 
    0.20441E+06         0.24642E+07         0.00000E+00
    0.24642E+07         0.23997E+06         0.00000E+00
    0.00000E+00         0.00000E+00         0.00000E+00
 
    0.12292E+06         0.24914E+07         0.00000E+00
    0.24914E+07         0.27945E+06         0.00000E+00
    0.00000E+00         0.00000E+00         0.00000E+00
 
    0.41037E+05         0.25177E+07         0.00000E+00
    0.25177E+07         0.31975E+06         0.00000E+00
    0.00000E+00         0.00000E+00         0.00000E+00
 
    0.38414E+07         0.46616E+05         0.00000E+00
    0.46616E+05        -0.88372E+06         0.00000E+00
    0.00000E+00         0.00000E+00         0.00000E+00
 
    0.37786E+07         0.13440E+06         0.00000E+00
    0.13440E+06        -0.88248E+06         0.00000E+00
    0.00000E+00         0.00000E+00         0.00000E+00
 
    0.37145E+07         0.22026E+06         0.00000E+00
    0.22026E+06        -0.88008E+06         0.00000E+00
    0.00000E+00         0.00000E+00         0.00000E+00
 
    0.36491E+07         0.30423E+06         0.00000E+00
    0.30423E+06        -0.87658E+06         0.00000E+00
    0.00000E+00         0.00000E+00         0.00000E+00
 
    0.35826E+07         0.38635E+06         0.00000E+00
    0.38635E+06        -0.87200E+06         0.00000E+00
    0.00000E+00         0.00000E+00         0.00000E+00
 
    0.35150E+07         0.46665E+06         0.00000E+00
    0.46665E+06        -0.86639E+06         0.00000E+00
    0.00000E+00         0.00000E+00         0.00000E+00
 
    0.34463E+07         0.54518E+06         0.00000E+00
    0.54518E+06        -0.85978E+06         0.00000E+00
    0.00000E+00         0.00000E+00         0.00000E+00
 
    0.33767E+07         0.62198E+06         0.00000E+00
    0.62198E+06        -0.85221E+06         0.00000E+00
    0.00000E+00         0.00000E+00         0.00000E+00
 
    0.33063E+07         0.69709E+06         0.00000E+00
    0.69709E+06        -0.84370E+06         0.00000E+00
    0.00000E+00         0.00000E+00         0.00000E+00
 
    0.32350E+07         0.77055E+06         0.00000E+00
    0.77055E+06        -0.83429E+06         0.00000E+00
    0.00000E+00         0.00000E+00         0.00000E+00
 
    0.31630E+07         0.84240E+06         0.00000E+00
    0.84240E+06        -0.82399E+06         0.00000E+00
    0.00000E+00         0.00000E+00         0.00000E+00
 
    0.30902E+07         0.91269E+06         0.00000E+00
    0.91269E+06        -0.81283E+06         0.00000E+00
    0.00000E+00         0.00000E+00         0.00000E+00
 
    0.30168E+07         0.98144E+06         0.00000E+00
    0.98144E+06        -0.80082E+06         0.00000E+00
    0.00000E+00         0.00000E+00         0.00000E+00
 
    0.29428E+07         0.10487E+07         0.00000E+00
    0.10487E+07        -0.78799E+06         0.00000E+00
    0.00000E+00         0.00000E+00         0.00000E+00
 
    0.28682E+07         0.11145E+07         0.00000E+00
    0.11145E+07        -0.77436E+06         0.00000E+00
    0.00000E+00         0.00000E+00         0.00000E+00
 
    0.27931E+07         0.11789E+07         0.00000E+00
    0.11789E+07        -0.75993E+06         0.00000E+00
    0.00000E+00         0.00000E+00         0.00000E+00
 
    0.27176E+07         0.12420E+07         0.00000E+00
    0.12420E+07        -0.74471E+06         0.00000E+00
    0.00000E+00         0.00000E+00         0.00000E+00
 
    0.26415E+07         0.13036E+07         0.00000E+00
    0.13036E+07        -0.72872E+06         0.00000E+00
    0.00000E+00         0.00000E+00         0.00000E+00
 
    0.25651E+07         0.13640E+07         0.00000E+00
    0.13640E+07        -0.71196E+06         0.00000E+00
    0.00000E+00         0.00000E+00         0.00000E+00
 
    0.24882E+07         0.14231E+07         0.00000E+00
    0.14231E+07        -0.69445E+06         0.00000E+00
    0.00000E+00         0.00000E+00         0.00000E+00
 
    0.24110E+07         0.14810E+07         0.00000E+00
    0.14810E+07        -0.67618E+06         0.00000E+00
    0.00000E+00         0.00000E+00         0.00000E+00
 
    0.23334E+07         0.15377E+07         0.00000E+00
    0.15377E+07        -0.65715E+06         0.00000E+00
    0.00000E+00         0.00000E+00         0.00000E+00
 
    0.22555E+07         0.15932E+07         0.00000E+00
    0.15932E+07        -0.63738E+06         0.00000E+00
    0.00000E+00         0.00000E+00         0.00000E+00
 
    0.21773E+07         0.16476E+07         0.00000E+00
    0.16476E+07        -0.61686E+06         0.00000E+00
    0.00000E+00         0.00000E+00         0.00000E+00
 
    0.20987E+07         0.17008E+07         0.00000E+00
    0.17008E+07        -0.59558E+06         0.00000E+00
    0.00000E+00         0.00000E+00         0.00000E+00
 
    0.20199E+07         0.17530E+07         0.00000E+00
    0.17530E+07        -0.57356E+06         0.00000E+00
    0.00000E+00         0.00000E+00         0.00000E+00
 
    0.19408E+07         0.18041E+07         0.00000E+00
    0.18041E+07        -0.55078E+06         0.00000E+00
    0.00000E+00         0.00000E+00         0.00000E+00
 
    0.18614E+07         0.18542E+07         0.00000E+00
    0.18542E+07        -0.52724E+06         0.00000E+00
    0.00000E+00         0.00000E+00         0.00000E+00
 
    0.17817E+07         0.19033E+07         0.00000E+00
    0.19033E+07        -0.50293E+06         0.00000E+00
    0.00000E+00         0.00000E+00         0.00000E+00
 
    0.17018E+07         0.19513E+07         0.00000E+00
    0.19513E+07        -0.47786E+06         0.00000E+00
    0.00000E+00         0.00000E+00         0.00000E+00
 
    0.16216E+07         0.19984E+07         0.00000E+00
    0.19984E+07        -0.45201E+06         0.00000E+00
    0.00000E+00         0.00000E+00         0.00000E+00
 
    0.15412E+07         0.20446E+07         0.00000E+00
    0.20446E+07        -0.42538E+06         0.00000E+00
    0.00000E+00         0.00000E+00         0.00000E+00
 
    0.14605E+07         0.20898E+07         0.00000E+00
    0.20898E+07        -0.39795E+06         0.00000E+00
    0.00000E+00         0.00000E+00         0.00000E+00
 
    0.13795E+07         0.21341E+07         0.00000E+00
    0.21341E+07        -0.36973E+06         0.00000E+00
    0.00000E+00         0.00000E+00         0.00000E+00
 
    0.12983E+07         0.21775E+07         0.00000E+00
    0.21775E+07        -0.34070E+06         0.00000E+00
    0.00000E+00         0.00000E+00         0.00000E+00
 
    0.12168E+07         0.22201E+07         0.00000E+00
    0.22201E+07        -0.31085E+06         0.00000E+00
    0.00000E+00         0.00000E+00         0.00000E+00
 
    0.11350E+07         0.22617E+07         0.00000E+00
    0.22617E+07        -0.28018E+06         0.00000E+00
    0.00000E+00         0.00000E+00         0.00000E+00
 
    0.10530E+07         0.23025E+07         0.00000E+00
    0.23025E+07        -0.24867E+06         0.00000E+00
    0.00000E+00         0.00000E+00         0.00000E+00
 
    0.97065E+06         0.23424E+07         0.00000E+00
    0.23424E+07        -0.21632E+06         0.00000E+00
    0.00000E+00         0.00000E+00         0.00000E+00
 
    0.88801E+06         0.23815E+07         0.00000E+00
    0.23815E+07        -0.18311E+06         0.00000E+00
    0.00000E+00         0.00000E+00         0.00000E+00
 
    0.80507E+06         0.24197E+07         0.00000E+00
    0.24197E+07        -0.14903E+06         0.00000E+00
    0.00000E+00         0.00000E+00         0.00000E+00
 
    0.72181E+06         0.24571E+07         0.00000E+00
    0.24571E+07        -0.11408E+06         0.00000E+00
    0.00000E+00         0.00000E+00         0.00000E+00
 
    0.63823E+06         0.24937E+07         0.00000E+00
    0.24937E+07        -0.78246E+05         0.00000E+00
    0.00000E+00         0.00000E+00         0.00000E+00
 
    0.55432E+06         0.25295E+07         0.00000E+00
    0.25295E+07        -0.41513E+05         0.00000E+00
    0.00000E+00         0.00000E+00         0.00000E+00
 
    0.47006E+06         0.25644E+07         0.00000E+00
    0.25644E+07        -0.38734E+04         0.00000E+00
    0.00000E+00         0.00000E+00         0.00000E+00
 
    0.38544E+06         0.25985E+07         0.00000E+00
    0.25985E+07         0.34682E+05         0.00000E+00
    0.00000E+00         0.00000E+00         0.00000E+00
 
    0.30046E+06         0.26317E+07         0.00000E+00
    0.26317E+07         0.74164E+05         0.00000E+00
    0.00000E+00         0.00000E+00         0.00000E+00
 
    0.21510E+06         0.26642E+07         0.00000E+00
    0.26642E+07         0.11458E+06         0.00000E+00
    0.00000E+00         0.00000E+00         0.00000E+00
 
    0.12934E+06         0.26958E+07         0.00000E+00
    0.26958E+07         0.15594E+06         0.00000E+00
    0.00000E+00         0.00000E+00         0.00000E+00
 
    0.43182E+05         0.27266E+07         0.00000E+00
    0.27266E+07         0.19826E+06         0.00000E+00
    0.00000E+00         0.00000E+00         0.00000E+00
 
    0.41375E+07         0.49862E+05         0.00000E+00
    0.49862E+05        -0.10464E+07         0.00000E+00
    0.00000E+00         0.00000E+00         0.00000E+00
 
    0.40644E+07         0.14345E+06         0.00000E+00
    0.14345E+06        -0.10452E+07         0.00000E+00
    0.00000E+00         0.00000E+00         0.00000E+00
 
    0.39902E+07         0.23488E+06         0.00000E+00
    0.23488E+06        -0.10429E+07         0.00000E+00
    0.00000E+00         0.00000E+00         0.00000E+00
 
    0.39150E+07         0.32421E+06         0.00000E+00
    0.32421E+06        -0.10395E+07         0.00000E+00
    0.00000E+00         0.00000E+00         0.00000E+00
 
    0.38388E+07         0.41148E+06         0.00000E+00
    0.41148E+06        -0.10351E+07         0.00000E+00
    0.00000E+00         0.00000E+00         0.00000E+00
 
    0.37618E+07         0.49676E+06         0.00000E+00
    0.49676E+06        -0.10297E+07         0.00000E+00
    0.00000E+00         0.00000E+00         0.00000E+00
 
    0.36840E+07         0.58011E+06         0.00000E+00
    0.58011E+06        -0.10233E+07         0.00000E+00
    0.00000E+00         0.00000E+00         0.00000E+00
 
    0.36055E+07         0.66157E+06         0.00000E+00
    0.66157E+06        -0.10160E+07         0.00000E+00
    0.00000E+00         0.00000E+00         0.00000E+00
 
    0.35264E+07         0.74120E+06         0.00000E+00
    0.74120E+06        -0.10078E+07         0.00000E+00
    0.00000E+00         0.00000E+00         0.00000E+00
 
    0.34467E+07         0.81906E+06         0.00000E+00
    0.81906E+06        -0.99872E+06         0.00000E+00
    0.00000E+00         0.00000E+00         0.00000E+00
 
    0.33664E+07         0.89520E+06         0.00000E+00
    0.89520E+06        -0.98881E+06         0.00000E+00
    0.00000E+00         0.00000E+00         0.00000E+00
 
    0.32857E+07         0.96967E+06         0.00000E+00
    0.96967E+06        -0.97806E+06         0.00000E+00
    0.00000E+00         0.00000E+00         0.00000E+00
 
    0.32045E+07         0.10425E+07         0.00000E+00
    0.10425E+07        -0.96650E+06         0.00000E+00
    0.00000E+00         0.00000E+00         0.00000E+00
 
    0.31230E+07         0.11138E+07         0.00000E+00
    0.11138E+07        -0.95414E+06         0.00000E+00
    0.00000E+00         0.00000E+00         0.00000E+00
 
    0.30411E+07         0.11836E+07         0.00000E+00
    0.11836E+07        -0.94099E+06         0.00000E+00
    0.00000E+00         0.00000E+00         0.00000E+00
 
    0.29590E+07         0.12519E+07         0.00000E+00
    0.12519E+07        -0.92707E+06         0.00000E+00
    0.00000E+00         0.00000E+00         0.00000E+00
 
    0.28765E+07         0.13188E+07         0.00000E+00
    0.13188E+07        -0.91238E+06         0.00000E+00
    0.00000E+00         0.00000E+00         0.00000E+00
 
    0.27938E+07         0.13843E+07         0.00000E+00
    0.13843E+07        -0.89692E+06         0.00000E+00
    0.00000E+00         0.00000E+00         0.00000E+00
 
    0.27108E+07         0.14485E+07         0.00000E+00
    0.14485E+07        -0.88070E+06         0.00000E+00
    0.00000E+00         0.00000E+00         0.00000E+00
 
    0.26277E+07         0.15114E+07         0.00000E+00
    0.15114E+07        -0.86372E+06         0.00000E+00
    0.00000E+00         0.00000E+00         0.00000E+00
 
    0.25443E+07         0.15731E+07         0.00000E+00
    0.15731E+07        -0.84599E+06         0.00000E+00
    0.00000E+00         0.00000E+00         0.00000E+00
 
    0.24608E+07         0.16336E+07         0.00000E+00
    0.16336E+07        -0.82749E+06         0.00000E+00
    0.00000E+00         0.00000E+00         0.00000E+00
 
    0.23771E+07         0.16929E+07         0.00000E+00
    0.16929E+07        -0.80822E+06         0.00000E+00
    0.00000E+00         0.00000E+00         0.00000E+00
 
    0.22933E+07         0.17511E+07         0.00000E+00
    0.17511E+07        -0.78819E+06         0.00000E+00
    0.00000E+00         0.00000E+00         0.00000E+00
 
    0.22093E+07         0.18081E+07         0.00000E+00
    0.18081E+07        -0.76738E+06         0.00000E+00
    0.00000E+00         0.00000E+00         0.00000E+00
 
    0.21252E+07         0.18642E+07         0.00000E+00
    0.18642E+07        -0.74578E+06         0.00000E+00
    0.00000E+00         0.00000E+00         0.00000E+00
 
    0.20409E+07         0.19192E+07         0.00000E+00
    0.19192E+07        -0.72340E+06         0.00000E+00
    0.00000E+00         0.00000E+00         0.00000E+00
 
    0.19565E+07         0.19732E+07         0.00000E+00
    0.19732E+07        -0.70021E+06         0.00000E+00
    0.00000E+00         0.00000E+00         0.00000E+00
 
    0.18720E+07         0.20262E+07         0.00000E+00
    0.20262E+07        -0.67622E+06         0.00000E+00
    0.00000E+00         0.00000E+00         0.00000E+00
 
    0.17872E+07         0.20783E+07         0.00000E+00
    0.20783E+07        -0.65140E+06         0.00000E+00
    0.00000E+00         0.00000E+00         0.00000E+00
 
    0.17024E+07         0.21294E+07         0.00000E+00
    0.21294E+07        -0.62574E+06         0.00000E+00
    0.00000E+00         0.00000E+00         0.00000E+00
 
    0.16174E+07         0.21797E+07         0.00000E+00
    0.21797E+07        -0.59924E+06         0.00000E+00
    0.00000E+00         0.00000E+00         0.00000E+00
 
    0.15322E+07         0.22290E+07         0.00000E+00
    0.22290E+07        -0.57188E+06         0.00000E+00
    0.00000E+00         0.00000E+00         0.00000E+00
 
    0.14468E+07         0.22776E+07         0.00000E+00
    0.22776E+07        -0.54364E+06         0.00000E+00
    0.00000E+00         0.00000E+00         0.00000E+00
 
    0.13612E+07         0.23252E+07         0.00000E+00
    0.23252E+07        -0.51452E+06         0.00000E+00
    0.00000E+00         0.00000E+00         0.00000E+00
 
    0.12755E+07         0.23721E+07         0.00000E+00
    0.23721E+07        -0.48449E+06         0.00000E+00
    0.00000E+00         0.00000E+00         0.00000E+00
 
    0.11895E+07         0.24181E+07         0.00000E+00
    0.24181E+07        -0.45355E+06         0.00000E+00
    0.00000E+00         0.00000E+00         0.00000E+00
 
    0.11033E+07         0.24633E+07         0.00000E+00
    0.24633E+07        -0.42167E+06         0.00000E+00
    0.00000E+00         0.00000E+00         0.00000E+00
 
    0.10169E+07         0.25078E+07         0.00000E+00
    0.25078E+07        -0.38885E+06         0.00000E+00
    0.00000E+00         0.00000E+00         0.00000E+00
 
    0.93015E+06         0.25514E+07         0.00000E+00
    0.25514E+07        -0.35506E+06         0.00000E+00
    0.00000E+00         0.00000E+00         0.00000E+00
 
    0.84317E+06         0.25943E+07         0.00000E+00
    0.25943E+07        -0.32030E+06         0.00000E+00
    0.00000E+00         0.00000E+00         0.00000E+00
 
    0.75590E+06         0.26364E+07         0.00000E+00
    0.26364E+07        -0.28455E+06         0.00000E+00
    0.00000E+00         0.00000E+00         0.00000E+00
 
    0.66832E+06         0.26777E+07         0.00000E+00
    0.26777E+07        -0.24779E+06         0.00000E+00
    0.00000E+00         0.00000E+00         0.00000E+00
 
    0.58042E+06         0.27183E+07         0.00000E+00
    0.27183E+07        -0.21001E+06         0.00000E+00
    0.00000E+00         0.00000E+00         0.00000E+00
 
    0.49218E+06         0.27581E+07         0.00000E+00
    0.27581E+07        -0.17119E+06         0.00000E+00
    0.00000E+00         0.00000E+00         0.00000E+00
 
    0.40358E+06         0.27971E+07         0.00000E+00
    0.27971E+07        -0.13132E+06         0.00000E+00
    0.00000E+00         0.00000E+00         0.00000E+00
 
    0.31460E+06         0.28354E+07         0.00000E+00
    0.28354E+07        -0.90387E+05         0.00000E+00
    0.00000E+00         0.00000E+00         0.00000E+00
 
    0.22522E+06         0.28728E+07         0.00000E+00
    0.28728E+07        -0.48377E+05         0.00000E+00
    0.00000E+00         0.00000E+00         0.00000E+00
 
    0.13544E+06         0.29096E+07         0.00000E+00
    0.29096E+07        -0.52765E+04         0.00000E+00
    0.00000E+00         0.00000E+00         0.00000E+00
 
    0.45219E+05         0.29455E+07         0.00000E+00
    0.29455E+07         0.38928E+05         0.00000E+00
    0.00000E+00         0.00000E+00         0.00000E+00
 
    0.44346E+07         0.52984E+05         0.00000E+00
    0.52984E+05        -0.12373E+07         0.00000E+00
    0.00000E+00         0.00000E+00         0.00000E+00
 
    0.43500E+07         0.15210E+06         0.00000E+00
    0.15210E+06        -0.12361E+07         0.00000E+00
    0.00000E+00         0.00000E+00         0.00000E+00
 
    0.42645E+07         0.24882E+06         0.00000E+00
    0.24882E+06        -0.12339E+07         0.00000E+00
    0.00000E+00         0.00000E+00         0.00000E+00
 
    0.41784E+07         0.34322E+06         0.00000E+00
    0.34322E+06        -0.12308E+07         0.00000E+00
    0.00000E+00         0.00000E+00         0.00000E+00
 
    0.40917E+07         0.43538E+06         0.00000E+00
    0.43538E+06        -0.12266E+07         0.00000E+00
    0.00000E+00         0.00000E+00         0.00000E+00
 
    0.40044E+07         0.52536E+06         0.00000E+00
    0.52536E+06        -0.12216E+07         0.00000E+00
    0.00000E+00         0.00000E+00         0.00000E+00
 
    0.39167E+07         0.61325E+06         0.00000E+00
    0.61325E+06        -0.12156E+07         0.00000E+00
    0.00000E+00         0.00000E+00         0.00000E+00
 
    0.38285E+07         0.69911E+06         0.00000E+00
    0.69911E+06        -0.12089E+07         0.00000E+00
    0.00000E+00         0.00000E+00         0.00000E+00
 
    0.37401E+07         0.78302E+06         0.00000E+00
    0.78302E+06        -0.12012E+07         0.00000E+00
    0.00000E+00         0.00000E+00         0.00000E+00
 
    0.36514E+07         0.86504E+06         0.00000E+00
    0.86504E+06        -0.11928E+07         0.00000E+00
    0.00000E+00         0.00000E+00         0.00000E+00
 
    0.35624E+07         0.94525E+06         0.00000E+00
    0.94525E+06        -0.11835E+07         0.00000E+00
    0.00000E+00         0.00000E+00         0.00000E+00
 
    0.34733E+07         0.10237E+07         0.00000E+00
    0.10237E+07        -0.11735E+07         0.00000E+00
    0.00000E+00         0.00000E+00         0.00000E+00
 
    0.33841E+07         0.11005E+07         0.00000E+00
    0.11005E+07        -0.11628E+07         0.00000E+00
    0.00000E+00         0.00000E+00         0.00000E+00
 
    0.32947E+07         0.11756E+07         0.00000E+00
    0.11756E+07        -0.11512E+07         0.00000E+00
    0.00000E+00         0.00000E+00         0.00000E+00
 
    0.32053E+07         0.12492E+07         0.00000E+00
    0.12492E+07        -0.11390E+07         0.00000E+00
    0.00000E+00         0.00000E+00         0.00000E+00
 
    0.31158E+07         0.13214E+07         0.00000E+00
    0.13214E+07        -0.11259E+07         0.00000E+00
    0.00000E+00         0.00000E+00         0.00000E+00
 
    0.30264E+07         0.13920E+07         0.00000E+00
    0.13920E+07        -0.11122E+07         0.00000E+00
    0.00000E+00         0.00000E+00         0.00000E+00
 
    0.29369E+07         0.14613E+07         0.00000E+00
    0.14613E+07        -0.10977E+07         0.00000E+00
    0.00000E+00         0.00000E+00         0.00000E+00
 
    0.28474E+07         0.15293E+07         0.00000E+00
    0.15293E+07        -0.10824E+07         0.00000E+00
    0.00000E+00         0.00000E+00         0.00000E+00
 
    0.27580E+07         0.15960E+07         0.00000E+00
    0.15960E+07        -0.10664E+07         0.00000E+00
    0.00000E+00         0.00000E+00         0.00000E+00
 
    0.26686E+07         0.16615E+07         0.00000E+00
    0.16615E+07        -0.10497E+07         0.00000E+00
    0.00000E+00         0.00000E+00         0.00000E+00
 
    0.25792E+07         0.17258E+07         0.00000E+00
    0.17258E+07        -0.10321E+07         0.00000E+00
    0.00000E+00         0.00000E+00         0.00000E+00
 
    0.24899E+07         0.17889E+07         0.00000E+00
    0.17889E+07        -0.10139E+07         0.00000E+00
    0.00000E+00         0.00000E+00         0.00000E+00
 
    0.24006E+07         0.18510E+07         0.00000E+00
    0.18510E+07        -0.99477E+06         0.00000E+00
    0.00000E+00         0.00000E+00         0.00000E+00
 
    0.23114E+07         0.19121E+07         0.00000E+00
    0.19121E+07        -0.97489E+06         0.00000E+00
    0.00000E+00         0.00000E+00         0.00000E+00
 
    0.22222E+07         0.19721E+07         0.00000E+00
    0.19721E+07        -0.95419E+06         0.00000E+00
    0.00000E+00         0.00000E+00         0.00000E+00
 
    0.21330E+07         0.20312E+07         0.00000E+00
    0.20312E+07        -0.93267E+06         0.00000E+00
    0.00000E+00         0.00000E+00         0.00000E+00
 
    0.20438E+07         0.20893E+07         0.00000E+00
    0.20893E+07        -0.91030E+06         0.00000E+00
    0.00000E+00         0.00000E+00         0.00000E+00
 
    0.19546E+07         0.21466E+07         0.00000E+00
    0.21466E+07        -0.88707E+06         0.00000E+00
    0.00000E+00         0.00000E+00         0.00000E+00
 
    0.18654E+07         0.22029E+07         0.00000E+00
    0.22029E+07        -0.86296E+06         0.00000E+00
    0.00000E+00         0.00000E+00         0.00000E+00
 
    0.17762E+07         0.22585E+07         0.00000E+00
    0.22585E+07        -0.83795E+06         0.00000E+00
    0.00000E+00         0.00000E+00         0.00000E+00
 
    0.16869E+07         0.23132E+07         0.00000E+00
    0.23132E+07        -0.81203E+06         0.00000E+00
    0.00000E+00         0.00000E+00         0.00000E+00
 
    0.15976E+07         0.23671E+07         0.00000E+00
    0.23671E+07        -0.78516E+06         0.00000E+00
    0.00000E+00         0.00000E+00         0.00000E+00
 
    0.15082E+07         0.24202E+07         0.00000E+00
    0.24202E+07        -0.75734E+06         0.00000E+00
    0.00000E+00         0.00000E+00         0.00000E+00
 
    0.14186E+07         0.24726E+07         0.00000E+00
    0.24726E+07        -0.72854E+06         0.00000E+00
    0.00000E+00         0.00000E+00         0.00000E+00
 
    0.13290E+07         0.25242E+07         0.00000E+00
    0.25242E+07        -0.69874E+06         0.00000E+00
    0.00000E+00         0.00000E+00         0.00000E+00
 
    0.12392E+07         0.25751E+07         0.00000E+00
    0.25751E+07        -0.66792E+06         0.00000E+00
    0.00000E+00         0.00000E+00         0.00000E+00
 
    0.11492E+07         0.26253E+07         0.00000E+00
    0.26253E+07        -0.63606E+06         0.00000E+00
    0.00000E+00         0.00000E+00         0.00000E+00
 
    0.10590E+07         0.26748E+07         0.00000E+00
    0.26748E+07        -0.60314E+06         0.00000E+00
    0.00000E+00         0.00000E+00         0.00000E+00
 
    0.96863E+06         0.27236E+07         0.00000E+00
    0.27236E+07        -0.56913E+06         0.00000E+00
    0.00000E+00         0.00000E+00         0.00000E+00
 
    0.87799E+06         0.27717E+07         0.00000E+00
    0.27717E+07        -0.53402E+06         0.00000E+00
    0.00000E+00         0.00000E+00         0.00000E+00
 
    0.78708E+06         0.28191E+07         0.00000E+00
    0.28191E+07        -0.49779E+06         0.00000E+00
    0.00000E+00         0.00000E+00         0.00000E+00
 
    0.69588E+06         0.28659E+07         0.00000E+00
    0.28659E+07        -0.46041E+06         0.00000E+00
    0.00000E+00         0.00000E+00         0.00000E+00
 
    0.60435E+06         0.29120E+07         0.00000E+00
    0.29120E+07        -0.42187E+06         0.00000E+00
    0.00000E+00         0.00000E+00         0.00000E+00
 
    0.51248E+06         0.29573E+07         0.00000E+00
    0.29573E+07        -0.38215E+06         0.00000E+00
    0.00000E+00         0.00000E+00         0.00000E+00
 
    0.42024E+06         0.30020E+07         0.00000E+00
    0.30020E+07        -0.34122E+06         0.00000E+00
    0.00000E+00         0.00000E+00         0.00000E+00
 
    0.32761E+06         0.30460E+07         0.00000E+00
    0.30460E+07        -0.29907E+06         0.00000E+00
    0.00000E+00         0.00000E+00         0.00000E+00
 
    0.23456E+06         0.30894E+07         0.00000E+00
    0.30894E+07        -0.25568E+06         0.00000E+00
    0.00000E+00         0.00000E+00         0.00000E+00
 
    0.14107E+06         0.31320E+07         0.00000E+00
    0.31320E+07        -0.21103E+06         0.00000E+00
    0.00000E+00         0.00000E+00         0.00000E+00
 
    0.47102E+05         0.31739E+07         0.00000E+00
    0.31739E+07        -0.16511E+06         0.00000E+00
    0.00000E+00         0.00000E+00         0.00000E+00
 
    0.47263E+07         0.55874E+05         0.00000E+00
    0.55874E+05        -0.14607E+07         0.00000E+00
    0.00000E+00         0.00000E+00         0.00000E+00
 
    0.46289E+07         0.16004E+06         0.00000E+00
    0.16004E+06        -0.14597E+07         0.00000E+00
    0.00000E+00         0.00000E+00         0.00000E+00
 
    0.45311E+07         0.26159E+06         0.00000E+00
    0.26159E+06        -0.14577E+07         0.00000E+00
    0.00000E+00         0.00000E+00         0.00000E+00
 
    0.44331E+07         0.36060E+06         0.00000E+00
    0.36060E+06        -0.14549E+07         0.00000E+00
    0.00000E+00         0.00000E+00         0.00000E+00
 
    0.43349E+07         0.45719E+06         0.00000E+00
    0.45719E+06        -0.14512E+07         0.00000E+00
    0.00000E+00         0.00000E+00         0.00000E+00
 
    0.42365E+07         0.55143E+06         0.00000E+00
    0.55143E+06        -0.14467E+07         0.00000E+00
    0.00000E+00         0.00000E+00         0.00000E+00
 
    0.41382E+07         0.64344E+06         0.00000E+00
    0.64344E+06        -0.14415E+07         0.00000E+00
    0.00000E+00         0.00000E+00         0.00000E+00
 
    0.40398E+07         0.73329E+06         0.00000E+00
    0.73329E+06        -0.14354E+07         0.00000E+00
    0.00000E+00         0.00000E+00         0.00000E+00
 
    0.39415E+07         0.82108E+06         0.00000E+00
    0.82108E+06        -0.14287E+07         0.00000E+00
    0.00000E+00         0.00000E+00         0.00000E+00
 
    0.38433E+07         0.90690E+06         0.00000E+00
    0.90690E+06        -0.14212E+07         0.00000E+00
    0.00000E+00         0.00000E+00         0.00000E+00
 
    0.37453E+07         0.99083E+06         0.00000E+00
    0.99083E+06        -0.14130E+07         0.00000E+00
    0.00000E+00         0.00000E+00         0.00000E+00
 
    0.36475E+07         0.10730E+07         0.00000E+00
    0.10730E+07        -0.14041E+07         0.00000E+00
    0.00000E+00         0.00000E+00         0.00000E+00
 
    0.35499E+07         0.11534E+07         0.00000E+00
    0.11534E+07        -0.13945E+07         0.00000E+00
    0.00000E+00         0.00000E+00         0.00000E+00
 
    0.34526E+07         0.12321E+07         0.00000E+00
    0.12321E+07        -0.13843E+07         0.00000E+00
    0.00000E+00         0.00000E+00         0.00000E+00
 
    0.33555E+07         0.13093E+07         0.00000E+00
    0.13093E+07        -0.13733E+07         0.00000E+00
    0.00000E+00         0.00000E+00         0.00000E+00
 
    0.32587E+07         0.13850E+07         0.00000E+00
    0.13850E+07        -0.13617E+07         0.00000E+00
    0.00000E+00         0.00000E+00         0.00000E+00
 
    0.31623E+07         0.14593E+07         0.00000E+00
    0.14593E+07        -0.13493E+07         0.00000E+00
    0.00000E+00         0.00000E+00         0.00000E+00
 
    0.30661E+07         0.15323E+07         0.00000E+00
    0.15323E+07        -0.13363E+07         0.00000E+00
    0.00000E+00         0.00000E+00         0.00000E+00
 
    0.29702E+07         0.16039E+07         0.00000E+00
    0.16039E+07        -0.13225E+07         0.00000E+00
    0.00000E+00         0.00000E+00         0.00000E+00
 
    0.28747E+07         0.16743E+07         0.00000E+00
    0.16743E+07        -0.13080E+07         0.00000E+00
    0.00000E+00         0.00000E+00         0.00000E+00
 
    0.27794E+07         0.17436E+07         0.00000E+00
    0.17436E+07        -0.12928E+07         0.00000E+00
    0.00000E+00         0.00000E+00         0.00000E+00
 
    0.26845E+07         0.18117E+07         0.00000E+00
    0.18117E+07        -0.12768E+07         0.00000E+00
    0.00000E+00         0.00000E+00         0.00000E+00
 
    0.25898E+07         0.18788E+07         0.00000E+00
    0.18788E+07        -0.12600E+07         0.00000E+00
    0.00000E+00         0.00000E+00         0.00000E+00
 
    0.24954E+07         0.19449E+07         0.00000E+00
    0.19449E+07        -0.12424E+07         0.00000E+00
    0.00000E+00         0.00000E+00         0.00000E+00
 
    0.24013E+07         0.20101E+07         0.00000E+00
    0.20101E+07        -0.12240E+07         0.00000E+00
    0.00000E+00         0.00000E+00         0.00000E+00
 
    0.23074E+07         0.20743E+07         0.00000E+00
    0.20743E+07        -0.12047E+07         0.00000E+00
    0.00000E+00         0.00000E+00         0.00000E+00
 
    0.22137E+07         0.21377E+07         0.00000E+00
    0.21377E+07        -0.11846E+07         0.00000E+00
    0.00000E+00         0.00000E+00         0.00000E+00
 
    0.21201E+07         0.22002E+07         0.00000E+00
    0.22002E+07        -0.11636E+07         0.00000E+00
    0.00000E+00         0.00000E+00         0.00000E+00
 
    0.20268E+07         0.22619E+07         0.00000E+00
    0.22619E+07        -0.11417E+07         0.00000E+00
    0.00000E+00         0.00000E+00         0.00000E+00
 
    0.19336E+07         0.23229E+07         0.00000E+00
    0.23229E+07        -0.11189E+07         0.00000E+00
    0.00000E+00         0.00000E+00         0.00000E+00
 
    0.18405E+07         0.23832E+07         0.00000E+00
    0.23832E+07        -0.10950E+07         0.00000E+00
    0.00000E+00         0.00000E+00         0.00000E+00
 
    0.17474E+07         0.24427E+07         0.00000E+00
    0.24427E+07        -0.10702E+07         0.00000E+00
    0.00000E+00         0.00000E+00         0.00000E+00
 
    0.16545E+07         0.25016E+07         0.00000E+00
    0.25016E+07        -0.10444E+07         0.00000E+00
    0.00000E+00         0.00000E+00         0.00000E+00
 
    0.15615E+07         0.25598E+07         0.00000E+00
    0.25598E+07        -0.10174E+07         0.00000E+00
    0.00000E+00         0.00000E+00         0.00000E+00
 
    0.14685E+07         0.26174E+07         0.00000E+00
    0.26174E+07        -0.98947E+06         0.00000E+00
    0.00000E+00         0.00000E+00         0.00000E+00
 
    0.13755E+07         0.26743E+07         0.00000E+00
    0.26743E+07        -0.96038E+06         0.00000E+00
    0.00000E+00         0.00000E+00         0.00000E+00
 
    0.12824E+07         0.27307E+07         0.00000E+00
    0.27307E+07        -0.93015E+06         0.00000E+00
    0.00000E+00         0.00000E+00         0.00000E+00
 
    0.11892E+07         0.27864E+07         0.00000E+00
    0.27864E+07        -0.89876E+06         0.00000E+00
    0.00000E+00         0.00000E+00         0.00000E+00
 
    0.10958E+07         0.28416E+07         0.00000E+00
    0.28416E+07        -0.86617E+06         0.00000E+00
    0.00000E+00         0.00000E+00         0.00000E+00
 
    0.10022E+07         0.28962E+07         0.00000E+00
    0.28962E+07        -0.83237E+06         0.00000E+00
    0.00000E+00         0.00000E+00         0.00000E+00
 
    0.90843E+06         0.29503E+07         0.00000E+00
    0.29503E+07        -0.79732E+06         0.00000E+00
    0.00000E+00         0.00000E+00         0.00000E+00
 
    0.81439E+06         0.30037E+07         0.00000E+00
    0.30037E+07        -0.76099E+06         0.00000E+00
    0.00000E+00         0.00000E+00         0.00000E+00
 
    0.72005E+06         0.30566E+07         0.00000E+00
    0.30566E+07        -0.72337E+06         0.00000E+00
    0.00000E+00         0.00000E+00         0.00000E+00
 
    0.62540E+06         0.31090E+07         0.00000E+00
    0.31090E+07        -0.68442E+06         0.00000E+00
    0.00000E+00         0.00000E+00         0.00000E+00
 
    0.53038E+06         0.31608E+07         0.00000E+00
    0.31608E+07        -0.64411E+06         0.00000E+00
    0.00000E+00         0.00000E+00         0.00000E+00
 
    0.43498E+06         0.32119E+07         0.00000E+00
    0.32119E+07        -0.60243E+06         0.00000E+00
    0.00000E+00         0.00000E+00         0.00000E+00
 
    0.33914E+06         0.32625E+07         0.00000E+00
    0.32625E+07        -0.55935E+06         0.00000E+00
    0.00000E+00         0.00000E+00         0.00000E+00
 
    0.24286E+06         0.33126E+07         0.00000E+00
    0.33126E+07        -0.51485E+06         0.00000E+00
    0.00000E+00         0.00000E+00         0.00000E+00
 
    0.14608E+06         0.33620E+07         0.00000E+00
    0.33620E+07        -0.46890E+06         0.00000E+00
    0.00000E+00         0.00000E+00         0.00000E+00
 
    0.48782E+05         0.34108E+07         0.00000E+00
    0.34108E+07        -0.42149E+06         0.00000E+00
    0.00000E+00         0.00000E+00         0.00000E+00
 
    0.50047E+07         0.58401E+05         0.00000E+00
    0.58401E+05        -0.17216E+07         0.00000E+00
    0.00000E+00         0.00000E+00         0.00000E+00
 
    0.48934E+07         0.16692E+06         0.00000E+00
    0.16692E+06        -0.17208E+07         0.00000E+00
    0.00000E+00         0.00000E+00         0.00000E+00
 
    0.47822E+07         0.27259E+06         0.00000E+00
    0.27259E+06        -0.17192E+07         0.00000E+00
    0.00000E+00         0.00000E+00         0.00000E+00
 
    0.46713E+07         0.37554E+06         0.00000E+00
    0.37554E+06        -0.17169E+07         0.00000E+00
    0.00000E+00         0.00000E+00         0.00000E+00
 
    0.45607E+07         0.47589E+06         0.00000E+00
    0.47589E+06        -0.17138E+07         0.00000E+00
    0.00000E+00         0.00000E+00         0.00000E+00
 
    0.44506E+07         0.57376E+06         0.00000E+00
    0.57376E+06        -0.17102E+07         0.00000E+00
    0.00000E+00         0.00000E+00         0.00000E+00
 
    0.43410E+07         0.66926E+06         0.00000E+00
    0.66926E+06        -0.17059E+07         0.00000E+00
    0.00000E+00         0.00000E+00         0.00000E+00
 
    0.42318E+07         0.76252E+06         0.00000E+00
    0.76252E+06        -0.17009E+07         0.00000E+00
    0.00000E+00         0.00000E+00         0.00000E+00
 
    0.41233E+07         0.85364E+06         0.00000E+00
    0.85364E+06        -0.16954E+07         0.00000E+00
    0.00000E+00         0.00000E+00         0.00000E+00
 
    0.40153E+07         0.94274E+06         0.00000E+00
    0.94274E+06        -0.16893E+07         0.00000E+00
    0.00000E+00         0.00000E+00         0.00000E+00
 
    0.39080E+07         0.10299E+07         0.00000E+00
    0.10299E+07        -0.16826E+07         0.00000E+00
    0.00000E+00         0.00000E+00         0.00000E+00
 
    0.38014E+07         0.11153E+07         0.00000E+00
    0.11153E+07        -0.16752E+07         0.00000E+00
    0.00000E+00         0.00000E+00         0.00000E+00
 
    0.36954E+07         0.11989E+07         0.00000E+00
    0.11989E+07        -0.16674E+07         0.00000E+00
    0.00000E+00         0.00000E+00         0.00000E+00
 
    0.35901E+07         0.12809E+07         0.00000E+00
    0.12809E+07        -0.16589E+07         0.00000E+00
    0.00000E+00         0.00000E+00         0.00000E+00
 
    0.34854E+07         0.13614E+07         0.00000E+00
    0.13614E+07        -0.16497E+07         0.00000E+00
    0.00000E+00         0.00000E+00         0.00000E+00
 
    0.33815E+07         0.14404E+07         0.00000E+00
    0.14404E+07        -0.16400E+07         0.00000E+00
    0.00000E+00         0.00000E+00         0.00000E+00
 
    0.32782E+07         0.15180E+07         0.00000E+00
    0.15180E+07        -0.16297E+07         0.00000E+00
    0.00000E+00         0.00000E+00         0.00000E+00
 
    0.31756E+07         0.15944E+07         0.00000E+00
    0.15944E+07        -0.16186E+07         0.00000E+00
    0.00000E+00         0.00000E+00         0.00000E+00
 
    0.30737E+07         0.16696E+07         0.00000E+00
    0.16696E+07        -0.16070E+07         0.00000E+00
    0.00000E+00         0.00000E+00         0.00000E+00
 
    0.29724E+07         0.17436E+07         0.00000E+00
    0.17436E+07        -0.15946E+07         0.00000E+00
    0.00000E+00         0.00000E+00         0.00000E+00
 
    0.28718E+07         0.18166E+07         0.00000E+00
    0.18166E+07        -0.15815E+07         0.00000E+00
    0.00000E+00         0.00000E+00         0.00000E+00
 
    0.27717E+07         0.18886E+07         0.00000E+00
    0.18886E+07        -0.15676E+07         0.00000E+00
    0.00000E+00         0.00000E+00         0.00000E+00
 
    0.26722E+07         0.19597E+07         0.00000E+00
    0.19597E+07        -0.15530E+07         0.00000E+00
    0.00000E+00         0.00000E+00         0.00000E+00
 
    0.25732E+07         0.20298E+07         0.00000E+00
    0.20298E+07        -0.15375E+07         0.00000E+00
    0.00000E+00         0.00000E+00         0.00000E+00
 
    0.24747E+07         0.20992E+07         0.00000E+00
    0.20992E+07        -0.15212E+07         0.00000E+00
    0.00000E+00         0.00000E+00         0.00000E+00
 
    0.23767E+07         0.21678E+07         0.00000E+00
    0.21678E+07        -0.15041E+07         0.00000E+00
    0.00000E+00         0.00000E+00         0.00000E+00
 
    0.22791E+07         0.22356E+07         0.00000E+00
    0.22356E+07        -0.14860E+07         0.00000E+00
    0.00000E+00         0.00000E+00         0.00000E+00
 
    0.21819E+07         0.23028E+07         0.00000E+00
    0.23028E+07        -0.14670E+07         0.00000E+00
    0.00000E+00         0.00000E+00         0.00000E+00
 
    0.20850E+07         0.23694E+07         0.00000E+00
    0.23694E+07        -0.14470E+07         0.00000E+00
    0.00000E+00         0.00000E+00         0.00000E+00
 
    0.19885E+07         0.24353E+07         0.00000E+00
    0.24353E+07        -0.14261E+07         0.00000E+00
    0.00000E+00         0.00000E+00         0.00000E+00
 
    0.18922E+07         0.25007E+07         0.00000E+00
    0.25007E+07        -0.14040E+07         0.00000E+00
    0.00000E+00         0.00000E+00         0.00000E+00
 
    0.17961E+07         0.25655E+07         0.00000E+00
    0.25655E+07        -0.13809E+07         0.00000E+00
    0.00000E+00         0.00000E+00         0.00000E+00
 
    0.17002E+07         0.26298E+07         0.00000E+00
    0.26298E+07        -0.13567E+07         0.00000E+00
    0.00000E+00         0.00000E+00         0.00000E+00
 
    0.16044E+07         0.26936E+07         0.00000E+00
    0.26936E+07        -0.13313E+07         0.00000E+00
    0.00000E+00         0.00000E+00         0.00000E+00
 
    0.15086E+07         0.27569E+07         0.00000E+00
    0.27569E+07        -0.13047E+07         0.00000E+00
    0.00000E+00         0.00000E+00         0.00000E+00
 
    0.14129E+07         0.28198E+07         0.00000E+00
    0.28198E+07        -0.12769E+07         0.00000E+00
    0.00000E+00         0.00000E+00         0.00000E+00
 
    0.13172E+07         0.28823E+07         0.00000E+00
    0.28823E+07        -0.12478E+07         0.00000E+00
    0.00000E+00         0.00000E+00         0.00000E+00
 
    0.12215E+07         0.29443E+07         0.00000E+00
    0.29443E+07        -0.12174E+07         0.00000E+00
    0.00000E+00         0.00000E+00         0.00000E+00
 
    0.11256E+07         0.30059E+07         0.00000E+00
    0.30059E+07        -0.11856E+07         0.00000E+00
    0.00000E+00         0.00000E+00         0.00000E+00
 
    0.10295E+07         0.30670E+07         0.00000E+00
    0.30670E+07        -0.11525E+07         0.00000E+00
    0.00000E+00         0.00000E+00         0.00000E+00
 
    0.93325E+06         0.31278E+07         0.00000E+00
    0.31278E+07        -0.11180E+07         0.00000E+00
    0.00000E+00         0.00000E+00         0.00000E+00
 
    0.83674E+06         0.31881E+07         0.00000E+00
    0.31881E+07        -0.10821E+07         0.00000E+00
    0.00000E+00         0.00000E+00         0.00000E+00
 
    0.73992E+06         0.32480E+07         0.00000E+00
    0.32480E+07        -0.10446E+07         0.00000E+00
    0.00000E+00         0.00000E+00         0.00000E+00
 
    0.64277E+06         0.33075E+07         0.00000E+00
    0.33075E+07        -0.10057E+07         0.00000E+00
    0.00000E+00         0.00000E+00         0.00000E+00
 
    0.54522E+06         0.33666E+07         0.00000E+00
    0.33666E+07        -0.96518E+06         0.00000E+00
    0.00000E+00         0.00000E+00         0.00000E+00
 
    0.44724E+06         0.34252E+07         0.00000E+00
    0.34252E+07        -0.92312E+06         0.00000E+00
    0.00000E+00         0.00000E+00         0.00000E+00
 
    0.34880E+06         0.34833E+07         0.00000E+00
    0.34833E+07        -0.87946E+06         0.00000E+00
    0.00000E+00         0.00000E+00         0.00000E+00
 
    0.24983E+06         0.35410E+07         0.00000E+00
    0.35410E+07        -0.83416E+06         0.00000E+00
    0.00000E+00         0.00000E+00         0.00000E+00
 
    0.15032E+06         0.35983E+07         0.00000E+00
    0.35983E+07        -0.78721E+06         0.00000E+00
    0.00000E+00         0.00000E+00         0.00000E+00
 
    0.50207E+05         0.36550E+07         0.00000E+00
    0.36550E+07        -0.73858E+06         0.00000E+00
    0.00000E+00         0.00000E+00         0.00000E+00
 
    0.52600E+07         0.60404E+05         0.00000E+00
    0.60404E+05        -0.20258E+07         0.00000E+00
    0.00000E+00         0.00000E+00         0.00000E+00
 
    0.51335E+07         0.17228E+06         0.00000E+00
    0.17228E+06        -0.20252E+07         0.00000E+00
    0.00000E+00         0.00000E+00         0.00000E+00
 
    0.50080E+07         0.28111E+06         0.00000E+00
    0.28111E+06        -0.20240E+07         0.00000E+00
    0.00000E+00         0.00000E+00         0.00000E+00
 
    0.48834E+07         0.38705E+06         0.00000E+00
    0.38705E+06        -0.20224E+07         0.00000E+00
    0.00000E+00         0.00000E+00         0.00000E+00
 
    0.47598E+07         0.49027E+06         0.00000E+00
    0.49027E+06        -0.20203E+07         0.00000E+00
    0.00000E+00         0.00000E+00         0.00000E+00
 
    0.46374E+07         0.59089E+06         0.00000E+00
    0.59089E+06        -0.20177E+07         0.00000E+00
    0.00000E+00         0.00000E+00         0.00000E+00
 
    0.45160E+07         0.68907E+06         0.00000E+00
    0.68907E+06        -0.20147E+07         0.00000E+00
    0.00000E+00         0.00000E+00         0.00000E+00
 
    0.43958E+07         0.78495E+06         0.00000E+00
    0.78495E+06        -0.20112E+07         0.00000E+00
    0.00000E+00         0.00000E+00         0.00000E+00
 
    0.42767E+07         0.87867E+06         0.00000E+00
    0.87867E+06        -0.20073E+07         0.00000E+00
    0.00000E+00         0.00000E+00         0.00000E+00
 
    0.41589E+07         0.97034E+06         0.00000E+00
    0.97034E+06        -0.20030E+07         0.00000E+00
    0.00000E+00         0.00000E+00         0.00000E+00
 
    0.40423E+07         0.10601E+07         0.00000E+00
    0.10601E+07        -0.19983E+07         0.00000E+00
    0.00000E+00         0.00000E+00         0.00000E+00
 
    0.39268E+07         0.11481E+07         0.00000E+00
    0.11481E+07        -0.19931E+07         0.00000E+00
    0.00000E+00         0.00000E+00         0.00000E+00
 
    0.38126E+07         0.12344E+07         0.00000E+00
    0.12344E+07        -0.19874E+07         0.00000E+00
    0.00000E+00         0.00000E+00         0.00000E+00
 
    0.36996E+07         0.13191E+07         0.00000E+00
    0.13191E+07        -0.19813E+07         0.00000E+00
    0.00000E+00         0.00000E+00         0.00000E+00
 
    0.35877E+07         0.14024E+07         0.00000E+00
    0.14024E+07        -0.19746E+07         0.00000E+00
    0.00000E+00         0.00000E+00         0.00000E+00
 
    0.34770E+07         0.14844E+07         0.00000E+00
    0.14844E+07        -0.19674E+07         0.00000E+00
    0.00000E+00         0.00000E+00         0.00000E+00
 
    0.33674E+07         0.15651E+07         0.00000E+00
    0.15651E+07        -0.19597E+07         0.00000E+00
    0.00000E+00         0.00000E+00         0.00000E+00
 
    0.32589E+07         0.16446E+07         0.00000E+00
    0.16446E+07        -0.19514E+07         0.00000E+00
    0.00000E+00         0.00000E+00         0.00000E+00
 
    0.31515E+07         0.17231E+07         0.00000E+00
    0.17231E+07        -0.19425E+07         0.00000E+00
    0.00000E+00         0.00000E+00         0.00000E+00
 
    0.30451E+07         0.18006E+07         0.00000E+00
    0.18006E+07        -0.19329E+07         0.00000E+00
    0.00000E+00         0.00000E+00         0.00000E+00
 
    0.29397E+07         0.18772E+07         0.00000E+00
    0.18772E+07        -0.19226E+07         0.00000E+00
    0.00000E+00         0.00000E+00         0.00000E+00
 
    0.28352E+07         0.19530E+07         0.00000E+00
    0.19530E+07        -0.19116E+07         0.00000E+00
    0.00000E+00         0.00000E+00         0.00000E+00
 
    0.27316E+07         0.20280E+07         0.00000E+00
    0.20280E+07        -0.18999E+07         0.00000E+00
    0.00000E+00         0.00000E+00         0.00000E+00
 
    0.26288E+07         0.21023E+07         0.00000E+00
    0.21023E+07        -0.18873E+07         0.00000E+00
    0.00000E+00         0.00000E+00         0.00000E+00
 
    0.25268E+07         0.21760E+07         0.00000E+00
    0.21760E+07        -0.18738E+07         0.00000E+00
    0.00000E+00         0.00000E+00         0.00000E+00
 
    0.24255E+07         0.22491E+07         0.00000E+00
    0.22491E+07        -0.18595E+07         0.00000E+00
    0.00000E+00         0.00000E+00         0.00000E+00
 
    0.23249E+07         0.23217E+07         0.00000E+00
    0.23217E+07        -0.18442E+07         0.00000E+00
    0.00000E+00         0.00000E+00         0.00000E+00
 
    0.22249E+07         0.23938E+07         0.00000E+00
    0.23938E+07        -0.18279E+07         0.00000E+00
    0.00000E+00         0.00000E+00         0.00000E+00
 
    0.21254E+07         0.24655E+07         0.00000E+00
    0.24655E+07        -0.18106E+07         0.00000E+00
    0.00000E+00         0.00000E+00         0.00000E+00
 
    0.20264E+07         0.25368E+07         0.00000E+00
    0.25368E+07        -0.17922E+07         0.00000E+00
    0.00000E+00         0.00000E+00         0.00000E+00
 
    0.19278E+07         0.26077E+07         0.00000E+00
    0.26077E+07        -0.17727E+07         0.00000E+00
    0.00000E+00         0.00000E+00         0.00000E+00
 
    0.18296E+07         0.26783E+07         0.00000E+00
    0.26783E+07        -0.17520E+07         0.00000E+00
    0.00000E+00         0.00000E+00         0.00000E+00
 
    0.17317E+07         0.27485E+07         0.00000E+00
    0.27485E+07        -0.17300E+07         0.00000E+00
    0.00000E+00         0.00000E+00         0.00000E+00
 
    0.16340E+07         0.28185E+07         0.00000E+00
    0.28185E+07        -0.17068E+07         0.00000E+00
    0.00000E+00         0.00000E+00         0.00000E+00
 
    0.15364E+07         0.28883E+07         0.00000E+00
    0.28883E+07        -0.16822E+07         0.00000E+00
    0.00000E+00         0.00000E+00         0.00000E+00
 
    0.14390E+07         0.29578E+07         0.00000E+00
    0.29578E+07        -0.16563E+07         0.00000E+00
    0.00000E+00         0.00000E+00         0.00000E+00
 
    0.13416E+07         0.30270E+07         0.00000E+00
    0.30270E+07        -0.16290E+07         0.00000E+00
    0.00000E+00         0.00000E+00         0.00000E+00
 
    0.12442E+07         0.30960E+07         0.00000E+00
    0.30960E+07        -0.16002E+07         0.00000E+00
    0.00000E+00         0.00000E+00         0.00000E+00
 
    0.11466E+07         0.31648E+07         0.00000E+00
    0.31648E+07        -0.15699E+07         0.00000E+00
    0.00000E+00         0.00000E+00         0.00000E+00
 
    0.10490E+07         0.32334E+07         0.00000E+00
    0.32334E+07        -0.15381E+07         0.00000E+00
    0.00000E+00         0.00000E+00         0.00000E+00
 
    0.95109E+06         0.33017E+07         0.00000E+00
    0.33017E+07        -0.15046E+07         0.00000E+00
    0.00000E+00         0.00000E+00         0.00000E+00
 
    0.85294E+06         0.33698E+07         0.00000E+00
    0.33698E+07        -0.14696E+07         0.00000E+00
    0.00000E+00         0.00000E+00         0.00000E+00
 
    0.75446E+06         0.34377E+07         0.00000E+00
    0.34377E+07        -0.14328E+07         0.00000E+00
    0.00000E+00         0.00000E+00         0.00000E+00
 
    0.65559E+06         0.35053E+07         0.00000E+00
    0.35053E+07        -0.13943E+07         0.00000E+00
    0.00000E+00         0.00000E+00         0.00000E+00
 
    0.55629E+06         0.35727E+07         0.00000E+00
    0.35727E+07        -0.13541E+07         0.00000E+00
    0.00000E+00         0.00000E+00         0.00000E+00
 
    0.45649E+06         0.36398E+07         0.00000E+00
    0.36398E+07        -0.13121E+07         0.00000E+00
    0.00000E+00         0.00000E+00         0.00000E+00
 
    0.35614E+06         0.37066E+07         0.00000E+00
    0.37066E+07        -0.12683E+07         0.00000E+00
    0.00000E+00         0.00000E+00         0.00000E+00
 
    0.25519E+06         0.37731E+07         0.00000E+00
    0.37731E+07        -0.12226E+07         0.00000E+00
    0.00000E+00         0.00000E+00         0.00000E+00
 
    0.15360E+06         0.38393E+07         0.00000E+00
    0.38393E+07        -0.11750E+07         0.00000E+00
    0.00000E+00         0.00000E+00         0.00000E+00
 
    0.51321E+05         0.39051E+07         0.00000E+00
    0.39051E+07        -0.11255E+07         0.00000E+00
    0.00000E+00         0.00000E+00         0.00000E+00
 
    0.54800E+07         0.61696E+05         0.00000E+00
    0.61696E+05        -0.23793E+07         0.00000E+00
    0.00000E+00         0.00000E+00         0.00000E+00
 
    0.53375E+07         0.17560E+06         0.00000E+00
    0.17560E+06        -0.23790E+07         0.00000E+00
    0.00000E+00         0.00000E+00         0.00000E+00
 
    0.51968E+07         0.28632E+06         0.00000E+00
    0.28632E+06        -0.23785E+07         0.00000E+00
    0.00000E+00         0.00000E+00         0.00000E+00
 
    0.50579E+07         0.39403E+06         0.00000E+00
    0.39403E+06        -0.23777E+07         0.00000E+00
    0.00000E+00         0.00000E+00         0.00000E+00
 
    0.49208E+07         0.49892E+06         0.00000E+00
    0.49892E+06        -0.23768E+07         0.00000E+00
    0.00000E+00         0.00000E+00         0.00000E+00
 
    0.47856E+07         0.60117E+06         0.00000E+00
    0.60117E+06        -0.23756E+07         0.00000E+00
    0.00000E+00         0.00000E+00         0.00000E+00
 
    0.46523E+07         0.70096E+06         0.00000E+00
    0.70096E+06        -0.23743E+07         0.00000E+00
    0.00000E+00         0.00000E+00         0.00000E+00
 
    0.45210E+07         0.79844E+06         0.00000E+00
    0.79844E+06        -0.23728E+07         0.00000E+00
    0.00000E+00         0.00000E+00         0.00000E+00
 
    0.43915E+07         0.89379E+06         0.00000E+00
    0.89379E+06        -0.23710E+07         0.00000E+00
    0.00000E+00         0.00000E+00         0.00000E+00
 
    0.42639E+07         0.98715E+06         0.00000E+00
    0.98715E+06        -0.23690E+07         0.00000E+00
    0.00000E+00         0.00000E+00         0.00000E+00
 
    0.41382E+07         0.10787E+07         0.00000E+00
    0.10787E+07        -0.23668E+07         0.00000E+00
    0.00000E+00         0.00000E+00         0.00000E+00
 
    0.40144E+07         0.11685E+07         0.00000E+00
    0.11685E+07        -0.23643E+07         0.00000E+00
    0.00000E+00         0.00000E+00         0.00000E+00
 
    0.38924E+07         0.12568E+07         0.00000E+00
    0.12568E+07        -0.23615E+07         0.00000E+00
    0.00000E+00         0.00000E+00         0.00000E+00
 
    0.37722E+07         0.13436E+07         0.00000E+00
    0.13436E+07        -0.23584E+07         0.00000E+00
    0.00000E+00         0.00000E+00         0.00000E+00
 
    0.36537E+07         0.14292E+07         0.00000E+00
    0.14292E+07        -0.23549E+07         0.00000E+00
    0.00000E+00         0.00000E+00         0.00000E+00
 
    0.35369E+07         0.15136E+07         0.00000E+00
    0.15136E+07        -0.23510E+07         0.00000E+00
    0.00000E+00         0.00000E+00         0.00000E+00
 
    0.34218E+07         0.15969E+07         0.00000E+00
    0.15969E+07        -0.23466E+07         0.00000E+00
    0.00000E+00         0.00000E+00         0.00000E+00
 
    0.33082E+07         0.16793E+07         0.00000E+00
    0.16793E+07        -0.23418E+07         0.00000E+00
    0.00000E+00         0.00000E+00         0.00000E+00
 
    0.31962E+07         0.17608E+07         0.00000E+00
    0.17608E+07        -0.23364E+07         0.00000E+00
    0.00000E+00         0.00000E+00         0.00000E+00
 
    0.30856E+07         0.18415E+07         0.00000E+00
    0.18415E+07        -0.23304E+07         0.00000E+00
    0.00000E+00         0.00000E+00         0.00000E+00
 
    0.29764E+07         0.19216E+07         0.00000E+00
    0.19216E+07        -0.23238E+07         0.00000E+00
    0.00000E+00         0.00000E+00         0.00000E+00
 
    0.28685E+07         0.20010E+07         0.00000E+00
    0.20010E+07        -0.23164E+07         0.00000E+00
    0.00000E+00         0.00000E+00         0.00000E+00
 
    0.27619E+07         0.20800E+07         0.00000E+00
    0.20800E+07        -0.23083E+07         0.00000E+00
    0.00000E+00         0.00000E+00         0.00000E+00
 
    0.26564E+07         0.21585E+07         0.00000E+00
    0.21585E+07        -0.22994E+07         0.00000E+00
    0.00000E+00         0.00000E+00         0.00000E+00
 
    0.25520E+07         0.22366E+07         0.00000E+00
    0.22366E+07        -0.22896E+07         0.00000E+00
    0.00000E+00         0.00000E+00         0.00000E+00
 
    0.24486E+07         0.23144E+07         0.00000E+00
    0.23144E+07        -0.22789E+07         0.00000E+00
    0.00000E+00         0.00000E+00         0.00000E+00
 
    0.23461E+07         0.23920E+07         0.00000E+00
    0.23920E+07        -0.22672E+07         0.00000E+00
    0.00000E+00         0.00000E+00         0.00000E+00
 
    0.22445E+07         0.24693E+07         0.00000E+00
    0.24693E+07        -0.22545E+07         0.00000E+00
    0.00000E+00         0.00000E+00         0.00000E+00
 
    0.21436E+07         0.25465E+07         0.00000E+00
    0.25465E+07        -0.22406E+07         0.00000E+00
    0.00000E+00         0.00000E+00         0.00000E+00
 
    0.20433E+07         0.26236E+07         0.00000E+00
    0.26236E+07        -0.22256E+07         0.00000E+00
    0.00000E+00         0.00000E+00         0.00000E+00
 
    0.19437E+07         0.27005E+07         0.00000E+00
    0.27005E+07        -0.22093E+07         0.00000E+00
    0.00000E+00         0.00000E+00         0.00000E+00
 
    0.18445E+07         0.27774E+07         0.00000E+00
    0.27774E+07        -0.21918E+07         0.00000E+00
    0.00000E+00         0.00000E+00         0.00000E+00
 
    0.17458E+07         0.28543E+07         0.00000E+00
    0.28543E+07        -0.21729E+07         0.00000E+00
    0.00000E+00         0.00000E+00         0.00000E+00
 
    0.16473E+07         0.29311E+07         0.00000E+00
    0.29311E+07        -0.21526E+07         0.00000E+00
    0.00000E+00         0.00000E+00         0.00000E+00
 
    0.15491E+07         0.30079E+07         0.00000E+00
    0.30079E+07        -0.21308E+07         0.00000E+00
    0.00000E+00         0.00000E+00         0.00000E+00
 
    0.14511E+07         0.30848E+07         0.00000E+00
    0.30848E+07        -0.21075E+07         0.00000E+00
    0.00000E+00         0.00000E+00         0.00000E+00
 
    0.13531E+07         0.31616E+07         0.00000E+00
    0.31616E+07        -0.20826E+07         0.00000E+00
    0.00000E+00         0.00000E+00         0.00000E+00
 
    0.12552E+07         0.32385E+07         0.00000E+00
    0.32385E+07        -0.20561E+07         0.00000E+00
    0.00000E+00         0.00000E+00         0.00000E+00
 
    0.11571E+07         0.33154E+07         0.00000E+00
    0.33154E+07        -0.20279E+07         0.00000E+00
    0.00000E+00         0.00000E+00         0.00000E+00
 
    0.10589E+07         0.33923E+07         0.00000E+00
    0.33923E+07        -0.19980E+07         0.00000E+00
    0.00000E+00         0.00000E+00         0.00000E+00
 
    0.96047E+06         0.34692E+07         0.00000E+00
    0.34692E+07        -0.19662E+07         0.00000E+00
    0.00000E+00         0.00000E+00         0.00000E+00
 
    0.86170E+06         0.35462E+07         0.00000E+00
    0.35462E+07        -0.19326E+07         0.00000E+00
    0.00000E+00         0.00000E+00         0.00000E+00
 
    0.76255E+06         0.36231E+07         0.00000E+00
    0.36231E+07        -0.18972E+07         0.00000E+00
    0.00000E+00         0.00000E+00         0.00000E+00
 
    0.66294E+06         0.36999E+07         0.00000E+00
    0.36999E+07        -0.18597E+07         0.00000E+00
    0.00000E+00         0.00000E+00         0.00000E+00
 
    0.56281E+06         0.37768E+07         0.00000E+00
    0.37768E+07        -0.18203E+07         0.00000E+00
    0.00000E+00         0.00000E+00         0.00000E+00
 
    0.46209E+06         0.38535E+07         0.00000E+00
    0.38535E+07        -0.17788E+07         0.00000E+00
    0.00000E+00         0.00000E+00         0.00000E+00
 
    0.36071E+06         0.39302E+07         0.00000E+00
    0.39302E+07        -0.17353E+07         0.00000E+00
    0.00000E+00         0.00000E+00         0.00000E+00
 
    0.25862E+06         0.40067E+07         0.00000E+00
    0.40067E+07        -0.16896E+07         0.00000E+00
    0.00000E+00         0.00000E+00         0.00000E+00
 
    0.15576E+06         0.40831E+07         0.00000E+00
    0.40831E+07        -0.16418E+07         0.00000E+00
    0.00000E+00         0.00000E+00         0.00000E+00
 
    0.52061E+05         0.41593E+07         0.00000E+00
    0.41593E+07        -0.15918E+07         0.00000E+00
    0.00000E+00         0.00000E+00         0.00000E+00
 
    0.56501E+07         0.62057E+05         0.00000E+00
    0.62057E+05        -0.27893E+07         0.00000E+00
    0.00000E+00         0.00000E+00         0.00000E+00
 
    0.54909E+07         0.17629E+06         0.00000E+00
    0.17629E+06        -0.27894E+07         0.00000E+00
    0.00000E+00         0.00000E+00         0.00000E+00
 
    0.53345E+07         0.28725E+06         0.00000E+00
    0.28725E+06        -0.27896E+07         0.00000E+00
    0.00000E+00         0.00000E+00         0.00000E+00
 
    0.51809E+07         0.39516E+06         0.00000E+00
    0.39516E+06        -0.27900E+07         0.00000E+00
    0.00000E+00         0.00000E+00         0.00000E+00
 
    0.50302E+07         0.50024E+06         0.00000E+00
    0.50024E+06        -0.27905E+07         0.00000E+00
    0.00000E+00         0.00000E+00         0.00000E+00
 
    0.48823E+07         0.60270E+06         0.00000E+00
    0.60270E+06        -0.27911E+07         0.00000E+00
    0.00000E+00         0.00000E+00         0.00000E+00
 
    0.47372E+07         0.70274E+06         0.00000E+00
    0.70274E+06        -0.27919E+07         0.00000E+00
    0.00000E+00         0.00000E+00         0.00000E+00
 
    0.45950E+07         0.80055E+06         0.00000E+00
    0.80055E+06        -0.27928E+07         0.00000E+00
    0.00000E+00         0.00000E+00         0.00000E+00
 
    0.44555E+07         0.89634E+06         0.00000E+00
    0.89634E+06        -0.27937E+07         0.00000E+00
    0.00000E+00         0.00000E+00         0.00000E+00
 
    0.43187E+07         0.99028E+06         0.00000E+00
    0.99028E+06        -0.27946E+07         0.00000E+00
    0.00000E+00         0.00000E+00         0.00000E+00
 
    0.41846E+07         0.10825E+07         0.00000E+00
    0.10825E+07        -0.27956E+07         0.00000E+00
    0.00000E+00         0.00000E+00         0.00000E+00
 
    0.40531E+07         0.11733E+07         0.00000E+00
    0.11733E+07        -0.27964E+07         0.00000E+00
    0.00000E+00         0.00000E+00         0.00000E+00
 
    0.39241E+07         0.12627E+07         0.00000E+00
    0.12627E+07        -0.27972E+07         0.00000E+00
    0.00000E+00         0.00000E+00         0.00000E+00
 
    0.37976E+07         0.13509E+07         0.00000E+00
    0.13509E+07        -0.27978E+07         0.00000E+00
    0.00000E+00         0.00000E+00         0.00000E+00
 
    0.36735E+07         0.14380E+07         0.00000E+00
    0.14380E+07        -0.27983E+07         0.00000E+00
    0.00000E+00         0.00000E+00         0.00000E+00
 
    0.35517E+07         0.15242E+07         0.00000E+00
    0.15242E+07        -0.27984E+07         0.00000E+00
    0.00000E+00         0.00000E+00         0.00000E+00
 
    0.34322E+07         0.16096E+07         0.00000E+00
    0.16096E+07        -0.27983E+07         0.00000E+00
    0.00000E+00         0.00000E+00         0.00000E+00
 
    0.33148E+07         0.16943E+07         0.00000E+00
    0.16943E+07        -0.27977E+07         0.00000E+00
    0.00000E+00         0.00000E+00         0.00000E+00
 
    0.31994E+07         0.17785E+07         0.00000E+00
    0.17785E+07        -0.27967E+07         0.00000E+00
    0.00000E+00         0.00000E+00         0.00000E+00
 
    0.30859E+07         0.18622E+07         0.00000E+00
    0.18622E+07        -0.27951E+07         0.00000E+00
    0.00000E+00         0.00000E+00         0.00000E+00
 
    0.29743E+07         0.19455E+07         0.00000E+00
    0.19455E+07        -0.27930E+07         0.00000E+00
    0.00000E+00         0.00000E+00         0.00000E+00
 
    0.28645E+07         0.20286E+07         0.00000E+00
    0.20286E+07        -0.27902E+07         0.00000E+00
    0.00000E+00         0.00000E+00         0.00000E+00
 
    0.27562E+07         0.21114E+07         0.00000E+00
    0.21114E+07        -0.27866E+07         0.00000E+00
    0.00000E+00         0.00000E+00         0.00000E+00
 
    0.26495E+07         0.21942E+07         0.00000E+00
    0.21942E+07        -0.27823E+07         0.00000E+00
    0.00000E+00         0.00000E+00         0.00000E+00
 
    0.25441E+07         0.22768E+07         0.00000E+00
    0.22768E+07        -0.27771E+07         0.00000E+00
    0.00000E+00         0.00000E+00         0.00000E+00
 
    0.24401E+07         0.23596E+07         0.00000E+00
    0.23596E+07        -0.27709E+07         0.00000E+00
    0.00000E+00         0.00000E+00         0.00000E+00
 
    0.23373E+07         0.24423E+07         0.00000E+00
    0.24423E+07        -0.27636E+07         0.00000E+00
    0.00000E+00         0.00000E+00         0.00000E+00
 
    0.22355E+07         0.25253E+07         0.00000E+00
    0.25253E+07        -0.27553E+07         0.00000E+00
    0.00000E+00         0.00000E+00         0.00000E+00
 
    0.21347E+07         0.26083E+07         0.00000E+00
    0.26083E+07        -0.27457E+07         0.00000E+00
    0.00000E+00         0.00000E+00         0.00000E+00
 
    0.20347E+07         0.26916E+07         0.00000E+00
    0.26916E+07        -0.27350E+07         0.00000E+00
    0.00000E+00         0.00000E+00         0.00000E+00
 
    0.19354E+07         0.27751E+07         0.00000E+00
    0.27751E+07        -0.27228E+07         0.00000E+00
    0.00000E+00         0.00000E+00         0.00000E+00
 
    0.18368E+07         0.28589E+07         0.00000E+00
    0.28589E+07        -0.27093E+07         0.00000E+00
    0.00000E+00         0.00000E+00         0.00000E+00
 
    0.17387E+07         0.29430E+07         0.00000E+00
    0.29430E+07        -0.26943E+07         0.00000E+00
    0.00000E+00         0.00000E+00         0.00000E+00
 
    0.16410E+07         0.30274E+07         0.00000E+00
    0.30274E+07        -0.26777E+07         0.00000E+00
    0.00000E+00         0.00000E+00         0.00000E+00
 
    0.15436E+07         0.31121E+07         0.00000E+00
    0.31121E+07        -0.26595E+07         0.00000E+00
    0.00000E+00         0.00000E+00         0.00000E+00
 
    0.14464E+07         0.31972E+07         0.00000E+00
    0.31972E+07        -0.26396E+07         0.00000E+00
    0.00000E+00         0.00000E+00         0.00000E+00
 
    0.13493E+07         0.32825E+07         0.00000E+00
    0.32825E+07        -0.26180E+07         0.00000E+00
    0.00000E+00         0.00000E+00         0.00000E+00
 
    0.12522E+07         0.33682E+07         0.00000E+00
    0.33682E+07        -0.25945E+07         0.00000E+00
    0.00000E+00         0.00000E+00         0.00000E+00
 
    0.11550E+07         0.34542E+07         0.00000E+00
    0.34542E+07        -0.25691E+07         0.00000E+00
    0.00000E+00         0.00000E+00         0.00000E+00
 
    0.10575E+07         0.35406E+07         0.00000E+00
    0.35406E+07        -0.25417E+07         0.00000E+00
    0.00000E+00         0.00000E+00         0.00000E+00
 
    0.95976E+06         0.36272E+07         0.00000E+00
    0.36272E+07        -0.25124E+07         0.00000E+00
    0.00000E+00         0.00000E+00         0.00000E+00
 
    0.86162E+06         0.37140E+07         0.00000E+00
    0.37140E+07        -0.24809E+07         0.00000E+00
    0.00000E+00         0.00000E+00         0.00000E+00
 
    0.76300E+06         0.38012E+07         0.00000E+00
    0.38012E+07        -0.24473E+07         0.00000E+00
    0.00000E+00         0.00000E+00         0.00000E+00
 
    0.66381E+06         0.38885E+07         0.00000E+00
    0.38885E+07        -0.24115E+07         0.00000E+00
    0.00000E+00         0.00000E+00         0.00000E+00
 
    0.56397E+06         0.39761E+07         0.00000E+00
    0.39761E+07        -0.23735E+07         0.00000E+00
    0.00000E+00         0.00000E+00         0.00000E+00
 
    0.46340E+06         0.40638E+07         0.00000E+00
    0.40638E+07        -0.23331E+07         0.00000E+00
    0.00000E+00         0.00000E+00         0.00000E+00
 
    0.36203E+06         0.41517E+07         0.00000E+00
    0.41517E+07        -0.22904E+07         0.00000E+00
    0.00000E+00         0.00000E+00         0.00000E+00
 
    0.25977E+06         0.42396E+07         0.00000E+00
    0.42396E+07        -0.22453E+07         0.00000E+00
    0.00000E+00         0.00000E+00         0.00000E+00
 
    0.15658E+06         0.43276E+07         0.00000E+00
    0.43276E+07        -0.21977E+07         0.00000E+00
    0.00000E+00         0.00000E+00         0.00000E+00
 
    0.52366E+05         0.44157E+07         0.00000E+00
    0.44157E+07        -0.21477E+07         0.00000E+00
    0.00000E+00         0.00000E+00         0.00000E+00
 
    0.57530E+07         0.61235E+05         0.00000E+00
    0.61235E+05        -0.32632E+07         0.00000E+00
    0.00000E+00         0.00000E+00         0.00000E+00
 
    0.55767E+07         0.17368E+06         0.00000E+00
    0.17368E+06        -0.32638E+07         0.00000E+00
    0.00000E+00         0.00000E+00         0.00000E+00
 
    0.54045E+07         0.28285E+06         0.00000E+00
    0.28285E+06        -0.32650E+07         0.00000E+00
    0.00000E+00         0.00000E+00         0.00000E+00
 
    0.52363E+07         0.38901E+06         0.00000E+00
    0.38901E+06        -0.32668E+07         0.00000E+00
    0.00000E+00         0.00000E+00         0.00000E+00
 
    0.50722E+07         0.49243E+06         0.00000E+00
    0.49243E+06        -0.32691E+07         0.00000E+00
    0.00000E+00         0.00000E+00         0.00000E+00
 
    0.49120E+07         0.59334E+06         0.00000E+00
    0.59334E+06        -0.32720E+07         0.00000E+00
    0.00000E+00         0.00000E+00         0.00000E+00
 
    0.47557E+07         0.69199E+06         0.00000E+00
    0.69199E+06        -0.32753E+07         0.00000E+00
    0.00000E+00         0.00000E+00         0.00000E+00
 
    0.46033E+07         0.78860E+06         0.00000E+00
    0.78860E+06        -0.32791E+07         0.00000E+00
    0.00000E+00         0.00000E+00         0.00000E+00
 
    0.44546E+07         0.88338E+06         0.00000E+00
    0.88338E+06        -0.32833E+07         0.00000E+00
    0.00000E+00         0.00000E+00         0.00000E+00
 
    0.43096E+07         0.97656E+06         0.00000E+00
    0.97656E+06        -0.32878E+07         0.00000E+00
    0.00000E+00         0.00000E+00         0.00000E+00
 
    0.41682E+07         0.10683E+07         0.00000E+00
    0.10683E+07        -0.32925E+07         0.00000E+00
    0.00000E+00         0.00000E+00         0.00000E+00
 
    0.40302E+07         0.11588E+07         0.00000E+00
    0.11588E+07        -0.32975E+07         0.00000E+00
    0.00000E+00         0.00000E+00         0.00000E+00
 
    0.38956E+07         0.12483E+07         0.00000E+00
    0.12483E+07        -0.33026E+07         0.00000E+00
    0.00000E+00         0.00000E+00         0.00000E+00
 
    0.37642E+07         0.13369E+07         0.00000E+00
    0.13369E+07        -0.33078E+07         0.00000E+00
    0.00000E+00         0.00000E+00         0.00000E+00
 
    0.36360E+07         0.14248E+07         0.00000E+00
    0.14248E+07        -0.33130E+07         0.00000E+00
    0.00000E+00         0.00000E+00         0.00000E+00
 
    0.35107E+07         0.15121E+07         0.00000E+00
    0.15121E+07        -0.33180E+07         0.00000E+00
    0.00000E+00         0.00000E+00         0.00000E+00
 
    0.33884E+07         0.15990E+07         0.00000E+00
    0.15990E+07        -0.33229E+07         0.00000E+00
    0.00000E+00         0.00000E+00         0.00000E+00
 
    0.32687E+07         0.16855E+07         0.00000E+00
    0.16855E+07        -0.33275E+07         0.00000E+00
    0.00000E+00         0.00000E+00         0.00000E+00
 
    0.31517E+07         0.17719E+07         0.00000E+00
    0.17719E+07        -0.33318E+07         0.00000E+00
    0.00000E+00         0.00000E+00         0.00000E+00
 
    0.30372E+07         0.18582E+07         0.00000E+00
    0.18582E+07        -0.33356E+07         0.00000E+00
    0.00000E+00         0.00000E+00         0.00000E+00
 
    0.29249E+07         0.19445E+07         0.00000E+00
    0.19445E+07        -0.33389E+07         0.00000E+00
    0.00000E+00         0.00000E+00         0.00000E+00
 
    0.28149E+07         0.20310E+07         0.00000E+00
    0.20310E+07        -0.33416E+07         0.00000E+00
    0.00000E+00         0.00000E+00         0.00000E+00
 
    0.27069E+07         0.21177E+07         0.00000E+00
    0.21177E+07        -0.33435E+07         0.00000E+00
    0.00000E+00         0.00000E+00         0.00000E+00
 
    0.26007E+07         0.22047E+07         0.00000E+00
    0.22047E+07        -0.33447E+07         0.00000E+00
    0.00000E+00         0.00000E+00         0.00000E+00
 
    0.24963E+07         0.22921E+07         0.00000E+00
    0.22921E+07        -0.33449E+07         0.00000E+00
    0.00000E+00         0.00000E+00         0.00000E+00
 
    0.23936E+07         0.23799E+07         0.00000E+00
    0.23799E+07        -0.33442E+07         0.00000E+00
    0.00000E+00         0.00000E+00         0.00000E+00
 
    0.22922E+07         0.24682E+07         0.00000E+00
    0.24682E+07        -0.33424E+07         0.00000E+00
    0.00000E+00         0.00000E+00         0.00000E+00
 
    0.21922E+07         0.25570E+07         0.00000E+00
    0.25570E+07        -0.33394E+07         0.00000E+00
    0.00000E+00         0.00000E+00         0.00000E+00
 
    0.20933E+07         0.26464E+07         0.00000E+00
    0.26464E+07        -0.33351E+07         0.00000E+00
    0.00000E+00         0.00000E+00         0.00000E+00
 
    0.19955E+07         0.27365E+07         0.00000E+00
    0.27365E+07        -0.33294E+07         0.00000E+00
    0.00000E+00         0.00000E+00         0.00000E+00
 
    0.18985E+07         0.28272E+07         0.00000E+00
    0.28272E+07        -0.33224E+07         0.00000E+00
    0.00000E+00         0.00000E+00         0.00000E+00
 
    0.18023E+07         0.29185E+07         0.00000E+00
    0.29185E+07        -0.33137E+07         0.00000E+00
    0.00000E+00         0.00000E+00         0.00000E+00
 
    0.17066E+07         0.30106E+07         0.00000E+00
    0.30106E+07        -0.33035E+07         0.00000E+00
    0.00000E+00         0.00000E+00         0.00000E+00
 
    0.16114E+07         0.31033E+07         0.00000E+00
    0.31033E+07        -0.32915E+07         0.00000E+00
    0.00000E+00         0.00000E+00         0.00000E+00
 
    0.15166E+07         0.31968E+07         0.00000E+00
    0.31968E+07        -0.32777E+07         0.00000E+00
    0.00000E+00         0.00000E+00         0.00000E+00
 
    0.14219E+07         0.32910E+07         0.00000E+00
    0.32910E+07        -0.32621E+07         0.00000E+00
    0.00000E+00         0.00000E+00         0.00000E+00
 
    0.13273E+07         0.33858E+07         0.00000E+00
    0.33858E+07        -0.32445E+07         0.00000E+00
    0.00000E+00         0.00000E+00         0.00000E+00
 
    0.12327E+07         0.34814E+07         0.00000E+00
    0.34814E+07        -0.32248E+07         0.00000E+00
    0.00000E+00         0.00000E+00         0.00000E+00
 
    0.11379E+07         0.35776E+07         0.00000E+00
    0.35776E+07        -0.32030E+07         0.00000E+00
    0.00000E+00         0.00000E+00         0.00000E+00
 
    0.10428E+07         0.36745E+07         0.00000E+00
    0.36745E+07        -0.31790E+07         0.00000E+00
    0.00000E+00         0.00000E+00         0.00000E+00
 
    0.94723E+06         0.37720E+07         0.00000E+00
    0.37720E+07        -0.31528E+07         0.00000E+00
    0.00000E+00         0.00000E+00         0.00000E+00
 
    0.85119E+06         0.38701E+07         0.00000E+00
    0.38701E+07        -0.31242E+07         0.00000E+00
    0.00000E+00         0.00000E+00         0.00000E+00
 
    0.75451E+06         0.39688E+07         0.00000E+00
    0.39688E+07        -0.30932E+07         0.00000E+00
    0.00000E+00         0.00000E+00         0.00000E+00
 
    0.65711E+06         0.40680E+07         0.00000E+00
    0.40680E+07        -0.30597E+07         0.00000E+00
    0.00000E+00         0.00000E+00         0.00000E+00
 
    0.55888E+06         0.41676E+07         0.00000E+00
    0.41676E+07        -0.30237E+07         0.00000E+00
    0.00000E+00         0.00000E+00         0.00000E+00
 
    0.45973E+06         0.42678E+07         0.00000E+00
    0.42678E+07        -0.29850E+07         0.00000E+00
    0.00000E+00         0.00000E+00         0.00000E+00
 
    0.35956E+06         0.43683E+07         0.00000E+00
    0.43683E+07        -0.29437E+07         0.00000E+00
    0.00000E+00         0.00000E+00         0.00000E+00
 
    0.25830E+06         0.44692E+07         0.00000E+00
    0.44692E+07        -0.28997E+07         0.00000E+00
    0.00000E+00         0.00000E+00         0.00000E+00
 
    0.15586E+06         0.45703E+07         0.00000E+00
    0.45703E+07        -0.28530E+07         0.00000E+00
    0.00000E+00         0.00000E+00         0.00000E+00
 
    0.52169E+05         0.46718E+07         0.00000E+00
    0.46718E+07        -0.28034E+07         0.00000E+00
    0.00000E+00         0.00000E+00         0.00000E+00
 
    0.57682E+07         0.58948E+05         0.00000E+00
    0.58948E+05        -0.38094E+07         0.00000E+00
    0.00000E+00         0.00000E+00         0.00000E+00
 
    0.55751E+07         0.16700E+06         0.00000E+00
    0.16700E+06        -0.38106E+07         0.00000E+00
    0.00000E+00         0.00000E+00         0.00000E+00
 
    0.53875E+07         0.27191E+06         0.00000E+00
    0.27191E+06        -0.38130E+07         0.00000E+00
    0.00000E+00         0.00000E+00         0.00000E+00
 
    0.52054E+07         0.37398E+06         0.00000E+00
    0.37398E+06        -0.38165E+07         0.00000E+00
    0.00000E+00         0.00000E+00         0.00000E+00
 
    0.50287E+07         0.47351E+06         0.00000E+00
    0.47351E+06        -0.38210E+07         0.00000E+00
    0.00000E+00         0.00000E+00         0.00000E+00
 
    0.48572E+07         0.57079E+06         0.00000E+00
    0.57079E+06        -0.38265E+07         0.00000E+00
    0.00000E+00         0.00000E+00         0.00000E+00
 
    0.46909E+07         0.66608E+06         0.00000E+00
    0.66608E+06        -0.38329E+07         0.00000E+00
    0.00000E+00         0.00000E+00         0.00000E+00
 
    0.45295E+07         0.75965E+06         0.00000E+00
    0.75965E+06        -0.38402E+07         0.00000E+00
    0.00000E+00         0.00000E+00         0.00000E+00
 
    0.43731E+07         0.85173E+06         0.00000E+00
    0.85173E+06        -0.38483E+07         0.00000E+00
    0.00000E+00         0.00000E+00         0.00000E+00
 
    0.42214E+07         0.94256E+06         0.00000E+00
    0.94256E+06        -0.38570E+07         0.00000E+00
    0.00000E+00         0.00000E+00         0.00000E+00
 
    0.40743E+07         0.10324E+07         0.00000E+00
    0.10324E+07        -0.38664E+07         0.00000E+00
    0.00000E+00         0.00000E+00         0.00000E+00
 
    0.39316E+07         0.11213E+07         0.00000E+00
    0.11213E+07        -0.38762E+07         0.00000E+00
    0.00000E+00         0.00000E+00         0.00000E+00
 
    0.37932E+07         0.12097E+07         0.00000E+00
    0.12097E+07        -0.38865E+07         0.00000E+00
    0.00000E+00         0.00000E+00         0.00000E+00
 
    0.36589E+07         0.12976E+07         0.00000E+00
    0.12976E+07        -0.38970E+07         0.00000E+00
    0.00000E+00         0.00000E+00         0.00000E+00
 
    0.35285E+07         0.13853E+07         0.00000E+00
    0.13853E+07        -0.39078E+07         0.00000E+00
    0.00000E+00         0.00000E+00         0.00000E+00
 
    0.34019E+07         0.14728E+07         0.00000E+00
    0.14728E+07        -0.39186E+07         0.00000E+00
    0.00000E+00         0.00000E+00         0.00000E+00
 
    0.32789E+07         0.15604E+07         0.00000E+00
    0.15604E+07        -0.39295E+07         0.00000E+00
    0.00000E+00         0.00000E+00         0.00000E+00
 
    0.31592E+07         0.16482E+07         0.00000E+00
    0.16482E+07        -0.39402E+07         0.00000E+00
    0.00000E+00         0.00000E+00         0.00000E+00
 
    0.30428E+07         0.17363E+07         0.00000E+00
    0.17363E+07        -0.39507E+07         0.00000E+00
    0.00000E+00         0.00000E+00         0.00000E+00
 
    0.29294E+07         0.18248E+07         0.00000E+00
    0.18248E+07        -0.39608E+07         0.00000E+00
    0.00000E+00         0.00000E+00         0.00000E+00
 
    0.28188E+07         0.19139E+07         0.00000E+00
    0.19139E+07        -0.39705E+07         0.00000E+00
    0.00000E+00         0.00000E+00         0.00000E+00
 
    0.27109E+07         0.20036E+07         0.00000E+00
    0.20036E+07        -0.39796E+07         0.00000E+00
    0.00000E+00         0.00000E+00         0.00000E+00
 
    0.26054E+07         0.20941E+07         0.00000E+00
    0.20941E+07        -0.39880E+07         0.00000E+00
    0.00000E+00         0.00000E+00         0.00000E+00
 
    0.25022E+07         0.21853E+07         0.00000E+00
    0.21853E+07        -0.39957E+07         0.00000E+00
    0.00000E+00         0.00000E+00         0.00000E+00
 
    0.24011E+07         0.22775E+07         0.00000E+00
    0.22775E+07        -0.40024E+07         0.00000E+00
    0.00000E+00         0.00000E+00         0.00000E+00
 
    0.23018E+07         0.23706E+07         0.00000E+00
    0.23706E+07        -0.40080E+07         0.00000E+00
    0.00000E+00         0.00000E+00         0.00000E+00
 
    0.22043E+07         0.24647E+07         0.00000E+00
    0.24647E+07        -0.40126E+07         0.00000E+00
    0.00000E+00         0.00000E+00         0.00000E+00
 
    0.21083E+07         0.25598E+07         0.00000E+00
    0.25598E+07        -0.40159E+07         0.00000E+00
    0.00000E+00         0.00000E+00         0.00000E+00
 
    0.20137E+07         0.26561E+07         0.00000E+00
    0.26561E+07        -0.40178E+07         0.00000E+00
    0.00000E+00         0.00000E+00         0.00000E+00
 
    0.19202E+07         0.27535E+07         0.00000E+00
    0.27535E+07        -0.40183E+07         0.00000E+00
    0.00000E+00         0.00000E+00         0.00000E+00
 
    0.18278E+07         0.28520E+07         0.00000E+00
    0.28520E+07        -0.40172E+07         0.00000E+00
    0.00000E+00         0.00000E+00         0.00000E+00
 
    0.17361E+07         0.29516E+07         0.00000E+00
    0.29516E+07        -0.40144E+07         0.00000E+00
    0.00000E+00         0.00000E+00         0.00000E+00
 
    0.16451E+07         0.30524E+07         0.00000E+00
    0.30524E+07        -0.40098E+07         0.00000E+00
    0.00000E+00         0.00000E+00         0.00000E+00
 
    0.15546E+07         0.31544E+07         0.00000E+00
    0.31544E+07        -0.40033E+07         0.00000E+00
    0.00000E+00         0.00000E+00         0.00000E+00
 
    0.14643E+07         0.32576E+07         0.00000E+00
    0.32576E+07        -0.39949E+07         0.00000E+00
    0.00000E+00         0.00000E+00         0.00000E+00
 
    0.13743E+07         0.33619E+07         0.00000E+00
    0.33619E+07        -0.39844E+07         0.00000E+00
    0.00000E+00         0.00000E+00         0.00000E+00
 
    0.12842E+07         0.34673E+07         0.00000E+00
    0.34673E+07        -0.39716E+07         0.00000E+00
    0.00000E+00         0.00000E+00         0.00000E+00
 
    0.11940E+07         0.35739E+07         0.00000E+00
    0.35739E+07        -0.39566E+07         0.00000E+00
    0.00000E+00         0.00000E+00         0.00000E+00
 
    0.11035E+07         0.36815E+07         0.00000E+00
    0.36815E+07        -0.39393E+07         0.00000E+00
    0.00000E+00         0.00000E+00         0.00000E+00
 
    0.10125E+07         0.37902E+07         0.00000E+00
    0.37902E+07        -0.39195E+07         0.00000E+00
    0.00000E+00         0.00000E+00         0.00000E+00
 
    0.92101E+06         0.39000E+07         0.00000E+00
    0.39000E+07        -0.38971E+07         0.00000E+00
    0.00000E+00         0.00000E+00         0.00000E+00
 
    0.82878E+06         0.40106E+07         0.00000E+00
    0.40106E+07        -0.38721E+07         0.00000E+00
    0.00000E+00         0.00000E+00         0.00000E+00
 
    0.73572E+06         0.41223E+07         0.00000E+00
    0.41223E+07        -0.38445E+07         0.00000E+00
    0.00000E+00         0.00000E+00         0.00000E+00
 
    0.64170E+06         0.42348E+07         0.00000E+00
    0.42348E+07        -0.38140E+07         0.00000E+00
    0.00000E+00         0.00000E+00         0.00000E+00
 
    0.54660E+06         0.43481E+07         0.00000E+00
    0.43481E+07        -0.37807E+07         0.00000E+00
    0.00000E+00         0.00000E+00         0.00000E+00
 
    0.45033E+06         0.44622E+07         0.00000E+00
    0.44622E+07        -0.37445E+07         0.00000E+00
    0.00000E+00         0.00000E+00         0.00000E+00
 
    0.35277E+06         0.45770E+07         0.00000E+00
    0.45770E+07        -0.37053E+07         0.00000E+00
    0.00000E+00         0.00000E+00         0.00000E+00
 
    0.25382E+06         0.46924E+07         0.00000E+00
    0.46924E+07        -0.36630E+07         0.00000E+00
    0.00000E+00         0.00000E+00         0.00000E+00
 
    0.15339E+06         0.48084E+07         0.00000E+00
    0.48084E+07        -0.36176E+07         0.00000E+00
    0.00000E+00         0.00000E+00         0.00000E+00
 
    0.51399E+05         0.49249E+07         0.00000E+00
    0.49249E+07        -0.35691E+07         0.00000E+00
    0.00000E+00         0.00000E+00         0.00000E+00
 
    0.56723E+07         0.54891E+05         0.00000E+00
    0.54891E+05        -0.44370E+07         0.00000E+00
    0.00000E+00         0.00000E+00         0.00000E+00
 
    0.54633E+07         0.15546E+06         0.00000E+00
    0.15546E+06        -0.44389E+07         0.00000E+00
    0.00000E+00         0.00000E+00         0.00000E+00
 
    0.52615E+07         0.25317E+06         0.00000E+00
    0.25317E+06        -0.44426E+07         0.00000E+00
    0.00000E+00         0.00000E+00         0.00000E+00
 
    0.50668E+07         0.34838E+06         0.00000E+00
    0.34838E+06        -0.44481E+07         0.00000E+00
    0.00000E+00         0.00000E+00         0.00000E+00
 
    0.48790E+07         0.44142E+06         0.00000E+00
    0.44142E+06        -0.44552E+07         0.00000E+00
    0.00000E+00         0.00000E+00         0.00000E+00
 
    0.46979E+07         0.53261E+06         0.00000E+00
    0.53261E+06        -0.44638E+07         0.00000E+00
    0.00000E+00         0.00000E+00         0.00000E+00
 
    0.45233E+07         0.62226E+06         0.00000E+00
    0.62226E+06        -0.44738E+07         0.00000E+00
    0.00000E+00         0.00000E+00         0.00000E+00
 
    0.43551E+07         0.71064E+06         0.00000E+00
    0.71064E+06        -0.44852E+07         0.00000E+00
    0.00000E+00         0.00000E+00         0.00000E+00
 
    0.41930E+07         0.79804E+06         0.00000E+00
    0.79804E+06        -0.44978E+07         0.00000E+00
    0.00000E+00         0.00000E+00         0.00000E+00
 
    0.40369E+07         0.88471E+06         0.00000E+00
    0.88471E+06        -0.45115E+07         0.00000E+00
    0.00000E+00         0.00000E+00         0.00000E+00
 
    0.38865E+07         0.97089E+06         0.00000E+00
    0.97089E+06        -0.45261E+07         0.00000E+00
    0.00000E+00         0.00000E+00         0.00000E+00
 
    0.37415E+07         0.10568E+07         0.00000E+00
    0.10568E+07        -0.45416E+07         0.00000E+00
    0.00000E+00         0.00000E+00         0.00000E+00
 
    0.36019E+07         0.11427E+07         0.00000E+00
    0.11427E+07        -0.45578E+07         0.00000E+00
    0.00000E+00         0.00000E+00         0.00000E+00
 
    0.34672E+07         0.12287E+07         0.00000E+00
    0.12287E+07        -0.45746E+07         0.00000E+00
    0.00000E+00         0.00000E+00         0.00000E+00
 
    0.33374E+07         0.13150E+07         0.00000E+00
    0.13150E+07        -0.45918E+07         0.00000E+00
    0.00000E+00         0.00000E+00         0.00000E+00
 
    0.32121E+07         0.14019E+07         0.00000E+00
    0.14019E+07        -0.46094E+07         0.00000E+00
    0.00000E+00         0.00000E+00         0.00000E+00
 
    0.30911E+07         0.14894E+07         0.00000E+00
    0.14894E+07        -0.46271E+07         0.00000E+00
    0.00000E+00         0.00000E+00         0.00000E+00
 
    0.29743E+07         0.15777E+07         0.00000E+00
    0.15777E+07        -0.46448E+07         0.00000E+00
    0.00000E+00         0.00000E+00         0.00000E+00
 
    0.28612E+07         0.16669E+07         0.00000E+00
    0.16669E+07        -0.46625E+07         0.00000E+00
    0.00000E+00         0.00000E+00         0.00000E+00
 
    0.27518E+07         0.17572E+07         0.00000E+00
    0.17572E+07        -0.46799E+07         0.00000E+00
    0.00000E+00         0.00000E+00         0.00000E+00
 
    0.26457E+07         0.18487E+07         0.00000E+00
    0.18487E+07        -0.46969E+07         0.00000E+00
    0.00000E+00         0.00000E+00         0.00000E+00
 
    0.25427E+07         0.19415E+07         0.00000E+00
    0.19415E+07        -0.47134E+07         0.00000E+00
    0.00000E+00         0.00000E+00         0.00000E+00
 
    0.24427E+07         0.20356E+07         0.00000E+00
    0.20356E+07        -0.47292E+07         0.00000E+00
    0.00000E+00         0.00000E+00         0.00000E+00
 
    0.23452E+07         0.21312E+07         0.00000E+00
    0.21312E+07        -0.47443E+07         0.00000E+00
    0.00000E+00         0.00000E+00         0.00000E+00
 
    0.22502E+07         0.22282E+07         0.00000E+00
    0.22282E+07        -0.47584E+07         0.00000E+00
    0.00000E+00         0.00000E+00         0.00000E+00
 
    0.21573E+07         0.23269E+07         0.00000E+00
    0.23269E+07        -0.47715E+07         0.00000E+00
    0.00000E+00         0.00000E+00         0.00000E+00
 
    0.20664E+07         0.24271E+07         0.00000E+00
    0.24271E+07        -0.47833E+07         0.00000E+00
    0.00000E+00         0.00000E+00         0.00000E+00
 
    0.19773E+07         0.25290E+07         0.00000E+00
    0.25290E+07        -0.47939E+07         0.00000E+00
    0.00000E+00         0.00000E+00         0.00000E+00
 
    0.18896E+07         0.26326E+07         0.00000E+00
    0.26326E+07        -0.48030E+07         0.00000E+00
    0.00000E+00         0.00000E+00         0.00000E+00
 
    0.18032E+07         0.27379E+07         0.00000E+00
    0.27379E+07        -0.48105E+07         0.00000E+00
    0.00000E+00         0.00000E+00         0.00000E+00
 
    0.17178E+07         0.28449E+07         0.00000E+00
    0.28449E+07        -0.48163E+07         0.00000E+00
    0.00000E+00         0.00000E+00         0.00000E+00
 
    0.16334E+07         0.29536E+07         0.00000E+00
    0.29536E+07        -0.48203E+07         0.00000E+00
    0.00000E+00         0.00000E+00         0.00000E+00
 
    0.15495E+07         0.30640E+07         0.00000E+00
    0.30640E+07        -0.48223E+07         0.00000E+00
    0.00000E+00         0.00000E+00         0.00000E+00
 
    0.14661E+07         0.31762E+07         0.00000E+00
    0.31762E+07        -0.48222E+07         0.00000E+00
    0.00000E+00         0.00000E+00         0.00000E+00
 
    0.13830E+07         0.32900E+07         0.00000E+00
    0.32900E+07        -0.48200E+07         0.00000E+00
    0.00000E+00         0.00000E+00         0.00000E+00
 
    0.12999E+07         0.34056E+07         0.00000E+00
    0.34056E+07        -0.48154E+07         0.00000E+00
    0.00000E+00         0.00000E+00         0.00000E+00
 
    0.12167E+07         0.35227E+07         0.00000E+00
    0.35227E+07        -0.48085E+07         0.00000E+00
    0.00000E+00         0.00000E+00         0.00000E+00
 
    0.11332E+07         0.36415E+07         0.00000E+00
    0.36415E+07        -0.47990E+07         0.00000E+00
    0.00000E+00         0.00000E+00         0.00000E+00
 
    0.10492E+07         0.37619E+07         0.00000E+00
    0.37619E+07        -0.47869E+07         0.00000E+00
    0.00000E+00         0.00000E+00         0.00000E+00
 
    0.96455E+06         0.38837E+07         0.00000E+00
    0.38837E+07        -0.47721E+07         0.00000E+00
    0.00000E+00         0.00000E+00         0.00000E+00
 
    0.87909E+06         0.40071E+07         0.00000E+00
    0.40071E+07        -0.47545E+07         0.00000E+00
    0.00000E+00         0.00000E+00         0.00000E+00
 
    0.79267E+06         0.41318E+07         0.00000E+00
    0.41318E+07        -0.47339E+07         0.00000E+00
    0.00000E+00         0.00000E+00         0.00000E+00
 
    0.70512E+06         0.42579E+07         0.00000E+00
    0.42579E+07        -0.47104E+07         0.00000E+00
    0.00000E+00         0.00000E+00         0.00000E+00
 
    0.61633E+06         0.43853E+07         0.00000E+00
    0.43853E+07        -0.46837E+07         0.00000E+00
    0.00000E+00         0.00000E+00         0.00000E+00
 
    0.52613E+06         0.45139E+07         0.00000E+00
    0.45139E+07        -0.46539E+07         0.00000E+00
    0.00000E+00         0.00000E+00         0.00000E+00
 
    0.43441E+06         0.46436E+07         0.00000E+00
    0.46436E+07        -0.46208E+07         0.00000E+00
    0.00000E+00         0.00000E+00         0.00000E+00
 
    0.34105E+06         0.47744E+07         0.00000E+00
    0.47744E+07        -0.45844E+07         0.00000E+00
    0.00000E+00         0.00000E+00         0.00000E+00
 
    0.24593E+06         0.49061E+07         0.00000E+00
    0.49061E+07        -0.45446E+07         0.00000E+00
    0.00000E+00         0.00000E+00         0.00000E+00
 
    0.14894E+06         0.50387E+07         0.00000E+00
    0.50387E+07        -0.45013E+07         0.00000E+00
    0.00000E+00         0.00000E+00         0.00000E+00
 
    0.49981E+05         0.51722E+07         0.00000E+00
    0.51722E+07        -0.44544E+07         0.00000E+00
    0.00000E+00         0.00000E+00         0.00000E+00
 
    0.54386E+07         0.48739E+05         0.00000E+00
    0.48739E+05        -0.51553E+07         0.00000E+00
    0.00000E+00         0.00000E+00         0.00000E+00
 
    0.52155E+07         0.13820E+06         0.00000E+00
    0.13820E+06        -0.51580E+07         0.00000E+00
    0.00000E+00         0.00000E+00         0.00000E+00
 
    0.50015E+07         0.22531E+06         0.00000E+00
    0.22531E+06        -0.51634E+07         0.00000E+00
    0.00000E+00         0.00000E+00         0.00000E+00
 
    0.47964E+07         0.31045E+06         0.00000E+00
    0.31045E+06        -0.51711E+07         0.00000E+00
    0.00000E+00         0.00000E+00         0.00000E+00
 
    0.46000E+07         0.39400E+06         0.00000E+00
    0.39400E+06        -0.51812E+07         0.00000E+00
    0.00000E+00         0.00000E+00         0.00000E+00
 
    0.44118E+07         0.47631E+06         0.00000E+00
    0.47631E+06        -0.51934E+07         0.00000E+00
    0.00000E+00         0.00000E+00         0.00000E+00
 
    0.42318E+07         0.55771E+06         0.00000E+00
    0.55771E+06        -0.52076E+07         0.00000E+00
    0.00000E+00         0.00000E+00         0.00000E+00
 
    0.40596E+07         0.63851E+06         0.00000E+00
    0.63851E+06        -0.52236E+07         0.00000E+00
    0.00000E+00         0.00000E+00         0.00000E+00
 
    0.38949E+07         0.71901E+06         0.00000E+00
    0.71901E+06        -0.52414E+07         0.00000E+00
    0.00000E+00         0.00000E+00         0.00000E+00
 
    0.37374E+07         0.79948E+06         0.00000E+00
    0.79948E+06        -0.52606E+07         0.00000E+00
    0.00000E+00         0.00000E+00         0.00000E+00
 
    0.35868E+07         0.88017E+06         0.00000E+00
    0.88017E+06        -0.52813E+07         0.00000E+00
    0.00000E+00         0.00000E+00         0.00000E+00
 
    0.34429E+07         0.96133E+06         0.00000E+00
    0.96133E+06        -0.53032E+07         0.00000E+00
    0.00000E+00         0.00000E+00         0.00000E+00
 
    0.33052E+07         0.10432E+07         0.00000E+00
    0.10432E+07        -0.53261E+07         0.00000E+00
    0.00000E+00         0.00000E+00         0.00000E+00
 
    0.31736E+07         0.11259E+07         0.00000E+00
    0.11259E+07        -0.53499E+07         0.00000E+00
    0.00000E+00         0.00000E+00         0.00000E+00
 
    0.30477E+07         0.12098E+07         0.00000E+00
    0.12098E+07        -0.53744E+07         0.00000E+00
    0.00000E+00         0.00000E+00         0.00000E+00
 
    0.29272E+07         0.12949E+07         0.00000E+00
    0.12949E+07        -0.53995E+07         0.00000E+00
    0.00000E+00         0.00000E+00         0.00000E+00
 
    0.28117E+07         0.13814E+07         0.00000E+00
    0.13814E+07        -0.54249E+07         0.00000E+00
    0.00000E+00         0.00000E+00         0.00000E+00
 
    0.27011E+07         0.14695E+07         0.00000E+00
    0.14695E+07        -0.54505E+07         0.00000E+00
    0.00000E+00         0.00000E+00         0.00000E+00
 
    0.25949E+07         0.15593E+07         0.00000E+00
    0.15593E+07        -0.54762E+07         0.00000E+00
    0.00000E+00         0.00000E+00         0.00000E+00
 
    0.24929E+07         0.16509E+07         0.00000E+00
    0.16509E+07        -0.55017E+07         0.00000E+00
    0.00000E+00         0.00000E+00         0.00000E+00
 
    0.23948E+07         0.17445E+07         0.00000E+00
    0.17445E+07        -0.55270E+07         0.00000E+00
    0.00000E+00         0.00000E+00         0.00000E+00
 
    0.23002E+07         0.18400E+07         0.00000E+00
    0.18400E+07        -0.55518E+07         0.00000E+00
    0.00000E+00         0.00000E+00         0.00000E+00
 
    0.22089E+07         0.19377E+07         0.00000E+00
    0.19377E+07        -0.55759E+07         0.00000E+00
    0.00000E+00         0.00000E+00         0.00000E+00
 
    0.21207E+07         0.20376E+07         0.00000E+00
    0.20376E+07        -0.55993E+07         0.00000E+00
    0.00000E+00         0.00000E+00         0.00000E+00
 
    0.20351E+07         0.21397E+07         0.00000E+00
    0.21397E+07        -0.56217E+07         0.00000E+00
    0.00000E+00         0.00000E+00         0.00000E+00
 
    0.19519E+07         0.22441E+07         0.00000E+00
    0.22441E+07        -0.56431E+07         0.00000E+00
    0.00000E+00         0.00000E+00         0.00000E+00
 
    0.18709E+07         0.23508E+07         0.00000E+00
    0.23508E+07        -0.56632E+07         0.00000E+00
    0.00000E+00         0.00000E+00         0.00000E+00
 
    0.17918E+07         0.24599E+07         0.00000E+00
    0.24599E+07        -0.56819E+07         0.00000E+00
    0.00000E+00         0.00000E+00         0.00000E+00
 
    0.17142E+07         0.25713E+07         0.00000E+00
    0.25713E+07        -0.56990E+07         0.00000E+00
    0.00000E+00         0.00000E+00         0.00000E+00
 
    0.16380E+07         0.26851E+07         0.00000E+00
    0.26851E+07        -0.57144E+07         0.00000E+00
    0.00000E+00         0.00000E+00         0.00000E+00
 
    0.15629E+07         0.28014E+07         0.00000E+00
    0.28014E+07        -0.57280E+07         0.00000E+00
    0.00000E+00         0.00000E+00         0.00000E+00
 
    0.14886E+07         0.29199E+07         0.00000E+00
    0.29199E+07        -0.57396E+07         0.00000E+00
    0.00000E+00         0.00000E+00         0.00000E+00
 
    0.14149E+07         0.30409E+07         0.00000E+00
    0.30409E+07        -0.57491E+07         0.00000E+00
    0.00000E+00         0.00000E+00         0.00000E+00
 
    0.13416E+07         0.31642E+07         0.00000E+00
    0.31642E+07        -0.57563E+07         0.00000E+00
    0.00000E+00         0.00000E+00         0.00000E+00
 
    0.12683E+07         0.32898E+07         0.00000E+00
    0.32898E+07        -0.57611E+07         0.00000E+00
    0.00000E+00         0.00000E+00         0.00000E+00
 
    0.11950E+07         0.34177E+07         0.00000E+00
    0.34177E+07        -0.57635E+07         0.00000E+00
    0.00000E+00         0.00000E+00         0.00000E+00
 
    0.11213E+07         0.35478E+07         0.00000E+00
    0.35478E+07        -0.57631E+07         0.00000E+00
    0.00000E+00         0.00000E+00         0.00000E+00
 
    0.10471E+07         0.36800E+07         0.00000E+00
    0.36800E+07        -0.57600E+07         0.00000E+00
    0.00000E+00         0.00000E+00         0.00000E+00
 
    0.97218E+06         0.38144E+07         0.00000E+00
    0.38144E+07        -0.57541E+07         0.00000E+00
    0.00000E+00         0.00000E+00         0.00000E+00
 
    0.89628E+06         0.39509E+07         0.00000E+00
    0.39509E+07        -0.57451E+07         0.00000E+00
    0.00000E+00         0.00000E+00         0.00000E+00
 
    0.81926E+06         0.40893E+07         0.00000E+00
    0.40893E+07        -0.57330E+07         0.00000E+00
    0.00000E+00         0.00000E+00         0.00000E+00
 
    0.74092E+06         0.42296E+07         0.00000E+00
    0.42296E+07        -0.57177E+07         0.00000E+00
    0.00000E+00         0.00000E+00         0.00000E+00
 
    0.66110E+06         0.43718E+07         0.00000E+00
    0.43718E+07        -0.56991E+07         0.00000E+00
    0.00000E+00         0.00000E+00         0.00000E+00
 
    0.57963E+06         0.45156E+07         0.00000E+00
    0.45156E+07        -0.56770E+07         0.00000E+00
    0.00000E+00         0.00000E+00         0.00000E+00
 
    0.49634E+06         0.46612E+07         0.00000E+00
    0.46612E+07        -0.56515E+07         0.00000E+00
    0.00000E+00         0.00000E+00         0.00000E+00
 
    0.41109E+06         0.48083E+07         0.00000E+00
    0.48083E+07        -0.56223E+07         0.00000E+00
    0.00000E+00         0.00000E+00         0.00000E+00
 
    0.32375E+06         0.49568E+07         0.00000E+00
    0.49568E+07        -0.55894E+07         0.00000E+00
    0.00000E+00         0.00000E+00         0.00000E+00
 
    0.23417E+06         0.51067E+07         0.00000E+00
    0.51067E+07        -0.55528E+07         0.00000E+00
    0.00000E+00         0.00000E+00         0.00000E+00
 
    0.14224E+06         0.52578E+07         0.00000E+00
    0.52578E+07        -0.55123E+07         0.00000E+00
    0.00000E+00         0.00000E+00         0.00000E+00
 
    0.47832E+05         0.54101E+07         0.00000E+00
    0.54101E+07        -0.54679E+07         0.00000E+00
    0.00000E+00         0.00000E+00         0.00000E+00
 
    0.50370E+07         0.40159E+05         0.00000E+00
    0.40159E+05        -0.59743E+07         0.00000E+00
    0.00000E+00         0.00000E+00         0.00000E+00
 
    0.48029E+07         0.11439E+06         0.00000E+00
    0.11439E+06        -0.59780E+07         0.00000E+00
    0.00000E+00         0.00000E+00         0.00000E+00
 
    0.45799E+07         0.18703E+06         0.00000E+00
    0.18703E+06        -0.59851E+07         0.00000E+00
    0.00000E+00         0.00000E+00         0.00000E+00
 
    0.43679E+07         0.25850E+06         0.00000E+00
    0.25850E+06        -0.59955E+07         0.00000E+00
    0.00000E+00         0.00000E+00         0.00000E+00
 
    0.41663E+07         0.32920E+06         0.00000E+00
    0.32920E+06        -0.60089E+07         0.00000E+00
    0.00000E+00         0.00000E+00         0.00000E+00
 
    0.39749E+07         0.39951E+06         0.00000E+00
    0.39951E+06        -0.60250E+07         0.00000E+00
    0.00000E+00         0.00000E+00         0.00000E+00
 
    0.37932E+07         0.46977E+06         0.00000E+00
    0.46977E+06        -0.60439E+07         0.00000E+00
    0.00000E+00         0.00000E+00         0.00000E+00
 
    0.36209E+07         0.54033E+06         0.00000E+00
    0.54033E+06        -0.60651E+07         0.00000E+00
    0.00000E+00         0.00000E+00         0.00000E+00
 
    0.34575E+07         0.61148E+06         0.00000E+00
    0.61148E+06        -0.60886E+07         0.00000E+00
    0.00000E+00         0.00000E+00         0.00000E+00
 
    0.33027E+07         0.68352E+06         0.00000E+00
    0.68352E+06        -0.61141E+07         0.00000E+00
    0.00000E+00         0.00000E+00         0.00000E+00
 
    0.31561E+07         0.75671E+06         0.00000E+00
    0.75671E+06        -0.61414E+07         0.00000E+00
    0.00000E+00         0.00000E+00         0.00000E+00
 
    0.30173E+07         0.83129E+06         0.00000E+00
    0.83129E+06        -0.61704E+07         0.00000E+00
    0.00000E+00         0.00000E+00         0.00000E+00
 
    0.28859E+07         0.90750E+06         0.00000E+00
    0.90750E+06        -0.62007E+07         0.00000E+00
    0.00000E+00         0.00000E+00         0.00000E+00
 
    0.27615E+07         0.98554E+06         0.00000E+00
    0.98554E+06        -0.62322E+07         0.00000E+00
    0.00000E+00         0.00000E+00         0.00000E+00
 
    0.26437E+07         0.10656E+07         0.00000E+00
    0.10656E+07        -0.62647E+07         0.00000E+00
    0.00000E+00         0.00000E+00         0.00000E+00
 
    0.25322E+07         0.11479E+07         0.00000E+00
    0.11479E+07        -0.62980E+07         0.00000E+00
    0.00000E+00         0.00000E+00         0.00000E+00
 
    0.24265E+07         0.12325E+07         0.00000E+00
    0.12325E+07        -0.63319E+07         0.00000E+00
    0.00000E+00         0.00000E+00         0.00000E+00
 
    0.23262E+07         0.13196E+07         0.00000E+00
    0.13196E+07        -0.63661E+07         0.00000E+00
    0.00000E+00         0.00000E+00         0.00000E+00
 
    0.22311E+07         0.14093E+07         0.00000E+00
    0.14093E+07        -0.64005E+07         0.00000E+00
    0.00000E+00         0.00000E+00         0.00000E+00
 
    0.21407E+07         0.15017E+07         0.00000E+00
    0.15017E+07        -0.64350E+07         0.00000E+00
    0.00000E+00         0.00000E+00         0.00000E+00
 
    0.20546E+07         0.15970E+07         0.00000E+00
    0.15970E+07        -0.64692E+07         0.00000E+00
    0.00000E+00         0.00000E+00         0.00000E+00
 
    0.19725E+07         0.16951E+07         0.00000E+00
    0.16951E+07        -0.65030E+07         0.00000E+00
    0.00000E+00         0.00000E+00         0.00000E+00
 
    0.18940E+07         0.17963E+07         0.00000E+00
    0.17963E+07        -0.65362E+07         0.00000E+00
    0.00000E+00         0.00000E+00         0.00000E+00
 
    0.18189E+07         0.19005E+07         0.00000E+00
    0.19005E+07        -0.65686E+07         0.00000E+00
    0.00000E+00         0.00000E+00         0.00000E+00
 
    0.17467E+07         0.20077E+07         0.00000E+00
    0.20077E+07        -0.66001E+07         0.00000E+00
    0.00000E+00         0.00000E+00         0.00000E+00
 
    0.16771E+07         0.21181E+07         0.00000E+00
    0.21181E+07        -0.66305E+07         0.00000E+00
    0.00000E+00         0.00000E+00         0.00000E+00
 
    0.16097E+07         0.22316E+07         0.00000E+00
    0.22316E+07        -0.66595E+07         0.00000E+00
    0.00000E+00         0.00000E+00         0.00000E+00
 
    0.15443E+07         0.23483E+07         0.00000E+00
    0.23483E+07        -0.66871E+07         0.00000E+00
    0.00000E+00         0.00000E+00         0.00000E+00
 
    0.14806E+07         0.24682E+07         0.00000E+00
    0.24682E+07        -0.67130E+07         0.00000E+00
    0.00000E+00         0.00000E+00         0.00000E+00
 
    0.14182E+07         0.25912E+07         0.00000E+00
    0.25912E+07        -0.67371E+07         0.00000E+00
    0.00000E+00         0.00000E+00         0.00000E+00
 
    0.13568E+07         0.27173E+07         0.00000E+00
    0.27173E+07        -0.67593E+07         0.00000E+00
    0.00000E+00         0.00000E+00         0.00000E+00
 
    0.12962E+07         0.28466E+07         0.00000E+00
    0.28466E+07        -0.67793E+07         0.00000E+00
    0.00000E+00         0.00000E+00         0.00000E+00
 
    0.12360E+07         0.29789E+07         0.00000E+00
    0.29789E+07        -0.67970E+07         0.00000E+00
    0.00000E+00         0.00000E+00         0.00000E+00
 
    0.11760E+07         0.31143E+07         0.00000E+00
    0.31143E+07        -0.68122E+07         0.00000E+00
    0.00000E+00         0.00000E+00         0.00000E+00
 
    0.11159E+07         0.32527E+07         0.00000E+00
    0.32527E+07        -0.68249E+07         0.00000E+00
    0.00000E+00         0.00000E+00         0.00000E+00
 
    0.10554E+07         0.33940E+07         0.00000E+00
    0.33940E+07        -0.68349E+07         0.00000E+00
    0.00000E+00         0.00000E+00         0.00000E+00
 
    0.99432E+06         0.35382E+07         0.00000E+00
    0.35382E+07        -0.68420E+07         0.00000E+00
    0.00000E+00         0.00000E+00         0.00000E+00
 
    0.93238E+06         0.36853E+07         0.00000E+00
    0.36853E+07        -0.68461E+07         0.00000E+00
    0.00000E+00         0.00000E+00         0.00000E+00
 
    0.86934E+06         0.38350E+07         0.00000E+00
    0.38350E+07        -0.68470E+07         0.00000E+00
    0.00000E+00         0.00000E+00         0.00000E+00
 
    0.80498E+06         0.39875E+07         0.00000E+00
    0.39875E+07        -0.68447E+07         0.00000E+00
    0.00000E+00         0.00000E+00         0.00000E+00
 
    0.73908E+06         0.41424E+07         0.00000E+00
    0.41424E+07        -0.68389E+07         0.00000E+00
    0.00000E+00         0.00000E+00         0.00000E+00
 
    0.67142E+06         0.42999E+07         0.00000E+00
    0.42999E+07        -0.68297E+07         0.00000E+00
    0.00000E+00         0.00000E+00         0.00000E+00
 
    0.60181E+06         0.44597E+07         0.00000E+00
    0.44597E+07        -0.68168E+07         0.00000E+00
    0.00000E+00         0.00000E+00         0.00000E+00
 
    0.53005E+06         0.46217E+07         0.00000E+00
    0.46217E+07        -0.68002E+07         0.00000E+00
    0.00000E+00         0.00000E+00         0.00000E+00
 
    0.45596E+06         0.47860E+07         0.00000E+00
    0.47860E+07        -0.67797E+07         0.00000E+00
    0.00000E+00         0.00000E+00         0.00000E+00
 
    0.37936E+06         0.49522E+07         0.00000E+00
    0.49522E+07        -0.67553E+07         0.00000E+00
    0.00000E+00         0.00000E+00         0.00000E+00
 
    0.30010E+06         0.51204E+07         0.00000E+00
    0.51204E+07        -0.67268E+07         0.00000E+00
    0.00000E+00         0.00000E+00         0.00000E+00
 
    0.21802E+06         0.52903E+07         0.00000E+00
    0.52903E+07        -0.66942E+07         0.00000E+00
    0.00000E+00         0.00000E+00         0.00000E+00
 
    0.13298E+06         0.54618E+07         0.00000E+00
    0.54618E+07        -0.66573E+07         0.00000E+00
    0.00000E+00         0.00000E+00         0.00000E+00
 
    0.44854E+05         0.56349E+07         0.00000E+00
    0.56349E+07        -0.66161E+07         0.00000E+00
    0.00000E+00         0.00000E+00         0.00000E+00
 
    0.44349E+07         0.28834E+05         0.00000E+00
    0.28834E+05        -0.69042E+07         0.00000E+00
    0.00000E+00         0.00000E+00         0.00000E+00
 
    0.41942E+07         0.83252E+05         0.00000E+00
    0.83252E+05        -0.69090E+07         0.00000E+00
    0.00000E+00         0.00000E+00         0.00000E+00
 
    0.39670E+07         0.13715E+06         0.00000E+00
    0.13715E+06        -0.69181E+07         0.00000E+00
    0.00000E+00         0.00000E+00         0.00000E+00
 
    0.37527E+07         0.19098E+06         0.00000E+00
    0.19098E+06        -0.69313E+07         0.00000E+00
    0.00000E+00         0.00000E+00         0.00000E+00
 
    0.35509E+07         0.24515E+06         0.00000E+00
    0.24515E+06        -0.69483E+07         0.00000E+00
    0.00000E+00         0.00000E+00         0.00000E+00
 
    0.33612E+07         0.30007E+06         0.00000E+00
    0.30007E+06        -0.69689E+07         0.00000E+00
    0.00000E+00         0.00000E+00         0.00000E+00
 
    0.31829E+07         0.35609E+06         0.00000E+00
    0.35609E+06        -0.69927E+07         0.00000E+00
    0.00000E+00         0.00000E+00         0.00000E+00
 
    0.30155E+07         0.41356E+06         0.00000E+00
    0.41356E+06        -0.70196E+07         0.00000E+00
    0.00000E+00         0.00000E+00         0.00000E+00
 
    0.28587E+07         0.47278E+06         0.00000E+00
    0.47278E+06        -0.70493E+07         0.00000E+00
    0.00000E+00         0.00000E+00         0.00000E+00
 
    0.27118E+07         0.53405E+06         0.00000E+00
    0.53405E+06        -0.70815E+07         0.00000E+00
    0.00000E+00         0.00000E+00         0.00000E+00
 
    0.25743E+07         0.59761E+06         0.00000E+00
    0.59761E+06        -0.71159E+07         0.00000E+00
    0.00000E+00         0.00000E+00         0.00000E+00
 
    0.24459E+07         0.66373E+06         0.00000E+00
    0.66373E+06        -0.71524E+07         0.00000E+00
    0.00000E+00         0.00000E+00         0.00000E+00
 
    0.23258E+07         0.73261E+06         0.00000E+00
    0.73261E+06        -0.71906E+07         0.00000E+00
    0.00000E+00         0.00000E+00         0.00000E+00
 
    0.22138E+07         0.80446E+06         0.00000E+00
    0.80446E+06        -0.72304E+07         0.00000E+00
    0.00000E+00         0.00000E+00         0.00000E+00
 
    0.21093E+07         0.87945E+06         0.00000E+00
    0.87945E+06        -0.72714E+07         0.00000E+00
    0.00000E+00         0.00000E+00         0.00000E+00
 
    0.20118E+07         0.95774E+06         0.00000E+00
    0.95774E+06        -0.73134E+07         0.00000E+00
    0.00000E+00         0.00000E+00         0.00000E+00
 
    0.19208E+07         0.10395E+07         0.00000E+00
    0.10395E+07        -0.73562E+07         0.00000E+00
    0.00000E+00         0.00000E+00         0.00000E+00
 
    0.18360E+07         0.11248E+07         0.00000E+00
    0.11248E+07        -0.73996E+07         0.00000E+00
    0.00000E+00         0.00000E+00         0.00000E+00
 
    0.17567E+07         0.12138E+07         0.00000E+00
    0.12138E+07        -0.74433E+07         0.00000E+00
    0.00000E+00         0.00000E+00         0.00000E+00
 
    0.16827E+07         0.13065E+07         0.00000E+00
    0.13065E+07        -0.74870E+07         0.00000E+00
    0.00000E+00         0.00000E+00         0.00000E+00
 
    0.16135E+07         0.14031E+07         0.00000E+00
    0.14031E+07        -0.75307E+07         0.00000E+00
    0.00000E+00         0.00000E+00         0.00000E+00
 
    0.15485E+07         0.15037E+07         0.00000E+00
    0.15037E+07        -0.75740E+07         0.00000E+00
    0.00000E+00         0.00000E+00         0.00000E+00
 
    0.14875E+07         0.16082E+07         0.00000E+00
    0.16082E+07        -0.76168E+07         0.00000E+00
    0.00000E+00         0.00000E+00         0.00000E+00
 
    0.14300E+07         0.17167E+07         0.00000E+00
    0.17167E+07        -0.76587E+07         0.00000E+00
    0.00000E+00         0.00000E+00         0.00000E+00
 
    0.13756E+07         0.18292E+07         0.00000E+00
    0.18292E+07        -0.76998E+07         0.00000E+00
    0.00000E+00         0.00000E+00         0.00000E+00
 
    0.13239E+07         0.19458E+07         0.00000E+00
    0.19458E+07        -0.77396E+07         0.00000E+00
    0.00000E+00         0.00000E+00         0.00000E+00
 
    0.12745E+07         0.20665E+07         0.00000E+00
    0.20665E+07        -0.77781E+07         0.00000E+00
    0.00000E+00         0.00000E+00         0.00000E+00
 
    0.12271E+07         0.21912E+07         0.00000E+00
    0.21912E+07        -0.78151E+07         0.00000E+00
    0.00000E+00         0.00000E+00         0.00000E+00
 
    0.11813E+07         0.23199E+07         0.00000E+00
    0.23199E+07        -0.78503E+07         0.00000E+00
    0.00000E+00         0.00000E+00         0.00000E+00
 
    0.11367E+07         0.24526E+07         0.00000E+00
    0.24526E+07        -0.78837E+07         0.00000E+00
    0.00000E+00         0.00000E+00         0.00000E+00
 
    0.10930E+07         0.25894E+07         0.00000E+00
    0.25894E+07        -0.79149E+07         0.00000E+00
    0.00000E+00         0.00000E+00         0.00000E+00
 
    0.10499E+07         0.27300E+07         0.00000E+00
    0.27300E+07        -0.79439E+07         0.00000E+00
    0.00000E+00         0.00000E+00         0.00000E+00
 
    0.10070E+07         0.28746E+07         0.00000E+00
    0.28746E+07        -0.79704E+07         0.00000E+00
    0.00000E+00         0.00000E+00         0.00000E+00
 
    0.96400E+06         0.30230E+07         0.00000E+00
    0.30230E+07        -0.79943E+07         0.00000E+00
    0.00000E+00         0.00000E+00         0.00000E+00
 
    0.92060E+06         0.31752E+07         0.00000E+00
    0.31752E+07        -0.80155E+07         0.00000E+00
    0.00000E+00         0.00000E+00         0.00000E+00
 
    0.87651E+06         0.33310E+07         0.00000E+00
    0.33310E+07        -0.80337E+07         0.00000E+00
    0.00000E+00         0.00000E+00         0.00000E+00
 
    0.83142E+06         0.34905E+07         0.00000E+00
    0.34905E+07        -0.80489E+07         0.00000E+00
    0.00000E+00         0.00000E+00         0.00000E+00
 
    0.78507E+06         0.36534E+07         0.00000E+00
    0.36534E+07        -0.80609E+07         0.00000E+00
    0.00000E+00         0.00000E+00         0.00000E+00
 
    0.73717E+06         0.38198E+07         0.00000E+00
    0.38198E+07        -0.80695E+07         0.00000E+00
    0.00000E+00         0.00000E+00         0.00000E+00
 
    0.68747E+06         0.39896E+07         0.00000E+00
    0.39896E+07        -0.80745E+07         0.00000E+00
    0.00000E+00         0.00000E+00         0.00000E+00
 
    0.63572E+06         0.41625E+07         0.00000E+00
    0.41625E+07        -0.80760E+07         0.00000E+00
    0.00000E+00         0.00000E+00         0.00000E+00
 
    0.58167E+06         0.43385E+07         0.00000E+00
    0.43385E+07        -0.80736E+07         0.00000E+00
    0.00000E+00         0.00000E+00         0.00000E+00
 
    0.52509E+06         0.45175E+07         0.00000E+00
    0.45175E+07        -0.80673E+07         0.00000E+00
    0.00000E+00         0.00000E+00         0.00000E+00
 
    0.46575E+06         0.46994E+07         0.00000E+00
    0.46994E+07        -0.80569E+07         0.00000E+00
    0.00000E+00         0.00000E+00         0.00000E+00
 
    0.40346E+06         0.48840E+07         0.00000E+00
    0.48840E+07        -0.80424E+07         0.00000E+00
    0.00000E+00         0.00000E+00         0.00000E+00
 
    0.33800E+06         0.50711E+07         0.00000E+00
    0.50711E+07        -0.80236E+07         0.00000E+00
    0.00000E+00         0.00000E+00         0.00000E+00
 
    0.26918E+06         0.52607E+07         0.00000E+00
    0.52607E+07        -0.80004E+07         0.00000E+00
    0.00000E+00         0.00000E+00         0.00000E+00
 
    0.19684E+06         0.54525E+07         0.00000E+00
    0.54525E+07        -0.79727E+07         0.00000E+00
    0.00000E+00         0.00000E+00         0.00000E+00
 
    0.12081E+06         0.56465E+07         0.00000E+00
    0.56465E+07        -0.79404E+07         0.00000E+00
    0.00000E+00         0.00000E+00         0.00000E+00
 
    0.40923E+05         0.58424E+07         0.00000E+00
    0.58424E+07        -0.79033E+07         0.00000E+00
    0.00000E+00         0.00000E+00         0.00000E+00
 
    0.35973E+07         0.14479E+05         0.00000E+00
    0.14479E+05        -0.79552E+07         0.00000E+00
    0.00000E+00         0.00000E+00         0.00000E+00
 
    0.33563E+07         0.44114E+05         0.00000E+00
    0.44114E+05        -0.79611E+07         0.00000E+00
    0.00000E+00         0.00000E+00         0.00000E+00
 
    0.31310E+07         0.74682E+05         0.00000E+00
    0.74682E+05        -0.79724E+07         0.00000E+00
    0.00000E+00         0.00000E+00         0.00000E+00
 
    0.29210E+07         0.10664E+06         0.00000E+00
    0.10664E+06        -0.79886E+07         0.00000E+00
    0.00000E+00         0.00000E+00         0.00000E+00
 
    0.27255E+07         0.14042E+06         0.00000E+00
    0.14042E+06        -0.80094E+07         0.00000E+00
    0.00000E+00         0.00000E+00         0.00000E+00
 
    0.25439E+07         0.17640E+06         0.00000E+00
    0.17640E+06        -0.80346E+07         0.00000E+00
    0.00000E+00         0.00000E+00         0.00000E+00
 
    0.23755E+07         0.21496E+06         0.00000E+00
    0.21496E+06        -0.80637E+07         0.00000E+00
    0.00000E+00         0.00000E+00         0.00000E+00
 
    0.22197E+07         0.25641E+06         0.00000E+00
    0.25641E+06        -0.80965E+07         0.00000E+00
    0.00000E+00         0.00000E+00         0.00000E+00
 
    0.20758E+07         0.30105E+06         0.00000E+00
    0.30105E+06        -0.81326E+07         0.00000E+00
    0.00000E+00         0.00000E+00         0.00000E+00
 
    0.19432E+07         0.34917E+06         0.00000E+00
    0.34917E+06        -0.81718E+07         0.00000E+00
    0.00000E+00         0.00000E+00         0.00000E+00
 
    0.18213E+07         0.40100E+06         0.00000E+00
    0.40100E+06        -0.82136E+07         0.00000E+00
    0.00000E+00         0.00000E+00         0.00000E+00
 
    0.17094E+07         0.45677E+06         0.00000E+00
    0.45677E+06        -0.82579E+07         0.00000E+00
    0.00000E+00         0.00000E+00         0.00000E+00
 
    0.16070E+07         0.51667E+06         0.00000E+00
    0.51667E+06        -0.83042E+07         0.00000E+00
    0.00000E+00         0.00000E+00         0.00000E+00
 
    0.15135E+07         0.58088E+06         0.00000E+00
    0.58088E+06        -0.83524E+07         0.00000E+00
    0.00000E+00         0.00000E+00         0.00000E+00
 
    0.14283E+07         0.64955E+06         0.00000E+00
    0.64955E+06        -0.84021E+07         0.00000E+00
    0.00000E+00         0.00000E+00         0.00000E+00
 
    0.13507E+07         0.72282E+06         0.00000E+00
    0.72282E+06        -0.84530E+07         0.00000E+00
    0.00000E+00         0.00000E+00         0.00000E+00
 
    0.12804E+07         0.80079E+06         0.00000E+00
    0.80079E+06        -0.85049E+07         0.00000E+00
    0.00000E+00         0.00000E+00         0.00000E+00
 
    0.12166E+07         0.88358E+06         0.00000E+00
    0.88358E+06        -0.85575E+07         0.00000E+00
    0.00000E+00         0.00000E+00         0.00000E+00
 
    0.11590E+07         0.97125E+06         0.00000E+00
    0.97125E+06        -0.86106E+07         0.00000E+00
    0.00000E+00         0.00000E+00         0.00000E+00
 
    0.11069E+07         0.10639E+07         0.00000E+00
    0.10639E+07        -0.86638E+07         0.00000E+00
    0.00000E+00         0.00000E+00         0.00000E+00
 
    0.10598E+07         0.11615E+07         0.00000E+00
    0.11615E+07        -0.87170E+07         0.00000E+00
    0.00000E+00         0.00000E+00         0.00000E+00
 
    0.10173E+07         0.12642E+07         0.00000E+00
    0.12642E+07        -0.87699E+07         0.00000E+00
    0.00000E+00         0.00000E+00         0.00000E+00
 
    0.97889E+06         0.13719E+07         0.00000E+00
    0.13719E+07        -0.88223E+07         0.00000E+00
    0.00000E+00         0.00000E+00         0.00000E+00
 
    0.94408E+06         0.14847E+07         0.00000E+00
    0.14847E+07        -0.88739E+07         0.00000E+00
    0.00000E+00         0.00000E+00         0.00000E+00
 
    0.91243E+06         0.16026E+07         0.00000E+00
    0.16026E+07        -0.89246E+07         0.00000E+00
    0.00000E+00         0.00000E+00         0.00000E+00
 
    0.88348E+06         0.17256E+07         0.00000E+00
    0.17256E+07        -0.89740E+07         0.00000E+00
    0.00000E+00         0.00000E+00         0.00000E+00
 
    0.85680E+06         0.18536E+07         0.00000E+00
    0.18536E+07        -0.90221E+07         0.00000E+00
    0.00000E+00         0.00000E+00         0.00000E+00
 
    0.83198E+06         0.19866E+07         0.00000E+00
    0.19866E+07        -0.90686E+07         0.00000E+00
    0.00000E+00         0.00000E+00         0.00000E+00
 
    0.80859E+06         0.21247E+07         0.00000E+00
    0.21247E+07        -0.91133E+07         0.00000E+00
    0.00000E+00         0.00000E+00         0.00000E+00
 
    0.78626E+06         0.22676E+07         0.00000E+00
    0.22676E+07        -0.91561E+07         0.00000E+00
    0.00000E+00         0.00000E+00         0.00000E+00
 
    0.76457E+06         0.24155E+07         0.00000E+00
    0.24155E+07        -0.91966E+07         0.00000E+00
    0.00000E+00         0.00000E+00         0.00000E+00
 
    0.74316E+06         0.25682E+07         0.00000E+00
    0.25682E+07        -0.92348E+07         0.00000E+00
    0.00000E+00         0.00000E+00         0.00000E+00
 
    0.72167E+06         0.27256E+07         0.00000E+00
    0.27256E+07        -0.92705E+07         0.00000E+00
    0.00000E+00         0.00000E+00         0.00000E+00
 
    0.69973E+06         0.28877E+07         0.00000E+00
    0.28877E+07        -0.93035E+07         0.00000E+00
    0.00000E+00         0.00000E+00         0.00000E+00
 
    0.67699E+06         0.30545E+07         0.00000E+00
    0.30545E+07        -0.93335E+07         0.00000E+00
    0.00000E+00         0.00000E+00         0.00000E+00
 
    0.65313E+06         0.32257E+07         0.00000E+00
    0.32257E+07        -0.93605E+07         0.00000E+00
    0.00000E+00         0.00000E+00         0.00000E+00
 
    0.62781E+06         0.34013E+07         0.00000E+00
    0.34013E+07        -0.93843E+07         0.00000E+00
    0.00000E+00         0.00000E+00         0.00000E+00
 
    0.60072E+06         0.35812E+07         0.00000E+00
    0.35812E+07        -0.94047E+07         0.00000E+00
    0.00000E+00         0.00000E+00         0.00000E+00
 
    0.57154E+06         0.37653E+07         0.00000E+00
    0.37653E+07        -0.94216E+07         0.00000E+00
    0.00000E+00         0.00000E+00         0.00000E+00
 
    0.54000E+06         0.39535E+07         0.00000E+00
    0.39535E+07        -0.94347E+07         0.00000E+00
    0.00000E+00         0.00000E+00         0.00000E+00
 
    0.50578E+06         0.41456E+07         0.00000E+00
    0.41456E+07        -0.94440E+07         0.00000E+00
    0.00000E+00         0.00000E+00         0.00000E+00
 
    0.46863E+06         0.43416E+07         0.00000E+00
    0.43416E+07        -0.94492E+07         0.00000E+00
    0.00000E+00         0.00000E+00         0.00000E+00
 
    0.42827E+06         0.45412E+07         0.00000E+00
    0.45412E+07        -0.94503E+07         0.00000E+00
    0.00000E+00         0.00000E+00         0.00000E+00
 
    0.38444E+06         0.47443E+07         0.00000E+00
    0.47443E+07        -0.94471E+07         0.00000E+00
    0.00000E+00         0.00000E+00         0.00000E+00
 
    0.33691E+06         0.49507E+07         0.00000E+00
    0.49507E+07        -0.94395E+07         0.00000E+00
    0.00000E+00         0.00000E+00         0.00000E+00
 
    0.28543E+06         0.51604E+07         0.00000E+00
    0.51604E+07        -0.94272E+07         0.00000E+00
    0.00000E+00         0.00000E+00         0.00000E+00
 
    0.22980E+06         0.53731E+07         0.00000E+00
    0.53731E+07        -0.94103E+07         0.00000E+00
    0.00000E+00         0.00000E+00         0.00000E+00
 
    0.16978E+06         0.55886E+07         0.00000E+00
    0.55886E+07        -0.93885E+07         0.00000E+00
    0.00000E+00         0.00000E+00         0.00000E+00
 
    0.10521E+06         0.58068E+07         0.00000E+00
    0.58068E+07        -0.93617E+07         0.00000E+00
    0.00000E+00         0.00000E+00         0.00000E+00
 
    0.35875E+05         0.60274E+07         0.00000E+00
    0.60274E+07        -0.93299E+07         0.00000E+00
    0.00000E+00         0.00000E+00         0.00000E+00
 
    0.24879E+07        -0.31245E+04         0.00000E+00
   -0.31245E+04        -0.91370E+07         0.00000E+00
    0.00000E+00         0.00000E+00         0.00000E+00
 
    0.22548E+07        -0.34694E+04         0.00000E+00
   -0.34694E+04        -0.91441E+07         0.00000E+00
    0.00000E+00         0.00000E+00         0.00000E+00
 
    0.20400E+07        -0.98426E+03         0.00000E+00
   -0.98426E+03        -0.91575E+07         0.00000E+00
    0.00000E+00         0.00000E+00         0.00000E+00
 
    0.18425E+07         0.47783E+04         0.00000E+00
    0.47783E+04        -0.91769E+07         0.00000E+00
    0.00000E+00         0.00000E+00         0.00000E+00
 
    0.16616E+07         0.14226E+05         0.00000E+00
    0.14226E+05        -0.92016E+07         0.00000E+00
    0.00000E+00         0.00000E+00         0.00000E+00
 
    0.14963E+07         0.27727E+05         0.00000E+00
    0.27727E+05        -0.92314E+07         0.00000E+00
    0.00000E+00         0.00000E+00         0.00000E+00
 
    0.13459E+07         0.45617E+05         0.00000E+00
    0.45617E+05        -0.92659E+07         0.00000E+00
    0.00000E+00         0.00000E+00         0.00000E+00
 
    0.12097E+07         0.68193E+05         0.00000E+00
    0.68193E+05        -0.93046E+07         0.00000E+00
    0.00000E+00         0.00000E+00         0.00000E+00
 
    0.10866E+07         0.95722E+05         0.00000E+00
    0.95722E+05        -0.93471E+07         0.00000E+00
    0.00000E+00         0.00000E+00         0.00000E+00
 
    0.97614E+06         0.12844E+06         0.00000E+00
    0.12844E+06        -0.93931E+07         0.00000E+00
    0.00000E+00         0.00000E+00         0.00000E+00
 
    0.87740E+06         0.16656E+06         0.00000E+00
    0.16656E+06        -0.94423E+07         0.00000E+00
    0.00000E+00         0.00000E+00         0.00000E+00
 
    0.78967E+06         0.21025E+06         0.00000E+00
    0.21025E+06        -0.94942E+07         0.00000E+00
    0.00000E+00         0.00000E+00         0.00000E+00
 
    0.71222E+06         0.25967E+06         0.00000E+00
    0.25967E+06        -0.95484E+07         0.00000E+00
    0.00000E+00         0.00000E+00         0.00000E+00
 
    0.64436E+06         0.31495E+06         0.00000E+00
    0.31495E+06        -0.96048E+07         0.00000E+00
    0.00000E+00         0.00000E+00         0.00000E+00
 
    0.58540E+06         0.37621E+06         0.00000E+00
    0.37621E+06        -0.96628E+07         0.00000E+00
    0.00000E+00         0.00000E+00         0.00000E+00
 
    0.53468E+06         0.44353E+06         0.00000E+00
    0.44353E+06        -0.97223E+07         0.00000E+00
    0.00000E+00         0.00000E+00         0.00000E+00
 
    0.49153E+06         0.51698E+06         0.00000E+00
    0.51698E+06        -0.97829E+07         0.00000E+00
    0.00000E+00         0.00000E+00         0.00000E+00
 
    0.45534E+06         0.59661E+06         0.00000E+00
    0.59661E+06        -0.98444E+07         0.00000E+00
    0.00000E+00         0.00000E+00         0.00000E+00
 
    0.42550E+06         0.68247E+06         0.00000E+00
    0.68247E+06        -0.99063E+07         0.00000E+00
    0.00000E+00         0.00000E+00         0.00000E+00
 
    0.40141E+06         0.77457E+06         0.00000E+00
    0.77457E+06        -0.99686E+07         0.00000E+00
    0.00000E+00         0.00000E+00         0.00000E+00
 
    0.38250E+06         0.87293E+06         0.00000E+00
    0.87293E+06        -0.10031E+08         0.00000E+00
    0.00000E+00         0.00000E+00         0.00000E+00
 
    0.36821E+06         0.97754E+06         0.00000E+00
    0.97754E+06        -0.10093E+08         0.00000E+00
    0.00000E+00         0.00000E+00         0.00000E+00
 
    0.35800E+06         0.10884E+07         0.00000E+00
    0.10884E+07        -0.10154E+08         0.00000E+00
    0.00000E+00         0.00000E+00         0.00000E+00
 
    0.35135E+06         0.12055E+07         0.00000E+00
    0.12055E+07        -0.10215E+08         0.00000E+00
    0.00000E+00         0.00000E+00         0.00000E+00
 
    0.34776E+06         0.13287E+07         0.00000E+00
    0.13287E+07        -0.10275E+08         0.00000E+00
    0.00000E+00         0.00000E+00         0.00000E+00
 
    0.34673E+06         0.14581E+07         0.00000E+00
    0.14581E+07        -0.10334E+08         0.00000E+00
    0.00000E+00         0.00000E+00         0.00000E+00
 
    0.34779E+06         0.15936E+07         0.00000E+00
    0.15936E+07        -0.10391E+08         0.00000E+00
    0.00000E+00         0.00000E+00         0.00000E+00
 
    0.35048E+06         0.17352E+07         0.00000E+00
    0.17352E+07        -0.10447E+08         0.00000E+00
    0.00000E+00         0.00000E+00         0.00000E+00
 
    0.35434E+06         0.18827E+07         0.00000E+00
    0.18827E+07        -0.10500E+08         0.00000E+00
    0.00000E+00         0.00000E+00         0.00000E+00
 
    0.35894E+06         0.20361E+07         0.00000E+00
    0.20361E+07        -0.10552E+08         0.00000E+00
    0.00000E+00         0.00000E+00         0.00000E+00
 
    0.36385E+06         0.21954E+07         0.00000E+00
    0.21954E+07        -0.10602E+08         0.00000E+00
    0.00000E+00         0.00000E+00         0.00000E+00
 
    0.36868E+06         0.23604E+07         0.00000E+00
    0.23604E+07        -0.10649E+08         0.00000E+00
    0.00000E+00         0.00000E+00         0.00000E+00
 
    0.37300E+06         0.25311E+07         0.00000E+00
    0.25311E+07        -0.10694E+08         0.00000E+00
    0.00000E+00         0.00000E+00         0.00000E+00
 
    0.37644E+06         0.27074E+07         0.00000E+00
    0.27074E+07        -0.10736E+08         0.00000E+00
    0.00000E+00         0.00000E+00         0.00000E+00
 
    0.37862E+06         0.28891E+07         0.00000E+00
    0.28891E+07        -0.10775E+08         0.00000E+00
    0.00000E+00         0.00000E+00         0.00000E+00
 
    0.37915E+06         0.30763E+07         0.00000E+00
    0.30763E+07        -0.10811E+08         0.00000E+00
    0.00000E+00         0.00000E+00         0.00000E+00
 
    0.37769E+06         0.32687E+07         0.00000E+00
    0.32687E+07        -0.10844E+08         0.00000E+00
    0.00000E+00         0.00000E+00         0.00000E+00
 
    0.37388E+06         0.34662E+07         0.00000E+00
    0.34662E+07        -0.10873E+08         0.00000E+00
    0.00000E+00         0.00000E+00         0.00000E+00
 
    0.36737E+06         0.36687E+07         0.00000E+00
    0.36687E+07        -0.10898E+08         0.00000E+00
    0.00000E+00         0.00000E+00         0.00000E+00
 
    0.35784E+06         0.38762E+07         0.00000E+00
    0.38762E+07        -0.10920E+08         0.00000E+00
    0.00000E+00         0.00000E+00         0.00000E+00
 
    0.34495E+06         0.40883E+07         0.00000E+00
    0.40883E+07        -0.10938E+08         0.00000E+00
    0.00000E+00         0.00000E+00         0.00000E+00
 
    0.32840E+06         0.43051E+07         0.00000E+00
    0.43051E+07        -0.10951E+08         0.00000E+00
    0.00000E+00         0.00000E+00         0.00000E+00
 
    0.30787E+06         0.45263E+07         0.00000E+00
    0.45263E+07        -0.10961E+08         0.00000E+00
    0.00000E+00         0.00000E+00         0.00000E+00
 
    0.28308E+06         0.47518E+07         0.00000E+00
    0.47518E+07        -0.10966E+08         0.00000E+00
    0.00000E+00         0.00000E+00         0.00000E+00
 
    0.25373E+06         0.49814E+07         0.00000E+00
    0.49814E+07        -0.10966E+08         0.00000E+00
    0.00000E+00         0.00000E+00         0.00000E+00
 
    0.21956E+06         0.52149E+07         0.00000E+00
    0.52149E+07        -0.10961E+08         0.00000E+00
    0.00000E+00         0.00000E+00         0.00000E+00
 
    0.18029E+06         0.54522E+07         0.00000E+00
    0.54522E+07        -0.10952E+08         0.00000E+00
    0.00000E+00         0.00000E+00         0.00000E+00
 
    0.13567E+06         0.56929E+07         0.00000E+00
    0.56929E+07        -0.10937E+08         0.00000E+00
    0.00000E+00         0.00000E+00         0.00000E+00
 
    0.85478E+05         0.59370E+07         0.00000E+00
    0.59370E+07        -0.10917E+08         0.00000E+00
    0.00000E+00         0.00000E+00         0.00000E+00
 
    0.29478E+05         0.61842E+07         0.00000E+00
    0.61842E+07        -0.10892E+08         0.00000E+00
    0.00000E+00         0.00000E+00         0.00000E+00
 
    0.10703E+07        -0.24090E+05         0.00000E+00
   -0.24090E+05        -0.10458E+08         0.00000E+00
    0.00000E+00         0.00000E+00         0.00000E+00
 
    0.85604E+06        -0.59627E+05         0.00000E+00
   -0.59627E+05        -0.10467E+08         0.00000E+00
    0.00000E+00         0.00000E+00         0.00000E+00
 
    0.66225E+06        -0.89924E+05         0.00000E+00
   -0.89924E+05        -0.10482E+08         0.00000E+00
    0.00000E+00         0.00000E+00         0.00000E+00
 
    0.48786E+06        -0.11457E+06         0.00000E+00
   -0.11457E+06        -0.10505E+08         0.00000E+00
    0.00000E+00         0.00000E+00         0.00000E+00
 
    0.33184E+06        -0.13322E+06         0.00000E+00
   -0.13322E+06        -0.10533E+08         0.00000E+00
    0.00000E+00         0.00000E+00         0.00000E+00
 
    0.19314E+06        -0.14553E+06         0.00000E+00
   -0.14553E+06        -0.10568E+08         0.00000E+00
    0.00000E+00         0.00000E+00         0.00000E+00
 
    0.70769E+05        -0.15125E+06         0.00000E+00
   -0.15125E+06        -0.10607E+08         0.00000E+00
    0.00000E+00         0.00000E+00         0.00000E+00
 
   -0.36256E+05        -0.15012E+06         0.00000E+00
   -0.15012E+06        -0.10651E+08         0.00000E+00
    0.00000E+00         0.00000E+00         0.00000E+00
 
   -0.12889E+06        -0.14194E+06         0.00000E+00
   -0.14194E+06        -0.10700E+08         0.00000E+00
    0.00000E+00         0.00000E+00         0.00000E+00
 
   -0.20806E+06        -0.12655E+06         0.00000E+00
   -0.12655E+06        -0.10752E+08         0.00000E+00
    0.00000E+00         0.00000E+00         0.00000E+00
 
   -0.27468E+06        -0.10380E+06         0.00000E+00
   -0.10380E+06        -0.10808E+08         0.00000E+00
    0.00000E+00         0.00000E+00         0.00000E+00
 
   -0.32961E+06        -0.73579E+05         0.00000E+00
   -0.73579E+05        -0.10867E+08         0.00000E+00
    0.00000E+00         0.00000E+00         0.00000E+00
 
   -0.37369E+06        -0.35804E+05         0.00000E+00
   -0.35804E+05        -0.10928E+08         0.00000E+00
    0.00000E+00         0.00000E+00         0.00000E+00
 
   -0.40776E+06         0.95855E+04         0.00000E+00
    0.95855E+04        -0.10992E+08         0.00000E+00
    0.00000E+00         0.00000E+00         0.00000E+00
 
   -0.43260E+06         0.62631E+05         0.00000E+00
    0.62631E+05        -0.11057E+08         0.00000E+00
    0.00000E+00         0.00000E+00         0.00000E+00
 
   -0.44896E+06         0.12335E+06         0.00000E+00
    0.12335E+06        -0.11124E+08         0.00000E+00
    0.00000E+00         0.00000E+00         0.00000E+00
 
   -0.45759E+06         0.19176E+06         0.00000E+00
    0.19176E+06        -0.11192E+08         0.00000E+00
    0.00000E+00         0.00000E+00         0.00000E+00
 
   -0.45919E+06         0.26783E+06         0.00000E+00
    0.26783E+06        -0.11262E+08         0.00000E+00
    0.00000E+00         0.00000E+00         0.00000E+00
 
   -0.45444E+06         0.35155E+06         0.00000E+00
    0.35155E+06        -0.11331E+08         0.00000E+00
    0.00000E+00         0.00000E+00         0.00000E+00
 
   -0.44399E+06         0.44287E+06         0.00000E+00
    0.44287E+06        -0.11401E+08         0.00000E+00
    0.00000E+00         0.00000E+00         0.00000E+00
 
   -0.42847E+06         0.54175E+06         0.00000E+00
    0.54175E+06        -0.11471E+08         0.00000E+00
    0.00000E+00         0.00000E+00         0.00000E+00
 
   -0.40850E+06         0.64814E+06         0.00000E+00
    0.64814E+06        -0.11541E+08         0.00000E+00
    0.00000E+00         0.00000E+00         0.00000E+00
 
   -0.38464E+06         0.76197E+06         0.00000E+00
    0.76197E+06        -0.11610E+08         0.00000E+00
    0.00000E+00         0.00000E+00         0.00000E+00
 
   -0.35747E+06         0.88318E+06         0.00000E+00
    0.88318E+06        -0.11679E+08         0.00000E+00
    0.00000E+00         0.00000E+00         0.00000E+00
 
   -0.32752E+06         0.10117E+07         0.00000E+00
    0.10117E+07        -0.11747E+08         0.00000E+00
    0.00000E+00         0.00000E+00         0.00000E+00
 
   -0.29532E+06         0.11474E+07         0.00000E+00
    0.11474E+07        -0.11813E+08         0.00000E+00
    0.00000E+00         0.00000E+00         0.00000E+00
 
   -0.26136E+06         0.12903E+07         0.00000E+00
    0.12903E+07        -0.11879E+08         0.00000E+00
    0.00000E+00         0.00000E+00         0.00000E+00
 
   -0.22614E+06         0.14402E+07         0.00000E+00
    0.14402E+07        -0.11942E+08         0.00000E+00
    0.00000E+00         0.00000E+00         0.00000E+00
 
   -0.19013E+06         0.15971E+07         0.00000E+00
    0.15971E+07        -0.12004E+08         0.00000E+00
    0.00000E+00         0.00000E+00         0.00000E+00
 
   -0.15379E+06         0.17609E+07         0.00000E+00
    0.17609E+07        -0.12065E+08         0.00000E+00
    0.00000E+00         0.00000E+00         0.00000E+00
 
   -0.11756E+06         0.19314E+07         0.00000E+00
    0.19314E+07        -0.12123E+08         0.00000E+00
    0.00000E+00         0.00000E+00         0.00000E+00
 
   -0.81875E+05         0.21087E+07         0.00000E+00
    0.21087E+07        -0.12178E+08         0.00000E+00
    0.00000E+00         0.00000E+00         0.00000E+00
 
   -0.47164E+05         0.22925E+07         0.00000E+00
    0.22925E+07        -0.12231E+08         0.00000E+00
    0.00000E+00         0.00000E+00         0.00000E+00
 
   -0.13838E+05         0.24828E+07         0.00000E+00
    0.24828E+07        -0.12282E+08         0.00000E+00
    0.00000E+00         0.00000E+00         0.00000E+00
 
    0.17696E+05         0.26795E+07         0.00000E+00
    0.26795E+07        -0.12330E+08         0.00000E+00
    0.00000E+00         0.00000E+00         0.00000E+00
 
    0.47040E+05         0.28825E+07         0.00000E+00
    0.28825E+07        -0.12374E+08         0.00000E+00
    0.00000E+00         0.00000E+00         0.00000E+00
 
    0.73803E+05         0.30916E+07         0.00000E+00
    0.30916E+07        -0.12416E+08         0.00000E+00
    0.00000E+00         0.00000E+00         0.00000E+00
 
    0.97603E+05         0.33068E+07         0.00000E+00
    0.33068E+07        -0.12454E+08         0.00000E+00
    0.00000E+00         0.00000E+00         0.00000E+00
 
    0.11806E+06         0.35279E+07         0.00000E+00
    0.35279E+07        -0.12488E+08         0.00000E+00
    0.00000E+00         0.00000E+00         0.00000E+00
 
    0.13481E+06         0.37548E+07         0.00000E+00
    0.37548E+07        -0.12519E+08         0.00000E+00
    0.00000E+00         0.00000E+00         0.00000E+00
 
    0.14747E+06         0.39873E+07         0.00000E+00
    0.39873E+07        -0.12546E+08         0.00000E+00
    0.00000E+00         0.00000E+00         0.00000E+00
 
    0.15571E+06         0.42253E+07         0.00000E+00
    0.42253E+07        -0.12569E+08         0.00000E+00
    0.00000E+00         0.00000E+00         0.00000E+00
 
    0.15915E+06         0.44686E+07         0.00000E+00
    0.44686E+07        -0.12587E+08         0.00000E+00
    0.00000E+00         0.00000E+00         0.00000E+00
 
    0.15747E+06         0.47171E+07         0.00000E+00
    0.47171E+07        -0.12601E+08         0.00000E+00
    0.00000E+00         0.00000E+00         0.00000E+00
 
    0.15031E+06         0.49706E+07         0.00000E+00
    0.49706E+07        -0.12610E+08         0.00000E+00
    0.00000E+00         0.00000E+00         0.00000E+00
 
    0.13736E+06         0.52289E+07         0.00000E+00
    0.52289E+07        -0.12614E+08         0.00000E+00
    0.00000E+00         0.00000E+00         0.00000E+00
 
    0.11830E+06         0.54917E+07         0.00000E+00
    0.54917E+07        -0.12613E+08         0.00000E+00
    0.00000E+00         0.00000E+00         0.00000E+00
 
    0.92809E+05         0.57589E+07         0.00000E+00
    0.57589E+07        -0.12607E+08         0.00000E+00
    0.00000E+00         0.00000E+00         0.00000E+00
 
    0.60602E+05         0.60303E+07         0.00000E+00
    0.60303E+07        -0.12595E+08         0.00000E+00
    0.00000E+00         0.00000E+00         0.00000E+00
 
    0.21391E+05         0.63055E+07         0.00000E+00
    0.63055E+07        -0.12578E+08         0.00000E+00
    0.00000E+00         0.00000E+00         0.00000E+00
 
   -0.68984E+06        -0.48392E+05         0.00000E+00
   -0.48392E+05        -0.11927E+08         0.00000E+00
    0.00000E+00         0.00000E+00         0.00000E+00
 
   -0.87169E+06        -0.12405E+06         0.00000E+00
   -0.12405E+06        -0.11937E+08         0.00000E+00
    0.00000E+00         0.00000E+00         0.00000E+00
 
   -0.10311E+07        -0.19148E+06         0.00000E+00
   -0.19148E+06        -0.11954E+08         0.00000E+00
    0.00000E+00         0.00000E+00         0.00000E+00
 
   -0.11694E+07        -0.25034E+06         0.00000E+00
   -0.25034E+06        -0.11979E+08         0.00000E+00
    0.00000E+00         0.00000E+00         0.00000E+00
 
   -0.12878E+07        -0.30036E+06         0.00000E+00
   -0.30036E+06        -0.12011E+08         0.00000E+00
    0.00000E+00         0.00000E+00         0.00000E+00
 
   -0.13876E+07        -0.34131E+06         0.00000E+00
   -0.34131E+06        -0.12049E+08         0.00000E+00
    0.00000E+00         0.00000E+00         0.00000E+00
 
   -0.14700E+07        -0.37301E+06         0.00000E+00
   -0.37301E+06        -0.12093E+08         0.00000E+00
    0.00000E+00         0.00000E+00         0.00000E+00
 
   -0.15362E+07        -0.39531E+06         0.00000E+00
   -0.39531E+06        -0.12142E+08         0.00000E+00
    0.00000E+00         0.00000E+00         0.00000E+00
 
   -0.15873E+07        -0.40812E+06         0.00000E+00
   -0.40812E+06        -0.12196E+08         0.00000E+00
    0.00000E+00         0.00000E+00         0.00000E+00
 
   -0.16245E+07        -0.41136E+06         0.00000E+00
   -0.41136E+06        -0.12253E+08         0.00000E+00
    0.00000E+00         0.00000E+00         0.00000E+00
 
   -0.16487E+07        -0.40501E+06         0.00000E+00
   -0.40501E+06        -0.12314E+08         0.00000E+00
    0.00000E+00         0.00000E+00         0.00000E+00
 
   -0.16610E+07        -0.38905E+06         0.00000E+00
   -0.38905E+06        -0.12379E+08         0.00000E+00
    0.00000E+00         0.00000E+00         0.00000E+00
 
   -0.16623E+07        -0.36352E+06         0.00000E+00
   -0.36352E+06        -0.12445E+08         0.00000E+00
    0.00000E+00         0.00000E+00         0.00000E+00
 
   -0.16536E+07        -0.32845E+06         0.00000E+00
   -0.32845E+06        -0.12515E+08         0.00000E+00
    0.00000E+00         0.00000E+00         0.00000E+00
 
   -0.16357E+07        -0.28390E+06         0.00000E+00
   -0.28390E+06        -0.12586E+08         0.00000E+00
    0.00000E+00         0.00000E+00         0.00000E+00
 
   -0.16096E+07        -0.22996E+06         0.00000E+00
   -0.22996E+06        -0.12658E+08         0.00000E+00
    0.00000E+00         0.00000E+00         0.00000E+00
 
   -0.15760E+07        -0.16672E+06         0.00000E+00
   -0.16672E+06        -0.12732E+08         0.00000E+00
    0.00000E+00         0.00000E+00         0.00000E+00
 
   -0.15356E+07        -0.94290E+05         0.00000E+00
   -0.94290E+05        -0.12806E+08         0.00000E+00
    0.00000E+00         0.00000E+00         0.00000E+00
 
   -0.14893E+07        -0.12773E+05         0.00000E+00
   -0.12773E+05        -0.12882E+08         0.00000E+00
    0.00000E+00         0.00000E+00         0.00000E+00
 
   -0.14377E+07         0.77707E+05         0.00000E+00
    0.77707E+05        -0.12957E+08         0.00000E+00
    0.00000E+00         0.00000E+00         0.00000E+00
 
   -0.13814E+07         0.17703E+06         0.00000E+00
    0.17703E+06        -0.13032E+08         0.00000E+00
    0.00000E+00         0.00000E+00         0.00000E+00
 
   -0.13211E+07         0.28506E+06         0.00000E+00
    0.28506E+06        -0.13108E+08         0.00000E+00
    0.00000E+00         0.00000E+00         0.00000E+00
 
   -0.12574E+07         0.40168E+06         0.00000E+00
    0.40168E+06        -0.13182E+08         0.00000E+00
    0.00000E+00         0.00000E+00         0.00000E+00
 
   -0.11909E+07         0.52676E+06         0.00000E+00
    0.52676E+06        -0.13257E+08         0.00000E+00
    0.00000E+00         0.00000E+00         0.00000E+00
 
   -0.11221E+07         0.66018E+06         0.00000E+00
    0.66018E+06        -0.13330E+08         0.00000E+00
    0.00000E+00         0.00000E+00         0.00000E+00
 
   -0.10516E+07         0.80182E+06         0.00000E+00
    0.80182E+06        -0.13402E+08         0.00000E+00
    0.00000E+00         0.00000E+00         0.00000E+00
 
   -0.97979E+06         0.95156E+06         0.00000E+00
    0.95156E+06        -0.13473E+08         0.00000E+00
    0.00000E+00         0.00000E+00         0.00000E+00
 
   -0.90721E+06         0.11093E+07         0.00000E+00
    0.11093E+07        -0.13543E+08         0.00000E+00
    0.00000E+00         0.00000E+00         0.00000E+00
 
   -0.83434E+06         0.12749E+07         0.00000E+00
    0.12749E+07        -0.13611E+08         0.00000E+00
    0.00000E+00         0.00000E+00         0.00000E+00
 
   -0.76162E+06         0.14482E+07         0.00000E+00
    0.14482E+07        -0.13678E+08         0.00000E+00
    0.00000E+00         0.00000E+00         0.00000E+00
 
   -0.68951E+06         0.16293E+07         0.00000E+00
    0.16293E+07        -0.13742E+08         0.00000E+00
    0.00000E+00         0.00000E+00         0.00000E+00
 
   -0.61844E+06         0.18179E+07         0.00000E+00
    0.18179E+07        -0.13805E+08         0.00000E+00
    0.00000E+00         0.00000E+00         0.00000E+00
 
   -0.54883E+06         0.20139E+07         0.00000E+00
    0.20139E+07        -0.13865E+08         0.00000E+00
    0.00000E+00         0.00000E+00         0.00000E+00
 
   -0.48112E+06         0.22174E+07         0.00000E+00
    0.22174E+07        -0.13923E+08         0.00000E+00
    0.00000E+00         0.00000E+00         0.00000E+00
 
   -0.41570E+06         0.24281E+07         0.00000E+00
    0.24281E+07        -0.13979E+08         0.00000E+00
    0.00000E+00         0.00000E+00         0.00000E+00
 
   -0.35301E+06         0.26460E+07         0.00000E+00
    0.26460E+07        -0.14032E+08         0.00000E+00
    0.00000E+00         0.00000E+00         0.00000E+00
 
   -0.29345E+06         0.28710E+07         0.00000E+00
    0.28710E+07        -0.14082E+08         0.00000E+00
    0.00000E+00         0.00000E+00         0.00000E+00
 
   -0.23742E+06         0.31029E+07         0.00000E+00
    0.31029E+07        -0.14128E+08         0.00000E+00
    0.00000E+00         0.00000E+00         0.00000E+00
 
   -0.18535E+06         0.33417E+07         0.00000E+00
    0.33417E+07        -0.14172E+08         0.00000E+00
    0.00000E+00         0.00000E+00         0.00000E+00
 
   -0.13762E+06         0.35873E+07         0.00000E+00
    0.35873E+07        -0.14212E+08         0.00000E+00
    0.00000E+00         0.00000E+00         0.00000E+00
 
   -0.94665E+05         0.38395E+07         0.00000E+00
    0.38395E+07        -0.14248E+08         0.00000E+00
    0.00000E+00         0.00000E+00         0.00000E+00
 
   -0.56876E+05         0.40982E+07         0.00000E+00
    0.40982E+07        -0.14281E+08         0.00000E+00
    0.00000E+00         0.00000E+00         0.00000E+00
 
   -0.24664E+05         0.43633E+07         0.00000E+00
    0.43633E+07        -0.14309E+08         0.00000E+00
    0.00000E+00         0.00000E+00         0.00000E+00
 
    0.15671E+04         0.46346E+07         0.00000E+00
    0.46346E+07        -0.14333E+08         0.00000E+00
    0.00000E+00         0.00000E+00         0.00000E+00
 
    0.21414E+05         0.49119E+07         0.00000E+00
    0.49119E+07        -0.14352E+08         0.00000E+00
    0.00000E+00         0.00000E+00         0.00000E+00
 
    0.34476E+05         0.51951E+07         0.00000E+00
    0.51951E+07        -0.14367E+08         0.00000E+00
    0.00000E+00         0.00000E+00         0.00000E+00
 
    0.40360E+05         0.54839E+07         0.00000E+00
    0.54839E+07        -0.14376E+08         0.00000E+00
    0.00000E+00         0.00000E+00         0.00000E+00
 
    0.38678E+05         0.57781E+07         0.00000E+00
    0.57781E+07        -0.14381E+08         0.00000E+00
    0.00000E+00         0.00000E+00         0.00000E+00
 
    0.29048E+05         0.60775E+07         0.00000E+00
    0.60775E+07        -0.14379E+08         0.00000E+00
    0.00000E+00         0.00000E+00         0.00000E+00
 
    0.11099E+05         0.63819E+07         0.00000E+00
    0.63819E+07        -0.14372E+08         0.00000E+00
    0.00000E+00         0.00000E+00         0.00000E+00
 
   -0.28227E+07        -0.75830E+05         0.00000E+00
   -0.75830E+05        -0.13548E+08         0.00000E+00
    0.00000E+00         0.00000E+00         0.00000E+00
 
   -0.29553E+07        -0.19589E+06         0.00000E+00
   -0.19589E+06        -0.13559E+08         0.00000E+00
    0.00000E+00         0.00000E+00         0.00000E+00
 
   -0.30640E+07        -0.30405E+06         0.00000E+00
   -0.30405E+06        -0.13578E+08         0.00000E+00
    0.00000E+00         0.00000E+00         0.00000E+00
 
   -0.31503E+07        -0.40010E+06         0.00000E+00
   -0.40010E+06        -0.13605E+08         0.00000E+00
    0.00000E+00         0.00000E+00         0.00000E+00
 
   -0.32158E+07        -0.48390E+06         0.00000E+00
   -0.48390E+06        -0.13640E+08         0.00000E+00
    0.00000E+00         0.00000E+00         0.00000E+00
 
   -0.32620E+07        -0.55536E+06         0.00000E+00
   -0.55536E+06        -0.13681E+08         0.00000E+00
    0.00000E+00         0.00000E+00         0.00000E+00
 
   -0.32903E+07        -0.61444E+06         0.00000E+00
   -0.61444E+06        -0.13728E+08         0.00000E+00
    0.00000E+00         0.00000E+00         0.00000E+00
 
   -0.33023E+07        -0.66116E+06         0.00000E+00
   -0.66116E+06        -0.13780E+08         0.00000E+00
    0.00000E+00         0.00000E+00         0.00000E+00
 
   -0.32990E+07        -0.69556E+06         0.00000E+00
   -0.69556E+06        -0.13837E+08         0.00000E+00
    0.00000E+00         0.00000E+00         0.00000E+00
 
   -0.32820E+07        -0.71773E+06         0.00000E+00
   -0.71773E+06        -0.13898E+08         0.00000E+00
    0.00000E+00         0.00000E+00         0.00000E+00
 
   -0.32522E+07        -0.72781E+06         0.00000E+00
   -0.72781E+06        -0.13962E+08         0.00000E+00
    0.00000E+00         0.00000E+00         0.00000E+00
 
   -0.32110E+07        -0.72595E+06         0.00000E+00
   -0.72595E+06        -0.14029E+08         0.00000E+00
    0.00000E+00         0.00000E+00         0.00000E+00
 
   -0.31594E+07        -0.71232E+06         0.00000E+00
   -0.71232E+06        -0.14099E+08         0.00000E+00
    0.00000E+00         0.00000E+00         0.00000E+00
 
   -0.30983E+07        -0.68712E+06         0.00000E+00
   -0.68712E+06        -0.14170E+08         0.00000E+00
    0.00000E+00         0.00000E+00         0.00000E+00
 
   -0.30288E+07        -0.65058E+06         0.00000E+00
   -0.65058E+06        -0.14244E+08         0.00000E+00
    0.00000E+00         0.00000E+00         0.00000E+00
 
   -0.29519E+07        -0.60291E+06         0.00000E+00
   -0.60291E+06        -0.14319E+08         0.00000E+00
    0.00000E+00         0.00000E+00         0.00000E+00
 
   -0.28682E+07        -0.54434E+06         0.00000E+00
   -0.54434E+06        -0.14394E+08         0.00000E+00
    0.00000E+00         0.00000E+00         0.00000E+00
 
   -0.27787E+07        -0.47511E+06         0.00000E+00
   -0.47511E+06        -0.14471E+08         0.00000E+00
    0.00000E+00         0.00000E+00         0.00000E+00
 
   -0.26840E+07        -0.39546E+06         0.00000E+00
   -0.39546E+06        -0.14547E+08         0.00000E+00
    0.00000E+00         0.00000E+00         0.00000E+00
 
   -0.25849E+07        -0.30562E+06         0.00000E+00
   -0.30562E+06        -0.14624E+08         0.00000E+00
    0.00000E+00         0.00000E+00         0.00000E+00
 
   -0.24820E+07        -0.20581E+06         0.00000E+00
   -0.20581E+06        -0.14701E+08         0.00000E+00
    0.00000E+00         0.00000E+00         0.00000E+00
 
   -0.23760E+07        -0.96240E+05         0.00000E+00
   -0.96240E+05        -0.14778E+08         0.00000E+00
    0.00000E+00         0.00000E+00         0.00000E+00
 
   -0.22673E+07         0.22871E+05         0.00000E+00
    0.22871E+05        -0.14855E+08         0.00000E+00
    0.00000E+00         0.00000E+00         0.00000E+00
 
   -0.21566E+07         0.15133E+06         0.00000E+00
    0.15133E+06        -0.14931E+08         0.00000E+00
    0.00000E+00         0.00000E+00         0.00000E+00
 
   -0.20444E+07         0.28897E+06         0.00000E+00
    0.28897E+06        -0.15006E+08         0.00000E+00
    0.00000E+00         0.00000E+00         0.00000E+00
 
   -0.19311E+07         0.43561E+06         0.00000E+00
    0.43561E+06        -0.15080E+08         0.00000E+00
    0.00000E+00         0.00000E+00         0.00000E+00
 
   -0.18172E+07         0.59110E+06         0.00000E+00
    0.59110E+06        -0.15154E+08         0.00000E+00
    0.00000E+00         0.00000E+00         0.00000E+00
 
   -0.17031E+07         0.75530E+06         0.00000E+00
    0.75530E+06        -0.15226E+08         0.00000E+00
    0.00000E+00         0.00000E+00         0.00000E+00
 
   -0.15893E+07         0.92810E+06         0.00000E+00
    0.92810E+06        -0.15297E+08         0.00000E+00
    0.00000E+00         0.00000E+00         0.00000E+00
 
   -0.14762E+07         0.11094E+07         0.00000E+00
    0.11094E+07        -0.15367E+08         0.00000E+00
    0.00000E+00         0.00000E+00         0.00000E+00
 
   -0.13641E+07         0.12990E+07         0.00000E+00
    0.12990E+07        -0.15436E+08         0.00000E+00
    0.00000E+00         0.00000E+00         0.00000E+00
 
   -0.12536E+07         0.14970E+07         0.00000E+00
    0.14970E+07        -0.15503E+08         0.00000E+00
    0.00000E+00         0.00000E+00         0.00000E+00
 
   -0.11449E+07         0.17032E+07         0.00000E+00
    0.17032E+07        -0.15569E+08         0.00000E+00
    0.00000E+00         0.00000E+00         0.00000E+00
 
   -0.10386E+07         0.19176E+07         0.00000E+00
    0.19176E+07        -0.15632E+08         0.00000E+00
    0.00000E+00         0.00000E+00         0.00000E+00
 
   -0.93489E+06         0.21400E+07         0.00000E+00
    0.21400E+07        -0.15694E+08         0.00000E+00
    0.00000E+00         0.00000E+00         0.00000E+00
 
   -0.83433E+06         0.23705E+07         0.00000E+00
    0.23705E+07        -0.15754E+08         0.00000E+00
    0.00000E+00         0.00000E+00         0.00000E+00
 
   -0.73729E+06         0.26090E+07         0.00000E+00
    0.26090E+07        -0.15811E+08         0.00000E+00
    0.00000E+00         0.00000E+00         0.00000E+00
 
   -0.64419E+06         0.28555E+07         0.00000E+00
    0.28555E+07        -0.15866E+08         0.00000E+00
    0.00000E+00         0.00000E+00         0.00000E+00
 
   -0.55547E+06         0.31098E+07         0.00000E+00
    0.31098E+07        -0.15919E+08         0.00000E+00
    0.00000E+00         0.00000E+00         0.00000E+00
 
   -0.47158E+06         0.33719E+07         0.00000E+00
    0.33719E+07        -0.15968E+08         0.00000E+00
    0.00000E+00         0.00000E+00         0.00000E+00
 
   -0.39296E+06         0.36418E+07         0.00000E+00
    0.36418E+07        -0.16015E+08         0.00000E+00
    0.00000E+00         0.00000E+00         0.00000E+00
 
   -0.32009E+06         0.39194E+07         0.00000E+00
    0.39194E+07        -0.16058E+08         0.00000E+00
    0.00000E+00         0.00000E+00         0.00000E+00
 
   -0.25343E+06         0.42046E+07         0.00000E+00
    0.42046E+07        -0.16097E+08         0.00000E+00
    0.00000E+00         0.00000E+00         0.00000E+00
 
   -0.19346E+06         0.44972E+07         0.00000E+00
    0.44972E+07        -0.16133E+08         0.00000E+00
    0.00000E+00         0.00000E+00         0.00000E+00
 
   -0.14069E+06         0.47972E+07         0.00000E+00
    0.47972E+07        -0.16164E+08         0.00000E+00
    0.00000E+00         0.00000E+00         0.00000E+00
 
   -0.95605E+05         0.51043E+07         0.00000E+00
    0.51043E+07        -0.16191E+08         0.00000E+00
    0.00000E+00         0.00000E+00         0.00000E+00
 
   -0.58707E+05         0.54185E+07         0.00000E+00
    0.54185E+07        -0.16213E+08         0.00000E+00
    0.00000E+00         0.00000E+00         0.00000E+00
 
   -0.30502E+05         0.57394E+07         0.00000E+00
    0.57394E+07        -0.16230E+08         0.00000E+00
    0.00000E+00         0.00000E+00         0.00000E+00
 
   -0.11490E+05         0.60670E+07         0.00000E+00
    0.60670E+07        -0.16242E+08         0.00000E+00
    0.00000E+00         0.00000E+00         0.00000E+00
 
   -0.21725E+04         0.64009E+07         0.00000E+00
    0.64009E+07        -0.16248E+08         0.00000E+00
    0.00000E+00         0.00000E+00         0.00000E+00
 
   -0.53515E+07        -0.10601E+06         0.00000E+00
   -0.10601E+06        -0.15324E+08         0.00000E+00
    0.00000E+00         0.00000E+00         0.00000E+00
 
   -0.54142E+07        -0.27364E+06         0.00000E+00
   -0.27364E+06        -0.15335E+08         0.00000E+00
    0.00000E+00         0.00000E+00         0.00000E+00
 
   -0.54522E+07        -0.42491E+06         0.00000E+00
   -0.42491E+06        -0.15356E+08         0.00000E+00
    0.00000E+00         0.00000E+00         0.00000E+00
 
   -0.54675E+07        -0.55979E+06         0.00000E+00
   -0.55979E+06        -0.15384E+08         0.00000E+00
    0.00000E+00         0.00000E+00         0.00000E+00
 
   -0.54618E+07        -0.67834E+06         0.00000E+00
   -0.67834E+06        -0.15420E+08         0.00000E+00
    0.00000E+00         0.00000E+00         0.00000E+00
 
   -0.54370E+07        -0.78068E+06         0.00000E+00
   -0.78068E+06        -0.15463E+08         0.00000E+00
    0.00000E+00         0.00000E+00         0.00000E+00
 
   -0.53949E+07        -0.86699E+06         0.00000E+00
   -0.86699E+06        -0.15511E+08         0.00000E+00
    0.00000E+00         0.00000E+00         0.00000E+00
 
   -0.53370E+07        -0.93749E+06         0.00000E+00
   -0.93749E+06        -0.15564E+08         0.00000E+00
    0.00000E+00         0.00000E+00         0.00000E+00
 
   -0.52649E+07        -0.99248E+06         0.00000E+00
   -0.99248E+06        -0.15622E+08         0.00000E+00
    0.00000E+00         0.00000E+00         0.00000E+00
 
   -0.51801E+07        -0.10323E+07         0.00000E+00
   -0.10323E+07        -0.15682E+08         0.00000E+00
    0.00000E+00         0.00000E+00         0.00000E+00
 
   -0.50838E+07        -0.10573E+07         0.00000E+00
   -0.10573E+07        -0.15746E+08         0.00000E+00
    0.00000E+00         0.00000E+00         0.00000E+00
 
   -0.49775E+07        -0.10678E+07         0.00000E+00
   -0.10678E+07        -0.15813E+08         0.00000E+00
    0.00000E+00         0.00000E+00         0.00000E+00
 
   -0.48622E+07        -0.10644E+07         0.00000E+00
   -0.10644E+07        -0.15881E+08         0.00000E+00
    0.00000E+00         0.00000E+00         0.00000E+00
 
   -0.47391E+07        -0.10473E+07         0.00000E+00
   -0.10473E+07        -0.15951E+08         0.00000E+00
    0.00000E+00         0.00000E+00         0.00000E+00
 
   -0.46092E+07        -0.10171E+07         0.00000E+00
   -0.10171E+07        -0.16022E+08         0.00000E+00
    0.00000E+00         0.00000E+00         0.00000E+00
 
   -0.44734E+07        -0.97414E+06         0.00000E+00
   -0.97414E+06        -0.16093E+08         0.00000E+00
    0.00000E+00         0.00000E+00         0.00000E+00
 
   -0.43325E+07        -0.91888E+06         0.00000E+00
   -0.91888E+06        -0.16166E+08         0.00000E+00
    0.00000E+00         0.00000E+00         0.00000E+00
 
   -0.41874E+07        -0.85174E+06         0.00000E+00
   -0.85174E+06        -0.16238E+08         0.00000E+00
    0.00000E+00         0.00000E+00         0.00000E+00
 
   -0.40386E+07        -0.77311E+06         0.00000E+00
   -0.77311E+06        -0.16311E+08         0.00000E+00
    0.00000E+00         0.00000E+00         0.00000E+00
 
   -0.38869E+07        -0.68337E+06         0.00000E+00
   -0.68337E+06        -0.16384E+08         0.00000E+00
    0.00000E+00         0.00000E+00         0.00000E+00
 
   -0.37328E+07        -0.58287E+06         0.00000E+00
   -0.58287E+06        -0.16457E+08         0.00000E+00
    0.00000E+00         0.00000E+00         0.00000E+00
 
   -0.35769E+07        -0.47194E+06         0.00000E+00
   -0.47194E+06        -0.16530E+08         0.00000E+00
    0.00000E+00         0.00000E+00         0.00000E+00
 
   -0.34196E+07        -0.35089E+06         0.00000E+00
   -0.35089E+06        -0.16602E+08         0.00000E+00
    0.00000E+00         0.00000E+00         0.00000E+00
 
   -0.32613E+07        -0.21998E+06         0.00000E+00
   -0.21998E+06        -0.16674E+08         0.00000E+00
    0.00000E+00         0.00000E+00         0.00000E+00
 
   -0.31024E+07        -0.79452E+05         0.00000E+00
   -0.79452E+05        -0.16746E+08         0.00000E+00
    0.00000E+00         0.00000E+00         0.00000E+00
 
   -0.29434E+07         0.70481E+05         0.00000E+00
    0.70481E+05        -0.16817E+08         0.00000E+00
    0.00000E+00         0.00000E+00         0.00000E+00
 
   -0.27846E+07         0.22964E+06         0.00000E+00
    0.22964E+06        -0.16888E+08         0.00000E+00
    0.00000E+00         0.00000E+00         0.00000E+00
 
   -0.26262E+07         0.39789E+06         0.00000E+00
    0.39789E+06        -0.16958E+08         0.00000E+00
    0.00000E+00         0.00000E+00         0.00000E+00
 
   -0.24686E+07         0.57511E+06         0.00000E+00
    0.57511E+06        -0.17028E+08         0.00000E+00
    0.00000E+00         0.00000E+00         0.00000E+00
 
   -0.23122E+07         0.76120E+06         0.00000E+00
    0.76120E+06        -0.17097E+08         0.00000E+00
    0.00000E+00         0.00000E+00         0.00000E+00
 
   -0.21573E+07         0.95611E+06         0.00000E+00
    0.95611E+06        -0.17166E+08         0.00000E+00
    0.00000E+00         0.00000E+00         0.00000E+00
 
   -0.20041E+07         0.11598E+07         0.00000E+00
    0.11598E+07        -0.17234E+08         0.00000E+00
    0.00000E+00         0.00000E+00         0.00000E+00
 
   -0.18530E+07         0.13723E+07         0.00000E+00
    0.13723E+07        -0.17302E+08         0.00000E+00
    0.00000E+00         0.00000E+00         0.00000E+00
 
   -0.17043E+07         0.15935E+07         0.00000E+00
    0.15935E+07        -0.17369E+08         0.00000E+00
    0.00000E+00         0.00000E+00         0.00000E+00
 
   -0.15584E+07         0.18235E+07         0.00000E+00
    0.18235E+07        -0.17434E+08         0.00000E+00
    0.00000E+00         0.00000E+00         0.00000E+00
 
   -0.14157E+07         0.20623E+07         0.00000E+00
    0.20623E+07        -0.17499E+08         0.00000E+00
    0.00000E+00         0.00000E+00         0.00000E+00
 
   -0.12765E+07         0.23100E+07         0.00000E+00
    0.23100E+07        -0.17563E+08         0.00000E+00
    0.00000E+00         0.00000E+00         0.00000E+00
 
   -0.11413E+07         0.25666E+07         0.00000E+00
    0.25666E+07        -0.17626E+08         0.00000E+00
    0.00000E+00         0.00000E+00         0.00000E+00
 
   -0.10105E+07         0.28321E+07         0.00000E+00
    0.28321E+07        -0.17687E+08         0.00000E+00
    0.00000E+00         0.00000E+00         0.00000E+00
 
   -0.88466E+06         0.31067E+07         0.00000E+00
    0.31067E+07        -0.17746E+08         0.00000E+00
    0.00000E+00         0.00000E+00         0.00000E+00
 
   -0.76421E+06         0.33903E+07         0.00000E+00
    0.33903E+07        -0.17803E+08         0.00000E+00
    0.00000E+00         0.00000E+00         0.00000E+00
 
   -0.64969E+06         0.36829E+07         0.00000E+00
    0.36829E+07        -0.17858E+08         0.00000E+00
    0.00000E+00         0.00000E+00         0.00000E+00
 
   -0.54168E+06         0.39846E+07         0.00000E+00
    0.39846E+07        -0.17910E+08         0.00000E+00
    0.00000E+00         0.00000E+00         0.00000E+00
 
   -0.44074E+06         0.42953E+07         0.00000E+00
    0.42953E+07        -0.17959E+08         0.00000E+00
    0.00000E+00         0.00000E+00         0.00000E+00
 
   -0.34751E+06         0.46151E+07         0.00000E+00
    0.46151E+07        -0.18005E+08         0.00000E+00
    0.00000E+00         0.00000E+00         0.00000E+00
 
   -0.26261E+06         0.49437E+07         0.00000E+00
    0.49437E+07        -0.18047E+08         0.00000E+00
    0.00000E+00         0.00000E+00         0.00000E+00
 
   -0.18668E+06         0.52813E+07         0.00000E+00
    0.52813E+07        -0.18085E+08         0.00000E+00
    0.00000E+00         0.00000E+00         0.00000E+00
 
   -0.12042E+06         0.56274E+07         0.00000E+00
    0.56274E+07        -0.18119E+08         0.00000E+00
    0.00000E+00         0.00000E+00         0.00000E+00
 
   -0.64496E+05         0.59821E+07         0.00000E+00
    0.59821E+07        -0.18147E+08         0.00000E+00
    0.00000E+00         0.00000E+00         0.00000E+00
 
   -0.19604E+05         0.63451E+07         0.00000E+00
    0.63451E+07        -0.18170E+08         0.00000E+00
    0.00000E+00         0.00000E+00         0.00000E+00
 
   -0.82889E+07        -0.13843E+06         0.00000E+00
   -0.13843E+06        -0.17253E+08         0.00000E+00
    0.00000E+00         0.00000E+00         0.00000E+00
 
   -0.82566E+07        -0.35511E+06         0.00000E+00
   -0.35511E+06        -0.17265E+08         0.00000E+00
    0.00000E+00         0.00000E+00         0.00000E+00
 
   -0.81998E+07        -0.54999E+06         0.00000E+00
   -0.54999E+06        -0.17286E+08         0.00000E+00
    0.00000E+00         0.00000E+00         0.00000E+00
 
   -0.81210E+07        -0.72333E+06         0.00000E+00
   -0.72333E+06        -0.17315E+08         0.00000E+00
    0.00000E+00         0.00000E+00         0.00000E+00
 
   -0.80224E+07        -0.87542E+06         0.00000E+00
   -0.87542E+06        -0.17350E+08         0.00000E+00
    0.00000E+00         0.00000E+00         0.00000E+00
 
   -0.79062E+07        -0.10067E+07         0.00000E+00
   -0.10067E+07        -0.17392E+08         0.00000E+00
    0.00000E+00         0.00000E+00         0.00000E+00
 
   -0.77745E+07        -0.11176E+07         0.00000E+00
   -0.11176E+07        -0.17439E+08         0.00000E+00
    0.00000E+00         0.00000E+00         0.00000E+00
 
   -0.76291E+07        -0.12088E+07         0.00000E+00
   -0.12088E+07        -0.17489E+08         0.00000E+00
    0.00000E+00         0.00000E+00         0.00000E+00
 
   -0.74719E+07        -0.12808E+07         0.00000E+00
   -0.12808E+07        -0.17543E+08         0.00000E+00
    0.00000E+00         0.00000E+00         0.00000E+00
 
   -0.73046E+07        -0.13345E+07         0.00000E+00
   -0.13345E+07        -0.17599E+08         0.00000E+00
    0.00000E+00         0.00000E+00         0.00000E+00
 
   -0.71286E+07        -0.13705E+07         0.00000E+00
   -0.13705E+07        -0.17657E+08         0.00000E+00
    0.00000E+00         0.00000E+00         0.00000E+00
 
   -0.69454E+07        -0.13896E+07         0.00000E+00
   -0.13896E+07        -0.17717E+08         0.00000E+00
    0.00000E+00         0.00000E+00         0.00000E+00
 
   -0.67561E+07        -0.13925E+07         0.00000E+00
   -0.13925E+07        -0.17777E+08         0.00000E+00
    0.00000E+00         0.00000E+00         0.00000E+00
 
   -0.65620E+07        -0.13800E+07         0.00000E+00
   -0.13800E+07        -0.17838E+08         0.00000E+00
    0.00000E+00         0.00000E+00         0.00000E+00
 
   -0.63639E+07        -0.13528E+07         0.00000E+00
   -0.13528E+07        -0.17900E+08         0.00000E+00
    0.00000E+00         0.00000E+00         0.00000E+00
 
   -0.61627E+07        -0.13117E+07         0.00000E+00
   -0.13117E+07        -0.17961E+08         0.00000E+00
    0.00000E+00         0.00000E+00         0.00000E+00
 
   -0.59591E+07        -0.12573E+07         0.00000E+00
   -0.12573E+07        -0.18022E+08         0.00000E+00
    0.00000E+00         0.00000E+00         0.00000E+00
 
   -0.57538E+07        -0.11903E+07         0.00000E+00
   -0.11903E+07        -0.18083E+08         0.00000E+00
    0.00000E+00         0.00000E+00         0.00000E+00
 
   -0.55474E+07        -0.11113E+07         0.00000E+00
   -0.11113E+07        -0.18144E+08         0.00000E+00
    0.00000E+00         0.00000E+00         0.00000E+00
 
   -0.53403E+07        -0.10209E+07         0.00000E+00
   -0.10209E+07        -0.18205E+08         0.00000E+00
    0.00000E+00         0.00000E+00         0.00000E+00
 
   -0.51328E+07        -0.91956E+06         0.00000E+00
   -0.91956E+06        -0.18265E+08         0.00000E+00
    0.00000E+00         0.00000E+00         0.00000E+00
 
   -0.49253E+07        -0.80776E+06         0.00000E+00
   -0.80776E+06        -0.18325E+08         0.00000E+00
    0.00000E+00         0.00000E+00         0.00000E+00
 
   -0.47181E+07        -0.68589E+06         0.00000E+00
   -0.68589E+06        -0.18386E+08         0.00000E+00
    0.00000E+00         0.00000E+00         0.00000E+00
 
   -0.45113E+07        -0.55429E+06         0.00000E+00
   -0.55429E+06        -0.18446E+08         0.00000E+00
    0.00000E+00         0.00000E+00         0.00000E+00
 
   -0.43052E+07        -0.41326E+06         0.00000E+00
   -0.41326E+06        -0.18507E+08         0.00000E+00
    0.00000E+00         0.00000E+00         0.00000E+00
 
   -0.40999E+07        -0.26302E+06         0.00000E+00
   -0.26302E+06        -0.18567E+08         0.00000E+00
    0.00000E+00         0.00000E+00         0.00000E+00
 
   -0.38956E+07        -0.10375E+06         0.00000E+00
   -0.10375E+06        -0.18629E+08         0.00000E+00
    0.00000E+00         0.00000E+00         0.00000E+00
 
   -0.36923E+07         0.64413E+05         0.00000E+00
    0.64413E+05        -0.18690E+08         0.00000E+00
    0.00000E+00         0.00000E+00         0.00000E+00
 
   -0.34903E+07         0.24139E+06         0.00000E+00
    0.24139E+06        -0.18753E+08         0.00000E+00
    0.00000E+00         0.00000E+00         0.00000E+00
 
   -0.32896E+07         0.42716E+06         0.00000E+00
    0.42716E+06        -0.18816E+08         0.00000E+00
    0.00000E+00         0.00000E+00         0.00000E+00
 
   -0.30905E+07         0.62173E+06         0.00000E+00
    0.62173E+06        -0.18880E+08         0.00000E+00
    0.00000E+00         0.00000E+00         0.00000E+00
 
   -0.28930E+07         0.82515E+06         0.00000E+00
    0.82515E+06        -0.18945E+08         0.00000E+00
    0.00000E+00         0.00000E+00         0.00000E+00
 
   -0.26973E+07         0.10375E+07         0.00000E+00
    0.10375E+07        -0.19010E+08         0.00000E+00
    0.00000E+00         0.00000E+00         0.00000E+00
 
   -0.25037E+07         0.12590E+07         0.00000E+00
    0.12590E+07        -0.19077E+08         0.00000E+00
    0.00000E+00         0.00000E+00         0.00000E+00
 
   -0.23124E+07         0.14896E+07         0.00000E+00
    0.14896E+07        -0.19144E+08         0.00000E+00
    0.00000E+00         0.00000E+00         0.00000E+00
 
   -0.21238E+07         0.17297E+07         0.00000E+00
    0.17297E+07        -0.19212E+08         0.00000E+00
    0.00000E+00         0.00000E+00         0.00000E+00
 
   -0.19380E+07         0.19794E+07         0.00000E+00
    0.19794E+07        -0.19280E+08         0.00000E+00
    0.00000E+00         0.00000E+00         0.00000E+00
 
   -0.17556E+07         0.22390E+07         0.00000E+00
    0.22390E+07        -0.19349E+08         0.00000E+00
    0.00000E+00         0.00000E+00         0.00000E+00
 
   -0.15770E+07         0.25086E+07         0.00000E+00
    0.25086E+07        -0.19419E+08         0.00000E+00
    0.00000E+00         0.00000E+00         0.00000E+00
 
   -0.14027E+07         0.27885E+07         0.00000E+00
    0.27885E+07        -0.19488E+08         0.00000E+00
    0.00000E+00         0.00000E+00         0.00000E+00
 
   -0.12331E+07         0.30789E+07         0.00000E+00
    0.30789E+07        -0.19557E+08         0.00000E+00
    0.00000E+00         0.00000E+00         0.00000E+00
 
   -0.10690E+07         0.33800E+07         0.00000E+00
    0.33800E+07        -0.19625E+08         0.00000E+00
    0.00000E+00         0.00000E+00         0.00000E+00
 
   -0.91103E+06         0.36920E+07         0.00000E+00
    0.36920E+07        -0.19693E+08         0.00000E+00
    0.00000E+00         0.00000E+00         0.00000E+00
 
   -0.75984E+06         0.40151E+07         0.00000E+00
    0.40151E+07        -0.19759E+08         0.00000E+00
    0.00000E+00         0.00000E+00         0.00000E+00
 
   -0.61626E+06         0.43494E+07         0.00000E+00
    0.43494E+07        -0.19823E+08         0.00000E+00
    0.00000E+00         0.00000E+00         0.00000E+00
 
   -0.48111E+06         0.46950E+07         0.00000E+00
    0.46950E+07        -0.19884E+08         0.00000E+00
    0.00000E+00         0.00000E+00         0.00000E+00
 
   -0.35528E+06         0.50519E+07         0.00000E+00
    0.50519E+07        -0.19943E+08         0.00000E+00
    0.00000E+00         0.00000E+00         0.00000E+00
 
   -0.23969E+06         0.54200E+07         0.00000E+00
    0.54200E+07        -0.19998E+08         0.00000E+00
    0.00000E+00         0.00000E+00         0.00000E+00
 
   -0.13524E+06         0.57994E+07         0.00000E+00
    0.57994E+07        -0.20049E+08         0.00000E+00
    0.00000E+00         0.00000E+00         0.00000E+00
 
   -0.42963E+05         0.61898E+07         0.00000E+00
    0.61898E+07        -0.20094E+08         0.00000E+00
    0.00000E+00         0.00000E+00         0.00000E+00
 
   -0.11634E+08        -0.17239E+06         0.00000E+00
   -0.17239E+06        -0.19329E+08         0.00000E+00
    0.00000E+00         0.00000E+00         0.00000E+00
 
   -0.11475E+08        -0.43753E+06         0.00000E+00
   -0.43753E+06        -0.19341E+08         0.00000E+00
    0.00000E+00         0.00000E+00         0.00000E+00
 
   -0.11294E+08        -0.67399E+06         0.00000E+00
   -0.67399E+06        -0.19362E+08         0.00000E+00
    0.00000E+00         0.00000E+00         0.00000E+00
 
   -0.11093E+08        -0.88217E+06         0.00000E+00
   -0.88217E+06        -0.19389E+08         0.00000E+00
    0.00000E+00         0.00000E+00         0.00000E+00
 
   -0.10875E+08        -0.10630E+07         0.00000E+00
   -0.10630E+07        -0.19422E+08         0.00000E+00
    0.00000E+00         0.00000E+00         0.00000E+00
 
   -0.10643E+08        -0.12174E+07         0.00000E+00
   -0.12174E+07        -0.19459E+08         0.00000E+00
    0.00000E+00         0.00000E+00         0.00000E+00
 
   -0.10399E+08        -0.13465E+07         0.00000E+00
   -0.13465E+07        -0.19500E+08         0.00000E+00
    0.00000E+00         0.00000E+00         0.00000E+00
 
   -0.10147E+08        -0.14513E+07         0.00000E+00
   -0.14513E+07        -0.19542E+08         0.00000E+00
    0.00000E+00         0.00000E+00         0.00000E+00
 
   -0.98868E+07        -0.15332E+07         0.00000E+00
   -0.15332E+07        -0.19586E+08         0.00000E+00
    0.00000E+00         0.00000E+00         0.00000E+00
 
   -0.96217E+07        -0.15932E+07         0.00000E+00
   -0.15932E+07        -0.19631E+08         0.00000E+00
    0.00000E+00         0.00000E+00         0.00000E+00
 
   -0.93530E+07        -0.16329E+07         0.00000E+00
   -0.16329E+07        -0.19675E+08         0.00000E+00
    0.00000E+00         0.00000E+00         0.00000E+00
 
   -0.90821E+07        -0.16533E+07         0.00000E+00
   -0.16533E+07        -0.19719E+08         0.00000E+00
    0.00000E+00         0.00000E+00         0.00000E+00
 
   -0.88102E+07        -0.16559E+07         0.00000E+00
   -0.16559E+07        -0.19762E+08         0.00000E+00
    0.00000E+00         0.00000E+00         0.00000E+00
 
   -0.85382E+07        -0.16420E+07         0.00000E+00
   -0.16420E+07        -0.19804E+08         0.00000E+00
    0.00000E+00         0.00000E+00         0.00000E+00
 
   -0.82670E+07        -0.16126E+07         0.00000E+00
   -0.16126E+07        -0.19845E+08         0.00000E+00
    0.00000E+00         0.00000E+00         0.00000E+00
 
   -0.79971E+07        -0.15689E+07         0.00000E+00
   -0.15689E+07        -0.19884E+08         0.00000E+00
    0.00000E+00         0.00000E+00         0.00000E+00
 
   -0.77289E+07        -0.15120E+07         0.00000E+00
   -0.15120E+07        -0.19923E+08         0.00000E+00
    0.00000E+00         0.00000E+00         0.00000E+00
 
   -0.74628E+07        -0.14427E+07         0.00000E+00
   -0.14427E+07        -0.19962E+08         0.00000E+00
    0.00000E+00         0.00000E+00         0.00000E+00
 
   -0.71990E+07        -0.13620E+07         0.00000E+00
   -0.13620E+07        -0.19999E+08         0.00000E+00
    0.00000E+00         0.00000E+00         0.00000E+00
 
   -0.69375E+07        -0.12705E+07         0.00000E+00
   -0.12705E+07        -0.20036E+08         0.00000E+00
    0.00000E+00         0.00000E+00         0.00000E+00
 
   -0.66784E+07        -0.11688E+07         0.00000E+00
   -0.11688E+07        -0.20074E+08         0.00000E+00
    0.00000E+00         0.00000E+00         0.00000E+00
 
   -0.64216E+07        -0.10577E+07         0.00000E+00
   -0.10577E+07        -0.20111E+08         0.00000E+00
    0.00000E+00         0.00000E+00         0.00000E+00
 
   -0.61671E+07        -0.93740E+06         0.00000E+00
   -0.93740E+06        -0.20149E+08         0.00000E+00
    0.00000E+00         0.00000E+00         0.00000E+00
 
   -0.59147E+07        -0.80843E+06         0.00000E+00
   -0.80843E+06        -0.20188E+08         0.00000E+00
    0.00000E+00         0.00000E+00         0.00000E+00
 
   -0.56642E+07        -0.67105E+06         0.00000E+00
   -0.67105E+06        -0.20228E+08         0.00000E+00
    0.00000E+00         0.00000E+00         0.00000E+00
 
   -0.54156E+07        -0.52548E+06         0.00000E+00
   -0.52548E+06        -0.20270E+08         0.00000E+00
    0.00000E+00         0.00000E+00         0.00000E+00
 
   -0.51685E+07        -0.37185E+06         0.00000E+00
   -0.37185E+06        -0.20313E+08         0.00000E+00
    0.00000E+00         0.00000E+00         0.00000E+00
 
   -0.49229E+07        -0.21024E+06         0.00000E+00
   -0.21024E+06        -0.20359E+08         0.00000E+00
    0.00000E+00         0.00000E+00         0.00000E+00
 
   -0.46786E+07        -0.40660E+05         0.00000E+00
   -0.40660E+05        -0.20406E+08         0.00000E+00
    0.00000E+00         0.00000E+00         0.00000E+00
 
   -0.44355E+07         0.13697E+06         0.00000E+00
    0.13697E+06        -0.20456E+08         0.00000E+00
    0.00000E+00         0.00000E+00         0.00000E+00
 
   -0.41934E+07         0.32277E+06         0.00000E+00
    0.32277E+06        -0.20509E+08         0.00000E+00
    0.00000E+00         0.00000E+00         0.00000E+00
 
   -0.39522E+07         0.51693E+06         0.00000E+00
    0.51693E+06        -0.20565E+08         0.00000E+00
    0.00000E+00         0.00000E+00         0.00000E+00
 
   -0.37119E+07         0.71971E+06         0.00000E+00
    0.71971E+06        -0.20624E+08         0.00000E+00
    0.00000E+00         0.00000E+00         0.00000E+00
 
   -0.34725E+07         0.93140E+06         0.00000E+00
    0.93140E+06        -0.20686E+08         0.00000E+00
    0.00000E+00         0.00000E+00         0.00000E+00
 
   -0.32341E+07         0.11524E+07         0.00000E+00
    0.11524E+07        -0.20751E+08         0.00000E+00
    0.00000E+00         0.00000E+00         0.00000E+00
 
   -0.29967E+07         0.13830E+07         0.00000E+00
    0.13830E+07        -0.20819E+08         0.00000E+00
    0.00000E+00         0.00000E+00         0.00000E+00
 
   -0.27607E+07         0.16238E+07         0.00000E+00
    0.16238E+07        -0.20891E+08         0.00000E+00
    0.00000E+00         0.00000E+00         0.00000E+00
 
   -0.25262E+07         0.18752E+07         0.00000E+00
    0.18752E+07        -0.20965E+08         0.00000E+00
    0.00000E+00         0.00000E+00         0.00000E+00
 
   -0.22936E+07         0.21378E+07         0.00000E+00
    0.21378E+07        -0.21043E+08         0.00000E+00
    0.00000E+00         0.00000E+00         0.00000E+00
 
   -0.20634E+07         0.24120E+07         0.00000E+00
    0.24120E+07        -0.21123E+08         0.00000E+00
    0.00000E+00         0.00000E+00         0.00000E+00
 
   -0.18363E+07         0.26984E+07         0.00000E+00
    0.26984E+07        -0.21206E+08         0.00000E+00
    0.00000E+00         0.00000E+00         0.00000E+00
 
   -0.16128E+07         0.29975E+07         0.00000E+00
    0.29975E+07        -0.21291E+08         0.00000E+00
    0.00000E+00         0.00000E+00         0.00000E+00
 
   -0.13939E+07         0.33098E+07         0.00000E+00
    0.33098E+07        -0.21377E+08         0.00000E+00
    0.00000E+00         0.00000E+00         0.00000E+00
 
   -0.11803E+07         0.36359E+07         0.00000E+00
    0.36359E+07        -0.21464E+08         0.00000E+00
    0.00000E+00         0.00000E+00         0.00000E+00
 
   -0.97308E+06         0.39760E+07         0.00000E+00
    0.39760E+07        -0.21552E+08         0.00000E+00
    0.00000E+00         0.00000E+00         0.00000E+00
 
   -0.77337E+06         0.43306E+07         0.00000E+00
    0.43306E+07        -0.21639E+08         0.00000E+00
    0.00000E+00         0.00000E+00         0.00000E+00
 
   -0.58234E+06         0.47001E+07         0.00000E+00
    0.47001E+07        -0.21725E+08         0.00000E+00
    0.00000E+00         0.00000E+00         0.00000E+00
 
   -0.40134E+06         0.50846E+07         0.00000E+00
    0.50846E+07        -0.21809E+08         0.00000E+00
    0.00000E+00         0.00000E+00         0.00000E+00
 
   -0.23181E+06         0.54843E+07         0.00000E+00
    0.54843E+07        -0.21891E+08         0.00000E+00
    0.00000E+00         0.00000E+00         0.00000E+00
 
   -0.75051E+05         0.58988E+07         0.00000E+00
    0.58988E+07        -0.21967E+08         0.00000E+00
    0.00000E+00         0.00000E+00         0.00000E+00
 
   -0.15368E+08        -0.20866E+06         0.00000E+00
   -0.20866E+06        -0.21541E+08         0.00000E+00
    0.00000E+00         0.00000E+00         0.00000E+00
 
   -0.15041E+08        -0.51765E+06         0.00000E+00
   -0.51765E+06        -0.21552E+08         0.00000E+00
    0.00000E+00         0.00000E+00         0.00000E+00
 
   -0.14696E+08        -0.78825E+06         0.00000E+00
   -0.78825E+06        -0.21570E+08         0.00000E+00
    0.00000E+00         0.00000E+00         0.00000E+00
 
   -0.14337E+08        -0.10227E+07         0.00000E+00
   -0.10227E+07        -0.21593E+08         0.00000E+00
    0.00000E+00         0.00000E+00         0.00000E+00
 
   -0.13967E+08        -0.12222E+07         0.00000E+00
   -0.12222E+07        -0.21619E+08         0.00000E+00
    0.00000E+00         0.00000E+00         0.00000E+00
 
   -0.13590E+08        -0.13881E+07         0.00000E+00
   -0.13881E+07        -0.21647E+08         0.00000E+00
    0.00000E+00         0.00000E+00         0.00000E+00
 
   -0.13209E+08        -0.15225E+07         0.00000E+00
   -0.15225E+07        -0.21674E+08         0.00000E+00
    0.00000E+00         0.00000E+00         0.00000E+00
 
   -0.12827E+08        -0.16273E+07         0.00000E+00
   -0.16273E+07        -0.21700E+08         0.00000E+00
    0.00000E+00         0.00000E+00         0.00000E+00
 
   -0.12446E+08        -0.17050E+07         0.00000E+00
   -0.17050E+07        -0.21723E+08         0.00000E+00
    0.00000E+00         0.00000E+00         0.00000E+00
 
   -0.12069E+08        -0.17580E+07         0.00000E+00
   -0.17580E+07        -0.21744E+08         0.00000E+00
    0.00000E+00         0.00000E+00         0.00000E+00
 
   -0.11698E+08        -0.17887E+07         0.00000E+00
   -0.17887E+07        -0.21760E+08         0.00000E+00
    0.00000E+00         0.00000E+00         0.00000E+00
 
   -0.11333E+08        -0.17993E+07         0.00000E+00
   -0.17993E+07        -0.21774E+08         0.00000E+00
    0.00000E+00         0.00000E+00         0.00000E+00
 
   -0.10975E+08        -0.17920E+07         0.00000E+00
   -0.17920E+07        -0.21784E+08         0.00000E+00
    0.00000E+00         0.00000E+00         0.00000E+00
 
   -0.10624E+08        -0.17685E+07         0.00000E+00
   -0.17685E+07        -0.21791E+08         0.00000E+00
    0.00000E+00         0.00000E+00         0.00000E+00
 
   -0.10281E+08        -0.17307E+07         0.00000E+00
   -0.17307E+07        -0.21796E+08         0.00000E+00
    0.00000E+00         0.00000E+00         0.00000E+00
 
   -0.99455E+07        -0.16800E+07         0.00000E+00
   -0.16800E+07        -0.21799E+08         0.00000E+00
    0.00000E+00         0.00000E+00         0.00000E+00
 
   -0.96172E+07        -0.16177E+07         0.00000E+00
   -0.16177E+07        -0.21801E+08         0.00000E+00
    0.00000E+00         0.00000E+00         0.00000E+00
 
   -0.92958E+07        -0.15450E+07         0.00000E+00
   -0.15450E+07        -0.21801E+08         0.00000E+00
    0.00000E+00         0.00000E+00         0.00000E+00
 
   -0.89809E+07        -0.14627E+07         0.00000E+00
   -0.14627E+07        -0.21802E+08         0.00000E+00
    0.00000E+00         0.00000E+00         0.00000E+00
 
   -0.86719E+07        -0.13717E+07         0.00000E+00
   -0.13717E+07        -0.21802E+08         0.00000E+00
    0.00000E+00         0.00000E+00         0.00000E+00
 
   -0.83684E+07        -0.12726E+07         0.00000E+00
   -0.12726E+07        -0.21804E+08         0.00000E+00
    0.00000E+00         0.00000E+00         0.00000E+00
 
   -0.80697E+07        -0.11661E+07         0.00000E+00
   -0.11661E+07        -0.21807E+08         0.00000E+00
    0.00000E+00         0.00000E+00         0.00000E+00
 
   -0.77753E+07        -0.10525E+07         0.00000E+00
   -0.10525E+07        -0.21811E+08         0.00000E+00
    0.00000E+00         0.00000E+00         0.00000E+00
 
   -0.74846E+07        -0.93225E+06         0.00000E+00
   -0.93225E+06        -0.21819E+08         0.00000E+00
    0.00000E+00         0.00000E+00         0.00000E+00
 
   -0.71970E+07        -0.80547E+06         0.00000E+00
   -0.80547E+06        -0.21828E+08         0.00000E+00
    0.00000E+00         0.00000E+00         0.00000E+00
 
   -0.69118E+07        -0.67234E+06         0.00000E+00
   -0.67234E+06        -0.21842E+08         0.00000E+00
    0.00000E+00         0.00000E+00         0.00000E+00
 
   -0.66287E+07        -0.53292E+06         0.00000E+00
   -0.53292E+06        -0.21859E+08         0.00000E+00
    0.00000E+00         0.00000E+00         0.00000E+00
 
   -0.63469E+07        -0.38719E+06         0.00000E+00
   -0.38719E+06        -0.21879E+08         0.00000E+00
    0.00000E+00         0.00000E+00         0.00000E+00
 
   -0.60660E+07        -0.23505E+06         0.00000E+00
   -0.23505E+06        -0.21905E+08         0.00000E+00
    0.00000E+00         0.00000E+00         0.00000E+00
 
   -0.57855E+07        -0.76307E+05         0.00000E+00
   -0.76307E+05        -0.21935E+08         0.00000E+00
    0.00000E+00         0.00000E+00         0.00000E+00
 
   -0.55049E+07         0.89284E+05         0.00000E+00
    0.89284E+05        -0.21971E+08         0.00000E+00
    0.00000E+00         0.00000E+00         0.00000E+00
 
   -0.52237E+07         0.26206E+06         0.00000E+00
    0.26206E+06        -0.22012E+08         0.00000E+00
    0.00000E+00         0.00000E+00         0.00000E+00
 
   -0.49416E+07         0.44243E+06         0.00000E+00
    0.44243E+06        -0.22059E+08         0.00000E+00
    0.00000E+00         0.00000E+00         0.00000E+00
 
   -0.46582E+07         0.63089E+06         0.00000E+00
    0.63089E+06        -0.22111E+08         0.00000E+00
    0.00000E+00         0.00000E+00         0.00000E+00
 
   -0.43733E+07         0.82801E+06         0.00000E+00
    0.82801E+06        -0.22171E+08         0.00000E+00
    0.00000E+00         0.00000E+00         0.00000E+00
 
   -0.40867E+07         0.10344E+07         0.00000E+00
    0.10344E+07        -0.22236E+08         0.00000E+00
    0.00000E+00         0.00000E+00         0.00000E+00
 
   -0.37983E+07         0.12509E+07         0.00000E+00
    0.12509E+07        -0.22309E+08         0.00000E+00
    0.00000E+00         0.00000E+00         0.00000E+00
 
   -0.35080E+07         0.14783E+07         0.00000E+00
    0.14783E+07        -0.22388E+08         0.00000E+00
    0.00000E+00         0.00000E+00         0.00000E+00
 
   -0.32160E+07         0.17175E+07         0.00000E+00
    0.17175E+07        -0.22473E+08         0.00000E+00
    0.00000E+00         0.00000E+00         0.00000E+00
 
   -0.29226E+07         0.19695E+07         0.00000E+00
    0.19695E+07        -0.22566E+08         0.00000E+00
    0.00000E+00         0.00000E+00         0.00000E+00
 
   -0.26283E+07         0.22354E+07         0.00000E+00
    0.22354E+07        -0.22664E+08         0.00000E+00
    0.00000E+00         0.00000E+00         0.00000E+00
 
   -0.23337E+07         0.25162E+07         0.00000E+00
    0.25162E+07        -0.22769E+08         0.00000E+00
    0.00000E+00         0.00000E+00         0.00000E+00
 
   -0.20398E+07         0.28130E+07         0.00000E+00
    0.28130E+07        -0.22879E+08         0.00000E+00
    0.00000E+00         0.00000E+00         0.00000E+00
 
   -0.17477E+07         0.31271E+07         0.00000E+00
    0.31271E+07        -0.22995E+08         0.00000E+00
    0.00000E+00         0.00000E+00         0.00000E+00
 
   -0.14587E+07         0.34592E+07         0.00000E+00
    0.34592E+07        -0.23114E+08         0.00000E+00
    0.00000E+00         0.00000E+00         0.00000E+00
 
   -0.11745E+07         0.38104E+07         0.00000E+00
    0.38104E+07        -0.23236E+08         0.00000E+00
    0.00000E+00         0.00000E+00         0.00000E+00
 
   -0.89661E+06         0.41812E+07         0.00000E+00
    0.41812E+07        -0.23360E+08         0.00000E+00
    0.00000E+00         0.00000E+00         0.00000E+00
 
   -0.62682E+06         0.45722E+07         0.00000E+00
    0.45722E+07        -0.23484E+08         0.00000E+00
    0.00000E+00         0.00000E+00         0.00000E+00
 
   -0.36695E+06         0.49841E+07         0.00000E+00
    0.49841E+07        -0.23608E+08         0.00000E+00
    0.00000E+00         0.00000E+00         0.00000E+00
 
   -0.11987E+06         0.54185E+07         0.00000E+00
    0.54185E+07        -0.23730E+08         0.00000E+00
    0.00000E+00         0.00000E+00         0.00000E+00
 
   -0.19448E+08        -0.24392E+06         0.00000E+00
   -0.24392E+06        -0.23864E+08         0.00000E+00
    0.00000E+00         0.00000E+00         0.00000E+00
 
   -0.18897E+08        -0.58898E+06         0.00000E+00
   -0.58898E+06        -0.23873E+08         0.00000E+00
    0.00000E+00         0.00000E+00         0.00000E+00
 
   -0.18334E+08        -0.88438E+06         0.00000E+00
   -0.88438E+06        -0.23891E+08         0.00000E+00
    0.00000E+00         0.00000E+00         0.00000E+00
 
   -0.17763E+08        -0.11277E+07         0.00000E+00
   -0.11277E+07        -0.23909E+08         0.00000E+00
    0.00000E+00         0.00000E+00         0.00000E+00
 
   -0.17194E+08        -0.13218E+07         0.00000E+00
   -0.13218E+07        -0.23922E+08         0.00000E+00
    0.00000E+00         0.00000E+00         0.00000E+00
 
   -0.16633E+08        -0.14716E+07         0.00000E+00
   -0.14716E+07        -0.23928E+08         0.00000E+00
    0.00000E+00         0.00000E+00         0.00000E+00
 
   -0.16086E+08        -0.15827E+07         0.00000E+00
   -0.15827E+07        -0.23925E+08         0.00000E+00
    0.00000E+00         0.00000E+00         0.00000E+00
 
   -0.15556E+08        -0.16607E+07         0.00000E+00
   -0.16607E+07        -0.23912E+08         0.00000E+00
    0.00000E+00         0.00000E+00         0.00000E+00
 
   -0.15044E+08        -0.17105E+07         0.00000E+00
   -0.17105E+07        -0.23891E+08         0.00000E+00
    0.00000E+00         0.00000E+00         0.00000E+00
 
   -0.14552E+08        -0.17363E+07         0.00000E+00
   -0.17363E+07        -0.23862E+08         0.00000E+00
    0.00000E+00         0.00000E+00         0.00000E+00
 
   -0.14080E+08        -0.17421E+07         0.00000E+00
   -0.17421E+07        -0.23826E+08         0.00000E+00
    0.00000E+00         0.00000E+00         0.00000E+00
 
   -0.13627E+08        -0.17307E+07         0.00000E+00
   -0.17307E+07        -0.23784E+08         0.00000E+00
    0.00000E+00         0.00000E+00         0.00000E+00
 
   -0.13191E+08        -0.17050E+07         0.00000E+00
   -0.17050E+07        -0.23738E+08         0.00000E+00
    0.00000E+00         0.00000E+00         0.00000E+00
 
   -0.12773E+08        -0.16670E+07         0.00000E+00
   -0.16670E+07        -0.23689E+08         0.00000E+00
    0.00000E+00         0.00000E+00         0.00000E+00
 
   -0.12371E+08        -0.16185E+07         0.00000E+00
   -0.16185E+07        -0.23638E+08         0.00000E+00
    0.00000E+00         0.00000E+00         0.00000E+00
 
   -0.11982E+08        -0.15609E+07         0.00000E+00
   -0.15609E+07        -0.23585E+08         0.00000E+00
    0.00000E+00         0.00000E+00         0.00000E+00
 
   -0.11607E+08        -0.14956E+07         0.00000E+00
   -0.14956E+07        -0.23533E+08         0.00000E+00
    0.00000E+00         0.00000E+00         0.00000E+00
 
   -0.11244E+08        -0.14234E+07         0.00000E+00
   -0.14234E+07        -0.23481E+08         0.00000E+00
    0.00000E+00         0.00000E+00         0.00000E+00
 
   -0.10891E+08        -0.13451E+07         0.00000E+00
   -0.13451E+07        -0.23431E+08         0.00000E+00
    0.00000E+00         0.00000E+00         0.00000E+00
 
   -0.10548E+08        -0.12615E+07         0.00000E+00
   -0.12615E+07        -0.23383E+08         0.00000E+00
    0.00000E+00         0.00000E+00         0.00000E+00
 
   -0.10212E+08        -0.11728E+07         0.00000E+00
   -0.11728E+07        -0.23338E+08         0.00000E+00
    0.00000E+00         0.00000E+00         0.00000E+00
 
   -0.98840E+07        -0.10796E+07         0.00000E+00
   -0.10796E+07        -0.23296E+08         0.00000E+00
    0.00000E+00         0.00000E+00         0.00000E+00
 
   -0.95614E+07        -0.98203E+06         0.00000E+00
   -0.98203E+06        -0.23259E+08         0.00000E+00
    0.00000E+00         0.00000E+00         0.00000E+00
 
   -0.92436E+07        -0.88036E+06         0.00000E+00
   -0.88036E+06        -0.23227E+08         0.00000E+00
    0.00000E+00         0.00000E+00         0.00000E+00
 
   -0.89295E+07        -0.77465E+06         0.00000E+00
   -0.77465E+06        -0.23200E+08         0.00000E+00
    0.00000E+00         0.00000E+00         0.00000E+00
 
   -0.86181E+07        -0.66492E+06         0.00000E+00
   -0.66492E+06        -0.23178E+08         0.00000E+00
    0.00000E+00         0.00000E+00         0.00000E+00
 
   -0.83086E+07        -0.55113E+06         0.00000E+00
   -0.55113E+06        -0.23163E+08         0.00000E+00
    0.00000E+00         0.00000E+00         0.00000E+00
 
   -0.79999E+07        -0.43315E+06         0.00000E+00
   -0.43315E+06        -0.23154E+08         0.00000E+00
    0.00000E+00         0.00000E+00         0.00000E+00
 
   -0.76911E+07        -0.31080E+06         0.00000E+00
   -0.31080E+06        -0.23153E+08         0.00000E+00
    0.00000E+00         0.00000E+00         0.00000E+00
 
   -0.73815E+07        -0.18383E+06         0.00000E+00
   -0.18383E+06        -0.23159E+08         0.00000E+00
    0.00000E+00         0.00000E+00         0.00000E+00
 
   -0.70701E+07        -0.51903E+05         0.00000E+00
   -0.51903E+05        -0.23172E+08         0.00000E+00
    0.00000E+00         0.00000E+00         0.00000E+00
 
   -0.67561E+07         0.85379E+05         0.00000E+00
    0.85379E+05        -0.23194E+08         0.00000E+00
    0.00000E+00         0.00000E+00         0.00000E+00
 
   -0.64387E+07         0.22850E+06         0.00000E+00
    0.22850E+06        -0.23225E+08         0.00000E+00
    0.00000E+00         0.00000E+00         0.00000E+00
 
   -0.61171E+07         0.37804E+06         0.00000E+00
    0.37804E+06        -0.23265E+08         0.00000E+00
    0.00000E+00         0.00000E+00         0.00000E+00
 
   -0.57905E+07         0.53468E+06         0.00000E+00
    0.53468E+06        -0.23315E+08         0.00000E+00
    0.00000E+00         0.00000E+00         0.00000E+00
 
   -0.54583E+07         0.69921E+06         0.00000E+00
    0.69921E+06        -0.23374E+08         0.00000E+00
    0.00000E+00         0.00000E+00         0.00000E+00
 
   -0.51197E+07         0.87256E+06         0.00000E+00
    0.87256E+06        -0.23444E+08         0.00000E+00
    0.00000E+00         0.00000E+00         0.00000E+00
 
   -0.47742E+07         0.10558E+07         0.00000E+00
    0.10558E+07        -0.23524E+08         0.00000E+00
    0.00000E+00         0.00000E+00         0.00000E+00
 
   -0.44213E+07         0.12502E+07         0.00000E+00
    0.12502E+07        -0.23616E+08         0.00000E+00
    0.00000E+00         0.00000E+00         0.00000E+00
 
   -0.40605E+07         0.14571E+07         0.00000E+00
    0.14571E+07        -0.23719E+08         0.00000E+00
    0.00000E+00         0.00000E+00         0.00000E+00
 
   -0.36917E+07         0.16783E+07         0.00000E+00
    0.16783E+07        -0.23834E+08         0.00000E+00
    0.00000E+00         0.00000E+00         0.00000E+00
 
   -0.33150E+07         0.19156E+07         0.00000E+00
    0.19156E+07        -0.23961E+08         0.00000E+00
    0.00000E+00         0.00000E+00         0.00000E+00
 
   -0.29307E+07         0.21711E+07         0.00000E+00
    0.21711E+07        -0.24099E+08         0.00000E+00
    0.00000E+00         0.00000E+00         0.00000E+00
 
   -0.25398E+07         0.24473E+07         0.00000E+00
    0.24473E+07        -0.24250E+08         0.00000E+00
    0.00000E+00         0.00000E+00         0.00000E+00
 
   -0.21438E+07         0.27466E+07         0.00000E+00
    0.27466E+07        -0.24411E+08         0.00000E+00
    0.00000E+00         0.00000E+00         0.00000E+00
 
   -0.17450E+07         0.30718E+07         0.00000E+00
    0.30718E+07        -0.24582E+08         0.00000E+00
    0.00000E+00         0.00000E+00         0.00000E+00
 
   -0.13465E+07         0.34252E+07         0.00000E+00
    0.34252E+07        -0.24761E+08         0.00000E+00
    0.00000E+00         0.00000E+00         0.00000E+00
 
   -0.95216E+06         0.38085E+07         0.00000E+00
    0.38085E+07        -0.24945E+08         0.00000E+00
    0.00000E+00         0.00000E+00         0.00000E+00
 
   -0.56561E+06         0.42218E+07         0.00000E+00
    0.42218E+07        -0.25131E+08         0.00000E+00
    0.00000E+00         0.00000E+00         0.00000E+00
 
   -0.18733E+06         0.46614E+07         0.00000E+00
    0.46614E+07        -0.25314E+08         0.00000E+00
    0.00000E+00         0.00000E+00         0.00000E+00
 
   -0.23821E+08        -0.30969E+06         0.00000E+00
   -0.30969E+06        -0.26302E+08         0.00000E+00
    0.00000E+00         0.00000E+00         0.00000E+00
 
   -0.22911E+08        -0.67445E+06         0.00000E+00
   -0.67445E+06        -0.26332E+08         0.00000E+00
    0.00000E+00         0.00000E+00         0.00000E+00
 
   -0.22008E+08        -0.93215E+06         0.00000E+00
   -0.93215E+06        -0.26333E+08         0.00000E+00
    0.00000E+00         0.00000E+00         0.00000E+00
 
   -0.21143E+08        -0.11111E+07         0.00000E+00
   -0.11111E+07        -0.26307E+08         0.00000E+00
    0.00000E+00         0.00000E+00         0.00000E+00
 
   -0.20328E+08        -0.12322E+07         0.00000E+00
   -0.12322E+07        -0.26257E+08         0.00000E+00
    0.00000E+00         0.00000E+00         0.00000E+00
 
   -0.19564E+08        -0.13103E+07         0.00000E+00
   -0.13103E+07        -0.26186E+08         0.00000E+00
    0.00000E+00         0.00000E+00         0.00000E+00
 
   -0.18851E+08        -0.13564E+07         0.00000E+00
   -0.13564E+07        -0.26098E+08         0.00000E+00
    0.00000E+00         0.00000E+00         0.00000E+00
 
   -0.18185E+08        -0.13782E+07         0.00000E+00
   -0.13782E+07        -0.25997E+08         0.00000E+00
    0.00000E+00         0.00000E+00         0.00000E+00
 
   -0.17564E+08        -0.13816E+07         0.00000E+00
   -0.13816E+07        -0.25887E+08         0.00000E+00
    0.00000E+00         0.00000E+00         0.00000E+00
 
   -0.16982E+08        -0.13707E+07         0.00000E+00
   -0.13707E+07        -0.25770E+08         0.00000E+00
    0.00000E+00         0.00000E+00         0.00000E+00
 
   -0.16435E+08        -0.13488E+07         0.00000E+00
   -0.13488E+07        -0.25648E+08         0.00000E+00
    0.00000E+00         0.00000E+00         0.00000E+00
 
   -0.15920E+08        -0.13181E+07         0.00000E+00
   -0.13181E+07        -0.25525E+08         0.00000E+00
    0.00000E+00         0.00000E+00         0.00000E+00
 
   -0.15434E+08        -0.12805E+07         0.00000E+00
   -0.12805E+07        -0.25400E+08         0.00000E+00
    0.00000E+00         0.00000E+00         0.00000E+00
 
   -0.14973E+08        -0.12372E+07         0.00000E+00
   -0.12372E+07        -0.25277E+08         0.00000E+00
    0.00000E+00         0.00000E+00         0.00000E+00
 
   -0.14535E+08        -0.11894E+07         0.00000E+00
   -0.11894E+07        -0.25155E+08         0.00000E+00
    0.00000E+00         0.00000E+00         0.00000E+00
 
   -0.14116E+08        -0.11377E+07         0.00000E+00
   -0.11377E+07        -0.25037E+08         0.00000E+00
    0.00000E+00         0.00000E+00         0.00000E+00
 
   -0.13714E+08        -0.10828E+07         0.00000E+00
   -0.10828E+07        -0.24922E+08         0.00000E+00
    0.00000E+00         0.00000E+00         0.00000E+00
 
   -0.13328E+08        -0.10252E+07         0.00000E+00
   -0.10252E+07        -0.24812E+08         0.00000E+00
    0.00000E+00         0.00000E+00         0.00000E+00
 
   -0.12954E+08        -0.96511E+06         0.00000E+00
   -0.96511E+06        -0.24708E+08         0.00000E+00
    0.00000E+00         0.00000E+00         0.00000E+00
 
   -0.12592E+08        -0.90289E+06         0.00000E+00
   -0.90289E+06        -0.24609E+08         0.00000E+00
    0.00000E+00         0.00000E+00         0.00000E+00
 
   -0.12240E+08        -0.83868E+06         0.00000E+00
   -0.83868E+06        -0.24516E+08         0.00000E+00
    0.00000E+00         0.00000E+00         0.00000E+00
 
   -0.11895E+08        -0.77260E+06         0.00000E+00
   -0.77260E+06        -0.24430E+08         0.00000E+00
    0.00000E+00         0.00000E+00         0.00000E+00
 
   -0.11557E+08        -0.70471E+06         0.00000E+00
   -0.70471E+06        -0.24352E+08         0.00000E+00
    0.00000E+00         0.00000E+00         0.00000E+00
 
   -0.11224E+08        -0.63501E+06         0.00000E+00
   -0.63501E+06        -0.24281E+08         0.00000E+00
    0.00000E+00         0.00000E+00         0.00000E+00
 
   -0.10895E+08        -0.56348E+06         0.00000E+00
   -0.56348E+06        -0.24218E+08         0.00000E+00
    0.00000E+00         0.00000E+00         0.00000E+00
 
   -0.10569E+08        -0.49005E+06         0.00000E+00
   -0.49005E+06        -0.24163E+08         0.00000E+00
    0.00000E+00         0.00000E+00         0.00000E+00
 
   -0.10243E+08        -0.41462E+06         0.00000E+00
   -0.41462E+06        -0.24117E+08         0.00000E+00
    0.00000E+00         0.00000E+00         0.00000E+00
 
   -0.99181E+07        -0.33703E+06         0.00000E+00
   -0.33703E+06        -0.24080E+08         0.00000E+00
    0.00000E+00         0.00000E+00         0.00000E+00
 
   -0.95917E+07        -0.25711E+06         0.00000E+00
   -0.25711E+06        -0.24053E+08         0.00000E+00
    0.00000E+00         0.00000E+00         0.00000E+00
 
   -0.92630E+07        -0.17461E+06         0.00000E+00
   -0.17461E+06        -0.24035E+08         0.00000E+00
    0.00000E+00         0.00000E+00         0.00000E+00
 
   -0.89309E+07        -0.89273E+05         0.00000E+00
   -0.89273E+05        -0.24028E+08         0.00000E+00
    0.00000E+00         0.00000E+00         0.00000E+00
 
   -0.85941E+07        -0.75573E+03         0.00000E+00
   -0.75573E+03        -0.24031E+08         0.00000E+00
    0.00000E+00         0.00000E+00         0.00000E+00
 
   -0.82515E+07         0.91332E+05         0.00000E+00
    0.91332E+05        -0.24045E+08         0.00000E+00
    0.00000E+00         0.00000E+00         0.00000E+00
 
   -0.79017E+07         0.18745E+06         0.00000E+00
    0.18745E+06        -0.24071E+08         0.00000E+00
    0.00000E+00         0.00000E+00         0.00000E+00
 
   -0.75436E+07         0.28816E+06         0.00000E+00
    0.28816E+06        -0.24109E+08         0.00000E+00
    0.00000E+00         0.00000E+00         0.00000E+00
 
   -0.71758E+07         0.39411E+06         0.00000E+00
    0.39411E+06        -0.24159E+08         0.00000E+00
    0.00000E+00         0.00000E+00         0.00000E+00
 
   -0.67969E+07         0.50608E+06         0.00000E+00
    0.50608E+06        -0.24223E+08         0.00000E+00
    0.00000E+00         0.00000E+00         0.00000E+00
 
   -0.64053E+07         0.62501E+06         0.00000E+00
    0.62501E+06        -0.24302E+08         0.00000E+00
    0.00000E+00         0.00000E+00         0.00000E+00
 
   -0.59997E+07         0.75204E+06         0.00000E+00
    0.75204E+06        -0.24395E+08         0.00000E+00
    0.00000E+00         0.00000E+00         0.00000E+00
 
   -0.55784E+07         0.88853E+06         0.00000E+00
    0.88853E+06        -0.24504E+08         0.00000E+00
    0.00000E+00         0.00000E+00         0.00000E+00
 
   -0.51395E+07         0.10362E+07         0.00000E+00
    0.10362E+07        -0.24629E+08         0.00000E+00
    0.00000E+00         0.00000E+00         0.00000E+00
 
   -0.46816E+07         0.11971E+07         0.00000E+00
    0.11971E+07        -0.24773E+08         0.00000E+00
    0.00000E+00         0.00000E+00         0.00000E+00
 
   -0.42027E+07         0.13739E+07         0.00000E+00
    0.13739E+07        -0.24936E+08         0.00000E+00
    0.00000E+00         0.00000E+00         0.00000E+00
 
   -0.37014E+07         0.15699E+07         0.00000E+00
    0.15699E+07        -0.25119E+08         0.00000E+00
    0.00000E+00         0.00000E+00         0.00000E+00
 
   -0.31765E+07         0.17892E+07         0.00000E+00
    0.17892E+07        -0.25323E+08         0.00000E+00
    0.00000E+00         0.00000E+00         0.00000E+00
 
   -0.26275E+07         0.20375E+07         0.00000E+00
    0.20375E+07        -0.25550E+08         0.00000E+00
    0.00000E+00         0.00000E+00         0.00000E+00
 
   -0.20557E+07         0.23216E+07         0.00000E+00
    0.23216E+07        -0.25800E+08         0.00000E+00
    0.00000E+00         0.00000E+00         0.00000E+00
 
   -0.14654E+07         0.26507E+07         0.00000E+00
    0.26507E+07        -0.26073E+08         0.00000E+00
    0.00000E+00         0.00000E+00         0.00000E+00
 
   -0.86728E+06         0.30366E+07         0.00000E+00
    0.30366E+07        -0.26366E+08         0.00000E+00
    0.00000E+00         0.00000E+00         0.00000E+00
 
   -0.28404E+06         0.34943E+07         0.00000E+00
    0.34943E+07        -0.26675E+08         0.00000E+00
    0.00000E+00         0.00000E+00         0.00000E+00
 
   -0.28076E+08        -0.38325E+06         0.00000E+00
   -0.38325E+06        -0.28702E+08         0.00000E+00
    0.00000E+00         0.00000E+00         0.00000E+00
 
   -0.26551E+08        -0.48795E+06         0.00000E+00
   -0.48795E+06        -0.28585E+08         0.00000E+00
    0.00000E+00         0.00000E+00         0.00000E+00
 
   -0.25249E+08        -0.54419E+06         0.00000E+00
   -0.54419E+06        -0.28427E+08         0.00000E+00
    0.00000E+00         0.00000E+00         0.00000E+00
 
   -0.24115E+08        -0.57263E+06         0.00000E+00
   -0.57263E+06        -0.28243E+08         0.00000E+00
    0.00000E+00         0.00000E+00         0.00000E+00
 
   -0.23114E+08        -0.58441E+06         0.00000E+00
   -0.58441E+06        -0.28043E+08         0.00000E+00
    0.00000E+00         0.00000E+00         0.00000E+00
 
   -0.22219E+08        -0.58575E+06         0.00000E+00
   -0.58575E+06        -0.27835E+08         0.00000E+00
    0.00000E+00         0.00000E+00         0.00000E+00
 
   -0.21412E+08        -0.58030E+06         0.00000E+00
   -0.58030E+06        -0.27623E+08         0.00000E+00
    0.00000E+00         0.00000E+00         0.00000E+00
 
   -0.20677E+08        -0.57022E+06         0.00000E+00
   -0.57022E+06        -0.27410E+08         0.00000E+00
    0.00000E+00         0.00000E+00         0.00000E+00
 
   -0.20003E+08        -0.55690E+06         0.00000E+00
   -0.55690E+06        -0.27199E+08         0.00000E+00
    0.00000E+00         0.00000E+00         0.00000E+00
 
   -0.19381E+08        -0.54123E+06         0.00000E+00
   -0.54123E+06        -0.26992E+08         0.00000E+00
    0.00000E+00         0.00000E+00         0.00000E+00
 
   -0.18804E+08        -0.52382E+06         0.00000E+00
   -0.52382E+06        -0.26789E+08         0.00000E+00
    0.00000E+00         0.00000E+00         0.00000E+00
 
   -0.18265E+08        -0.50507E+06         0.00000E+00
   -0.50507E+06        -0.26592E+08         0.00000E+00
    0.00000E+00         0.00000E+00         0.00000E+00
 
   -0.17760E+08        -0.48529E+06         0.00000E+00
   -0.48529E+06        -0.26402E+08         0.00000E+00
    0.00000E+00         0.00000E+00         0.00000E+00
 
   -0.17283E+08        -0.46469E+06         0.00000E+00
   -0.46469E+06        -0.26219E+08         0.00000E+00
    0.00000E+00         0.00000E+00         0.00000E+00
 
   -0.16832E+08        -0.44342E+06         0.00000E+00
   -0.44342E+06        -0.26043E+08         0.00000E+00
    0.00000E+00         0.00000E+00         0.00000E+00
 
   -0.16402E+08        -0.42159E+06         0.00000E+00
   -0.42159E+06        -0.25875E+08         0.00000E+00
    0.00000E+00         0.00000E+00         0.00000E+00
 
   -0.15992E+08        -0.39928E+06         0.00000E+00
   -0.39928E+06        -0.25716E+08         0.00000E+00
    0.00000E+00         0.00000E+00         0.00000E+00
 
   -0.15598E+08        -0.37654E+06         0.00000E+00
   -0.37654E+06        -0.25565E+08         0.00000E+00
    0.00000E+00         0.00000E+00         0.00000E+00
 
   -0.15217E+08        -0.35342E+06         0.00000E+00
   -0.35342E+06        -0.25423E+08         0.00000E+00
    0.00000E+00         0.00000E+00         0.00000E+00
 
   -0.14849E+08        -0.32992E+06         0.00000E+00
   -0.32992E+06        -0.25289E+08         0.00000E+00
    0.00000E+00         0.00000E+00         0.00000E+00
 
   -0.14491E+08        -0.30606E+06         0.00000E+00
   -0.30606E+06        -0.25165E+08         0.00000E+00
    0.00000E+00         0.00000E+00         0.00000E+00
 
   -0.14140E+08        -0.28183E+06         0.00000E+00
   -0.28183E+06        -0.25051E+08         0.00000E+00
    0.00000E+00         0.00000E+00         0.00000E+00
 
   -0.13797E+08        -0.25722E+06         0.00000E+00
   -0.25722E+06        -0.24945E+08         0.00000E+00
    0.00000E+00         0.00000E+00         0.00000E+00
 
   -0.13458E+08        -0.23218E+06         0.00000E+00
   -0.23218E+06        -0.24850E+08         0.00000E+00
    0.00000E+00         0.00000E+00         0.00000E+00
 
   -0.13123E+08        -0.20670E+06         0.00000E+00
   -0.20670E+06        -0.24764E+08         0.00000E+00
    0.00000E+00         0.00000E+00         0.00000E+00
 
   -0.12790E+08        -0.18072E+06         0.00000E+00
   -0.18072E+06        -0.24689E+08         0.00000E+00
    0.00000E+00         0.00000E+00         0.00000E+00
 
   -0.12458E+08        -0.15419E+06         0.00000E+00
   -0.15419E+06        -0.24624E+08         0.00000E+00
    0.00000E+00         0.00000E+00         0.00000E+00
 
   -0.12126E+08        -0.12704E+06         0.00000E+00
   -0.12704E+06        -0.24569E+08         0.00000E+00
    0.00000E+00         0.00000E+00         0.00000E+00
 
   -0.11791E+08        -0.99185E+05         0.00000E+00
   -0.99185E+05        -0.24525E+08         0.00000E+00
    0.00000E+00         0.00000E+00         0.00000E+00
 
   -0.11453E+08        -0.70541E+05         0.00000E+00
   -0.70541E+05        -0.24493E+08         0.00000E+00
    0.00000E+00         0.00000E+00         0.00000E+00
 
   -0.11111E+08        -0.40996E+05         0.00000E+00
   -0.40996E+05        -0.24472E+08         0.00000E+00
    0.00000E+00         0.00000E+00         0.00000E+00
 
   -0.10763E+08        -0.10424E+05         0.00000E+00
   -0.10424E+05        -0.24463E+08         0.00000E+00
    0.00000E+00         0.00000E+00         0.00000E+00
 
   -0.10407E+08         0.21326E+05         0.00000E+00
    0.21326E+05        -0.24466E+08         0.00000E+00
    0.00000E+00         0.00000E+00         0.00000E+00
 
   -0.10043E+08         0.54430E+05         0.00000E+00
    0.54430E+05        -0.24482E+08         0.00000E+00
    0.00000E+00         0.00000E+00         0.00000E+00
 
   -0.96679E+07         0.89096E+05         0.00000E+00
    0.89096E+05        -0.24512E+08         0.00000E+00
    0.00000E+00         0.00000E+00         0.00000E+00
 
   -0.92806E+07         0.12557E+06         0.00000E+00
    0.12557E+06        -0.24556E+08         0.00000E+00
    0.00000E+00         0.00000E+00         0.00000E+00
 
   -0.88791E+07         0.16417E+06         0.00000E+00
    0.16417E+06        -0.24614E+08         0.00000E+00
    0.00000E+00         0.00000E+00         0.00000E+00
 
   -0.84613E+07         0.20525E+06         0.00000E+00
    0.20525E+06        -0.24689E+08         0.00000E+00
    0.00000E+00         0.00000E+00         0.00000E+00
 
   -0.80246E+07         0.24927E+06         0.00000E+00
    0.24927E+06        -0.24780E+08         0.00000E+00
    0.00000E+00         0.00000E+00         0.00000E+00
 
   -0.75665E+07         0.29680E+06         0.00000E+00
    0.29680E+06        -0.24889E+08         0.00000E+00
    0.00000E+00         0.00000E+00         0.00000E+00
 
   -0.70836E+07         0.34858E+06         0.00000E+00
    0.34858E+06        -0.25018E+08         0.00000E+00
    0.00000E+00         0.00000E+00         0.00000E+00
 
   -0.65722E+07         0.40554E+06         0.00000E+00
    0.40554E+06        -0.25169E+08         0.00000E+00
    0.00000E+00         0.00000E+00         0.00000E+00
 
   -0.60280E+07         0.46893E+06         0.00000E+00
    0.46893E+06        -0.25343E+08         0.00000E+00
    0.00000E+00         0.00000E+00         0.00000E+00
 
   -0.54452E+07         0.54046E+06         0.00000E+00
    0.54046E+06        -0.25543E+08         0.00000E+00
    0.00000E+00         0.00000E+00         0.00000E+00
 
   -0.48173E+07         0.62247E+06         0.00000E+00
    0.62247E+06        -0.25774E+08         0.00000E+00
    0.00000E+00         0.00000E+00         0.00000E+00
 
   -0.41356E+07         0.71834E+06         0.00000E+00
    0.71834E+06        -0.26038E+08         0.00000E+00
    0.00000E+00         0.00000E+00         0.00000E+00
 
   -0.33886E+07         0.83309E+06         0.00000E+00
    0.83309E+06        -0.26343E+08         0.00000E+00
    0.00000E+00         0.00000E+00         0.00000E+00
 
   -0.25612E+07         0.97440E+06         0.00000E+00
    0.97440E+06        -0.26695E+08         0.00000E+00
    0.00000E+00         0.00000E+00         0.00000E+00
 
   -0.16319E+07         0.11546E+07         0.00000E+00
    0.11546E+07        -0.27105E+08         0.00000E+00
    0.00000E+00         0.00000E+00         0.00000E+00
 
   -0.56931E+06         0.13944E+07         0.00000E+00
    0.13944E+07        -0.27588E+08         0.00000E+00
    0.00000E+00         0.00000E+00         0.00000E+00
 
TENSORS stresstot double 
   -0.49998E+08         0.11643E+01         0.00000E+00
    0.11643E+01        -0.50000E+08         0.00000E+00
    0.00000E+00         0.00000E+00        -0.50000E+08
 
   -0.49998E+08         0.35823E+01         0.00000E+00
    0.35823E+01        -0.50000E+08         0.00000E+00
    0.00000E+00         0.00000E+00        -0.50000E+08
 
   -0.49998E+08         0.60142E+01         0.00000E+00
    0.60142E+01        -0.50000E+08         0.00000E+00
    0.00000E+00         0.00000E+00        -0.50000E+08
 
   -0.49998E+08         0.84555E+01         0.00000E+00
    0.84555E+01        -0.50000E+08         0.00000E+00
    0.00000E+00         0.00000E+00        -0.50000E+08
 
   -0.49998E+08         0.10903E+02         0.00000E+00
    0.10903E+02        -0.50000E+08         0.00000E+00
    0.00000E+00         0.00000E+00        -0.50000E+08
 
   -0.49998E+08         0.13353E+02         0.00000E+00
    0.13353E+02        -0.50000E+08         0.00000E+00
    0.00000E+00         0.00000E+00        -0.50000E+08
 
   -0.49998E+08         0.15802E+02         0.00000E+00
    0.15802E+02        -0.50000E+08         0.00000E+00
    0.00000E+00         0.00000E+00        -0.50000E+08
 
   -0.49998E+08         0.18248E+02         0.00000E+00
    0.18248E+02        -0.50000E+08         0.00000E+00
    0.00000E+00         0.00000E+00        -0.50000E+08
 
   -0.49998E+08         0.20689E+02         0.00000E+00
    0.20689E+02        -0.50000E+08         0.00000E+00
    0.00000E+00         0.00000E+00        -0.50000E+08
 
   -0.49998E+08         0.23120E+02         0.00000E+00
    0.23120E+02        -0.50000E+08         0.00000E+00
    0.00000E+00         0.00000E+00        -0.50000E+08
 
   -0.49998E+08         0.25539E+02         0.00000E+00
    0.25539E+02        -0.50000E+08         0.00000E+00
    0.00000E+00         0.00000E+00        -0.50000E+08
 
   -0.49998E+08         0.27944E+02         0.00000E+00
    0.27944E+02        -0.50000E+08         0.00000E+00
    0.00000E+00         0.00000E+00        -0.50000E+08
 
   -0.49998E+08         0.30332E+02         0.00000E+00
    0.30332E+02        -0.50000E+08         0.00000E+00
    0.00000E+00         0.00000E+00        -0.50000E+08
 
   -0.49998E+08         0.32699E+02         0.00000E+00
    0.32699E+02        -0.50000E+08         0.00000E+00
    0.00000E+00         0.00000E+00        -0.50000E+08
 
   -0.49998E+08         0.35044E+02         0.00000E+00
    0.35044E+02        -0.50000E+08         0.00000E+00
    0.00000E+00         0.00000E+00        -0.50000E+08
 
   -0.49998E+08         0.37364E+02         0.00000E+00
    0.37364E+02        -0.50000E+08         0.00000E+00
    0.00000E+00         0.00000E+00        -0.50000E+08
 
   -0.49998E+08         0.39655E+02         0.00000E+00
    0.39655E+02        -0.50000E+08         0.00000E+00
    0.00000E+00         0.00000E+00        -0.50000E+08
 
   -0.49998E+08         0.41915E+02         0.00000E+00
    0.41915E+02        -0.50000E+08         0.00000E+00
    0.00000E+00         0.00000E+00        -0.50000E+08
 
   -0.49998E+08         0.44143E+02         0.00000E+00
    0.44143E+02        -0.50000E+08         0.00000E+00
    0.00000E+00         0.00000E+00        -0.50000E+08
 
   -0.49998E+08         0.46334E+02         0.00000E+00
    0.46334E+02        -0.50000E+08         0.00000E+00
    0.00000E+00         0.00000E+00        -0.50000E+08
 
   -0.49998E+08         0.48486E+02         0.00000E+00
    0.48486E+02        -0.50000E+08         0.00000E+00
    0.00000E+00         0.00000E+00        -0.50000E+08
 
   -0.49999E+08         0.50597E+02         0.00000E+00
    0.50597E+02        -0.50000E+08         0.00000E+00
    0.00000E+00         0.00000E+00        -0.50000E+08
 
   -0.49999E+08         0.52664E+02         0.00000E+00
    0.52664E+02        -0.50000E+08         0.00000E+00
    0.00000E+00         0.00000E+00        -0.50000E+08
 
   -0.49999E+08         0.54686E+02         0.00000E+00
    0.54686E+02        -0.50000E+08         0.00000E+00
    0.00000E+00         0.00000E+00        -0.50000E+08
 
   -0.49999E+08         0.56658E+02         0.00000E+00
    0.56658E+02        -0.50000E+08         0.00000E+00
    0.00000E+00         0.00000E+00        -0.50000E+08
 
   -0.49999E+08         0.58580E+02         0.00000E+00
    0.58580E+02        -0.50000E+08         0.00000E+00
    0.00000E+00         0.00000E+00        -0.50000E+08
 
   -0.49999E+08         0.60447E+02         0.00000E+00
    0.60447E+02        -0.50000E+08         0.00000E+00
    0.00000E+00         0.00000E+00        -0.50000E+08
 
   -0.49999E+08         0.62260E+02         0.00000E+00
    0.62260E+02        -0.50000E+08         0.00000E+00
    0.00000E+00         0.00000E+00        -0.50000E+08
 
   -0.49999E+08         0.64014E+02         0.00000E+00
    0.64014E+02        -0.50000E+08         0.00000E+00
    0.00000E+00         0.00000E+00        -0.50000E+08
 
   -0.49999E+08         0.65707E+02         0.00000E+00
    0.65707E+02        -0.50000E+08         0.00000E+00
    0.00000E+00         0.00000E+00        -0.50000E+08
 
   -0.49999E+08         0.67338E+02         0.00000E+00
    0.67338E+02        -0.50000E+08         0.00000E+00
    0.00000E+00         0.00000E+00        -0.50000E+08
 
   -0.49999E+08         0.68905E+02         0.00000E+00
    0.68905E+02        -0.50000E+08         0.00000E+00
    0.00000E+00         0.00000E+00        -0.50000E+08
 
   -0.49999E+08         0.70404E+02         0.00000E+00
    0.70404E+02        -0.50000E+08         0.00000E+00
    0.00000E+00         0.00000E+00        -0.50000E+08
 
   -0.49999E+08         0.71835E+02         0.00000E+00
    0.71835E+02        -0.49999E+08         0.00000E+00
    0.00000E+00         0.00000E+00        -0.50000E+08
 
   -0.49999E+08         0.73195E+02         0.00000E+00
    0.73195E+02        -0.49999E+08         0.00000E+00
    0.00000E+00         0.00000E+00        -0.50000E+08
 
   -0.49999E+08         0.74483E+02         0.00000E+00
    0.74483E+02        -0.49999E+08         0.00000E+00
    0.00000E+00         0.00000E+00        -0.50000E+08
 
   -0.49999E+08         0.75695E+02         0.00000E+00
    0.75695E+02        -0.49999E+08         0.00000E+00
    0.00000E+00         0.00000E+00        -0.50000E+08
 
   -0.49999E+08         0.76832E+02         0.00000E+00
    0.76832E+02        -0.49999E+08         0.00000E+00
    0.00000E+00         0.00000E+00        -0.50000E+08
 
   -0.49999E+08         0.77890E+02         0.00000E+00
    0.77890E+02        -0.49999E+08         0.00000E+00
    0.00000E+00         0.00000E+00        -0.50000E+08
 
   -0.49999E+08         0.78869E+02         0.00000E+00
    0.78869E+02        -0.49999E+08         0.00000E+00
    0.00000E+00         0.00000E+00        -0.50000E+08
 
   -0.49999E+08         0.79766E+02         0.00000E+00
    0.79766E+02        -0.49999E+08         0.00000E+00
    0.00000E+00         0.00000E+00        -0.50000E+08
 
   -0.49999E+08         0.80580E+02         0.00000E+00
    0.80580E+02        -0.49999E+08         0.00000E+00
    0.00000E+00         0.00000E+00        -0.50000E+08
 
   -0.50000E+08         0.81311E+02         0.00000E+00
    0.81311E+02        -0.49999E+08         0.00000E+00
    0.00000E+00         0.00000E+00        -0.50000E+08
 
   -0.50000E+08         0.81955E+02         0.00000E+00
    0.81955E+02        -0.49999E+08         0.00000E+00
    0.00000E+00         0.00000E+00        -0.50000E+08
 
   -0.50000E+08         0.82513E+02         0.00000E+00
    0.82513E+02        -0.49999E+08         0.00000E+00
    0.00000E+00         0.00000E+00        -0.50000E+08
 
   -0.50000E+08         0.82983E+02         0.00000E+00
    0.82983E+02        -0.49999E+08         0.00000E+00
    0.00000E+00         0.00000E+00        -0.50000E+08
 
   -0.50000E+08         0.83365E+02         0.00000E+00
    0.83365E+02        -0.49999E+08         0.00000E+00
    0.00000E+00         0.00000E+00        -0.50000E+08
 
   -0.50000E+08         0.83658E+02         0.00000E+00
    0.83658E+02        -0.49999E+08         0.00000E+00
    0.00000E+00         0.00000E+00        -0.50000E+08
 
   -0.50000E+08         0.83861E+02         0.00000E+00
    0.83861E+02        -0.49999E+08         0.00000E+00
    0.00000E+00         0.00000E+00        -0.50000E+08
 
   -0.50000E+08         0.83976E+02         0.00000E+00
    0.83976E+02        -0.49999E+08         0.00000E+00
    0.00000E+00         0.00000E+00        -0.50000E+08
 
   -0.49998E+08         0.35759E+01         0.00000E+00
    0.35759E+01        -0.50000E+08         0.00000E+00
    0.00000E+00         0.00000E+00        -0.50000E+08
 
   -0.49998E+08         0.10860E+02         0.00000E+00
    0.10860E+02        -0.50000E+08         0.00000E+00
    0.00000E+00         0.00000E+00        -0.50000E+08
 
   -0.49998E+08         0.18183E+02         0.00000E+00
    0.18183E+02        -0.50000E+08         0.00000E+00
    0.00000E+00         0.00000E+00        -0.50000E+08
 
   -0.49998E+08         0.25533E+02         0.00000E+00
    0.25533E+02        -0.50000E+08         0.00000E+00
    0.00000E+00         0.00000E+00        -0.50000E+08
 
   -0.49998E+08         0.32903E+02         0.00000E+00
    0.32903E+02        -0.50000E+08         0.00000E+00
    0.00000E+00         0.00000E+00        -0.50000E+08
 
   -0.49998E+08         0.40281E+02         0.00000E+00
    0.40281E+02        -0.50000E+08         0.00000E+00
    0.00000E+00         0.00000E+00        -0.50000E+08
 
   -0.49998E+08         0.47659E+02         0.00000E+00
    0.47659E+02        -0.50000E+08         0.00000E+00
    0.00000E+00         0.00000E+00        -0.50000E+08
 
   -0.49998E+08         0.55029E+02         0.00000E+00
    0.55029E+02        -0.50000E+08         0.00000E+00
    0.00000E+00         0.00000E+00        -0.50000E+08
 
   -0.49998E+08         0.62380E+02         0.00000E+00
    0.62380E+02        -0.50000E+08         0.00000E+00
    0.00000E+00         0.00000E+00        -0.50000E+08
 
   -0.49998E+08         0.69705E+02         0.00000E+00
    0.69705E+02        -0.50000E+08         0.00000E+00
    0.00000E+00         0.00000E+00        -0.50000E+08
 
   -0.49998E+08         0.76995E+02         0.00000E+00
    0.76995E+02        -0.50000E+08         0.00000E+00
    0.00000E+00         0.00000E+00        -0.50000E+08
 
   -0.49998E+08         0.84242E+02         0.00000E+00
    0.84242E+02        -0.50000E+08         0.00000E+00
    0.00000E+00         0.00000E+00        -0.50000E+08
 
   -0.49998E+08         0.91437E+02         0.00000E+00
    0.91437E+02        -0.50000E+08         0.00000E+00
    0.00000E+00         0.00000E+00        -0.50000E+08
 
   -0.49998E+08         0.98572E+02         0.00000E+00
    0.98572E+02        -0.50000E+08         0.00000E+00
    0.00000E+00         0.00000E+00        -0.50000E+08
 
   -0.49998E+08         0.10564E+03         0.00000E+00
    0.10564E+03        -0.50000E+08         0.00000E+00
    0.00000E+00         0.00000E+00        -0.50000E+08
 
   -0.49998E+08         0.11263E+03         0.00000E+00
    0.11263E+03        -0.50000E+08         0.00000E+00
    0.00000E+00         0.00000E+00        -0.50000E+08
 
   -0.49998E+08         0.11953E+03         0.00000E+00
    0.11953E+03        -0.50000E+08         0.00000E+00
    0.00000E+00         0.00000E+00        -0.50000E+08
 
   -0.49998E+08         0.12635E+03         0.00000E+00
    0.12635E+03        -0.50000E+08         0.00000E+00
    0.00000E+00         0.00000E+00        -0.50000E+08
 
   -0.49998E+08         0.13306E+03         0.00000E+00
    0.13306E+03        -0.50000E+08         0.00000E+00
    0.00000E+00         0.00000E+00        -0.50000E+08
 
   -0.49998E+08         0.13966E+03         0.00000E+00
    0.13966E+03        -0.50000E+08         0.00000E+00
    0.00000E+00         0.00000E+00        -0.50000E+08
 
   -0.49998E+08         0.14615E+03         0.00000E+00
    0.14615E+03        -0.50000E+08         0.00000E+00
    0.00000E+00         0.00000E+00        -0.50000E+08
 
   -0.49998E+08         0.15251E+03         0.00000E+00
    0.15251E+03        -0.50000E+08         0.00000E+00
    0.00000E+00         0.00000E+00        -0.50000E+08
 
   -0.49999E+08         0.15874E+03         0.00000E+00
    0.15874E+03        -0.50000E+08         0.00000E+00
    0.00000E+00         0.00000E+00        -0.50000E+08
 
   -0.49999E+08         0.16483E+03         0.00000E+00
    0.16483E+03        -0.50000E+08         0.00000E+00
    0.00000E+00         0.00000E+00        -0.50000E+08
 
   -0.49999E+08         0.17078E+03         0.00000E+00
    0.17078E+03        -0.50000E+08         0.00000E+00
    0.00000E+00         0.00000E+00        -0.50000E+08
 
   -0.49999E+08         0.17657E+03         0.00000E+00
    0.17657E+03        -0.50000E+08         0.00000E+00
    0.00000E+00         0.00000E+00        -0.50000E+08
 
   -0.49999E+08         0.18220E+03         0.00000E+00
    0.18220E+03        -0.50000E+08         0.00000E+00
    0.00000E+00         0.00000E+00        -0.50000E+08
 
   -0.49999E+08         0.18766E+03         0.00000E+00
    0.18766E+03        -0.50000E+08         0.00000E+00
    0.00000E+00         0.00000E+00        -0.50000E+08
 
   -0.49999E+08         0.19295E+03         0.00000E+00
    0.19295E+03        -0.50000E+08         0.00000E+00
    0.00000E+00         0.00000E+00        -0.50000E+08
 
   -0.49999E+08         0.19805E+03         0.00000E+00
    0.19805E+03        -0.50000E+08         0.00000E+00
    0.00000E+00         0.00000E+00        -0.50000E+08
 
   -0.49999E+08         0.20297E+03         0.00000E+00
    0.20297E+03        -0.50000E+08         0.00000E+00
    0.00000E+00         0.00000E+00        -0.50000E+08
 
   -0.49999E+08         0.20769E+03         0.00000E+00
    0.20769E+03        -0.50000E+08         0.00000E+00
    0.00000E+00         0.00000E+00        -0.50000E+08
 
   -0.49999E+08         0.21221E+03         0.00000E+00
    0.21221E+03        -0.50000E+08         0.00000E+00
    0.00000E+00         0.00000E+00        -0.50000E+08
 
   -0.49999E+08         0.21652E+03         0.00000E+00
    0.21652E+03        -0.49999E+08         0.00000E+00
    0.00000E+00         0.00000E+00        -0.50000E+08
 
   -0.49999E+08         0.22062E+03         0.00000E+00
    0.22062E+03        -0.49999E+08         0.00000E+00
    0.00000E+00         0.00000E+00        -0.50000E+08
 
   -0.49999E+08         0.22450E+03         0.00000E+00
    0.22450E+03        -0.49999E+08         0.00000E+00
    0.00000E+00         0.00000E+00        -0.50000E+08
 
   -0.49999E+08         0.22815E+03         0.00000E+00
    0.22815E+03        -0.49999E+08         0.00000E+00
    0.00000E+00         0.00000E+00        -0.50000E+08
 
   -0.49999E+08         0.23158E+03         0.00000E+00
    0.23158E+03        -0.49999E+08         0.00000E+00
    0.00000E+00         0.00000E+00        -0.50000E+08
 
   -0.49999E+08         0.23477E+03         0.00000E+00
    0.23477E+03        -0.49999E+08         0.00000E+00
    0.00000E+00         0.00000E+00        -0.50000E+08
 
   -0.49999E+08         0.23772E+03         0.00000E+00
    0.23772E+03        -0.49999E+08         0.00000E+00
    0.00000E+00         0.00000E+00        -0.50000E+08
 
   -0.49999E+08         0.24042E+03         0.00000E+00
    0.24042E+03        -0.49999E+08         0.00000E+00
    0.00000E+00         0.00000E+00        -0.50000E+08
 
   -0.49999E+08         0.24288E+03         0.00000E+00
    0.24288E+03        -0.49999E+08         0.00000E+00
    0.00000E+00         0.00000E+00        -0.50000E+08
 
   -0.50000E+08         0.24508E+03         0.00000E+00
    0.24508E+03        -0.49999E+08         0.00000E+00
    0.00000E+00         0.00000E+00        -0.50000E+08
 
   -0.50000E+08         0.24702E+03         0.00000E+00
    0.24702E+03        -0.49999E+08         0.00000E+00
    0.00000E+00         0.00000E+00        -0.50000E+08
 
   -0.50000E+08         0.24870E+03         0.00000E+00
    0.24870E+03        -0.49999E+08         0.00000E+00
    0.00000E+00         0.00000E+00        -0.50000E+08
 
   -0.50000E+08         0.25011E+03         0.00000E+00
    0.25011E+03        -0.49999E+08         0.00000E+00
    0.00000E+00         0.00000E+00        -0.50000E+08
 
   -0.50000E+08         0.25126E+03         0.00000E+00
    0.25126E+03        -0.49999E+08         0.00000E+00
    0.00000E+00         0.00000E+00        -0.50000E+08
 
   -0.50000E+08         0.25213E+03         0.00000E+00
    0.25213E+03        -0.49999E+08         0.00000E+00
    0.00000E+00         0.00000E+00        -0.50000E+08
 
   -0.50000E+08         0.25273E+03         0.00000E+00
    0.25273E+03        -0.49999E+08         0.00000E+00
    0.00000E+00         0.00000E+00        -0.50000E+08
 
   -0.50000E+08         0.25306E+03         0.00000E+00
    0.25306E+03        -0.49999E+08         0.00000E+00
    0.00000E+00         0.00000E+00        -0.50000E+08
 
   -0.49998E+08         0.60367E+01         0.00000E+00
    0.60367E+01        -0.50000E+08         0.00000E+00
    0.00000E+00         0.00000E+00        -0.50000E+08
 
   -0.49998E+08         0.18311E+02         0.00000E+00
    0.18311E+02        -0.50000E+08         0.00000E+00
    0.00000E+00         0.00000E+00        -0.50000E+08
 
   -0.49998E+08         0.30641E+02         0.00000E+00
    0.30641E+02        -0.50000E+08         0.00000E+00
    0.00000E+00         0.00000E+00        -0.50000E+08
 
   -0.49998E+08         0.43012E+02         0.00000E+00
    0.43012E+02        -0.50000E+08         0.00000E+00
    0.00000E+00         0.00000E+00        -0.50000E+08
 
   -0.49998E+08         0.55410E+02         0.00000E+00
    0.55410E+02        -0.50000E+08         0.00000E+00
    0.00000E+00         0.00000E+00        -0.50000E+08
 
   -0.49998E+08         0.67822E+02         0.00000E+00
    0.67822E+02        -0.50000E+08         0.00000E+00
    0.00000E+00         0.00000E+00        -0.50000E+08
 
   -0.49998E+08         0.80232E+02         0.00000E+00
    0.80232E+02        -0.50000E+08         0.00000E+00
    0.00000E+00         0.00000E+00        -0.50000E+08
 
   -0.49998E+08         0.92626E+02         0.00000E+00
    0.92626E+02        -0.50000E+08         0.00000E+00
    0.00000E+00         0.00000E+00        -0.50000E+08
 
   -0.49998E+08         0.10499E+03         0.00000E+00
    0.10499E+03        -0.50000E+08         0.00000E+00
    0.00000E+00         0.00000E+00        -0.50000E+08
 
   -0.49998E+08         0.11731E+03         0.00000E+00
    0.11731E+03        -0.50000E+08         0.00000E+00
    0.00000E+00         0.00000E+00        -0.50000E+08
 
   -0.49998E+08         0.12957E+03         0.00000E+00
    0.12957E+03        -0.50000E+08         0.00000E+00
    0.00000E+00         0.00000E+00        -0.50000E+08
 
   -0.49998E+08         0.14176E+03         0.00000E+00
    0.14176E+03        -0.50000E+08         0.00000E+00
    0.00000E+00         0.00000E+00        -0.50000E+08
 
   -0.49998E+08         0.15386E+03         0.00000E+00
    0.15386E+03        -0.50000E+08         0.00000E+00
    0.00000E+00         0.00000E+00        -0.50000E+08
 
   -0.49998E+08         0.16586E+03         0.00000E+00
    0.16586E+03        -0.50000E+08         0.00000E+00
    0.00000E+00         0.00000E+00        -0.50000E+08
 
   -0.49998E+08         0.17775E+03         0.00000E+00
    0.17775E+03        -0.50000E+08         0.00000E+00
    0.00000E+00         0.00000E+00        -0.50000E+08
 
   -0.49998E+08         0.18950E+03         0.00000E+00
    0.18950E+03        -0.50000E+08         0.00000E+00
    0.00000E+00         0.00000E+00        -0.50000E+08
 
   -0.49998E+08         0.20112E+03         0.00000E+00
    0.20112E+03        -0.50000E+08         0.00000E+00
    0.00000E+00         0.00000E+00        -0.50000E+08
 
   -0.49998E+08         0.21258E+03         0.00000E+00
    0.21258E+03        -0.50000E+08         0.00000E+00
    0.00000E+00         0.00000E+00        -0.50000E+08
 
   -0.49998E+08         0.22387E+03         0.00000E+00
    0.22387E+03        -0.50000E+08         0.00000E+00
    0.00000E+00         0.00000E+00        -0.50000E+08
 
   -0.49998E+08         0.23498E+03         0.00000E+00
    0.23498E+03        -0.50000E+08         0.00000E+00
    0.00000E+00         0.00000E+00        -0.50000E+08
 
   -0.49998E+08         0.24589E+03         0.00000E+00
    0.24589E+03        -0.50000E+08         0.00000E+00
    0.00000E+00         0.00000E+00        -0.50000E+08
 
   -0.49998E+08         0.25659E+03         0.00000E+00
    0.25659E+03        -0.50000E+08         0.00000E+00
    0.00000E+00         0.00000E+00        -0.50000E+08
 
   -0.49998E+08         0.26707E+03         0.00000E+00
    0.26707E+03        -0.50000E+08         0.00000E+00
    0.00000E+00         0.00000E+00        -0.50000E+08
 
   -0.49999E+08         0.27732E+03         0.00000E+00
    0.27732E+03        -0.50000E+08         0.00000E+00
    0.00000E+00         0.00000E+00        -0.50000E+08
 
   -0.49999E+08         0.28732E+03         0.00000E+00
    0.28732E+03        -0.50000E+08         0.00000E+00
    0.00000E+00         0.00000E+00        -0.50000E+08
 
   -0.49999E+08         0.29706E+03         0.00000E+00
    0.29706E+03        -0.50000E+08         0.00000E+00
    0.00000E+00         0.00000E+00        -0.50000E+08
 
   -0.49999E+08         0.30653E+03         0.00000E+00
    0.30653E+03        -0.50000E+08         0.00000E+00
    0.00000E+00         0.00000E+00        -0.50000E+08
 
   -0.49999E+08         0.31572E+03         0.00000E+00
    0.31572E+03        -0.50000E+08         0.00000E+00
    0.00000E+00         0.00000E+00        -0.50000E+08
 
   -0.49999E+08         0.32461E+03         0.00000E+00
    0.32461E+03        -0.50000E+08         0.00000E+00
    0.00000E+00         0.00000E+00        -0.50000E+08
 
   -0.49999E+08         0.33319E+03         0.00000E+00
    0.33319E+03        -0.50000E+08         0.00000E+00
    0.00000E+00         0.00000E+00        -0.50000E+08
 
   -0.49999E+08         0.34146E+03         0.00000E+00
    0.34146E+03        -0.50000E+08         0.00000E+00
    0.00000E+00         0.00000E+00        -0.50000E+08
 
   -0.49999E+08         0.34941E+03         0.00000E+00
    0.34941E+03        -0.50000E+08         0.00000E+00
    0.00000E+00         0.00000E+00        -0.50000E+08
 
   -0.49999E+08         0.35701E+03         0.00000E+00
    0.35701E+03        -0.49999E+08         0.00000E+00
    0.00000E+00         0.00000E+00        -0.50000E+08
 
   -0.49999E+08         0.36426E+03         0.00000E+00
    0.36426E+03        -0.49999E+08         0.00000E+00
    0.00000E+00         0.00000E+00        -0.50000E+08
 
   -0.49999E+08         0.37116E+03         0.00000E+00
    0.37116E+03        -0.49999E+08         0.00000E+00
    0.00000E+00         0.00000E+00        -0.50000E+08
 
   -0.49999E+08         0.37768E+03         0.00000E+00
    0.37768E+03        -0.49999E+08         0.00000E+00
    0.00000E+00         0.00000E+00        -0.50000E+08
 
   -0.49999E+08         0.38383E+03         0.00000E+00
    0.38383E+03        -0.49999E+08         0.00000E+00
    0.00000E+00         0.00000E+00        -0.50000E+08
 
   -0.49999E+08         0.38959E+03         0.00000E+00
    0.38959E+03        -0.49999E+08         0.00000E+00
    0.00000E+00         0.00000E+00        -0.50000E+08
 
   -0.49999E+08         0.39496E+03         0.00000E+00
    0.39496E+03        -0.49999E+08         0.00000E+00
    0.00000E+00         0.00000E+00        -0.50000E+08
 
   -0.49999E+08         0.39992E+03         0.00000E+00
    0.39992E+03        -0.49999E+08         0.00000E+00
    0.00000E+00         0.00000E+00        -0.50000E+08
 
   -0.49999E+08         0.40446E+03         0.00000E+00
    0.40446E+03        -0.49999E+08         0.00000E+00
    0.00000E+00         0.00000E+00        -0.50000E+08
 
   -0.49999E+08         0.40859E+03         0.00000E+00
    0.40859E+03        -0.49999E+08         0.00000E+00
    0.00000E+00         0.00000E+00        -0.50000E+08
 
   -0.49999E+08         0.41229E+03         0.00000E+00
    0.41229E+03        -0.49999E+08         0.00000E+00
    0.00000E+00         0.00000E+00        -0.50000E+08
 
   -0.50000E+08         0.41555E+03         0.00000E+00
    0.41555E+03        -0.49999E+08         0.00000E+00
    0.00000E+00         0.00000E+00        -0.50000E+08
 
   -0.50000E+08         0.41837E+03         0.00000E+00
    0.41837E+03        -0.49999E+08         0.00000E+00
    0.00000E+00         0.00000E+00        -0.50000E+08
 
   -0.50000E+08         0.42075E+03         0.00000E+00
    0.42075E+03        -0.49999E+08         0.00000E+00
    0.00000E+00         0.00000E+00        -0.50000E+08
 
   -0.50000E+08         0.42267E+03         0.00000E+00
    0.42267E+03        -0.49999E+08         0.00000E+00
    0.00000E+00         0.00000E+00        -0.50000E+08
 
   -0.50000E+08         0.42412E+03         0.00000E+00
    0.42412E+03        -0.49999E+08         0.00000E+00
    0.00000E+00         0.00000E+00        -0.50000E+08
 
   -0.50000E+08         0.42512E+03         0.00000E+00
    0.42512E+03        -0.49999E+08         0.00000E+00
    0.00000E+00         0.00000E+00        -0.50000E+08
 
   -0.50000E+08         0.42564E+03         0.00000E+00
    0.42564E+03        -0.49999E+08         0.00000E+00
    0.00000E+00         0.00000E+00        -0.50000E+08
 
   -0.49998E+08         0.85800E+01         0.00000E+00
    0.85800E+01        -0.50000E+08         0.00000E+00
    0.00000E+00         0.00000E+00        -0.50000E+08
 
   -0.49998E+08         0.26020E+02         0.00000E+00
    0.26020E+02        -0.50000E+08         0.00000E+00
    0.00000E+00         0.00000E+00        -0.50000E+08
 
   -0.49998E+08         0.43535E+02         0.00000E+00
    0.43535E+02        -0.50000E+08         0.00000E+00
    0.00000E+00         0.00000E+00        -0.50000E+08
 
   -0.49998E+08         0.61107E+02         0.00000E+00
    0.61107E+02        -0.50000E+08         0.00000E+00
    0.00000E+00         0.00000E+00        -0.50000E+08
 
   -0.49998E+08         0.78714E+02         0.00000E+00
    0.78714E+02        -0.50000E+08         0.00000E+00
    0.00000E+00         0.00000E+00        -0.50000E+08
 
   -0.49998E+08         0.96338E+02         0.00000E+00
    0.96338E+02        -0.50000E+08         0.00000E+00
    0.00000E+00         0.00000E+00        -0.50000E+08
 
   -0.49998E+08         0.11396E+03         0.00000E+00
    0.11396E+03        -0.50000E+08         0.00000E+00
    0.00000E+00         0.00000E+00        -0.50000E+08
 
   -0.49998E+08         0.13156E+03         0.00000E+00
    0.13156E+03        -0.50000E+08         0.00000E+00
    0.00000E+00         0.00000E+00        -0.50000E+08
 
   -0.49998E+08         0.14911E+03         0.00000E+00
    0.14911E+03        -0.50000E+08         0.00000E+00
    0.00000E+00         0.00000E+00        -0.50000E+08
 
   -0.49998E+08         0.16660E+03         0.00000E+00
    0.16660E+03        -0.50000E+08         0.00000E+00
    0.00000E+00         0.00000E+00        -0.50000E+08
 
   -0.49998E+08         0.18400E+03         0.00000E+00
    0.18400E+03        -0.50000E+08         0.00000E+00
    0.00000E+00         0.00000E+00        -0.50000E+08
 
   -0.49998E+08         0.20131E+03         0.00000E+00
    0.20131E+03        -0.50000E+08         0.00000E+00
    0.00000E+00         0.00000E+00        -0.50000E+08
 
   -0.49998E+08         0.21848E+03         0.00000E+00
    0.21848E+03        -0.50000E+08         0.00000E+00
    0.00000E+00         0.00000E+00        -0.50000E+08
 
   -0.49998E+08         0.23552E+03         0.00000E+00
    0.23552E+03        -0.50000E+08         0.00000E+00
    0.00000E+00         0.00000E+00        -0.50000E+08
 
   -0.49998E+08         0.25239E+03         0.00000E+00
    0.25239E+03        -0.50000E+08         0.00000E+00
    0.00000E+00         0.00000E+00        -0.50000E+08
 
   -0.49998E+08         0.26908E+03         0.00000E+00
    0.26908E+03        -0.50000E+08         0.00000E+00
    0.00000E+00         0.00000E+00        -0.50000E+08
 
   -0.49998E+08         0.28557E+03         0.00000E+00
    0.28557E+03        -0.50000E+08         0.00000E+00
    0.00000E+00         0.00000E+00        -0.50000E+08
 
   -0.49998E+08         0.30183E+03         0.00000E+00
    0.30183E+03        -0.50000E+08         0.00000E+00
    0.00000E+00         0.00000E+00        -0.50000E+08
 
   -0.49998E+08         0.31786E+03         0.00000E+00
    0.31786E+03        -0.50000E+08         0.00000E+00
    0.00000E+00         0.00000E+00        -0.50000E+08
 
   -0.49998E+08         0.33362E+03         0.00000E+00
    0.33362E+03        -0.50000E+08         0.00000E+00
    0.00000E+00         0.00000E+00        -0.50000E+08
 
   -0.49998E+08         0.34911E+03         0.00000E+00
    0.34911E+03        -0.50000E+08         0.00000E+00
    0.00000E+00         0.00000E+00        -0.50000E+08
 
   -0.49998E+08         0.36430E+03         0.00000E+00
    0.36430E+03        -0.50000E+08         0.00000E+00
    0.00000E+00         0.00000E+00        -0.50000E+08
 
   -0.49998E+08         0.37918E+03         0.00000E+00
    0.37918E+03        -0.50000E+08         0.00000E+00
    0.00000E+00         0.00000E+00        -0.50000E+08
 
   -0.49998E+08         0.39373E+03         0.00000E+00
    0.39373E+03        -0.50000E+08         0.00000E+00
    0.00000E+00         0.00000E+00        -0.50000E+08
 
   -0.49999E+08         0.40792E+03         0.00000E+00
    0.40792E+03        -0.50000E+08         0.00000E+00
    0.00000E+00         0.00000E+00        -0.50000E+08
 
   -0.49999E+08         0.42175E+03         0.00000E+00
    0.42175E+03        -0.50000E+08         0.00000E+00
    0.00000E+00         0.00000E+00        -0.50000E+08
 
   -0.49999E+08         0.43519E+03         0.00000E+00
    0.43519E+03        -0.50000E+08         0.00000E+00
    0.00000E+00         0.00000E+00        -0.50000E+08
 
   -0.49999E+08         0.44823E+03         0.00000E+00
    0.44823E+03        -0.50000E+08         0.00000E+00
    0.00000E+00         0.00000E+00        -0.50000E+08
 
   -0.49999E+08         0.46086E+03         0.00000E+00
    0.46086E+03        -0.50000E+08         0.00000E+00
    0.00000E+00         0.00000E+00        -0.50000E+08
 
   -0.49999E+08         0.47304E+03         0.00000E+00
    0.47304E+03        -0.50000E+08         0.00000E+00
    0.00000E+00         0.00000E+00        -0.50000E+08
 
   -0.49999E+08         0.48478E+03         0.00000E+00
    0.48478E+03        -0.50000E+08         0.00000E+00
    0.00000E+00         0.00000E+00        -0.50000E+08
 
   -0.49999E+08         0.49605E+03         0.00000E+00
    0.49605E+03        -0.49999E+08         0.00000E+00
    0.00000E+00         0.00000E+00        -0.50000E+08
 
   -0.49999E+08         0.50685E+03         0.00000E+00
    0.50685E+03        -0.49999E+08         0.00000E+00
    0.00000E+00         0.00000E+00        -0.50000E+08
 
   -0.49999E+08         0.51714E+03         0.00000E+00
    0.51714E+03        -0.49999E+08         0.00000E+00
    0.00000E+00         0.00000E+00        -0.50000E+08
 
   -0.49999E+08         0.52693E+03         0.00000E+00
    0.52693E+03        -0.49999E+08         0.00000E+00
    0.00000E+00         0.00000E+00        -0.50000E+08
 
   -0.49999E+08         0.53619E+03         0.00000E+00
    0.53619E+03        -0.49999E+08         0.00000E+00
    0.00000E+00         0.00000E+00        -0.50000E+08
 
   -0.49999E+08         0.54492E+03         0.00000E+00
    0.54492E+03        -0.49999E+08         0.00000E+00
    0.00000E+00         0.00000E+00        -0.50000E+08
 
   -0.49999E+08         0.55310E+03         0.00000E+00
    0.55310E+03        -0.49999E+08         0.00000E+00
    0.00000E+00         0.00000E+00        -0.50000E+08
 
   -0.49999E+08         0.56071E+03         0.00000E+00
    0.56071E+03        -0.49999E+08         0.00000E+00
    0.00000E+00         0.00000E+00        -0.50000E+08
 
   -0.49999E+08         0.56775E+03         0.00000E+00
    0.56775E+03        -0.49999E+08         0.00000E+00
    0.00000E+00         0.00000E+00        -0.50000E+08
 
   -0.49999E+08         0.57420E+03         0.00000E+00
    0.57420E+03        -0.49999E+08         0.00000E+00
    0.00000E+00         0.00000E+00        -0.50000E+08
 
   -0.49999E+08         0.58005E+03         0.00000E+00
    0.58005E+03        -0.49999E+08         0.00000E+00
    0.00000E+00         0.00000E+00        -0.50000E+08
 
   -0.49999E+08         0.58530E+03         0.00000E+00
    0.58530E+03        -0.49999E+08         0.00000E+00
    0.00000E+00         0.00000E+00        -0.50000E+08
 
   -0.50000E+08         0.58993E+03         0.00000E+00
    0.58993E+03        -0.49999E+08         0.00000E+00
    0.00000E+00         0.00000E+00        -0.50000E+08
 
   -0.50000E+08         0.59393E+03         0.00000E+00
    0.59393E+03        -0.49999E+08         0.00000E+00
    0.00000E+00         0.00000E+00        -0.50000E+08
 
   -0.50000E+08         0.59729E+03         0.00000E+00
    0.59729E+03        -0.49999E+08         0.00000E+00
    0.00000E+00         0.00000E+00        -0.50000E+08
 
   -0.50000E+08         0.60001E+03         0.00000E+00
    0.60001E+03        -0.49999E+08         0.00000E+00
    0.00000E+00         0.00000E+00        -0.50000E+08
 
   -0.50000E+08         0.60207E+03         0.00000E+00
    0.60207E+03        -0.49999E+08         0.00000E+00
    0.00000E+00         0.00000E+00        -0.50000E+08
 
   -0.50000E+08         0.60347E+03         0.00000E+00
    0.60347E+03        -0.49999E+08         0.00000E+00
    0.00000E+00         0.00000E+00        -0.50000E+08
 
   -0.50000E+08         0.60420E+03         0.00000E+00
    0.60420E+03        -0.49999E+08         0.00000E+00
    0.00000E+00         0.00000E+00        -0.50000E+08
 
   -0.49998E+08         0.11245E+02         0.00000E+00
    0.11245E+02        -0.50000E+08         0.00000E+00
    0.00000E+00         0.00000E+00        -0.50000E+08
 
   -0.49998E+08         0.34096E+02         0.00000E+00
    0.34096E+02        -0.50000E+08         0.00000E+00
    0.00000E+00         0.00000E+00        -0.50000E+08
 
   -0.49998E+08         0.57046E+02         0.00000E+00
    0.57046E+02        -0.50000E+08         0.00000E+00
    0.00000E+00         0.00000E+00        -0.50000E+08
 
   -0.49998E+08         0.80067E+02         0.00000E+00
    0.80067E+02        -0.50000E+08         0.00000E+00
    0.00000E+00         0.00000E+00        -0.50000E+08
 
   -0.49998E+08         0.10314E+03         0.00000E+00
    0.10314E+03        -0.50000E+08         0.00000E+00
    0.00000E+00         0.00000E+00        -0.50000E+08
 
   -0.49998E+08         0.12622E+03         0.00000E+00
    0.12622E+03        -0.50000E+08         0.00000E+00
    0.00000E+00         0.00000E+00        -0.50000E+08
 
   -0.49998E+08         0.14930E+03         0.00000E+00
    0.14930E+03        -0.50000E+08         0.00000E+00
    0.00000E+00         0.00000E+00        -0.50000E+08
 
   -0.49998E+08         0.17235E+03         0.00000E+00
    0.17235E+03        -0.50000E+08         0.00000E+00
    0.00000E+00         0.00000E+00        -0.50000E+08
 
   -0.49998E+08         0.19535E+03         0.00000E+00
    0.19535E+03        -0.50000E+08         0.00000E+00
    0.00000E+00         0.00000E+00        -0.50000E+08
 
   -0.49998E+08         0.21825E+03         0.00000E+00
    0.21825E+03        -0.50000E+08         0.00000E+00
    0.00000E+00         0.00000E+00        -0.50000E+08
 
   -0.49998E+08         0.24105E+03         0.00000E+00
    0.24105E+03        -0.50000E+08         0.00000E+00
    0.00000E+00         0.00000E+00        -0.50000E+08
 
   -0.49998E+08         0.26371E+03         0.00000E+00
    0.26371E+03        -0.50000E+08         0.00000E+00
    0.00000E+00         0.00000E+00        -0.50000E+08
 
   -0.49998E+08         0.28621E+03         0.00000E+00
    0.28621E+03        -0.50000E+08         0.00000E+00
    0.00000E+00         0.00000E+00        -0.50000E+08
 
   -0.49998E+08         0.30852E+03         0.00000E+00
    0.30852E+03        -0.50000E+08         0.00000E+00
    0.00000E+00         0.00000E+00        -0.50000E+08
 
   -0.49998E+08         0.33061E+03         0.00000E+00
    0.33061E+03        -0.50000E+08         0.00000E+00
    0.00000E+00         0.00000E+00        -0.50000E+08
 
   -0.49998E+08         0.35247E+03         0.00000E+00
    0.35247E+03        -0.50000E+08         0.00000E+00
    0.00000E+00         0.00000E+00        -0.50000E+08
 
   -0.49998E+08         0.37406E+03         0.00000E+00
    0.37406E+03        -0.50000E+08         0.00000E+00
    0.00000E+00         0.00000E+00        -0.50000E+08
 
   -0.49998E+08         0.39536E+03         0.00000E+00
    0.39536E+03        -0.50000E+08         0.00000E+00
    0.00000E+00         0.00000E+00        -0.50000E+08
 
   -0.49998E+08         0.41635E+03         0.00000E+00
    0.41635E+03        -0.50000E+08         0.00000E+00
    0.00000E+00         0.00000E+00        -0.50000E+08
 
   -0.49998E+08         0.43700E+03         0.00000E+00
    0.43700E+03        -0.50000E+08         0.00000E+00
    0.00000E+00         0.00000E+00        -0.50000E+08
 
   -0.49998E+08         0.45728E+03         0.00000E+00
    0.45728E+03        -0.50000E+08         0.00000E+00
    0.00000E+00         0.00000E+00        -0.50000E+08
 
   -0.49998E+08         0.47717E+03         0.00000E+00
    0.47717E+03        -0.50000E+08         0.00000E+00
    0.00000E+00         0.00000E+00        -0.50000E+08
 
   -0.49998E+08         0.49666E+03         0.00000E+00
    0.49666E+03        -0.50000E+08         0.00000E+00
    0.00000E+00         0.00000E+00        -0.50000E+08
 
   -0.49998E+08         0.51570E+03         0.00000E+00
    0.51570E+03        -0.50000E+08         0.00000E+00
    0.00000E+00         0.00000E+00        -0.50000E+08
 
   -0.49998E+08         0.53429E+03         0.00000E+00
    0.53429E+03        -0.50000E+08         0.00000E+00
    0.00000E+00         0.00000E+00        -0.50000E+08
 
   -0.49998E+08         0.55240E+03         0.00000E+00
    0.55240E+03        -0.50000E+08         0.00000E+00
    0.00000E+00         0.00000E+00        -0.50000E+08
 
   -0.49999E+08         0.57000E+03         0.00000E+00
    0.57000E+03        -0.50000E+08         0.00000E+00
    0.00000E+00         0.00000E+00        -0.50000E+08
 
   -0.49999E+08         0.58708E+03         0.00000E+00
    0.58708E+03        -0.50000E+08         0.00000E+00
    0.00000E+00         0.00000E+00        -0.50000E+08
 
   -0.49999E+08         0.60361E+03         0.00000E+00
    0.60361E+03        -0.50000E+08         0.00000E+00
    0.00000E+00         0.00000E+00        -0.50000E+08
 
   -0.49999E+08         0.61957E+03         0.00000E+00
    0.61957E+03        -0.50000E+08         0.00000E+00
    0.00000E+00         0.00000E+00        -0.50000E+08
 
   -0.49999E+08         0.63494E+03         0.00000E+00
    0.63494E+03        -0.50000E+08         0.00000E+00
    0.00000E+00         0.00000E+00        -0.50000E+08
 
   -0.49999E+08         0.64970E+03         0.00000E+00
    0.64970E+03        -0.49999E+08         0.00000E+00
    0.00000E+00         0.00000E+00        -0.50000E+08
 
   -0.49999E+08         0.66383E+03         0.00000E+00
    0.66383E+03        -0.49999E+08         0.00000E+00
    0.00000E+00         0.00000E+00        -0.50000E+08
 
   -0.49999E+08         0.67732E+03         0.00000E+00
    0.67732E+03        -0.49999E+08         0.00000E+00
    0.00000E+00         0.00000E+00        -0.50000E+08
 
   -0.49999E+08         0.69013E+03         0.00000E+00
    0.69013E+03        -0.49999E+08         0.00000E+00
    0.00000E+00         0.00000E+00        -0.50000E+08
 
   -0.49999E+08         0.70226E+03         0.00000E+00
    0.70226E+03        -0.49999E+08         0.00000E+00
    0.00000E+00         0.00000E+00        -0.50000E+08
 
   -0.49999E+08         0.71369E+03         0.00000E+00
    0.71369E+03        -0.49999E+08         0.00000E+00
    0.00000E+00         0.00000E+00        -0.50000E+08
 
   -0.49999E+08         0.72439E+03         0.00000E+00
    0.72439E+03        -0.49999E+08         0.00000E+00
    0.00000E+00         0.00000E+00        -0.50000E+08
 
   -0.49999E+08         0.73436E+03         0.00000E+00
    0.73436E+03        -0.49999E+08         0.00000E+00
    0.00000E+00         0.00000E+00        -0.50000E+08
 
   -0.49999E+08         0.74357E+03         0.00000E+00
    0.74357E+03        -0.49999E+08         0.00000E+00
    0.00000E+00         0.00000E+00        -0.50000E+08
 
   -0.49999E+08         0.75202E+03         0.00000E+00
    0.75202E+03        -0.49999E+08         0.00000E+00
    0.00000E+00         0.00000E+00        -0.50000E+08
 
   -0.49999E+08         0.75968E+03         0.00000E+00
    0.75968E+03        -0.49999E+08         0.00000E+00
    0.00000E+00         0.00000E+00        -0.50000E+08
 
   -0.49999E+08         0.76655E+03         0.00000E+00
    0.76655E+03        -0.49999E+08         0.00000E+00
    0.00000E+00         0.00000E+00        -0.50000E+08
 
   -0.50000E+08         0.77261E+03         0.00000E+00
    0.77261E+03        -0.49999E+08         0.00000E+00
    0.00000E+00         0.00000E+00        -0.50000E+08
 
   -0.50000E+08         0.77784E+03         0.00000E+00
    0.77784E+03        -0.49999E+08         0.00000E+00
    0.00000E+00         0.00000E+00        -0.50000E+08
 
   -0.50000E+08         0.78224E+03         0.00000E+00
    0.78224E+03        -0.49999E+08         0.00000E+00
    0.00000E+00         0.00000E+00        -0.50000E+08
 
   -0.50000E+08         0.78579E+03         0.00000E+00
    0.78579E+03        -0.49999E+08         0.00000E+00
    0.00000E+00         0.00000E+00        -0.50000E+08
 
   -0.50000E+08         0.78849E+03         0.00000E+00
    0.78849E+03        -0.49999E+08         0.00000E+00
    0.00000E+00         0.00000E+00        -0.50000E+08
 
   -0.50000E+08         0.79031E+03         0.00000E+00
    0.79031E+03        -0.49999E+08         0.00000E+00
    0.00000E+00         0.00000E+00        -0.50000E+08
 
   -0.50000E+08         0.79126E+03         0.00000E+00
    0.79126E+03        -0.49999E+08         0.00000E+00
    0.00000E+00         0.00000E+00        -0.50000E+08
 
   -0.49998E+08         0.14068E+02         0.00000E+00
    0.14068E+02        -0.50000E+08         0.00000E+00
    0.00000E+00         0.00000E+00        -0.50000E+08
 
   -0.49998E+08         0.42656E+02         0.00000E+00
    0.42656E+02        -0.50000E+08         0.00000E+00
    0.00000E+00         0.00000E+00        -0.50000E+08
 
   -0.49998E+08         0.71364E+02         0.00000E+00
    0.71364E+02        -0.50000E+08         0.00000E+00
    0.00000E+00         0.00000E+00        -0.50000E+08
 
   -0.49998E+08         0.10016E+03         0.00000E+00
    0.10016E+03        -0.50000E+08         0.00000E+00
    0.00000E+00         0.00000E+00        -0.50000E+08
 
   -0.49998E+08         0.12902E+03         0.00000E+00
    0.12902E+03        -0.50000E+08         0.00000E+00
    0.00000E+00         0.00000E+00        -0.50000E+08
 
   -0.49998E+08         0.15790E+03         0.00000E+00
    0.15790E+03        -0.50000E+08         0.00000E+00
    0.00000E+00         0.00000E+00        -0.50000E+08
 
   -0.49998E+08         0.18677E+03         0.00000E+00
    0.18677E+03        -0.50000E+08         0.00000E+00
    0.00000E+00         0.00000E+00        -0.50000E+08
 
   -0.49998E+08         0.21559E+03         0.00000E+00
    0.21559E+03        -0.50000E+08         0.00000E+00
    0.00000E+00         0.00000E+00        -0.50000E+08
 
   -0.49998E+08         0.24435E+03         0.00000E+00
    0.24435E+03        -0.50000E+08         0.00000E+00
    0.00000E+00         0.00000E+00        -0.50000E+08
 
   -0.49998E+08         0.27300E+03         0.00000E+00
    0.27300E+03        -0.50000E+08         0.00000E+00
    0.00000E+00         0.00000E+00        -0.50000E+08
 
   -0.49998E+08         0.30151E+03         0.00000E+00
    0.30151E+03        -0.50000E+08         0.00000E+00
    0.00000E+00         0.00000E+00        -0.50000E+08
 
   -0.49998E+08         0.32985E+03         0.00000E+00
    0.32985E+03        -0.50000E+08         0.00000E+00
    0.00000E+00         0.00000E+00        -0.50000E+08
 
   -0.49998E+08         0.35798E+03         0.00000E+00
    0.35798E+03        -0.50000E+08         0.00000E+00
    0.00000E+00         0.00000E+00        -0.50000E+08
 
   -0.49998E+08         0.38588E+03         0.00000E+00
    0.38588E+03        -0.50000E+08         0.00000E+00
    0.00000E+00         0.00000E+00        -0.50000E+08
 
   -0.49998E+08         0.41352E+03         0.00000E+00
    0.41352E+03        -0.50000E+08         0.00000E+00
    0.00000E+00         0.00000E+00        -0.50000E+08
 
   -0.49998E+08         0.44085E+03         0.00000E+00
    0.44085E+03        -0.50000E+08         0.00000E+00
    0.00000E+00         0.00000E+00        -0.50000E+08
 
   -0.49998E+08         0.46785E+03         0.00000E+00
    0.46785E+03        -0.50000E+08         0.00000E+00
    0.00000E+00         0.00000E+00        -0.50000E+08
 
   -0.49998E+08         0.49448E+03         0.00000E+00
    0.49448E+03        -0.50000E+08         0.00000E+00
    0.00000E+00         0.00000E+00        -0.50000E+08
 
   -0.49998E+08         0.52073E+03         0.00000E+00
    0.52073E+03        -0.50000E+08         0.00000E+00
    0.00000E+00         0.00000E+00        -0.50000E+08
 
   -0.49998E+08         0.54655E+03         0.00000E+00
    0.54655E+03        -0.50000E+08         0.00000E+00
    0.00000E+00         0.00000E+00        -0.50000E+08
 
   -0.49998E+08         0.57191E+03         0.00000E+00
    0.57191E+03        -0.50000E+08         0.00000E+00
    0.00000E+00         0.00000E+00        -0.50000E+08
 
   -0.49998E+08         0.59678E+03         0.00000E+00
    0.59678E+03        -0.50000E+08         0.00000E+00
    0.00000E+00         0.00000E+00        -0.50000E+08
 
   -0.49998E+08         0.62115E+03         0.00000E+00
    0.62115E+03        -0.50000E+08         0.00000E+00
    0.00000E+00         0.00000E+00        -0.50000E+08
 
   -0.49998E+08         0.64496E+03         0.00000E+00
    0.64496E+03        -0.50000E+08         0.00000E+00
    0.00000E+00         0.00000E+00        -0.50000E+08
 
   -0.49998E+08         0.66821E+03         0.00000E+00
    0.66821E+03        -0.50000E+08         0.00000E+00
    0.00000E+00         0.00000E+00        -0.50000E+08
 
   -0.49998E+08         0.69085E+03         0.00000E+00
    0.69085E+03        -0.50000E+08         0.00000E+00
    0.00000E+00         0.00000E+00        -0.50000E+08
 
   -0.49998E+08         0.71286E+03         0.00000E+00
    0.71286E+03        -0.50000E+08         0.00000E+00
    0.00000E+00         0.00000E+00        -0.50000E+08
 
   -0.49998E+08         0.73421E+03         0.00000E+00
    0.73421E+03        -0.50000E+08         0.00000E+00
    0.00000E+00         0.00000E+00        -0.50000E+08
 
   -0.49999E+08         0.75488E+03         0.00000E+00
    0.75488E+03        -0.50000E+08         0.00000E+00
    0.00000E+00         0.00000E+00        -0.50000E+08
 
   -0.49999E+08         0.77483E+03         0.00000E+00
    0.77483E+03        -0.49999E+08         0.00000E+00
    0.00000E+00         0.00000E+00        -0.50000E+08
 
   -0.49999E+08         0.79405E+03         0.00000E+00
    0.79405E+03        -0.49999E+08         0.00000E+00
    0.00000E+00         0.00000E+00        -0.50000E+08
 
   -0.49999E+08         0.81251E+03         0.00000E+00
    0.81251E+03        -0.49999E+08         0.00000E+00
    0.00000E+00         0.00000E+00        -0.50000E+08
 
   -0.49999E+08         0.83018E+03         0.00000E+00
    0.83018E+03        -0.49999E+08         0.00000E+00
    0.00000E+00         0.00000E+00        -0.50000E+08
 
   -0.49999E+08         0.84703E+03         0.00000E+00
    0.84703E+03        -0.49999E+08         0.00000E+00
    0.00000E+00         0.00000E+00        -0.50000E+08
 
   -0.49999E+08         0.86306E+03         0.00000E+00
    0.86306E+03        -0.49999E+08         0.00000E+00
    0.00000E+00         0.00000E+00        -0.50000E+08
 
   -0.49999E+08         0.87822E+03         0.00000E+00
    0.87822E+03        -0.49999E+08         0.00000E+00
    0.00000E+00         0.00000E+00        -0.50000E+08
 
   -0.49999E+08         0.89251E+03         0.00000E+00
    0.89251E+03        -0.49999E+08         0.00000E+00
    0.00000E+00         0.00000E+00        -0.50000E+08
 
   -0.49999E+08         0.90589E+03         0.00000E+00
    0.90589E+03        -0.49999E+08         0.00000E+00
    0.00000E+00         0.00000E+00        -0.50000E+08
 
   -0.49999E+08         0.91835E+03         0.00000E+00
    0.91835E+03        -0.49999E+08         0.00000E+00
    0.00000E+00         0.00000E+00        -0.50000E+08
 
   -0.49999E+08         0.92987E+03         0.00000E+00
    0.92987E+03        -0.49999E+08         0.00000E+00
    0.00000E+00         0.00000E+00        -0.50000E+08
 
   -0.49999E+08         0.94043E+03         0.00000E+00
    0.94043E+03        -0.49999E+08         0.00000E+00
    0.00000E+00         0.00000E+00        -0.50000E+08
 
   -0.49999E+08         0.95001E+03         0.00000E+00
    0.95001E+03        -0.49999E+08         0.00000E+00
    0.00000E+00         0.00000E+00        -0.50000E+08
 
   -0.49999E+08         0.95859E+03         0.00000E+00
    0.95859E+03        -0.49999E+08         0.00000E+00
    0.00000E+00         0.00000E+00        -0.50000E+08
 
   -0.49999E+08         0.96616E+03         0.00000E+00
    0.96616E+03        -0.49999E+08         0.00000E+00
    0.00000E+00         0.00000E+00        -0.50000E+08
 
   -0.50000E+08         0.97270E+03         0.00000E+00
    0.97270E+03        -0.49999E+08         0.00000E+00
    0.00000E+00         0.00000E+00        -0.50000E+08
 
   -0.50000E+08         0.97820E+03         0.00000E+00
    0.97820E+03        -0.49999E+08         0.00000E+00
    0.00000E+00         0.00000E+00        -0.50000E+08
 
   -0.50000E+08         0.98264E+03         0.00000E+00
    0.98264E+03        -0.49999E+08         0.00000E+00
    0.00000E+00         0.00000E+00        -0.50000E+08
 
   -0.50000E+08         0.98600E+03         0.00000E+00
    0.98600E+03        -0.49999E+08         0.00000E+00
    0.00000E+00         0.00000E+00        -0.50000E+08
 
   -0.50000E+08         0.98828E+03         0.00000E+00
    0.98828E+03        -0.49999E+08         0.00000E+00
    0.00000E+00         0.00000E+00        -0.50000E+08
 
   -0.50000E+08         0.98947E+03         0.00000E+00
    0.98947E+03        -0.49999E+08         0.00000E+00
    0.00000E+00         0.00000E+00        -0.50000E+08
 
   -0.49998E+08         0.17092E+02         0.00000E+00
    0.17092E+02        -0.50000E+08         0.00000E+00
    0.00000E+00         0.00000E+00        -0.50000E+08
 
   -0.49998E+08         0.51819E+02         0.00000E+00
    0.51819E+02        -0.50000E+08         0.00000E+00
    0.00000E+00         0.00000E+00        -0.50000E+08
 
   -0.49998E+08         0.86693E+02         0.00000E+00
    0.86693E+02        -0.50000E+08         0.00000E+00
    0.00000E+00         0.00000E+00        -0.50000E+08
 
   -0.49998E+08         0.12167E+03         0.00000E+00
    0.12167E+03        -0.50000E+08         0.00000E+00
    0.00000E+00         0.00000E+00        -0.50000E+08
 
   -0.49998E+08         0.15672E+03         0.00000E+00
    0.15672E+03        -0.50000E+08         0.00000E+00
    0.00000E+00         0.00000E+00        -0.50000E+08
 
   -0.49998E+08         0.19180E+03         0.00000E+00
    0.19180E+03        -0.50000E+08         0.00000E+00
    0.00000E+00         0.00000E+00        -0.50000E+08
 
   -0.49998E+08         0.22687E+03         0.00000E+00
    0.22687E+03        -0.50000E+08         0.00000E+00
    0.00000E+00         0.00000E+00        -0.50000E+08
 
   -0.49998E+08         0.26189E+03         0.00000E+00
    0.26189E+03        -0.50000E+08         0.00000E+00
    0.00000E+00         0.00000E+00        -0.50000E+08
 
   -0.49998E+08         0.29681E+03         0.00000E+00
    0.29681E+03        -0.50000E+08         0.00000E+00
    0.00000E+00         0.00000E+00        -0.50000E+08
 
   -0.49998E+08         0.33161E+03         0.00000E+00
    0.33161E+03        -0.50000E+08         0.00000E+00
    0.00000E+00         0.00000E+00        -0.50000E+08
 
   -0.49998E+08         0.36623E+03         0.00000E+00
    0.36623E+03        -0.50000E+08         0.00000E+00
    0.00000E+00         0.00000E+00        -0.50000E+08
 
   -0.49998E+08         0.40065E+03         0.00000E+00
    0.40065E+03        -0.50000E+08         0.00000E+00
    0.00000E+00         0.00000E+00        -0.50000E+08
 
   -0.49998E+08         0.43482E+03         0.00000E+00
    0.43482E+03        -0.50000E+08         0.00000E+00
    0.00000E+00         0.00000E+00        -0.50000E+08
 
   -0.49998E+08         0.46871E+03         0.00000E+00
    0.46871E+03        -0.50000E+08         0.00000E+00
    0.00000E+00         0.00000E+00        -0.50000E+08
 
   -0.49998E+08         0.50226E+03         0.00000E+00
    0.50226E+03        -0.50000E+08         0.00000E+00
    0.00000E+00         0.00000E+00        -0.50000E+08
 
   -0.49998E+08         0.53545E+03         0.00000E+00
    0.53545E+03        -0.50000E+08         0.00000E+00
    0.00000E+00         0.00000E+00        -0.50000E+08
 
   -0.49998E+08         0.56824E+03         0.00000E+00
    0.56824E+03        -0.50000E+08         0.00000E+00
    0.00000E+00         0.00000E+00        -0.50000E+08
 
   -0.49998E+08         0.60059E+03         0.00000E+00
    0.60059E+03        -0.50000E+08         0.00000E+00
    0.00000E+00         0.00000E+00        -0.50000E+08
 
   -0.49998E+08         0.63246E+03         0.00000E+00
    0.63246E+03        -0.50000E+08         0.00000E+00
    0.00000E+00         0.00000E+00        -0.50000E+08
 
   -0.49998E+08         0.66381E+03         0.00000E+00
    0.66381E+03        -0.50000E+08         0.00000E+00
    0.00000E+00         0.00000E+00        -0.50000E+08
 
   -0.49998E+08         0.69461E+03         0.00000E+00
    0.69461E+03        -0.50000E+08         0.00000E+00
    0.00000E+00         0.00000E+00        -0.50000E+08
 
   -0.49998E+08         0.72482E+03         0.00000E+00
    0.72482E+03        -0.50000E+08         0.00000E+00
    0.00000E+00         0.00000E+00        -0.50000E+08
 
   -0.49998E+08         0.75440E+03         0.00000E+00
    0.75440E+03        -0.50000E+08         0.00000E+00
    0.00000E+00         0.00000E+00        -0.50000E+08
 
   -0.49998E+08         0.78332E+03         0.00000E+00
    0.78332E+03        -0.50000E+08         0.00000E+00
    0.00000E+00         0.00000E+00        -0.50000E+08
 
   -0.49998E+08         0.81155E+03         0.00000E+00
    0.81155E+03        -0.50000E+08         0.00000E+00
    0.00000E+00         0.00000E+00        -0.50000E+08
 
   -0.49998E+08         0.83904E+03         0.00000E+00
    0.83904E+03        -0.50000E+08         0.00000E+00
    0.00000E+00         0.00000E+00        -0.50000E+08
 
   -0.49998E+08         0.86576E+03         0.00000E+00
    0.86576E+03        -0.50000E+08         0.00000E+00
    0.00000E+00         0.00000E+00        -0.50000E+08
 
   -0.49998E+08         0.89169E+03         0.00000E+00
    0.89169E+03        -0.50000E+08         0.00000E+00
    0.00000E+00         0.00000E+00        -0.50000E+08
 
   -0.49998E+08         0.91679E+03         0.00000E+00
    0.91679E+03        -0.49999E+08         0.00000E+00
    0.00000E+00         0.00000E+00        -0.50000E+08
 
   -0.49998E+08         0.94102E+03         0.00000E+00
    0.94102E+03        -0.49999E+08         0.00000E+00
    0.00000E+00         0.00000E+00        -0.50000E+08
 
   -0.49999E+08         0.96435E+03         0.00000E+00
    0.96435E+03        -0.49999E+08         0.00000E+00
    0.00000E+00         0.00000E+00        -0.50000E+08
 
   -0.49999E+08         0.98676E+03         0.00000E+00
    0.98676E+03        -0.49999E+08         0.00000E+00
    0.00000E+00         0.00000E+00        -0.50000E+08
 
   -0.49999E+08         0.10082E+04         0.00000E+00
    0.10082E+04        -0.49999E+08         0.00000E+00
    0.00000E+00         0.00000E+00        -0.50000E+08
 
   -0.49999E+08         0.10287E+04         0.00000E+00
    0.10287E+04        -0.49999E+08         0.00000E+00
    0.00000E+00         0.00000E+00        -0.50000E+08
 
   -0.49999E+08         0.10481E+04         0.00000E+00
    0.10481E+04        -0.49999E+08         0.00000E+00
    0.00000E+00         0.00000E+00        -0.50000E+08
 
   -0.49999E+08         0.10666E+04         0.00000E+00
    0.10666E+04        -0.49999E+08         0.00000E+00
    0.00000E+00         0.00000E+00        -0.50000E+08
 
   -0.49999E+08         0.10839E+04         0.00000E+00
    0.10839E+04        -0.49999E+08         0.00000E+00
    0.00000E+00         0.00000E+00        -0.50000E+08
 
   -0.49999E+08         0.11001E+04         0.00000E+00
    0.11001E+04        -0.49999E+08         0.00000E+00
    0.00000E+00         0.00000E+00        -0.50000E+08
 
   -0.49999E+08         0.11153E+04         0.00000E+00
    0.11153E+04        -0.49999E+08         0.00000E+00
    0.00000E+00         0.00000E+00        -0.50000E+08
 
   -0.49999E+08         0.11293E+04         0.00000E+00
    0.11293E+04        -0.49999E+08         0.00000E+00
    0.00000E+00         0.00000E+00        -0.50000E+08
 
   -0.49999E+08         0.11421E+04         0.00000E+00
    0.11421E+04        -0.49999E+08         0.00000E+00
    0.00000E+00         0.00000E+00        -0.50000E+08
 
   -0.49999E+08         0.11537E+04         0.00000E+00
    0.11537E+04        -0.49999E+08         0.00000E+00
    0.00000E+00         0.00000E+00        -0.50000E+08
 
   -0.49999E+08         0.11641E+04         0.00000E+00
    0.11641E+04        -0.49999E+08         0.00000E+00
    0.00000E+00         0.00000E+00        -0.50000E+08
 
   -0.49999E+08         0.11733E+04         0.00000E+00
    0.11733E+04        -0.49999E+08         0.00000E+00
    0.00000E+00         0.00000E+00        -0.50000E+08
 
   -0.50000E+08         0.11813E+04         0.00000E+00
    0.11813E+04        -0.49999E+08         0.00000E+00
    0.00000E+00         0.00000E+00        -0.50000E+08
 
   -0.50000E+08         0.11879E+04         0.00000E+00
    0.11879E+04        -0.49999E+08         0.00000E+00
    0.00000E+00         0.00000E+00        -0.50000E+08
 
   -0.50000E+08         0.11933E+04         0.00000E+00
    0.11933E+04        -0.49999E+08         0.00000E+00
    0.00000E+00         0.00000E+00        -0.50000E+08
 
   -0.50000E+08         0.11974E+04         0.00000E+00
    0.11974E+04        -0.49999E+08         0.00000E+00
    0.00000E+00         0.00000E+00        -0.50000E+08
 
   -0.50000E+08         0.12002E+04         0.00000E+00
    0.12002E+04        -0.49999E+08         0.00000E+00
    0.00000E+00         0.00000E+00        -0.50000E+08
 
   -0.50000E+08         0.12016E+04         0.00000E+00
    0.12016E+04        -0.49999E+08         0.00000E+00
    0.00000E+00         0.00000E+00        -0.50000E+08
 
   -0.49998E+08         0.20357E+02         0.00000E+00
    0.20357E+02        -0.50000E+08         0.00000E+00
    0.00000E+00         0.00000E+00        -0.50000E+08
 
   -0.49998E+08         0.61716E+02         0.00000E+00
    0.61716E+02        -0.50000E+08         0.00000E+00
    0.00000E+00         0.00000E+00        -0.50000E+08
 
   -0.49998E+08         0.10325E+03         0.00000E+00
    0.10325E+03        -0.50000E+08         0.00000E+00
    0.00000E+00         0.00000E+00        -0.50000E+08
 
   -0.49998E+08         0.14491E+03         0.00000E+00
    0.14491E+03        -0.50000E+08         0.00000E+00
    0.00000E+00         0.00000E+00        -0.50000E+08
 
   -0.49998E+08         0.18665E+03         0.00000E+00
    0.18665E+03        -0.50000E+08         0.00000E+00
    0.00000E+00         0.00000E+00        -0.50000E+08
 
   -0.49998E+08         0.22842E+03         0.00000E+00
    0.22842E+03        -0.50000E+08         0.00000E+00
    0.00000E+00         0.00000E+00        -0.50000E+08
 
   -0.49998E+08         0.27018E+03         0.00000E+00
    0.27018E+03        -0.50000E+08         0.00000E+00
    0.00000E+00         0.00000E+00        -0.50000E+08
 
   -0.49998E+08         0.31188E+03         0.00000E+00
    0.31188E+03        -0.50000E+08         0.00000E+00
    0.00000E+00         0.00000E+00        -0.50000E+08
 
   -0.49998E+08         0.35347E+03         0.00000E+00
    0.35347E+03        -0.50000E+08         0.00000E+00
    0.00000E+00         0.00000E+00        -0.50000E+08
 
   -0.49998E+08         0.39490E+03         0.00000E+00
    0.39490E+03        -0.50000E+08         0.00000E+00
    0.00000E+00         0.00000E+00        -0.50000E+08
 
   -0.49998E+08         0.43614E+03         0.00000E+00
    0.43614E+03        -0.50000E+08         0.00000E+00
    0.00000E+00         0.00000E+00        -0.50000E+08
 
   -0.49998E+08         0.47712E+03         0.00000E+00
    0.47712E+03        -0.50000E+08         0.00000E+00
    0.00000E+00         0.00000E+00        -0.50000E+08
 
   -0.49998E+08         0.51780E+03         0.00000E+00
    0.51780E+03        -0.50000E+08         0.00000E+00
    0.00000E+00         0.00000E+00        -0.50000E+08
 
   -0.49998E+08         0.55815E+03         0.00000E+00
    0.55815E+03        -0.50000E+08         0.00000E+00
    0.00000E+00         0.00000E+00        -0.50000E+08
 
   -0.49998E+08         0.59810E+03         0.00000E+00
    0.59810E+03        -0.50000E+08         0.00000E+00
    0.00000E+00         0.00000E+00        -0.50000E+08
 
   -0.49998E+08         0.63762E+03         0.00000E+00
    0.63762E+03        -0.50000E+08         0.00000E+00
    0.00000E+00         0.00000E+00        -0.50000E+08
 
   -0.49998E+08         0.67666E+03         0.00000E+00
    0.67666E+03        -0.50000E+08         0.00000E+00
    0.00000E+00         0.00000E+00        -0.50000E+08
 
   -0.49998E+08         0.71518E+03         0.00000E+00
    0.71518E+03        -0.50000E+08         0.00000E+00
    0.00000E+00         0.00000E+00        -0.50000E+08
 
   -0.49998E+08         0.75312E+03         0.00000E+00
    0.75312E+03        -0.50000E+08         0.00000E+00
    0.00000E+00         0.00000E+00        -0.50000E+08
 
   -0.49998E+08         0.79045E+03         0.00000E+00
    0.79045E+03        -0.50000E+08         0.00000E+00
    0.00000E+00         0.00000E+00        -0.50000E+08
 
   -0.49998E+08         0.82711E+03         0.00000E+00
    0.82711E+03        -0.50000E+08         0.00000E+00
    0.00000E+00         0.00000E+00        -0.50000E+08
 
   -0.49998E+08         0.86308E+03         0.00000E+00
    0.86308E+03        -0.50000E+08         0.00000E+00
    0.00000E+00         0.00000E+00        -0.50000E+08
 
   -0.49998E+08         0.89830E+03         0.00000E+00
    0.89830E+03        -0.50000E+08         0.00000E+00
    0.00000E+00         0.00000E+00        -0.50000E+08
 
   -0.49998E+08         0.93273E+03         0.00000E+00
    0.93273E+03        -0.50000E+08         0.00000E+00
    0.00000E+00         0.00000E+00        -0.50000E+08
 
   -0.49998E+08         0.96633E+03         0.00000E+00
    0.96633E+03        -0.50000E+08         0.00000E+00
    0.00000E+00         0.00000E+00        -0.50000E+08
 
   -0.49998E+08         0.99906E+03         0.00000E+00
    0.99906E+03        -0.50000E+08         0.00000E+00
    0.00000E+00         0.00000E+00        -0.50000E+08
 
   -0.49998E+08         0.10309E+04         0.00000E+00
    0.10309E+04        -0.50000E+08         0.00000E+00
    0.00000E+00         0.00000E+00        -0.50000E+08
 
   -0.49998E+08         0.10617E+04         0.00000E+00
    0.10617E+04        -0.49999E+08         0.00000E+00
    0.00000E+00         0.00000E+00        -0.50000E+08
 
   -0.49998E+08         0.10916E+04         0.00000E+00
    0.10916E+04        -0.49999E+08         0.00000E+00
    0.00000E+00         0.00000E+00        -0.50000E+08
 
   -0.49998E+08         0.11205E+04         0.00000E+00
    0.11205E+04        -0.49999E+08         0.00000E+00
    0.00000E+00         0.00000E+00        -0.50000E+08
 
   -0.49998E+08         0.11482E+04         0.00000E+00
    0.11482E+04        -0.49999E+08         0.00000E+00
    0.00000E+00         0.00000E+00        -0.50000E+08
 
   -0.49998E+08         0.11749E+04         0.00000E+00
    0.11749E+04        -0.49999E+08         0.00000E+00
    0.00000E+00         0.00000E+00        -0.50000E+08
 
   -0.49999E+08         0.12005E+04         0.00000E+00
    0.12005E+04        -0.49999E+08         0.00000E+00
    0.00000E+00         0.00000E+00        -0.50000E+08
 
   -0.49999E+08         0.12248E+04         0.00000E+00
    0.12248E+04        -0.49999E+08         0.00000E+00
    0.00000E+00         0.00000E+00        -0.50000E+08
 
   -0.49999E+08         0.12480E+04         0.00000E+00
    0.12480E+04        -0.49999E+08         0.00000E+00
    0.00000E+00         0.00000E+00        -0.50000E+08
 
   -0.49999E+08         0.12699E+04         0.00000E+00
    0.12699E+04        -0.49999E+08         0.00000E+00
    0.00000E+00         0.00000E+00        -0.50000E+08
 
   -0.49999E+08         0.12905E+04         0.00000E+00
    0.12905E+04        -0.49999E+08         0.00000E+00
    0.00000E+00         0.00000E+00        -0.50000E+08
 
   -0.49999E+08         0.13099E+04         0.00000E+00
    0.13099E+04        -0.49999E+08         0.00000E+00
    0.00000E+00         0.00000E+00        -0.50000E+08
 
   -0.49999E+08         0.13279E+04         0.00000E+00
    0.13279E+04        -0.49999E+08         0.00000E+00
    0.00000E+00         0.00000E+00        -0.50000E+08
 
   -0.49999E+08         0.13445E+04         0.00000E+00
    0.13445E+04        -0.49999E+08         0.00000E+00
    0.00000E+00         0.00000E+00        -0.50000E+08
 
   -0.49999E+08         0.13598E+04         0.00000E+00
    0.13598E+04        -0.49999E+08         0.00000E+00
    0.00000E+00         0.00000E+00        -0.50000E+08
 
   -0.49999E+08         0.13737E+04         0.00000E+00
    0.13737E+04        -0.49999E+08         0.00000E+00
    0.00000E+00         0.00000E+00        -0.50000E+08
 
   -0.49999E+08         0.13861E+04         0.00000E+00
    0.13861E+04        -0.49999E+08         0.00000E+00
    0.00000E+00         0.00000E+00        -0.50000E+08
 
   -0.49999E+08         0.13970E+04         0.00000E+00
    0.13970E+04        -0.49999E+08         0.00000E+00
    0.00000E+00         0.00000E+00        -0.50000E+08
 
   -0.49999E+08         0.14064E+04         0.00000E+00
    0.14064E+04        -0.49999E+08         0.00000E+00
    0.00000E+00         0.00000E+00        -0.50000E+08
 
   -0.50000E+08         0.14144E+04         0.00000E+00
    0.14144E+04        -0.49999E+08         0.00000E+00
    0.00000E+00         0.00000E+00        -0.50000E+08
 
   -0.50000E+08         0.14208E+04         0.00000E+00
    0.14208E+04        -0.49999E+08         0.00000E+00
    0.00000E+00         0.00000E+00        -0.50000E+08
 
   -0.50000E+08         0.14257E+04         0.00000E+00
    0.14257E+04        -0.49999E+08         0.00000E+00
    0.00000E+00         0.00000E+00        -0.50000E+08
 
   -0.50000E+08         0.14290E+04         0.00000E+00
    0.14290E+04        -0.49999E+08         0.00000E+00
    0.00000E+00         0.00000E+00        -0.50000E+08
 
   -0.50000E+08         0.14307E+04         0.00000E+00
    0.14307E+04        -0.49999E+08         0.00000E+00
    0.00000E+00         0.00000E+00        -0.50000E+08
 
   -0.49997E+08         0.23911E+02         0.00000E+00
    0.23911E+02        -0.50000E+08         0.00000E+00
    0.00000E+00         0.00000E+00        -0.50000E+08
 
   -0.49997E+08         0.72488E+02         0.00000E+00
    0.72488E+02        -0.50000E+08         0.00000E+00
    0.00000E+00         0.00000E+00        -0.50000E+08
 
   -0.49997E+08         0.12127E+03         0.00000E+00
    0.12127E+03        -0.50000E+08         0.00000E+00
    0.00000E+00         0.00000E+00        -0.50000E+08
 
   -0.49997E+08         0.17020E+03         0.00000E+00
    0.17020E+03        -0.50000E+08         0.00000E+00
    0.00000E+00         0.00000E+00        -0.50000E+08
 
   -0.49997E+08         0.21922E+03         0.00000E+00
    0.21922E+03        -0.50000E+08         0.00000E+00
    0.00000E+00         0.00000E+00        -0.50000E+08
 
   -0.49997E+08         0.26828E+03         0.00000E+00
    0.26828E+03        -0.50000E+08         0.00000E+00
    0.00000E+00         0.00000E+00        -0.50000E+08
 
   -0.49997E+08         0.31732E+03         0.00000E+00
    0.31732E+03        -0.50000E+08         0.00000E+00
    0.00000E+00         0.00000E+00        -0.50000E+08
 
   -0.49997E+08         0.36629E+03         0.00000E+00
    0.36629E+03        -0.50000E+08         0.00000E+00
    0.00000E+00         0.00000E+00        -0.50000E+08
 
   -0.49997E+08         0.41513E+03         0.00000E+00
    0.41513E+03        -0.50000E+08         0.00000E+00
    0.00000E+00         0.00000E+00        -0.50000E+08
 
   -0.49997E+08         0.46378E+03         0.00000E+00
    0.46378E+03        -0.50000E+08         0.00000E+00
    0.00000E+00         0.00000E+00        -0.50000E+08
 
   -0.49997E+08         0.51220E+03         0.00000E+00
    0.51220E+03        -0.50000E+08         0.00000E+00
    0.00000E+00         0.00000E+00        -0.50000E+08
 
   -0.49997E+08         0.56033E+03         0.00000E+00
    0.56033E+03        -0.50000E+08         0.00000E+00
    0.00000E+00         0.00000E+00        -0.50000E+08
 
   -0.49997E+08         0.60810E+03         0.00000E+00
    0.60810E+03        -0.50000E+08         0.00000E+00
    0.00000E+00         0.00000E+00        -0.50000E+08
 
   -0.49997E+08         0.65547E+03         0.00000E+00
    0.65547E+03        -0.50000E+08         0.00000E+00
    0.00000E+00         0.00000E+00        -0.50000E+08
 
   -0.49997E+08         0.70239E+03         0.00000E+00
    0.70239E+03        -0.50000E+08         0.00000E+00
    0.00000E+00         0.00000E+00        -0.50000E+08
 
   -0.49997E+08         0.74879E+03         0.00000E+00
    0.74879E+03        -0.50000E+08         0.00000E+00
    0.00000E+00         0.00000E+00        -0.50000E+08
 
   -0.49997E+08         0.79463E+03         0.00000E+00
    0.79463E+03        -0.50000E+08         0.00000E+00
    0.00000E+00         0.00000E+00        -0.50000E+08
 
   -0.49998E+08         0.83985E+03         0.00000E+00
    0.83985E+03        -0.50000E+08         0.00000E+00
    0.00000E+00         0.00000E+00        -0.50000E+08
 
   -0.49998E+08         0.88440E+03         0.00000E+00
    0.88440E+03        -0.50000E+08         0.00000E+00
    0.00000E+00         0.00000E+00        -0.50000E+08
 
   -0.49998E+08         0.92823E+03         0.00000E+00
    0.92823E+03        -0.50000E+08         0.00000E+00
    0.00000E+00         0.00000E+00        -0.50000E+08
 
   -0.49998E+08         0.97128E+03         0.00000E+00
    0.97128E+03        -0.50000E+08         0.00000E+00
    0.00000E+00         0.00000E+00        -0.50000E+08
 
   -0.49998E+08         0.10135E+04         0.00000E+00
    0.10135E+04        -0.50000E+08         0.00000E+00
    0.00000E+00         0.00000E+00        -0.50000E+08
 
   -0.49998E+08         0.10549E+04         0.00000E+00
    0.10549E+04        -0.50000E+08         0.00000E+00
    0.00000E+00         0.00000E+00        -0.50000E+08
 
   -0.49998E+08         0.10953E+04         0.00000E+00
    0.10953E+04        -0.50000E+08         0.00000E+00
    0.00000E+00         0.00000E+00        -0.50000E+08
 
   -0.49998E+08         0.11347E+04         0.00000E+00
    0.11347E+04        -0.50000E+08         0.00000E+00
    0.00000E+00         0.00000E+00        -0.50000E+08
 
   -0.49998E+08         0.11732E+04         0.00000E+00
    0.11732E+04        -0.50000E+08         0.00000E+00
    0.00000E+00         0.00000E+00        -0.50000E+08
 
   -0.49998E+08         0.12105E+04         0.00000E+00
    0.12105E+04        -0.49999E+08         0.00000E+00
    0.00000E+00         0.00000E+00        -0.50000E+08
 
   -0.49998E+08         0.12467E+04         0.00000E+00
    0.12467E+04        -0.49999E+08         0.00000E+00
    0.00000E+00         0.00000E+00        -0.50000E+08
 
   -0.49998E+08         0.12818E+04         0.00000E+00
    0.12818E+04        -0.49999E+08         0.00000E+00
    0.00000E+00         0.00000E+00        -0.50000E+08
 
   -0.49998E+08         0.13157E+04         0.00000E+00
    0.13157E+04        -0.49999E+08         0.00000E+00
    0.00000E+00         0.00000E+00        -0.50000E+08
 
   -0.49998E+08         0.13483E+04         0.00000E+00
    0.13483E+04        -0.49999E+08         0.00000E+00
    0.00000E+00         0.00000E+00        -0.50000E+08
 
   -0.49998E+08         0.13796E+04         0.00000E+00
    0.13796E+04        -0.49999E+08         0.00000E+00
    0.00000E+00         0.00000E+00        -0.50000E+08
 
   -0.49998E+08         0.14096E+04         0.00000E+00
    0.14096E+04        -0.49999E+08         0.00000E+00
    0.00000E+00         0.00000E+00        -0.50000E+08
 
   -0.49998E+08         0.14382E+04         0.00000E+00
    0.14382E+04        -0.49999E+08         0.00000E+00
    0.00000E+00         0.00000E+00        -0.50000E+08
 
   -0.49999E+08         0.14654E+04         0.00000E+00
    0.14654E+04        -0.49999E+08         0.00000E+00
    0.00000E+00         0.00000E+00        -0.50000E+08
 
   -0.49999E+08         0.14911E+04         0.00000E+00
    0.14911E+04        -0.49999E+08         0.00000E+00
    0.00000E+00         0.00000E+00        -0.50000E+08
 
   -0.49999E+08         0.15154E+04         0.00000E+00
    0.15154E+04        -0.49999E+08         0.00000E+00
    0.00000E+00         0.00000E+00        -0.50000E+08
 
   -0.49999E+08         0.15381E+04         0.00000E+00
    0.15381E+04        -0.49999E+08         0.00000E+00
    0.00000E+00         0.00000E+00        -0.50000E+08
 
   -0.49999E+08         0.15592E+04         0.00000E+00
    0.15592E+04        -0.49999E+08         0.00000E+00
    0.00000E+00         0.00000E+00        -0.50000E+08
 
   -0.49999E+08         0.15788E+04         0.00000E+00
    0.15788E+04        -0.49999E+08         0.00000E+00
    0.00000E+00         0.00000E+00        -0.50000E+08
 
   -0.49999E+08         0.15967E+04         0.00000E+00
    0.15967E+04        -0.49999E+08         0.00000E+00
    0.00000E+00         0.00000E+00        -0.50000E+08
 
   -0.49999E+08         0.16129E+04         0.00000E+00
    0.16129E+04        -0.49999E+08         0.00000E+00
    0.00000E+00         0.00000E+00        -0.50000E+08
 
   -0.49999E+08         0.16275E+04         0.00000E+00
    0.16275E+04        -0.49999E+08         0.00000E+00
    0.00000E+00         0.00000E+00        -0.50000E+08
 
   -0.49999E+08         0.16403E+04         0.00000E+00
    0.16403E+04        -0.49999E+08         0.00000E+00
    0.00000E+00         0.00000E+00        -0.50000E+08
 
   -0.49999E+08         0.16514E+04         0.00000E+00
    0.16514E+04        -0.49999E+08         0.00000E+00
    0.00000E+00         0.00000E+00        -0.50000E+08
 
   -0.50000E+08         0.16607E+04         0.00000E+00
    0.16607E+04        -0.49999E+08         0.00000E+00
    0.00000E+00         0.00000E+00        -0.50000E+08
 
   -0.50000E+08         0.16683E+04         0.00000E+00
    0.16683E+04        -0.49999E+08         0.00000E+00
    0.00000E+00         0.00000E+00        -0.50000E+08
 
   -0.50000E+08         0.16740E+04         0.00000E+00
    0.16740E+04        -0.49999E+08         0.00000E+00
    0.00000E+00         0.00000E+00        -0.50000E+08
 
   -0.50000E+08         0.16779E+04         0.00000E+00
    0.16779E+04        -0.49998E+08         0.00000E+00
    0.00000E+00         0.00000E+00        -0.50000E+08
 
   -0.50000E+08         0.16799E+04         0.00000E+00
    0.16799E+04        -0.49998E+08         0.00000E+00
    0.00000E+00         0.00000E+00        -0.50000E+08
 
   -0.49997E+08         0.27804E+02         0.00000E+00
    0.27804E+02        -0.50000E+08         0.00000E+00
    0.00000E+00         0.00000E+00        -0.50000E+08
 
   -0.49997E+08         0.84286E+02         0.00000E+00
    0.84286E+02        -0.50000E+08         0.00000E+00
    0.00000E+00         0.00000E+00        -0.50000E+08
 
   -0.49997E+08         0.14100E+03         0.00000E+00
    0.14100E+03        -0.50000E+08         0.00000E+00
    0.00000E+00         0.00000E+00        -0.50000E+08
 
   -0.49997E+08         0.19789E+03         0.00000E+00
    0.19789E+03        -0.50000E+08         0.00000E+00
    0.00000E+00         0.00000E+00        -0.50000E+08
 
   -0.49997E+08         0.25489E+03         0.00000E+00
    0.25489E+03        -0.50000E+08         0.00000E+00
    0.00000E+00         0.00000E+00        -0.50000E+08
 
   -0.49997E+08         0.31192E+03         0.00000E+00
    0.31192E+03        -0.50000E+08         0.00000E+00
    0.00000E+00         0.00000E+00        -0.50000E+08
 
   -0.49997E+08         0.36894E+03         0.00000E+00
    0.36894E+03        -0.50000E+08         0.00000E+00
    0.00000E+00         0.00000E+00        -0.50000E+08
 
   -0.49997E+08         0.42587E+03         0.00000E+00
    0.42587E+03        -0.50000E+08         0.00000E+00
    0.00000E+00         0.00000E+00        -0.50000E+08
 
   -0.49997E+08         0.48265E+03         0.00000E+00
    0.48265E+03        -0.50000E+08         0.00000E+00
    0.00000E+00         0.00000E+00        -0.50000E+08
 
   -0.49997E+08         0.53921E+03         0.00000E+00
    0.53921E+03        -0.50000E+08         0.00000E+00
    0.00000E+00         0.00000E+00        -0.50000E+08
 
   -0.49997E+08         0.59550E+03         0.00000E+00
    0.59550E+03        -0.50000E+08         0.00000E+00
    0.00000E+00         0.00000E+00        -0.50000E+08
 
   -0.49997E+08         0.65145E+03         0.00000E+00
    0.65145E+03        -0.50000E+08         0.00000E+00
    0.00000E+00         0.00000E+00        -0.50000E+08
 
   -0.49997E+08         0.70698E+03         0.00000E+00
    0.70698E+03        -0.50000E+08         0.00000E+00
    0.00000E+00         0.00000E+00        -0.50000E+08
 
   -0.49997E+08         0.76205E+03         0.00000E+00
    0.76205E+03        -0.50000E+08         0.00000E+00
    0.00000E+00         0.00000E+00        -0.50000E+08
 
   -0.49997E+08         0.81659E+03         0.00000E+00
    0.81659E+03        -0.50000E+08         0.00000E+00
    0.00000E+00         0.00000E+00        -0.50000E+08
 
   -0.49997E+08         0.87053E+03         0.00000E+00
    0.87053E+03        -0.50000E+08         0.00000E+00
    0.00000E+00         0.00000E+00        -0.50000E+08
 
   -0.49997E+08         0.92381E+03         0.00000E+00
    0.92381E+03        -0.50000E+08         0.00000E+00
    0.00000E+00         0.00000E+00        -0.50000E+08
 
   -0.49997E+08         0.97637E+03         0.00000E+00
    0.97637E+03        -0.50000E+08         0.00000E+00
    0.00000E+00         0.00000E+00        -0.50000E+08
 
   -0.49997E+08         0.10282E+04         0.00000E+00
    0.10282E+04        -0.50000E+08         0.00000E+00
    0.00000E+00         0.00000E+00        -0.50000E+08
 
   -0.49997E+08         0.10791E+04         0.00000E+00
    0.10791E+04        -0.50000E+08         0.00000E+00
    0.00000E+00         0.00000E+00        -0.50000E+08
 
   -0.49997E+08         0.11291E+04         0.00000E+00
    0.11291E+04        -0.50000E+08         0.00000E+00
    0.00000E+00         0.00000E+00        -0.50000E+08
 
   -0.49997E+08         0.11782E+04         0.00000E+00
    0.11782E+04        -0.50000E+08         0.00000E+00
    0.00000E+00         0.00000E+00        -0.50000E+08
 
   -0.49998E+08         0.12263E+04         0.00000E+00
    0.12263E+04        -0.50000E+08         0.00000E+00
    0.00000E+00         0.00000E+00        -0.50000E+08
 
   -0.49998E+08         0.12733E+04         0.00000E+00
    0.12733E+04        -0.50000E+08         0.00000E+00
    0.00000E+00         0.00000E+00        -0.50000E+08
 
   -0.49998E+08         0.13191E+04         0.00000E+00
    0.13191E+04        -0.50000E+08         0.00000E+00
    0.00000E+00         0.00000E+00        -0.50000E+08
 
   -0.49998E+08         0.13638E+04         0.00000E+00
    0.13638E+04        -0.49999E+08         0.00000E+00
    0.00000E+00         0.00000E+00        -0.50000E+08
 
   -0.49998E+08         0.14072E+04         0.00000E+00
    0.14072E+04        -0.49999E+08         0.00000E+00
    0.00000E+00         0.00000E+00        -0.50000E+08
 
   -0.49998E+08         0.14493E+04         0.00000E+00
    0.14493E+04        -0.49999E+08         0.00000E+00
    0.00000E+00         0.00000E+00        -0.50000E+08
 
   -0.49998E+08         0.14901E+04         0.00000E+00
    0.14901E+04        -0.49999E+08         0.00000E+00
    0.00000E+00         0.00000E+00        -0.50000E+08
 
   -0.49998E+08         0.15294E+04         0.00000E+00
    0.15294E+04        -0.49999E+08         0.00000E+00
    0.00000E+00         0.00000E+00        -0.50000E+08
 
   -0.49998E+08         0.15673E+04         0.00000E+00
    0.15673E+04        -0.49999E+08         0.00000E+00
    0.00000E+00         0.00000E+00        -0.50000E+08
 
   -0.49998E+08         0.16037E+04         0.00000E+00
    0.16037E+04        -0.49999E+08         0.00000E+00
    0.00000E+00         0.00000E+00        -0.50000E+08
 
   -0.49998E+08         0.16386E+04         0.00000E+00
    0.16386E+04        -0.49999E+08         0.00000E+00
    0.00000E+00         0.00000E+00        -0.50000E+08
 
   -0.49998E+08         0.16718E+04         0.00000E+00
    0.16718E+04        -0.49999E+08         0.00000E+00
    0.00000E+00         0.00000E+00        -0.50000E+08
 
   -0.49998E+08         0.17034E+04         0.00000E+00
    0.17034E+04        -0.49999E+08         0.00000E+00
    0.00000E+00         0.00000E+00        -0.50000E+08
 
   -0.49998E+08         0.17333E+04         0.00000E+00
    0.17333E+04        -0.49999E+08         0.00000E+00
    0.00000E+00         0.00000E+00        -0.50000E+08
 
   -0.49999E+08         0.17615E+04         0.00000E+00
    0.17615E+04        -0.49999E+08         0.00000E+00
    0.00000E+00         0.00000E+00        -0.50000E+08
 
   -0.49999E+08         0.17879E+04         0.00000E+00
    0.17879E+04        -0.49999E+08         0.00000E+00
    0.00000E+00         0.00000E+00        -0.50000E+08
 
   -0.49999E+08         0.18124E+04         0.00000E+00
    0.18124E+04        -0.49999E+08         0.00000E+00
    0.00000E+00         0.00000E+00        -0.50000E+08
 
   -0.49999E+08         0.18352E+04         0.00000E+00
    0.18352E+04        -0.49999E+08         0.00000E+00
    0.00000E+00         0.00000E+00        -0.50000E+08
 
   -0.49999E+08         0.18560E+04         0.00000E+00
    0.18560E+04        -0.49999E+08         0.00000E+00
    0.00000E+00         0.00000E+00        -0.50000E+08
 
   -0.49999E+08         0.18749E+04         0.00000E+00
    0.18749E+04        -0.49999E+08         0.00000E+00
    0.00000E+00         0.00000E+00        -0.50000E+08
 
   -0.49999E+08         0.18918E+04         0.00000E+00
    0.18918E+04        -0.49999E+08         0.00000E+00
    0.00000E+00         0.00000E+00        -0.50000E+08
 
   -0.49999E+08         0.19067E+04         0.00000E+00
    0.19067E+04        -0.49999E+08         0.00000E+00
    0.00000E+00         0.00000E+00        -0.50000E+08
 
   -0.49999E+08         0.19196E+04         0.00000E+00
    0.19196E+04        -0.49999E+08         0.00000E+00
    0.00000E+00         0.00000E+00        -0.50000E+08
 
   -0.49999E+08         0.19305E+04         0.00000E+00
    0.19305E+04        -0.49998E+08         0.00000E+00
    0.00000E+00         0.00000E+00        -0.50000E+08
 
   -0.50000E+08         0.19392E+04         0.00000E+00
    0.19392E+04        -0.49998E+08         0.00000E+00
    0.00000E+00         0.00000E+00        -0.50000E+08
 
   -0.50000E+08         0.19459E+04         0.00000E+00
    0.19459E+04        -0.49998E+08         0.00000E+00
    0.00000E+00         0.00000E+00        -0.50000E+08
 
   -0.50000E+08         0.19504E+04         0.00000E+00
    0.19504E+04        -0.49998E+08         0.00000E+00
    0.00000E+00         0.00000E+00        -0.50000E+08
 
   -0.50000E+08         0.19527E+04         0.00000E+00
    0.19527E+04        -0.49998E+08         0.00000E+00
    0.00000E+00         0.00000E+00        -0.50000E+08
 
   -0.49997E+08         0.32091E+02         0.00000E+00
    0.32091E+02        -0.50000E+08         0.00000E+00
    0.00000E+00         0.00000E+00        -0.50000E+08
 
   -0.49997E+08         0.97279E+02         0.00000E+00
    0.97279E+02        -0.50000E+08         0.00000E+00
    0.00000E+00         0.00000E+00        -0.50000E+08
 
   -0.49997E+08         0.16274E+03         0.00000E+00
    0.16274E+03        -0.50000E+08         0.00000E+00
    0.00000E+00         0.00000E+00        -0.50000E+08
 
   -0.49997E+08         0.22839E+03         0.00000E+00
    0.22839E+03        -0.50000E+08         0.00000E+00
    0.00000E+00         0.00000E+00        -0.50000E+08
 
   -0.49997E+08         0.29416E+03         0.00000E+00
    0.29416E+03        -0.50000E+08         0.00000E+00
    0.00000E+00         0.00000E+00        -0.50000E+08
 
   -0.49997E+08         0.35998E+03         0.00000E+00
    0.35998E+03        -0.50000E+08         0.00000E+00
    0.00000E+00         0.00000E+00        -0.50000E+08
 
   -0.49997E+08         0.42578E+03         0.00000E+00
    0.42578E+03        -0.50000E+08         0.00000E+00
    0.00000E+00         0.00000E+00        -0.50000E+08
 
   -0.49997E+08         0.49147E+03         0.00000E+00
    0.49147E+03        -0.50000E+08         0.00000E+00
    0.00000E+00         0.00000E+00        -0.50000E+08
 
   -0.49997E+08         0.55699E+03         0.00000E+00
    0.55699E+03        -0.50000E+08         0.00000E+00
    0.00000E+00         0.00000E+00        -0.50000E+08
 
   -0.49997E+08         0.62226E+03         0.00000E+00
    0.62226E+03        -0.50000E+08         0.00000E+00
    0.00000E+00         0.00000E+00        -0.50000E+08
 
   -0.49997E+08         0.68721E+03         0.00000E+00
    0.68721E+03        -0.50000E+08         0.00000E+00
    0.00000E+00         0.00000E+00        -0.50000E+08
 
   -0.49997E+08         0.75176E+03         0.00000E+00
    0.75176E+03        -0.50000E+08         0.00000E+00
    0.00000E+00         0.00000E+00        -0.50000E+08
 
   -0.49997E+08         0.81584E+03         0.00000E+00
    0.81584E+03        -0.50000E+08         0.00000E+00
    0.00000E+00         0.00000E+00        -0.50000E+08
 
   -0.49997E+08         0.87938E+03         0.00000E+00
    0.87938E+03        -0.50000E+08         0.00000E+00
    0.00000E+00         0.00000E+00        -0.50000E+08
 
   -0.49997E+08         0.94231E+03         0.00000E+00
    0.94231E+03        -0.50000E+08         0.00000E+00
    0.00000E+00         0.00000E+00        -0.50000E+08
 
   -0.49997E+08         0.10045E+04         0.00000E+00
    0.10045E+04        -0.50000E+08         0.00000E+00
    0.00000E+00         0.00000E+00        -0.50000E+08
 
   -0.49997E+08         0.10660E+04         0.00000E+00
    0.10660E+04        -0.50000E+08         0.00000E+00
    0.00000E+00         0.00000E+00        -0.50000E+08
 
   -0.49997E+08         0.11267E+04         0.00000E+00
    0.11267E+04        -0.50000E+08         0.00000E+00
    0.00000E+00         0.00000E+00        -0.50000E+08
 
   -0.49997E+08         0.11864E+04         0.00000E+00
    0.11864E+04        -0.50000E+08         0.00000E+00
    0.00000E+00         0.00000E+00        -0.50000E+08
 
   -0.49997E+08         0.12452E+04         0.00000E+00
    0.12452E+04        -0.50000E+08         0.00000E+00
    0.00000E+00         0.00000E+00        -0.50000E+08
 
   -0.49997E+08         0.13029E+04         0.00000E+00
    0.13029E+04        -0.50000E+08         0.00000E+00
    0.00000E+00         0.00000E+00        -0.50000E+08
 
   -0.49997E+08         0.13595E+04         0.00000E+00
    0.13595E+04        -0.50000E+08         0.00000E+00
    0.00000E+00         0.00000E+00        -0.50000E+08
 
   -0.49997E+08         0.14150E+04         0.00000E+00
    0.14150E+04        -0.50000E+08         0.00000E+00
    0.00000E+00         0.00000E+00        -0.50000E+08
 
   -0.49997E+08         0.14692E+04         0.00000E+00
    0.14692E+04        -0.50000E+08         0.00000E+00
    0.00000E+00         0.00000E+00        -0.50000E+08
 
   -0.49997E+08         0.15221E+04         0.00000E+00
    0.15221E+04        -0.49999E+08         0.00000E+00
    0.00000E+00         0.00000E+00        -0.50000E+08
 
   -0.49997E+08         0.15736E+04         0.00000E+00
    0.15736E+04        -0.49999E+08         0.00000E+00
    0.00000E+00         0.00000E+00        -0.50000E+08
 
   -0.49998E+08         0.16237E+04         0.00000E+00
    0.16237E+04        -0.49999E+08         0.00000E+00
    0.00000E+00         0.00000E+00        -0.50000E+08
 
   -0.49998E+08         0.16722E+04         0.00000E+00
    0.16722E+04        -0.49999E+08         0.00000E+00
    0.00000E+00         0.00000E+00        -0.50000E+08
 
   -0.49998E+08         0.17193E+04         0.00000E+00
    0.17193E+04        -0.49999E+08         0.00000E+00
    0.00000E+00         0.00000E+00        -0.50000E+08
 
   -0.49998E+08         0.17647E+04         0.00000E+00
    0.17647E+04        -0.49999E+08         0.00000E+00
    0.00000E+00         0.00000E+00        -0.50000E+08
 
   -0.49998E+08         0.18084E+04         0.00000E+00
    0.18084E+04        -0.49999E+08         0.00000E+00
    0.00000E+00         0.00000E+00        -0.50000E+08
 
   -0.49998E+08         0.18504E+04         0.00000E+00
    0.18504E+04        -0.49999E+08         0.00000E+00
    0.00000E+00         0.00000E+00        -0.50000E+08
 
   -0.49998E+08         0.18906E+04         0.00000E+00
    0.18906E+04        -0.49999E+08         0.00000E+00
    0.00000E+00         0.00000E+00        -0.50000E+08
 
   -0.49998E+08         0.19289E+04         0.00000E+00
    0.19289E+04        -0.49999E+08         0.00000E+00
    0.00000E+00         0.00000E+00        -0.50000E+08
 
   -0.49998E+08         0.19654E+04         0.00000E+00
    0.19654E+04        -0.49999E+08         0.00000E+00
    0.00000E+00         0.00000E+00        -0.50000E+08
 
   -0.49998E+08         0.19999E+04         0.00000E+00
    0.19999E+04        -0.49999E+08         0.00000E+00
    0.00000E+00         0.00000E+00        -0.50000E+08
 
   -0.49998E+08         0.20324E+04         0.00000E+00
    0.20324E+04        -0.49999E+08         0.00000E+00
    0.00000E+00         0.00000E+00        -0.50000E+08
 
   -0.49999E+08         0.20628E+04         0.00000E+00
    0.20628E+04        -0.49999E+08         0.00000E+00
    0.00000E+00         0.00000E+00        -0.50000E+08
 
   -0.49999E+08         0.20912E+04         0.00000E+00
    0.20912E+04        -0.49999E+08         0.00000E+00
    0.00000E+00         0.00000E+00        -0.50000E+08
 
   -0.49999E+08         0.21174E+04         0.00000E+00
    0.21174E+04        -0.49999E+08         0.00000E+00
    0.00000E+00         0.00000E+00        -0.50000E+08
 
   -0.49999E+08         0.21414E+04         0.00000E+00
    0.21414E+04        -0.49999E+08         0.00000E+00
    0.00000E+00         0.00000E+00        -0.50000E+08
 
   -0.49999E+08         0.21632E+04         0.00000E+00
    0.21632E+04        -0.49999E+08         0.00000E+00
    0.00000E+00         0.00000E+00        -0.50000E+08
 
   -0.49999E+08         0.21827E+04         0.00000E+00
    0.21827E+04        -0.49999E+08         0.00000E+00
    0.00000E+00         0.00000E+00        -0.50000E+08
 
   -0.49999E+08         0.21999E+04         0.00000E+00
    0.21999E+04        -0.49998E+08         0.00000E+00
    0.00000E+00         0.00000E+00        -0.50000E+08
 
   -0.49999E+08         0.22148E+04         0.00000E+00
    0.22148E+04        -0.49998E+08         0.00000E+00
    0.00000E+00         0.00000E+00        -0.50000E+08
 
   -0.49999E+08         0.22273E+04         0.00000E+00
    0.22273E+04        -0.49998E+08         0.00000E+00
    0.00000E+00         0.00000E+00        -0.50000E+08
 
   -0.50000E+08         0.22374E+04         0.00000E+00
    0.22374E+04        -0.49998E+08         0.00000E+00
    0.00000E+00         0.00000E+00        -0.50000E+08
 
   -0.50000E+08         0.22451E+04         0.00000E+00
    0.22451E+04        -0.49998E+08         0.00000E+00
    0.00000E+00         0.00000E+00        -0.50000E+08
 
   -0.50000E+08         0.22503E+04         0.00000E+00
    0.22503E+04        -0.49998E+08         0.00000E+00
    0.00000E+00         0.00000E+00        -0.50000E+08
 
   -0.50000E+08         0.22530E+04         0.00000E+00
    0.22530E+04        -0.49998E+08         0.00000E+00
    0.00000E+00         0.00000E+00        -0.50000E+08
 
   -0.49996E+08         0.36834E+02         0.00000E+00
    0.36834E+02        -0.50000E+08         0.00000E+00
    0.00000E+00         0.00000E+00        -0.50000E+08
 
   -0.49996E+08         0.11165E+03         0.00000E+00
    0.11165E+03        -0.50000E+08         0.00000E+00
    0.00000E+00         0.00000E+00        -0.50000E+08
 
   -0.49996E+08         0.18677E+03         0.00000E+00
    0.18677E+03        -0.50000E+08         0.00000E+00
    0.00000E+00         0.00000E+00        -0.50000E+08
 
   -0.49996E+08         0.26212E+03         0.00000E+00
    0.26212E+03        -0.50000E+08         0.00000E+00
    0.00000E+00         0.00000E+00        -0.50000E+08
 
   -0.49996E+08         0.33760E+03         0.00000E+00
    0.33760E+03        -0.50000E+08         0.00000E+00
    0.00000E+00         0.00000E+00        -0.50000E+08
 
   -0.49996E+08         0.41313E+03         0.00000E+00
    0.41313E+03        -0.50000E+08         0.00000E+00
    0.00000E+00         0.00000E+00        -0.50000E+08
 
   -0.49996E+08         0.48864E+03         0.00000E+00
    0.48864E+03        -0.50000E+08         0.00000E+00
    0.00000E+00         0.00000E+00        -0.50000E+08
 
   -0.49996E+08         0.56402E+03         0.00000E+00
    0.56402E+03        -0.50000E+08         0.00000E+00
    0.00000E+00         0.00000E+00        -0.50000E+08
 
   -0.49996E+08         0.63921E+03         0.00000E+00
    0.63921E+03        -0.50000E+08         0.00000E+00
    0.00000E+00         0.00000E+00        -0.50000E+08
 
   -0.49996E+08         0.71410E+03         0.00000E+00
    0.71410E+03        -0.50000E+08         0.00000E+00
    0.00000E+00         0.00000E+00        -0.50000E+08
 
   -0.49996E+08         0.78863E+03         0.00000E+00
    0.78863E+03        -0.50000E+08         0.00000E+00
    0.00000E+00         0.00000E+00        -0.50000E+08
 
   -0.49996E+08         0.86269E+03         0.00000E+00
    0.86269E+03        -0.50000E+08         0.00000E+00
    0.00000E+00         0.00000E+00        -0.50000E+08
 
   -0.49996E+08         0.93622E+03         0.00000E+00
    0.93622E+03        -0.50000E+08         0.00000E+00
    0.00000E+00         0.00000E+00        -0.50000E+08
 
   -0.49997E+08         0.10091E+04         0.00000E+00
    0.10091E+04        -0.50000E+08         0.00000E+00
    0.00000E+00         0.00000E+00        -0.50000E+08
 
   -0.49997E+08         0.10813E+04         0.00000E+00
    0.10813E+04        -0.50000E+08         0.00000E+00
    0.00000E+00         0.00000E+00        -0.50000E+08
 
   -0.49997E+08         0.11527E+04         0.00000E+00
    0.11527E+04        -0.50000E+08         0.00000E+00
    0.00000E+00         0.00000E+00        -0.50000E+08
 
   -0.49997E+08         0.12232E+04         0.00000E+00
    0.12232E+04        -0.50000E+08         0.00000E+00
    0.00000E+00         0.00000E+00        -0.50000E+08
 
   -0.49997E+08         0.12928E+04         0.00000E+00
    0.12928E+04        -0.50000E+08         0.00000E+00
    0.00000E+00         0.00000E+00        -0.50000E+08
 
   -0.49997E+08         0.13614E+04         0.00000E+00
    0.13614E+04        -0.50000E+08         0.00000E+00
    0.00000E+00         0.00000E+00        -0.50000E+08
 
   -0.49997E+08         0.14288E+04         0.00000E+00
    0.14288E+04        -0.50000E+08         0.00000E+00
    0.00000E+00         0.00000E+00        -0.50000E+08
 
   -0.49997E+08         0.14950E+04         0.00000E+00
    0.14950E+04        -0.50000E+08         0.00000E+00
    0.00000E+00         0.00000E+00        -0.50000E+08
 
   -0.49997E+08         0.15600E+04         0.00000E+00
    0.15600E+04        -0.50000E+08         0.00000E+00
    0.00000E+00         0.00000E+00        -0.50000E+08
 
   -0.49997E+08         0.16236E+04         0.00000E+00
    0.16236E+04        -0.49999E+08         0.00000E+00
    0.00000E+00         0.00000E+00        -0.50000E+08
 
   -0.49997E+08         0.16858E+04         0.00000E+00
    0.16858E+04        -0.49999E+08         0.00000E+00
    0.00000E+00         0.00000E+00        -0.50000E+08
 
   -0.49997E+08         0.17464E+04         0.00000E+00
    0.17464E+04        -0.49999E+08         0.00000E+00
    0.00000E+00         0.00000E+00        -0.50000E+08
 
   -0.49997E+08         0.18055E+04         0.00000E+00
    0.18055E+04        -0.49999E+08         0.00000E+00
    0.00000E+00         0.00000E+00        -0.50000E+08
 
   -0.49997E+08         0.18630E+04         0.00000E+00
    0.18630E+04        -0.49999E+08         0.00000E+00
    0.00000E+00         0.00000E+00        -0.50000E+08
 
   -0.49997E+08         0.19187E+04         0.00000E+00
    0.19187E+04        -0.49999E+08         0.00000E+00
    0.00000E+00         0.00000E+00        -0.50000E+08
 
   -0.49997E+08         0.19727E+04         0.00000E+00
    0.19727E+04        -0.49999E+08         0.00000E+00
    0.00000E+00         0.00000E+00        -0.50000E+08
 
   -0.49998E+08         0.20247E+04         0.00000E+00
    0.20247E+04        -0.49999E+08         0.00000E+00
    0.00000E+00         0.00000E+00        -0.50000E+08
 
   -0.49998E+08         0.20749E+04         0.00000E+00
    0.20749E+04        -0.49999E+08         0.00000E+00
    0.00000E+00         0.00000E+00        -0.50000E+08
 
   -0.49998E+08         0.21231E+04         0.00000E+00
    0.21231E+04        -0.49999E+08         0.00000E+00
    0.00000E+00         0.00000E+00        -0.50000E+08
 
   -0.49998E+08         0.21692E+04         0.00000E+00
    0.21692E+04        -0.49999E+08         0.00000E+00
    0.00000E+00         0.00000E+00        -0.50000E+08
 
   -0.49998E+08         0.22132E+04         0.00000E+00
    0.22132E+04        -0.49999E+08         0.00000E+00
    0.00000E+00         0.00000E+00        -0.50000E+08
 
   -0.49998E+08         0.22550E+04         0.00000E+00
    0.22550E+04        -0.49999E+08         0.00000E+00
    0.00000E+00         0.00000E+00        -0.50000E+08
 
   -0.49998E+08         0.22945E+04         0.00000E+00
    0.22945E+04        -0.49999E+08         0.00000E+00
    0.00000E+00         0.00000E+00        -0.50000E+08
 
   -0.49998E+08         0.23318E+04         0.00000E+00
    0.23318E+04        -0.49999E+08         0.00000E+00
    0.00000E+00         0.00000E+00        -0.50000E+08
 
   -0.49998E+08         0.23667E+04         0.00000E+00
    0.23667E+04        -0.49999E+08         0.00000E+00
    0.00000E+00         0.00000E+00        -0.50000E+08
 
   -0.49998E+08         0.23992E+04         0.00000E+00
    0.23992E+04        -0.49999E+08         0.00000E+00
    0.00000E+00         0.00000E+00        -0.50000E+08
 
   -0.49999E+08         0.24293E+04         0.00000E+00
    0.24293E+04        -0.49999E+08         0.00000E+00
    0.00000E+00         0.00000E+00        -0.50000E+08
 
   -0.49999E+08         0.24569E+04         0.00000E+00
    0.24569E+04        -0.49998E+08         0.00000E+00
    0.00000E+00         0.00000E+00        -0.50000E+08
 
   -0.49999E+08         0.24819E+04         0.00000E+00
    0.24819E+04        -0.49998E+08         0.00000E+00
    0.00000E+00         0.00000E+00        -0.50000E+08
 
   -0.49999E+08         0.25043E+04         0.00000E+00
    0.25043E+04        -0.49998E+08         0.00000E+00
    0.00000E+00         0.00000E+00        -0.50000E+08
 
   -0.49999E+08         0.25240E+04         0.00000E+00
    0.25240E+04        -0.49998E+08         0.00000E+00
    0.00000E+00         0.00000E+00        -0.50000E+08
 
   -0.49999E+08         0.25411E+04         0.00000E+00
    0.25411E+04        -0.49998E+08         0.00000E+00
    0.00000E+00         0.00000E+00        -0.50000E+08
 
   -0.49999E+08         0.25555E+04         0.00000E+00
    0.25555E+04        -0.49998E+08         0.00000E+00
    0.00000E+00         0.00000E+00        -0.50000E+08
 
   -0.50000E+08         0.25671E+04         0.00000E+00
    0.25671E+04        -0.49998E+08         0.00000E+00
    0.00000E+00         0.00000E+00        -0.50000E+08
 
   -0.50000E+08         0.25759E+04         0.00000E+00
    0.25759E+04        -0.49998E+08         0.00000E+00
    0.00000E+00         0.00000E+00        -0.50000E+08
 
   -0.50000E+08         0.25818E+04         0.00000E+00
    0.25818E+04        -0.49998E+08         0.00000E+00
    0.00000E+00         0.00000E+00        -0.50000E+08
 
   -0.50000E+08         0.25849E+04         0.00000E+00
    0.25849E+04        -0.49998E+08         0.00000E+00
    0.00000E+00         0.00000E+00        -0.50000E+08
 
   -0.49996E+08         0.42099E+02         0.00000E+00
    0.42099E+02        -0.50000E+08         0.00000E+00
    0.00000E+00         0.00000E+00        -0.50000E+08
 
   -0.49996E+08         0.12760E+03         0.00000E+00
    0.12760E+03        -0.50000E+08         0.00000E+00
    0.00000E+00         0.00000E+00        -0.50000E+08
 
   -0.49996E+08         0.21345E+03         0.00000E+00
    0.21345E+03        -0.50000E+08         0.00000E+00
    0.00000E+00         0.00000E+00        -0.50000E+08
 
   -0.49996E+08         0.29955E+03         0.00000E+00
    0.29955E+03        -0.50000E+08         0.00000E+00
    0.00000E+00         0.00000E+00        -0.50000E+08
 
   -0.49996E+08         0.38581E+03         0.00000E+00
    0.38581E+03        -0.50000E+08         0.00000E+00
    0.00000E+00         0.00000E+00        -0.50000E+08
 
   -0.49996E+08         0.47213E+03         0.00000E+00
    0.47213E+03        -0.50000E+08         0.00000E+00
    0.00000E+00         0.00000E+00        -0.50000E+08
 
   -0.49996E+08         0.55840E+03         0.00000E+00
    0.55840E+03        -0.50000E+08         0.00000E+00
    0.00000E+00         0.00000E+00        -0.50000E+08
 
   -0.49996E+08         0.64454E+03         0.00000E+00
    0.64454E+03        -0.50000E+08         0.00000E+00
    0.00000E+00         0.00000E+00        -0.50000E+08
 
   -0.49996E+08         0.73045E+03         0.00000E+00
    0.73045E+03        -0.50000E+08         0.00000E+00
    0.00000E+00         0.00000E+00        -0.50000E+08
 
   -0.49996E+08         0.81602E+03         0.00000E+00
    0.81602E+03        -0.50000E+08         0.00000E+00
    0.00000E+00         0.00000E+00        -0.50000E+08
 
   -0.49996E+08         0.90117E+03         0.00000E+00
    0.90117E+03        -0.50000E+08         0.00000E+00
    0.00000E+00         0.00000E+00        -0.50000E+08
 
   -0.49996E+08         0.98579E+03         0.00000E+00
    0.98579E+03        -0.50000E+08         0.00000E+00
    0.00000E+00         0.00000E+00        -0.50000E+08
 
   -0.49996E+08         0.10698E+04         0.00000E+00
    0.10698E+04        -0.50000E+08         0.00000E+00
    0.00000E+00         0.00000E+00        -0.50000E+08
 
   -0.49996E+08         0.11531E+04         0.00000E+00
    0.11531E+04        -0.50000E+08         0.00000E+00
    0.00000E+00         0.00000E+00        -0.50000E+08
 
   -0.49996E+08         0.12356E+04         0.00000E+00
    0.12356E+04        -0.50000E+08         0.00000E+00
    0.00000E+00         0.00000E+00        -0.50000E+08
 
   -0.49996E+08         0.13171E+04         0.00000E+00
    0.13171E+04        -0.50000E+08         0.00000E+00
    0.00000E+00         0.00000E+00        -0.50000E+08
 
   -0.49996E+08         0.13977E+04         0.00000E+00
    0.13977E+04        -0.50000E+08         0.00000E+00
    0.00000E+00         0.00000E+00        -0.50000E+08
 
   -0.49996E+08         0.14772E+04         0.00000E+00
    0.14772E+04        -0.50000E+08         0.00000E+00
    0.00000E+00         0.00000E+00        -0.50000E+08
 
   -0.49996E+08         0.15555E+04         0.00000E+00
    0.15555E+04        -0.50000E+08         0.00000E+00
    0.00000E+00         0.00000E+00        -0.50000E+08
 
   -0.49996E+08         0.16325E+04         0.00000E+00
    0.16325E+04        -0.50000E+08         0.00000E+00
    0.00000E+00         0.00000E+00        -0.50000E+08
 
   -0.49997E+08         0.17082E+04         0.00000E+00
    0.17082E+04        -0.50000E+08         0.00000E+00
    0.00000E+00         0.00000E+00        -0.50000E+08
 
   -0.49997E+08         0.17824E+04         0.00000E+00
    0.17824E+04        -0.49999E+08         0.00000E+00
    0.00000E+00         0.00000E+00        -0.50000E+08
 
   -0.49997E+08         0.18550E+04         0.00000E+00
    0.18550E+04        -0.49999E+08         0.00000E+00
    0.00000E+00         0.00000E+00        -0.50000E+08
 
   -0.49997E+08         0.19261E+04         0.00000E+00
    0.19261E+04        -0.49999E+08         0.00000E+00
    0.00000E+00         0.00000E+00        -0.50000E+08
 
   -0.49997E+08         0.19954E+04         0.00000E+00
    0.19954E+04        -0.49999E+08         0.00000E+00
    0.00000E+00         0.00000E+00        -0.50000E+08
 
   -0.49997E+08         0.20629E+04         0.00000E+00
    0.20629E+04        -0.49999E+08         0.00000E+00
    0.00000E+00         0.00000E+00        -0.50000E+08
 
   -0.49997E+08         0.21285E+04         0.00000E+00
    0.21285E+04        -0.49999E+08         0.00000E+00
    0.00000E+00         0.00000E+00        -0.50000E+08
 
   -0.49997E+08         0.21921E+04         0.00000E+00
    0.21921E+04        -0.49999E+08         0.00000E+00
    0.00000E+00         0.00000E+00        -0.50000E+08
 
   -0.49997E+08         0.22538E+04         0.00000E+00
    0.22538E+04        -0.49999E+08         0.00000E+00
    0.00000E+00         0.00000E+00        -0.50000E+08
 
   -0.49997E+08         0.23132E+04         0.00000E+00
    0.23132E+04        -0.49999E+08         0.00000E+00
    0.00000E+00         0.00000E+00        -0.50000E+08
 
   -0.49997E+08         0.23705E+04         0.00000E+00
    0.23705E+04        -0.49999E+08         0.00000E+00
    0.00000E+00         0.00000E+00        -0.50000E+08
 
   -0.49997E+08         0.24255E+04         0.00000E+00
    0.24255E+04        -0.49999E+08         0.00000E+00
    0.00000E+00         0.00000E+00        -0.50000E+08
 
   -0.49998E+08         0.24782E+04         0.00000E+00
    0.24782E+04        -0.49999E+08         0.00000E+00
    0.00000E+00         0.00000E+00        -0.50000E+08
 
   -0.49998E+08         0.25285E+04         0.00000E+00
    0.25285E+04        -0.49999E+08         0.00000E+00
    0.00000E+00         0.00000E+00        -0.50000E+08
 
   -0.49998E+08         0.25762E+04         0.00000E+00
    0.25762E+04        -0.49999E+08         0.00000E+00
    0.00000E+00         0.00000E+00        -0.50000E+08
 
   -0.49998E+08         0.26214E+04         0.00000E+00
    0.26214E+04        -0.49999E+08         0.00000E+00
    0.00000E+00         0.00000E+00        -0.50000E+08
 
   -0.49998E+08         0.26640E+04         0.00000E+00
    0.26640E+04        -0.49999E+08         0.00000E+00
    0.00000E+00         0.00000E+00        -0.50000E+08
 
   -0.49998E+08         0.27039E+04         0.00000E+00
    0.27039E+04        -0.49999E+08         0.00000E+00
    0.00000E+00         0.00000E+00        -0.50000E+08
 
   -0.49998E+08         0.27410E+04         0.00000E+00
    0.27410E+04        -0.49998E+08         0.00000E+00
    0.00000E+00         0.00000E+00        -0.50000E+08
 
   -0.49998E+08         0.27754E+04         0.00000E+00
    0.27754E+04        -0.49998E+08         0.00000E+00
    0.00000E+00         0.00000E+00        -0.50000E+08
 
   -0.49999E+08         0.28068E+04         0.00000E+00
    0.28068E+04        -0.49998E+08         0.00000E+00
    0.00000E+00         0.00000E+00        -0.50000E+08
 
   -0.49999E+08         0.28354E+04         0.00000E+00
    0.28354E+04        -0.49998E+08         0.00000E+00
    0.00000E+00         0.00000E+00        -0.50000E+08
 
   -0.49999E+08         0.28610E+04         0.00000E+00
    0.28610E+04        -0.49998E+08         0.00000E+00
    0.00000E+00         0.00000E+00        -0.50000E+08
 
   -0.49999E+08         0.28836E+04         0.00000E+00
    0.28836E+04        -0.49998E+08         0.00000E+00
    0.00000E+00         0.00000E+00        -0.50000E+08
 
   -0.49999E+08         0.29031E+04         0.00000E+00
    0.29031E+04        -0.49998E+08         0.00000E+00
    0.00000E+00         0.00000E+00        -0.50000E+08
 
   -0.49999E+08         0.29195E+04         0.00000E+00
    0.29195E+04        -0.49998E+08         0.00000E+00
    0.00000E+00         0.00000E+00        -0.50000E+08
 
   -0.49999E+08         0.29327E+04         0.00000E+00
    0.29327E+04        -0.49998E+08         0.00000E+00
    0.00000E+00         0.00000E+00        -0.50000E+08
 
   -0.50000E+08         0.29428E+04         0.00000E+00
    0.29428E+04        -0.49998E+08         0.00000E+00
    0.00000E+00         0.00000E+00        -0.50000E+08
 
   -0.50000E+08         0.29496E+04         0.00000E+00
    0.29496E+04        -0.49998E+08         0.00000E+00
    0.00000E+00         0.00000E+00        -0.50000E+08
 
   -0.50000E+08         0.29532E+04         0.00000E+00
    0.29532E+04        -0.49998E+08         0.00000E+00
    0.00000E+00         0.00000E+00        -0.50000E+08
 
   -0.49996E+08         0.47961E+02         0.00000E+00
    0.47961E+02        -0.50000E+08         0.00000E+00
    0.00000E+00         0.00000E+00        -0.50000E+08
 
   -0.49996E+08         0.14536E+03         0.00000E+00
    0.14536E+03        -0.50000E+08         0.00000E+00
    0.00000E+00         0.00000E+00        -0.50000E+08
 
   -0.49996E+08         0.24315E+03         0.00000E+00
    0.24315E+03        -0.50000E+08         0.00000E+00
    0.00000E+00         0.00000E+00        -0.50000E+08
 
   -0.49996E+08         0.34123E+03         0.00000E+00
    0.34123E+03        -0.50000E+08         0.00000E+00
    0.00000E+00         0.00000E+00        -0.50000E+08
 
   -0.49996E+08         0.43948E+03         0.00000E+00
    0.43948E+03        -0.50000E+08         0.00000E+00
    0.00000E+00         0.00000E+00        -0.50000E+08
 
   -0.49996E+08         0.53779E+03         0.00000E+00
    0.53779E+03        -0.50000E+08         0.00000E+00
    0.00000E+00         0.00000E+00        -0.50000E+08
 
   -0.49996E+08         0.63606E+03         0.00000E+00
    0.63606E+03        -0.50000E+08         0.00000E+00
    0.00000E+00         0.00000E+00        -0.50000E+08
 
   -0.49996E+08         0.73416E+03         0.00000E+00
    0.73416E+03        -0.50000E+08         0.00000E+00
    0.00000E+00         0.00000E+00        -0.50000E+08
 
   -0.49996E+08         0.83200E+03         0.00000E+00
    0.83200E+03        -0.50000E+08         0.00000E+00
    0.00000E+00         0.00000E+00        -0.50000E+08
 
   -0.49996E+08         0.92946E+03         0.00000E+00
    0.92946E+03        -0.50000E+08         0.00000E+00
    0.00000E+00         0.00000E+00        -0.50000E+08
 
   -0.49996E+08         0.10264E+04         0.00000E+00
    0.10264E+04        -0.50000E+08         0.00000E+00
    0.00000E+00         0.00000E+00        -0.50000E+08
 
   -0.49996E+08         0.11228E+04         0.00000E+00
    0.11228E+04        -0.50000E+08         0.00000E+00
    0.00000E+00         0.00000E+00        -0.50000E+08
 
   -0.49996E+08         0.12185E+04         0.00000E+00
    0.12185E+04        -0.50000E+08         0.00000E+00
    0.00000E+00         0.00000E+00        -0.50000E+08
 
   -0.49996E+08         0.13133E+04         0.00000E+00
    0.13133E+04        -0.50000E+08         0.00000E+00
    0.00000E+00         0.00000E+00        -0.50000E+08
 
   -0.49996E+08         0.14072E+04         0.00000E+00
    0.14072E+04        -0.50000E+08         0.00000E+00
    0.00000E+00         0.00000E+00        -0.50000E+08
 
   -0.49996E+08         0.15001E+04         0.00000E+00
    0.15001E+04        -0.50000E+08         0.00000E+00
    0.00000E+00         0.00000E+00        -0.50000E+08
 
   -0.49996E+08         0.15919E+04         0.00000E+00
    0.15919E+04        -0.50000E+08         0.00000E+00
    0.00000E+00         0.00000E+00        -0.50000E+08
 
   -0.49996E+08         0.16824E+04         0.00000E+00
    0.16824E+04        -0.50000E+08         0.00000E+00
    0.00000E+00         0.00000E+00        -0.50000E+08
 
   -0.49996E+08         0.17715E+04         0.00000E+00
    0.17715E+04        -0.50000E+08         0.00000E+00
    0.00000E+00         0.00000E+00        -0.50000E+08
 
   -0.49996E+08         0.18592E+04         0.00000E+00
    0.18592E+04        -0.50000E+08         0.00000E+00
    0.00000E+00         0.00000E+00        -0.50000E+08
 
   -0.49996E+08         0.19454E+04         0.00000E+00
    0.19454E+04        -0.49999E+08         0.00000E+00
    0.00000E+00         0.00000E+00        -0.50000E+08
 
   -0.49996E+08         0.20298E+04         0.00000E+00
    0.20298E+04        -0.49999E+08         0.00000E+00
    0.00000E+00         0.00000E+00        -0.50000E+08
 
   -0.49996E+08         0.21126E+04         0.00000E+00
    0.21126E+04        -0.49999E+08         0.00000E+00
    0.00000E+00         0.00000E+00        -0.50000E+08
 
   -0.49996E+08         0.21934E+04         0.00000E+00
    0.21934E+04        -0.49999E+08         0.00000E+00
    0.00000E+00         0.00000E+00        -0.50000E+08
 
   -0.49996E+08         0.22723E+04         0.00000E+00
    0.22723E+04        -0.49999E+08         0.00000E+00
    0.00000E+00         0.00000E+00        -0.50000E+08
 
   -0.49997E+08         0.23492E+04         0.00000E+00
    0.23492E+04        -0.49999E+08         0.00000E+00
    0.00000E+00         0.00000E+00        -0.50000E+08
 
   -0.49997E+08         0.24239E+04         0.00000E+00
    0.24239E+04        -0.49999E+08         0.00000E+00
    0.00000E+00         0.00000E+00        -0.50000E+08
 
   -0.49997E+08         0.24964E+04         0.00000E+00
    0.24964E+04        -0.49999E+08         0.00000E+00
    0.00000E+00         0.00000E+00        -0.50000E+08
 
   -0.49997E+08         0.25665E+04         0.00000E+00
    0.25665E+04        -0.49999E+08         0.00000E+00
    0.00000E+00         0.00000E+00        -0.50000E+08
 
   -0.49997E+08         0.26342E+04         0.00000E+00
    0.26342E+04        -0.49999E+08         0.00000E+00
    0.00000E+00         0.00000E+00        -0.50000E+08
 
   -0.49997E+08         0.26995E+04         0.00000E+00
    0.26995E+04        -0.49999E+08         0.00000E+00
    0.00000E+00         0.00000E+00        -0.50000E+08
 
   -0.49997E+08         0.27621E+04         0.00000E+00
    0.27621E+04        -0.49999E+08         0.00000E+00
    0.00000E+00         0.00000E+00        -0.50000E+08
 
   -0.49997E+08         0.28220E+04         0.00000E+00
    0.28220E+04        -0.49999E+08         0.00000E+00
    0.00000E+00         0.00000E+00        -0.50000E+08
 
   -0.49997E+08         0.28792E+04         0.00000E+00
    0.28792E+04        -0.49999E+08         0.00000E+00
    0.00000E+00         0.00000E+00        -0.50000E+08
 
   -0.49998E+08         0.29336E+04         0.00000E+00
    0.29336E+04        -0.49999E+08         0.00000E+00
    0.00000E+00         0.00000E+00        -0.50000E+08
 
   -0.49998E+08         0.29851E+04         0.00000E+00
    0.29851E+04        -0.49999E+08         0.00000E+00
    0.00000E+00         0.00000E+00        -0.50000E+08
 
   -0.49998E+08         0.30335E+04         0.00000E+00
    0.30335E+04        -0.49998E+08         0.00000E+00
    0.00000E+00         0.00000E+00        -0.50000E+08
 
   -0.49998E+08         0.30790E+04         0.00000E+00
    0.30790E+04        -0.49998E+08         0.00000E+00
    0.00000E+00         0.00000E+00        -0.50000E+08
 
   -0.49998E+08         0.31212E+04         0.00000E+00
    0.31212E+04        -0.49998E+08         0.00000E+00
    0.00000E+00         0.00000E+00        -0.50000E+08
 
   -0.49998E+08         0.31603E+04         0.00000E+00
    0.31603E+04        -0.49998E+08         0.00000E+00
    0.00000E+00         0.00000E+00        -0.50000E+08
 
   -0.49998E+08         0.31962E+04         0.00000E+00
    0.31962E+04        -0.49998E+08         0.00000E+00
    0.00000E+00         0.00000E+00        -0.50000E+08
 
   -0.49999E+08         0.32287E+04         0.00000E+00
    0.32287E+04        -0.49998E+08         0.00000E+00
    0.00000E+00         0.00000E+00        -0.50000E+08
 
   -0.49999E+08         0.32579E+04         0.00000E+00
    0.32579E+04        -0.49998E+08         0.00000E+00
    0.00000E+00         0.00000E+00        -0.50000E+08
 
   -0.49999E+08         0.32836E+04         0.00000E+00
    0.32836E+04        -0.49998E+08         0.00000E+00
    0.00000E+00         0.00000E+00        -0.50000E+08
 
   -0.49999E+08         0.33058E+04         0.00000E+00
    0.33058E+04        -0.49998E+08         0.00000E+00
    0.00000E+00         0.00000E+00        -0.50000E+08
 
   -0.49999E+08         0.33245E+04         0.00000E+00
    0.33245E+04        -0.49998E+08         0.00000E+00
    0.00000E+00         0.00000E+00        -0.50000E+08
 
   -0.49999E+08         0.33396E+04         0.00000E+00
    0.33396E+04        -0.49998E+08         0.00000E+00
    0.00000E+00         0.00000E+00        -0.50000E+08
 
   -0.50000E+08         0.33510E+04         0.00000E+00
    0.33510E+04        -0.49998E+08         0.00000E+00
    0.00000E+00         0.00000E+00        -0.50000E+08
 
   -0.50000E+08         0.33588E+04         0.00000E+00
    0.33588E+04        -0.49997E+08         0.00000E+00
    0.00000E+00         0.00000E+00        -0.50000E+08
 
   -0.50000E+08         0.33629E+04         0.00000E+00
    0.33629E+04        -0.49997E+08         0.00000E+00
    0.00000E+00         0.00000E+00        -0.50000E+08
 
   -0.49995E+08         0.54504E+02         0.00000E+00
    0.54504E+02        -0.50000E+08         0.00000E+00
    0.00000E+00         0.00000E+00        -0.50000E+08
 
   -0.49995E+08         0.16518E+03         0.00000E+00
    0.16518E+03        -0.50000E+08         0.00000E+00
    0.00000E+00         0.00000E+00        -0.50000E+08
 
   -0.49995E+08         0.27630E+03         0.00000E+00
    0.27630E+03        -0.50000E+08         0.00000E+00
    0.00000E+00         0.00000E+00        -0.50000E+08
 
   -0.49995E+08         0.38773E+03         0.00000E+00
    0.38773E+03        -0.50000E+08         0.00000E+00
    0.00000E+00         0.00000E+00        -0.50000E+08
 
   -0.49995E+08         0.49936E+03         0.00000E+00
    0.49936E+03        -0.50000E+08         0.00000E+00
    0.00000E+00         0.00000E+00        -0.50000E+08
 
   -0.49995E+08         0.61106E+03         0.00000E+00
    0.61106E+03        -0.50000E+08         0.00000E+00
    0.00000E+00         0.00000E+00        -0.50000E+08
 
   -0.49995E+08         0.72270E+03         0.00000E+00
    0.72270E+03        -0.50000E+08         0.00000E+00
    0.00000E+00         0.00000E+00        -0.50000E+08
 
   -0.49995E+08         0.83415E+03         0.00000E+00
    0.83415E+03        -0.50000E+08         0.00000E+00
    0.00000E+00         0.00000E+00        -0.50000E+08
 
   -0.49995E+08         0.94530E+03         0.00000E+00
    0.94530E+03        -0.50000E+08         0.00000E+00
    0.00000E+00         0.00000E+00        -0.50000E+08
 
   -0.49995E+08         0.10560E+04         0.00000E+00
    0.10560E+04        -0.50000E+08         0.00000E+00
    0.00000E+00         0.00000E+00        -0.50000E+08
 
   -0.49995E+08         0.11662E+04         0.00000E+00
    0.11662E+04        -0.50000E+08         0.00000E+00
    0.00000E+00         0.00000E+00        -0.50000E+08
 
   -0.49995E+08         0.12756E+04         0.00000E+00
    0.12756E+04        -0.50000E+08         0.00000E+00
    0.00000E+00         0.00000E+00        -0.50000E+08
 
   -0.49995E+08         0.13843E+04         0.00000E+00
    0.13843E+04        -0.50000E+08         0.00000E+00
    0.00000E+00         0.00000E+00        -0.50000E+08
 
   -0.49995E+08         0.14920E+04         0.00000E+00
    0.14920E+04        -0.50000E+08         0.00000E+00
    0.00000E+00         0.00000E+00        -0.50000E+08
 
   -0.49995E+08         0.15987E+04         0.00000E+00
    0.15987E+04        -0.50000E+08         0.00000E+00
    0.00000E+00         0.00000E+00        -0.50000E+08
 
   -0.49995E+08         0.17042E+04         0.00000E+00
    0.17042E+04        -0.50000E+08         0.00000E+00
    0.00000E+00         0.00000E+00        -0.50000E+08
 
   -0.49995E+08         0.18084E+04         0.00000E+00
    0.18084E+04        -0.50000E+08         0.00000E+00
    0.00000E+00         0.00000E+00        -0.50000E+08
 
   -0.49995E+08         0.19112E+04         0.00000E+00
    0.19112E+04        -0.50000E+08         0.00000E+00
    0.00000E+00         0.00000E+00        -0.50000E+08
 
   -0.49995E+08         0.20125E+04         0.00000E+00
    0.20125E+04        -0.50000E+08         0.00000E+00
    0.00000E+00         0.00000E+00        -0.50000E+08
 
   -0.49996E+08         0.21121E+04         0.00000E+00
    0.21121E+04        -0.49999E+08         0.00000E+00
    0.00000E+00         0.00000E+00        -0.50000E+08
 
   -0.49996E+08         0.22099E+04         0.00000E+00
    0.22099E+04        -0.49999E+08         0.00000E+00
    0.00000E+00         0.00000E+00        -0.50000E+08
 
   -0.49996E+08         0.23058E+04         0.00000E+00
    0.23058E+04        -0.49999E+08         0.00000E+00
    0.00000E+00         0.00000E+00        -0.50000E+08
 
   -0.49996E+08         0.23998E+04         0.00000E+00
    0.23998E+04        -0.49999E+08         0.00000E+00
    0.00000E+00         0.00000E+00        -0.50000E+08
 
   -0.49996E+08         0.24916E+04         0.00000E+00
    0.24916E+04        -0.49999E+08         0.00000E+00
    0.00000E+00         0.00000E+00        -0.50000E+08
 
   -0.49996E+08         0.25812E+04         0.00000E+00
    0.25812E+04        -0.49999E+08         0.00000E+00
    0.00000E+00         0.00000E+00        -0.50000E+08
 
   -0.49996E+08         0.26685E+04         0.00000E+00
    0.26685E+04        -0.49999E+08         0.00000E+00
    0.00000E+00         0.00000E+00        -0.50000E+08
 
   -0.49996E+08         0.27533E+04         0.00000E+00
    0.27533E+04        -0.49999E+08         0.00000E+00
    0.00000E+00         0.00000E+00        -0.50000E+08
 
   -0.49996E+08         0.28356E+04         0.00000E+00
    0.28356E+04        -0.49999E+08         0.00000E+00
    0.00000E+00         0.00000E+00        -0.50000E+08
 
   -0.49996E+08         0.29153E+04         0.00000E+00
    0.29153E+04        -0.49999E+08         0.00000E+00
    0.00000E+00         0.00000E+00        -0.50000E+08
 
   -0.49997E+08         0.29922E+04         0.00000E+00
    0.29922E+04        -0.49999E+08         0.00000E+00
    0.00000E+00         0.00000E+00        -0.50000E+08
 
   -0.49997E+08         0.30663E+04         0.00000E+00
    0.30663E+04        -0.49999E+08         0.00000E+00
    0.00000E+00         0.00000E+00        -0.50000E+08
 
   -0.49997E+08         0.31374E+04         0.00000E+00
    0.31374E+04        -0.49999E+08         0.00000E+00
    0.00000E+00         0.00000E+00        -0.50000E+08
 
   -0.49997E+08         0.32055E+04         0.00000E+00
    0.32055E+04        -0.49999E+08         0.00000E+00
    0.00000E+00         0.00000E+00        -0.50000E+08
 
   -0.49997E+08         0.32704E+04         0.00000E+00
    0.32704E+04        -0.49999E+08         0.00000E+00
    0.00000E+00         0.00000E+00        -0.50000E+08
 
   -0.49997E+08         0.33321E+04         0.00000E+00
    0.33321E+04        -0.49998E+08         0.00000E+00
    0.00000E+00         0.00000E+00        -0.50000E+08
 
   -0.49997E+08         0.33906E+04         0.00000E+00
    0.33906E+04        -0.49998E+08         0.00000E+00
    0.00000E+00         0.00000E+00        -0.50000E+08
 
   -0.49998E+08         0.34456E+04         0.00000E+00
    0.34456E+04        -0.49998E+08         0.00000E+00
    0.00000E+00         0.00000E+00        -0.50000E+08
 
   -0.49998E+08         0.34972E+04         0.00000E+00
    0.34972E+04        -0.49998E+08         0.00000E+00
    0.00000E+00         0.00000E+00        -0.50000E+08
 
   -0.49998E+08         0.35452E+04         0.00000E+00
    0.35452E+04        -0.49998E+08         0.00000E+00
    0.00000E+00         0.00000E+00        -0.50000E+08
 
   -0.49998E+08         0.35896E+04         0.00000E+00
    0.35896E+04        -0.49998E+08         0.00000E+00
    0.00000E+00         0.00000E+00        -0.50000E+08
 
   -0.49998E+08         0.36303E+04         0.00000E+00
    0.36303E+04        -0.49998E+08         0.00000E+00
    0.00000E+00         0.00000E+00        -0.50000E+08
 
   -0.49998E+08         0.36673E+04         0.00000E+00
    0.36673E+04        -0.49998E+08         0.00000E+00
    0.00000E+00         0.00000E+00        -0.50000E+08
 
   -0.49999E+08         0.37004E+04         0.00000E+00
    0.37004E+04        -0.49998E+08         0.00000E+00
    0.00000E+00         0.00000E+00        -0.50000E+08
 
   -0.49999E+08         0.37296E+04         0.00000E+00
    0.37296E+04        -0.49998E+08         0.00000E+00
    0.00000E+00         0.00000E+00        -0.50000E+08
 
   -0.49999E+08         0.37548E+04         0.00000E+00
    0.37548E+04        -0.49998E+08         0.00000E+00
    0.00000E+00         0.00000E+00        -0.50000E+08
 
   -0.49999E+08         0.37761E+04         0.00000E+00
    0.37761E+04        -0.49997E+08         0.00000E+00
    0.00000E+00         0.00000E+00        -0.50000E+08
 
   -0.49999E+08         0.37932E+04         0.00000E+00
    0.37932E+04        -0.49997E+08         0.00000E+00
    0.00000E+00         0.00000E+00        -0.50000E+08
 
   -0.50000E+08         0.38063E+04         0.00000E+00
    0.38063E+04        -0.49997E+08         0.00000E+00
    0.00000E+00         0.00000E+00        -0.50000E+08
 
   -0.50000E+08         0.38152E+04         0.00000E+00
    0.38152E+04        -0.49997E+08         0.00000E+00
    0.00000E+00         0.00000E+00        -0.50000E+08
 
   -0.50000E+08         0.38198E+04         0.00000E+00
    0.38198E+04        -0.49997E+08         0.00000E+00
    0.00000E+00         0.00000E+00        -0.50000E+08
 
   -0.49994E+08         0.61820E+02         0.00000E+00
    0.61820E+02        -0.50000E+08         0.00000E+00
    0.00000E+00         0.00000E+00        -0.50000E+08
 
   -0.49994E+08         0.18734E+03         0.00000E+00
    0.18734E+03        -0.50000E+08         0.00000E+00
    0.00000E+00         0.00000E+00        -0.50000E+08
 
   -0.49994E+08         0.31335E+03         0.00000E+00
    0.31335E+03        -0.50000E+08         0.00000E+00
    0.00000E+00         0.00000E+00        -0.50000E+08
 
   -0.49994E+08         0.43972E+03         0.00000E+00
    0.43972E+03        -0.50000E+08         0.00000E+00
    0.00000E+00         0.00000E+00        -0.50000E+08
 
   -0.49994E+08         0.56630E+03         0.00000E+00
    0.56630E+03        -0.50000E+08         0.00000E+00
    0.00000E+00         0.00000E+00        -0.50000E+08
 
   -0.49994E+08         0.69296E+03         0.00000E+00
    0.69296E+03        -0.50000E+08         0.00000E+00
    0.00000E+00         0.00000E+00        -0.50000E+08
 
   -0.49994E+08         0.81954E+03         0.00000E+00
    0.81954E+03        -0.50000E+08         0.00000E+00
    0.00000E+00         0.00000E+00        -0.50000E+08
 
   -0.49994E+08         0.94592E+03         0.00000E+00
    0.94592E+03        -0.50000E+08         0.00000E+00
    0.00000E+00         0.00000E+00        -0.50000E+08
 
   -0.49994E+08         0.10719E+04         0.00000E+00
    0.10719E+04        -0.50000E+08         0.00000E+00
    0.00000E+00         0.00000E+00        -0.50000E+08
 
   -0.49994E+08         0.11975E+04         0.00000E+00
    0.11975E+04        -0.50000E+08         0.00000E+00
    0.00000E+00         0.00000E+00        -0.50000E+08
 
   -0.49994E+08         0.13223E+04         0.00000E+00
    0.13223E+04        -0.50000E+08         0.00000E+00
    0.00000E+00         0.00000E+00        -0.50000E+08
 
   -0.49995E+08         0.14465E+04         0.00000E+00
    0.14465E+04        -0.50000E+08         0.00000E+00
    0.00000E+00         0.00000E+00        -0.50000E+08
 
   -0.49995E+08         0.15696E+04         0.00000E+00
    0.15696E+04        -0.50000E+08         0.00000E+00
    0.00000E+00         0.00000E+00        -0.50000E+08
 
   -0.49995E+08         0.16918E+04         0.00000E+00
    0.16918E+04        -0.50000E+08         0.00000E+00
    0.00000E+00         0.00000E+00        -0.50000E+08
 
   -0.49995E+08         0.18127E+04         0.00000E+00
    0.18127E+04        -0.50000E+08         0.00000E+00
    0.00000E+00         0.00000E+00        -0.50000E+08
 
   -0.49995E+08         0.19323E+04         0.00000E+00
    0.19323E+04        -0.50000E+08         0.00000E+00
    0.00000E+00         0.00000E+00        -0.50000E+08
 
   -0.49995E+08         0.20504E+04         0.00000E+00
    0.20504E+04        -0.50000E+08         0.00000E+00
    0.00000E+00         0.00000E+00        -0.50000E+08
 
   -0.49995E+08         0.21669E+04         0.00000E+00
    0.21669E+04        -0.50000E+08         0.00000E+00
    0.00000E+00         0.00000E+00        -0.50000E+08
 
   -0.49995E+08         0.22817E+04         0.00000E+00
    0.22817E+04        -0.49999E+08         0.00000E+00
    0.00000E+00         0.00000E+00        -0.50000E+08
 
   -0.49995E+08         0.23946E+04         0.00000E+00
    0.23946E+04        -0.49999E+08         0.00000E+00
    0.00000E+00         0.00000E+00        -0.50000E+08
 
   -0.49995E+08         0.25055E+04         0.00000E+00
    0.25055E+04        -0.49999E+08         0.00000E+00
    0.00000E+00         0.00000E+00        -0.50000E+08
 
   -0.49995E+08         0.26142E+04         0.00000E+00
    0.26142E+04        -0.49999E+08         0.00000E+00
    0.00000E+00         0.00000E+00        -0.50000E+08
 
   -0.49995E+08         0.27207E+04         0.00000E+00
    0.27207E+04        -0.49999E+08         0.00000E+00
    0.00000E+00         0.00000E+00        -0.50000E+08
 
   -0.49995E+08         0.28248E+04         0.00000E+00
    0.28248E+04        -0.49999E+08         0.00000E+00
    0.00000E+00         0.00000E+00        -0.50000E+08
 
   -0.49996E+08         0.29263E+04         0.00000E+00
    0.29263E+04        -0.49999E+08         0.00000E+00
    0.00000E+00         0.00000E+00        -0.50000E+08
 
   -0.49996E+08         0.30252E+04         0.00000E+00
    0.30252E+04        -0.49999E+08         0.00000E+00
    0.00000E+00         0.00000E+00        -0.50000E+08
 
   -0.49996E+08         0.31214E+04         0.00000E+00
    0.31214E+04        -0.49999E+08         0.00000E+00
    0.00000E+00         0.00000E+00        -0.50000E+08
 
   -0.49996E+08         0.32147E+04         0.00000E+00
    0.32147E+04        -0.49999E+08         0.00000E+00
    0.00000E+00         0.00000E+00        -0.50000E+08
 
   -0.49996E+08         0.33049E+04         0.00000E+00
    0.33049E+04        -0.49999E+08         0.00000E+00
    0.00000E+00         0.00000E+00        -0.50000E+08
 
   -0.49996E+08         0.33921E+04         0.00000E+00
    0.33921E+04        -0.49999E+08         0.00000E+00
    0.00000E+00         0.00000E+00        -0.50000E+08
 
   -0.49996E+08         0.34760E+04         0.00000E+00
    0.34760E+04        -0.49999E+08         0.00000E+00
    0.00000E+00         0.00000E+00        -0.50000E+08
 
   -0.49997E+08         0.35566E+04         0.00000E+00
    0.35566E+04        -0.49999E+08         0.00000E+00
    0.00000E+00         0.00000E+00        -0.50000E+08
 
   -0.49997E+08         0.36338E+04         0.00000E+00
    0.36338E+04        -0.49998E+08         0.00000E+00
    0.00000E+00         0.00000E+00        -0.50000E+08
 
   -0.49997E+08         0.37074E+04         0.00000E+00
    0.37074E+04        -0.49998E+08         0.00000E+00
    0.00000E+00         0.00000E+00        -0.50000E+08
 
   -0.49997E+08         0.37774E+04         0.00000E+00
    0.37774E+04        -0.49998E+08         0.00000E+00
    0.00000E+00         0.00000E+00        -0.50000E+08
 
   -0.49997E+08         0.38436E+04         0.00000E+00
    0.38436E+04        -0.49998E+08         0.00000E+00
    0.00000E+00         0.00000E+00        -0.50000E+08
 
   -0.49997E+08         0.39060E+04         0.00000E+00
    0.39060E+04        -0.49998E+08         0.00000E+00
    0.00000E+00         0.00000E+00        -0.50000E+08
 
   -0.49997E+08         0.39644E+04         0.00000E+00
    0.39644E+04        -0.49998E+08         0.00000E+00
    0.00000E+00         0.00000E+00        -0.50000E+08
 
   -0.49998E+08         0.40188E+04         0.00000E+00
    0.40188E+04        -0.49998E+08         0.00000E+00
    0.00000E+00         0.00000E+00        -0.50000E+08
 
   -0.49998E+08         0.40692E+04         0.00000E+00
    0.40692E+04        -0.49998E+08         0.00000E+00
    0.00000E+00         0.00000E+00        -0.50000E+08
 
   -0.49998E+08         0.41153E+04         0.00000E+00
    0.41153E+04        -0.49998E+08         0.00000E+00
    0.00000E+00         0.00000E+00        -0.50000E+08
 
   -0.49998E+08         0.41572E+04         0.00000E+00
    0.41572E+04        -0.49998E+08         0.00000E+00
    0.00000E+00         0.00000E+00        -0.50000E+08
 
   -0.49998E+08         0.41947E+04         0.00000E+00
    0.41947E+04        -0.49997E+08         0.00000E+00
    0.00000E+00         0.00000E+00        -0.50000E+08
 
   -0.49999E+08         0.42278E+04         0.00000E+00
    0.42278E+04        -0.49997E+08         0.00000E+00
    0.00000E+00         0.00000E+00        -0.50000E+08
 
   -0.49999E+08         0.42565E+04         0.00000E+00
    0.42565E+04        -0.49997E+08         0.00000E+00
    0.00000E+00         0.00000E+00        -0.50000E+08
 
   -0.49999E+08         0.42805E+04         0.00000E+00
    0.42805E+04        -0.49997E+08         0.00000E+00
    0.00000E+00         0.00000E+00        -0.50000E+08
 
   -0.49999E+08         0.43000E+04         0.00000E+00
    0.43000E+04        -0.49997E+08         0.00000E+00
    0.00000E+00         0.00000E+00        -0.50000E+08
 
   -0.49999E+08         0.43148E+04         0.00000E+00
    0.43148E+04        -0.49997E+08         0.00000E+00
    0.00000E+00         0.00000E+00        -0.50000E+08
 
   -0.50000E+08         0.43249E+04         0.00000E+00
    0.43249E+04        -0.49997E+08         0.00000E+00
    0.00000E+00         0.00000E+00        -0.50000E+08
 
   -0.50000E+08         0.43302E+04         0.00000E+00
    0.43302E+04        -0.49997E+08         0.00000E+00
    0.00000E+00         0.00000E+00        -0.50000E+08
 
   -0.49994E+08         0.70013E+02         0.00000E+00
    0.70013E+02        -0.50000E+08         0.00000E+00
    0.00000E+00         0.00000E+00        -0.50000E+08
 
   -0.49994E+08         0.21215E+03         0.00000E+00
    0.21215E+03        -0.50000E+08         0.00000E+00
    0.00000E+00         0.00000E+00        -0.50000E+08
 
   -0.49994E+08         0.35484E+03         0.00000E+00
    0.35484E+03        -0.50000E+08         0.00000E+00
    0.00000E+00         0.00000E+00        -0.50000E+08
 
   -0.49994E+08         0.49792E+03         0.00000E+00
    0.49792E+03        -0.50000E+08         0.00000E+00
    0.00000E+00         0.00000E+00        -0.50000E+08
 
   -0.49994E+08         0.64125E+03         0.00000E+00
    0.64125E+03        -0.50000E+08         0.00000E+00
    0.00000E+00         0.00000E+00        -0.50000E+08
 
   -0.49994E+08         0.78464E+03         0.00000E+00
    0.78464E+03        -0.50000E+08         0.00000E+00
    0.00000E+00         0.00000E+00        -0.50000E+08
 
   -0.49994E+08         0.92796E+03         0.00000E+00
    0.92796E+03        -0.50000E+08         0.00000E+00
    0.00000E+00         0.00000E+00        -0.50000E+08
 
   -0.49994E+08         0.10710E+04         0.00000E+00
    0.10710E+04        -0.50000E+08         0.00000E+00
    0.00000E+00         0.00000E+00        -0.50000E+08
 
   -0.49994E+08         0.12137E+04         0.00000E+00
    0.12137E+04        -0.50000E+08         0.00000E+00
    0.00000E+00         0.00000E+00        -0.50000E+08
 
   -0.49994E+08         0.13558E+04         0.00000E+00
    0.13558E+04        -0.50000E+08         0.00000E+00
    0.00000E+00         0.00000E+00        -0.50000E+08
 
   -0.49994E+08         0.14972E+04         0.00000E+00
    0.14972E+04        -0.50000E+08         0.00000E+00
    0.00000E+00         0.00000E+00        -0.50000E+08
 
   -0.49994E+08         0.16376E+04         0.00000E+00
    0.16376E+04        -0.50000E+08         0.00000E+00
    0.00000E+00         0.00000E+00        -0.50000E+08
 
   -0.49994E+08         0.17771E+04         0.00000E+00
    0.17771E+04        -0.50000E+08         0.00000E+00
    0.00000E+00         0.00000E+00        -0.50000E+08
 
   -0.49994E+08         0.19153E+04         0.00000E+00
    0.19153E+04        -0.50000E+08         0.00000E+00
    0.00000E+00         0.00000E+00        -0.50000E+08
 
   -0.49994E+08         0.20522E+04         0.00000E+00
    0.20522E+04        -0.50000E+08         0.00000E+00
    0.00000E+00         0.00000E+00        -0.50000E+08
 
   -0.49994E+08         0.21875E+04         0.00000E+00
    0.21875E+04        -0.50000E+08         0.00000E+00
    0.00000E+00         0.00000E+00        -0.50000E+08
 
   -0.49994E+08         0.23212E+04         0.00000E+00
    0.23212E+04        -0.50000E+08         0.00000E+00
    0.00000E+00         0.00000E+00        -0.50000E+08
 
   -0.49994E+08         0.24531E+04         0.00000E+00
    0.24531E+04        -0.49999E+08         0.00000E+00
    0.00000E+00         0.00000E+00        -0.50000E+08
 
   -0.49994E+08         0.25830E+04         0.00000E+00
    0.25830E+04        -0.49999E+08         0.00000E+00
    0.00000E+00         0.00000E+00        -0.50000E+08
 
   -0.49994E+08         0.27107E+04         0.00000E+00
    0.27107E+04        -0.49999E+08         0.00000E+00
    0.00000E+00         0.00000E+00        -0.50000E+08
 
   -0.49995E+08         0.28362E+04         0.00000E+00
    0.28362E+04        -0.49999E+08         0.00000E+00
    0.00000E+00         0.00000E+00        -0.50000E+08
 
   -0.49995E+08         0.29593E+04         0.00000E+00
    0.29593E+04        -0.49999E+08         0.00000E+00
    0.00000E+00         0.00000E+00        -0.50000E+08
 
   -0.49995E+08         0.30798E+04         0.00000E+00
    0.30798E+04        -0.49999E+08         0.00000E+00
    0.00000E+00         0.00000E+00        -0.50000E+08
 
   -0.49995E+08         0.31975E+04         0.00000E+00
    0.31975E+04        -0.49999E+08         0.00000E+00
    0.00000E+00         0.00000E+00        -0.50000E+08
 
   -0.49995E+08         0.33125E+04         0.00000E+00
    0.33125E+04        -0.49999E+08         0.00000E+00
    0.00000E+00         0.00000E+00        -0.50000E+08
 
   -0.49995E+08         0.34244E+04         0.00000E+00
    0.34244E+04        -0.49999E+08         0.00000E+00
    0.00000E+00         0.00000E+00        -0.50000E+08
 
   -0.49995E+08         0.35332E+04         0.00000E+00
    0.35332E+04        -0.49999E+08         0.00000E+00
    0.00000E+00         0.00000E+00        -0.50000E+08
 
   -0.49995E+08         0.36387E+04         0.00000E+00
    0.36387E+04        -0.49999E+08         0.00000E+00
    0.00000E+00         0.00000E+00        -0.50000E+08
 
   -0.49996E+08         0.37409E+04         0.00000E+00
    0.37409E+04        -0.49999E+08         0.00000E+00
    0.00000E+00         0.00000E+00        -0.50000E+08
 
   -0.49996E+08         0.38395E+04         0.00000E+00
    0.38395E+04        -0.49999E+08         0.00000E+00
    0.00000E+00         0.00000E+00        -0.50000E+08
 
   -0.49996E+08         0.39345E+04         0.00000E+00
    0.39345E+04        -0.49998E+08         0.00000E+00
    0.00000E+00         0.00000E+00        -0.50000E+08
 
   -0.49996E+08         0.40257E+04         0.00000E+00
    0.40257E+04        -0.49998E+08         0.00000E+00
    0.00000E+00         0.00000E+00        -0.50000E+08
 
   -0.49996E+08         0.41130E+04         0.00000E+00
    0.41130E+04        -0.49998E+08         0.00000E+00
    0.00000E+00         0.00000E+00        -0.50000E+08
 
   -0.49996E+08         0.41963E+04         0.00000E+00
    0.41963E+04        -0.49998E+08         0.00000E+00
    0.00000E+00         0.00000E+00        -0.50000E+08
 
   -0.49997E+08         0.42754E+04         0.00000E+00
    0.42754E+04        -0.49998E+08         0.00000E+00
    0.00000E+00         0.00000E+00        -0.50000E+08
 
   -0.49997E+08         0.43504E+04         0.00000E+00
    0.43504E+04        -0.49998E+08         0.00000E+00
    0.00000E+00         0.00000E+00        -0.50000E+08
 
   -0.49997E+08         0.44209E+04         0.00000E+00
    0.44209E+04        -0.49998E+08         0.00000E+00
    0.00000E+00         0.00000E+00        -0.50000E+08
 
   -0.49997E+08         0.44871E+04         0.00000E+00
    0.44871E+04        -0.49998E+08         0.00000E+00
    0.00000E+00         0.00000E+00        -0.50000E+08
 
   -0.49997E+08         0.45487E+04         0.00000E+00
    0.45487E+04        -0.49998E+08         0.00000E+00
    0.00000E+00         0.00000E+00        -0.50000E+08
 
   -0.49998E+08         0.46056E+04         0.00000E+00
    0.46056E+04        -0.49997E+08         0.00000E+00
    0.00000E+00         0.00000E+00        -0.50000E+08
 
   -0.49998E+08         0.46578E+04         0.00000E+00
    0.46578E+04        -0.49997E+08         0.00000E+00
    0.00000E+00         0.00000E+00        -0.50000E+08
 
   -0.49998E+08         0.47052E+04         0.00000E+00
    0.47052E+04        -0.49997E+08         0.00000E+00
    0.00000E+00         0.00000E+00        -0.50000E+08
 
   -0.49998E+08         0.47477E+04         0.00000E+00
    0.47477E+04        -0.49997E+08         0.00000E+00
    0.00000E+00         0.00000E+00        -0.50000E+08
 
   -0.49998E+08         0.47852E+04         0.00000E+00
    0.47852E+04        -0.49997E+08         0.00000E+00
    0.00000E+00         0.00000E+00        -0.50000E+08
 
   -0.49999E+08         0.48176E+04         0.00000E+00
    0.48176E+04        -0.49997E+08         0.00000E+00
    0.00000E+00         0.00000E+00        -0.50000E+08
 
   -0.49999E+08         0.48449E+04         0.00000E+00
    0.48449E+04        -0.49997E+08         0.00000E+00
    0.00000E+00         0.00000E+00        -0.50000E+08
 
   -0.49999E+08         0.48670E+04         0.00000E+00
    0.48670E+04        -0.49997E+08         0.00000E+00
    0.00000E+00         0.00000E+00        -0.50000E+08
 
   -0.49999E+08         0.48837E+04         0.00000E+00
    0.48837E+04        -0.49997E+08         0.00000E+00
    0.00000E+00         0.00000E+00        -0.50000E+08
 
   -0.50000E+08         0.48952E+04         0.00000E+00
    0.48952E+04        -0.49996E+08         0.00000E+00
    0.00000E+00         0.00000E+00        -0.50000E+08
 
   -0.50000E+08         0.49013E+04         0.00000E+00
    0.49013E+04        -0.49996E+08         0.00000E+00
    0.00000E+00         0.00000E+00        -0.50000E+08
 
   -0.49993E+08         0.79198E+02         0.00000E+00
    0.79198E+02        -0.50000E+08         0.00000E+00
    0.00000E+00         0.00000E+00        -0.50000E+08
 
   -0.49993E+08         0.23996E+03         0.00000E+00
    0.23996E+03        -0.50000E+08         0.00000E+00
    0.00000E+00         0.00000E+00        -0.50000E+08
 
   -0.49993E+08         0.40134E+03         0.00000E+00
    0.40134E+03        -0.50000E+08         0.00000E+00
    0.00000E+00         0.00000E+00        -0.50000E+08
 
   -0.49993E+08         0.56316E+03         0.00000E+00
    0.56316E+03        -0.50000E+08         0.00000E+00
    0.00000E+00         0.00000E+00        -0.50000E+08
 
   -0.49993E+08         0.72525E+03         0.00000E+00
    0.72525E+03        -0.50000E+08         0.00000E+00
    0.00000E+00         0.00000E+00        -0.50000E+08
 
   -0.49993E+08         0.88741E+03         0.00000E+00
    0.88741E+03        -0.50000E+08         0.00000E+00
    0.00000E+00         0.00000E+00        -0.50000E+08
 
   -0.49993E+08         0.10495E+04         0.00000E+00
    0.10495E+04        -0.50000E+08         0.00000E+00
    0.00000E+00         0.00000E+00        -0.50000E+08
 
   -0.49993E+08         0.12112E+04         0.00000E+00
    0.12112E+04        -0.50000E+08         0.00000E+00
    0.00000E+00         0.00000E+00        -0.50000E+08
 
   -0.49993E+08         0.13725E+04         0.00000E+00
    0.13725E+04        -0.50000E+08         0.00000E+00
    0.00000E+00         0.00000E+00        -0.50000E+08
 
   -0.49993E+08         0.15332E+04         0.00000E+00
    0.15332E+04        -0.50000E+08         0.00000E+00
    0.00000E+00         0.00000E+00        -0.50000E+08
 
   -0.49993E+08         0.16930E+04         0.00000E+00
    0.16930E+04        -0.50000E+08         0.00000E+00
    0.00000E+00         0.00000E+00        -0.50000E+08
 
   -0.49993E+08         0.18519E+04         0.00000E+00
    0.18519E+04        -0.50000E+08         0.00000E+00
    0.00000E+00         0.00000E+00        -0.50000E+08
 
   -0.49993E+08         0.20095E+04         0.00000E+00
    0.20095E+04        -0.50000E+08         0.00000E+00
    0.00000E+00         0.00000E+00        -0.50000E+08
 
   -0.49993E+08         0.21658E+04         0.00000E+00
    0.21658E+04        -0.50000E+08         0.00000E+00
    0.00000E+00         0.00000E+00        -0.50000E+08
 
   -0.49993E+08         0.23205E+04         0.00000E+00
    0.23205E+04        -0.50000E+08         0.00000E+00
    0.00000E+00         0.00000E+00        -0.50000E+08
 
   -0.49993E+08         0.24735E+04         0.00000E+00
    0.24735E+04        -0.50000E+08         0.00000E+00
    0.00000E+00         0.00000E+00        -0.50000E+08
 
   -0.49993E+08         0.26246E+04         0.00000E+00
    0.26246E+04        -0.49999E+08         0.00000E+00
    0.00000E+00         0.00000E+00        -0.50000E+08
 
   -0.49994E+08         0.27737E+04         0.00000E+00
    0.27737E+04        -0.49999E+08         0.00000E+00
    0.00000E+00         0.00000E+00        -0.50000E+08
 
   -0.49994E+08         0.29205E+04         0.00000E+00
    0.29205E+04        -0.49999E+08         0.00000E+00
    0.00000E+00         0.00000E+00        -0.50000E+08
 
   -0.49994E+08         0.30649E+04         0.00000E+00
    0.30649E+04        -0.49999E+08         0.00000E+00
    0.00000E+00         0.00000E+00        -0.50000E+08
 
   -0.49994E+08         0.32067E+04         0.00000E+00
    0.32067E+04        -0.49999E+08         0.00000E+00
    0.00000E+00         0.00000E+00        -0.50000E+08
 
   -0.49994E+08         0.33458E+04         0.00000E+00
    0.33458E+04        -0.49999E+08         0.00000E+00
    0.00000E+00         0.00000E+00        -0.50000E+08
 
   -0.49994E+08         0.34820E+04         0.00000E+00
    0.34820E+04        -0.49999E+08         0.00000E+00
    0.00000E+00         0.00000E+00        -0.50000E+08
 
   -0.49994E+08         0.36151E+04         0.00000E+00
    0.36151E+04        -0.49999E+08         0.00000E+00
    0.00000E+00         0.00000E+00        -0.50000E+08
 
   -0.49994E+08         0.37450E+04         0.00000E+00
    0.37450E+04        -0.49999E+08         0.00000E+00
    0.00000E+00         0.00000E+00        -0.50000E+08
 
   -0.49995E+08         0.38715E+04         0.00000E+00
    0.38715E+04        -0.49999E+08         0.00000E+00
    0.00000E+00         0.00000E+00        -0.50000E+08
 
   -0.49995E+08         0.39945E+04         0.00000E+00
    0.39945E+04        -0.49999E+08         0.00000E+00
    0.00000E+00         0.00000E+00        -0.50000E+08
 
   -0.49995E+08         0.41137E+04         0.00000E+00
    0.41137E+04        -0.49999E+08         0.00000E+00
    0.00000E+00         0.00000E+00        -0.50000E+08
 
   -0.49995E+08         0.42292E+04         0.00000E+00
    0.42292E+04        -0.49998E+08         0.00000E+00
    0.00000E+00         0.00000E+00        -0.50000E+08
 
   -0.49995E+08         0.43406E+04         0.00000E+00
    0.43406E+04        -0.49998E+08         0.00000E+00
    0.00000E+00         0.00000E+00        -0.50000E+08
 
   -0.49995E+08         0.44479E+04         0.00000E+00
    0.44479E+04        -0.49998E+08         0.00000E+00
    0.00000E+00         0.00000E+00        -0.50000E+08
 
   -0.49996E+08         0.45510E+04         0.00000E+00
    0.45510E+04        -0.49998E+08         0.00000E+00
    0.00000E+00         0.00000E+00        -0.50000E+08
 
   -0.49996E+08         0.46497E+04         0.00000E+00
    0.46497E+04        -0.49998E+08         0.00000E+00
    0.00000E+00         0.00000E+00        -0.50000E+08
 
   -0.49996E+08         0.47438E+04         0.00000E+00
    0.47438E+04        -0.49998E+08         0.00000E+00
    0.00000E+00         0.00000E+00        -0.50000E+08
 
   -0.49996E+08         0.48333E+04         0.00000E+00
    0.48333E+04        -0.49998E+08         0.00000E+00
    0.00000E+00         0.00000E+00        -0.50000E+08
 
   -0.49996E+08         0.49179E+04         0.00000E+00
    0.49179E+04        -0.49998E+08         0.00000E+00
    0.00000E+00         0.00000E+00        -0.50000E+08
 
   -0.49997E+08         0.49977E+04         0.00000E+00
    0.49977E+04        -0.49998E+08         0.00000E+00
    0.00000E+00         0.00000E+00        -0.50000E+08
 
   -0.49997E+08         0.50725E+04         0.00000E+00
    0.50725E+04        -0.49997E+08         0.00000E+00
    0.00000E+00         0.00000E+00        -0.50000E+08
 
   -0.49997E+08         0.51421E+04         0.00000E+00
    0.51421E+04        -0.49997E+08         0.00000E+00
    0.00000E+00         0.00000E+00        -0.50000E+08
 
   -0.49997E+08         0.52065E+04         0.00000E+00
    0.52065E+04        -0.49997E+08         0.00000E+00
    0.00000E+00         0.00000E+00        -0.50000E+08
 
   -0.49998E+08         0.52655E+04         0.00000E+00
    0.52655E+04        -0.49997E+08         0.00000E+00
    0.00000E+00         0.00000E+00        -0.50000E+08
 
   -0.49998E+08         0.53190E+04         0.00000E+00
    0.53190E+04        -0.49997E+08         0.00000E+00
    0.00000E+00         0.00000E+00        -0.50000E+08
 
   -0.49998E+08         0.53671E+04         0.00000E+00
    0.53671E+04        -0.49997E+08         0.00000E+00
    0.00000E+00         0.00000E+00        -0.50000E+08
 
   -0.49998E+08         0.54095E+04         0.00000E+00
    0.54095E+04        -0.49997E+08         0.00000E+00
    0.00000E+00         0.00000E+00        -0.50000E+08
 
   -0.49999E+08         0.54461E+04         0.00000E+00
    0.54461E+04        -0.49997E+08         0.00000E+00
    0.00000E+00         0.00000E+00        -0.50000E+08
 
   -0.49999E+08         0.54770E+04         0.00000E+00
    0.54770E+04        -0.49996E+08         0.00000E+00
    0.00000E+00         0.00000E+00        -0.50000E+08
 
   -0.49999E+08         0.55019E+04         0.00000E+00
    0.55019E+04        -0.49996E+08         0.00000E+00
    0.00000E+00         0.00000E+00        -0.50000E+08
 
   -0.49999E+08         0.55209E+04         0.00000E+00
    0.55209E+04        -0.49996E+08         0.00000E+00
    0.00000E+00         0.00000E+00        -0.50000E+08
 
   -0.50000E+08         0.55339E+04         0.00000E+00
    0.55339E+04        -0.49996E+08         0.00000E+00
    0.00000E+00         0.00000E+00        -0.50000E+08
 
   -0.50000E+08         0.55408E+04         0.00000E+00
    0.55408E+04        -0.49996E+08         0.00000E+00
    0.00000E+00         0.00000E+00        -0.50000E+08
 
   -0.49992E+08         0.89507E+02         0.00000E+00
    0.89507E+02        -0.50000E+08         0.00000E+00
    0.00000E+00         0.00000E+00        -0.50000E+08
 
   -0.49992E+08         0.27117E+03         0.00000E+00
    0.27117E+03        -0.50000E+08         0.00000E+00
    0.00000E+00         0.00000E+00        -0.50000E+08
 
   -0.49992E+08         0.45352E+03         0.00000E+00
    0.45352E+03        -0.50000E+08         0.00000E+00
    0.00000E+00         0.00000E+00        -0.50000E+08
 
   -0.49992E+08         0.63636E+03         0.00000E+00
    0.63636E+03        -0.50000E+08         0.00000E+00
    0.00000E+00         0.00000E+00        -0.50000E+08
 
   -0.49992E+08         0.81949E+03         0.00000E+00
    0.81949E+03        -0.50000E+08         0.00000E+00
    0.00000E+00         0.00000E+00        -0.50000E+08
 
   -0.49992E+08         0.10027E+04         0.00000E+00
    0.10027E+04        -0.50000E+08         0.00000E+00
    0.00000E+00         0.00000E+00        -0.50000E+08
 
   -0.49992E+08         0.11858E+04         0.00000E+00
    0.11858E+04        -0.50000E+08         0.00000E+00
    0.00000E+00         0.00000E+00        -0.50000E+08
 
   -0.49992E+08         0.13685E+04         0.00000E+00
    0.13685E+04        -0.50000E+08         0.00000E+00
    0.00000E+00         0.00000E+00        -0.50000E+08
 
   -0.49992E+08         0.15507E+04         0.00000E+00
    0.15507E+04        -0.50000E+08         0.00000E+00
    0.00000E+00         0.00000E+00        -0.50000E+08
 
   -0.49992E+08         0.17322E+04         0.00000E+00
    0.17322E+04        -0.50000E+08         0.00000E+00
    0.00000E+00         0.00000E+00        -0.50000E+08
 
   -0.49992E+08         0.19128E+04         0.00000E+00
    0.19128E+04        -0.50000E+08         0.00000E+00
    0.00000E+00         0.00000E+00        -0.50000E+08
 
   -0.49992E+08         0.20922E+04         0.00000E+00
    0.20922E+04        -0.50000E+08         0.00000E+00
    0.00000E+00         0.00000E+00        -0.50000E+08
 
   -0.49992E+08         0.22702E+04         0.00000E+00
    0.22702E+04        -0.50000E+08         0.00000E+00
    0.00000E+00         0.00000E+00        -0.50000E+08
 
   -0.49992E+08         0.24467E+04         0.00000E+00
    0.24467E+04        -0.50000E+08         0.00000E+00
    0.00000E+00         0.00000E+00        -0.50000E+08
 
   -0.49992E+08         0.26214E+04         0.00000E+00
    0.26214E+04        -0.50000E+08         0.00000E+00
    0.00000E+00         0.00000E+00        -0.50000E+08
 
   -0.49993E+08         0.27942E+04         0.00000E+00
    0.27942E+04        -0.49999E+08         0.00000E+00
    0.00000E+00         0.00000E+00        -0.50000E+08
 
   -0.49993E+08         0.29649E+04         0.00000E+00
    0.29649E+04        -0.49999E+08         0.00000E+00
    0.00000E+00         0.00000E+00        -0.50000E+08
 
   -0.49993E+08         0.31332E+04         0.00000E+00
    0.31332E+04        -0.49999E+08         0.00000E+00
    0.00000E+00         0.00000E+00        -0.50000E+08
 
   -0.49993E+08         0.32990E+04         0.00000E+00
    0.32990E+04        -0.49999E+08         0.00000E+00
    0.00000E+00         0.00000E+00        -0.50000E+08
 
   -0.49993E+08         0.34621E+04         0.00000E+00
    0.34621E+04        -0.49999E+08         0.00000E+00
    0.00000E+00         0.00000E+00        -0.50000E+08
 
   -0.49993E+08         0.36222E+04         0.00000E+00
    0.36222E+04        -0.49999E+08         0.00000E+00
    0.00000E+00         0.00000E+00        -0.50000E+08
 
   -0.49993E+08         0.37793E+04         0.00000E+00
    0.37793E+04        -0.49999E+08         0.00000E+00
    0.00000E+00         0.00000E+00        -0.50000E+08
 
   -0.49993E+08         0.39330E+04         0.00000E+00
    0.39330E+04        -0.49999E+08         0.00000E+00
    0.00000E+00         0.00000E+00        -0.50000E+08
 
   -0.49994E+08         0.40833E+04         0.00000E+00
    0.40833E+04        -0.49999E+08         0.00000E+00
    0.00000E+00         0.00000E+00        -0.50000E+08
 
   -0.49994E+08         0.42299E+04         0.00000E+00
    0.42299E+04        -0.49999E+08         0.00000E+00
    0.00000E+00         0.00000E+00        -0.50000E+08
 
   -0.49994E+08         0.43728E+04         0.00000E+00
    0.43728E+04        -0.49999E+08         0.00000E+00
    0.00000E+00         0.00000E+00        -0.50000E+08
 
   -0.49994E+08         0.45116E+04         0.00000E+00
    0.45116E+04        -0.49998E+08         0.00000E+00
    0.00000E+00         0.00000E+00        -0.50000E+08
 
   -0.49994E+08         0.46462E+04         0.00000E+00
    0.46462E+04        -0.49998E+08         0.00000E+00
    0.00000E+00         0.00000E+00        -0.50000E+08
 
   -0.49994E+08         0.47766E+04         0.00000E+00
    0.47766E+04        -0.49998E+08         0.00000E+00
    0.00000E+00         0.00000E+00        -0.50000E+08
 
   -0.49995E+08         0.49024E+04         0.00000E+00
    0.49024E+04        -0.49998E+08         0.00000E+00
    0.00000E+00         0.00000E+00        -0.50000E+08
 
   -0.49995E+08         0.50236E+04         0.00000E+00
    0.50236E+04        -0.49998E+08         0.00000E+00
    0.00000E+00         0.00000E+00        -0.50000E+08
 
   -0.49995E+08         0.51399E+04         0.00000E+00
    0.51399E+04        -0.49998E+08         0.00000E+00
    0.00000E+00         0.00000E+00        -0.50000E+08
 
   -0.49995E+08         0.52513E+04         0.00000E+00
    0.52513E+04        -0.49998E+08         0.00000E+00
    0.00000E+00         0.00000E+00        -0.50000E+08
 
   -0.49996E+08         0.53576E+04         0.00000E+00
    0.53576E+04        -0.49998E+08         0.00000E+00
    0.00000E+00         0.00000E+00        -0.50000E+08
 
   -0.49996E+08         0.54586E+04         0.00000E+00
    0.54586E+04        -0.49998E+08         0.00000E+00
    0.00000E+00         0.00000E+00        -0.50000E+08
 
   -0.49996E+08         0.55542E+04         0.00000E+00
    0.55542E+04        -0.49997E+08         0.00000E+00
    0.00000E+00         0.00000E+00        -0.50000E+08
 
   -0.49996E+08         0.56442E+04         0.00000E+00
    0.56442E+04        -0.49997E+08         0.00000E+00
    0.00000E+00         0.00000E+00        -0.50000E+08
 
   -0.49996E+08         0.57286E+04         0.00000E+00
    0.57286E+04        -0.49997E+08         0.00000E+00
    0.00000E+00         0.00000E+00        -0.50000E+08
 
   -0.49997E+08         0.58073E+04         0.00000E+00
    0.58073E+04        -0.49997E+08         0.00000E+00
    0.00000E+00         0.00000E+00        -0.50000E+08
 
   -0.49997E+08         0.58799E+04         0.00000E+00
    0.58799E+04        -0.49997E+08         0.00000E+00
    0.00000E+00         0.00000E+00        -0.50000E+08
 
   -0.49997E+08         0.59466E+04         0.00000E+00
    0.59466E+04        -0.49997E+08         0.00000E+00
    0.00000E+00         0.00000E+00        -0.50000E+08
 
   -0.49998E+08         0.60071E+04         0.00000E+00
    0.60071E+04        -0.49997E+08         0.00000E+00
    0.00000E+00         0.00000E+00        -0.50000E+08
 
   -0.49998E+08         0.60613E+04         0.00000E+00
    0.60613E+04        -0.49996E+08         0.00000E+00
    0.00000E+00         0.00000E+00        -0.50000E+08
 
   -0.49998E+08         0.61092E+04         0.00000E+00
    0.61092E+04        -0.49996E+08         0.00000E+00
    0.00000E+00         0.00000E+00        -0.50000E+08
 
   -0.49998E+08         0.61506E+04         0.00000E+00
    0.61506E+04        -0.49996E+08         0.00000E+00
    0.00000E+00         0.00000E+00        -0.50000E+08
 
   -0.49999E+08         0.61855E+04         0.00000E+00
    0.61855E+04        -0.49996E+08         0.00000E+00
    0.00000E+00         0.00000E+00        -0.50000E+08
 
   -0.49999E+08         0.62137E+04         0.00000E+00
    0.62137E+04        -0.49996E+08         0.00000E+00
    0.00000E+00         0.00000E+00        -0.50000E+08
 
   -0.49999E+08         0.62352E+04         0.00000E+00
    0.62352E+04        -0.49996E+08         0.00000E+00
    0.00000E+00         0.00000E+00        -0.50000E+08
 
   -0.50000E+08         0.62499E+04         0.00000E+00
    0.62499E+04        -0.49995E+08         0.00000E+00
    0.00000E+00         0.00000E+00        -0.50000E+08
 
   -0.50000E+08         0.62578E+04         0.00000E+00
    0.62578E+04        -0.49995E+08         0.00000E+00
    0.00000E+00         0.00000E+00        -0.50000E+08
 
   -0.49991E+08         0.10109E+03         0.00000E+00
    0.10109E+03        -0.50000E+08         0.00000E+00
    0.00000E+00         0.00000E+00        -0.50000E+08
 
   -0.49991E+08         0.30621E+03         0.00000E+00
    0.30621E+03        -0.50000E+08         0.00000E+00
    0.00000E+00         0.00000E+00        -0.50000E+08
 
   -0.49991E+08         0.51210E+03         0.00000E+00
    0.51210E+03        -0.50000E+08         0.00000E+00
    0.00000E+00         0.00000E+00        -0.50000E+08
 
   -0.49991E+08         0.71854E+03         0.00000E+00
    0.71854E+03        -0.50000E+08         0.00000E+00
    0.00000E+00         0.00000E+00        -0.50000E+08
 
   -0.49991E+08         0.92529E+03         0.00000E+00
    0.92529E+03        -0.50000E+08         0.00000E+00
    0.00000E+00         0.00000E+00        -0.50000E+08
 
   -0.49991E+08         0.11321E+04         0.00000E+00
    0.11321E+04        -0.50000E+08         0.00000E+00
    0.00000E+00         0.00000E+00        -0.50000E+08
 
   -0.49991E+08         0.13388E+04         0.00000E+00
    0.13388E+04        -0.50000E+08         0.00000E+00
    0.00000E+00         0.00000E+00        -0.50000E+08
 
   -0.49991E+08         0.15451E+04         0.00000E+00
    0.15451E+04        -0.50000E+08         0.00000E+00
    0.00000E+00         0.00000E+00        -0.50000E+08
 
   -0.49991E+08         0.17508E+04         0.00000E+00
    0.17508E+04        -0.50000E+08         0.00000E+00
    0.00000E+00         0.00000E+00        -0.50000E+08
 
   -0.49991E+08         0.19556E+04         0.00000E+00
    0.19556E+04        -0.50000E+08         0.00000E+00
    0.00000E+00         0.00000E+00        -0.50000E+08
 
   -0.49991E+08         0.21594E+04         0.00000E+00
    0.21594E+04        -0.50000E+08         0.00000E+00
    0.00000E+00         0.00000E+00        -0.50000E+08
 
   -0.49991E+08         0.23618E+04         0.00000E+00
    0.23618E+04        -0.50000E+08         0.00000E+00
    0.00000E+00         0.00000E+00        -0.50000E+08
 
   -0.49991E+08         0.25628E+04         0.00000E+00
    0.25628E+04        -0.50000E+08         0.00000E+00
    0.00000E+00         0.00000E+00        -0.50000E+08
 
   -0.49991E+08         0.27620E+04         0.00000E+00
    0.27620E+04        -0.50000E+08         0.00000E+00
    0.00000E+00         0.00000E+00        -0.50000E+08
 
   -0.49992E+08         0.29592E+04         0.00000E+00
    0.29592E+04        -0.49999E+08         0.00000E+00
    0.00000E+00         0.00000E+00        -0.50000E+08
 
   -0.49992E+08         0.31542E+04         0.00000E+00
    0.31542E+04        -0.49999E+08         0.00000E+00
    0.00000E+00         0.00000E+00        -0.50000E+08
 
   -0.49992E+08         0.33467E+04         0.00000E+00
    0.33467E+04        -0.49999E+08         0.00000E+00
    0.00000E+00         0.00000E+00        -0.50000E+08
 
   -0.49992E+08         0.35366E+04         0.00000E+00
    0.35366E+04        -0.49999E+08         0.00000E+00
    0.00000E+00         0.00000E+00        -0.50000E+08
 
   -0.49992E+08         0.37237E+04         0.00000E+00
    0.37237E+04        -0.49999E+08         0.00000E+00
    0.00000E+00         0.00000E+00        -0.50000E+08
 
   -0.49992E+08         0.39077E+04         0.00000E+00
    0.39077E+04        -0.49999E+08         0.00000E+00
    0.00000E+00         0.00000E+00        -0.50000E+08
 
   -0.49992E+08         0.40884E+04         0.00000E+00
    0.40884E+04        -0.49999E+08         0.00000E+00
    0.00000E+00         0.00000E+00        -0.50000E+08
 
   -0.49992E+08         0.42656E+04         0.00000E+00
    0.42656E+04        -0.49999E+08         0.00000E+00
    0.00000E+00         0.00000E+00        -0.50000E+08
 
   -0.49993E+08         0.44390E+04         0.00000E+00
    0.44390E+04        -0.49999E+08         0.00000E+00
    0.00000E+00         0.00000E+00        -0.50000E+08
 
   -0.49993E+08         0.46086E+04         0.00000E+00
    0.46086E+04        -0.49999E+08         0.00000E+00
    0.00000E+00         0.00000E+00        -0.50000E+08
 
   -0.49993E+08         0.47740E+04         0.00000E+00
    0.47740E+04        -0.49999E+08         0.00000E+00
    0.00000E+00         0.00000E+00        -0.50000E+08
 
   -0.49993E+08         0.49351E+04         0.00000E+00
    0.49351E+04        -0.49998E+08         0.00000E+00
    0.00000E+00         0.00000E+00        -0.50000E+08
 
   -0.49993E+08         0.50917E+04         0.00000E+00
    0.50917E+04        -0.49998E+08         0.00000E+00
    0.00000E+00         0.00000E+00        -0.50000E+08
 
   -0.49994E+08         0.52436E+04         0.00000E+00
    0.52436E+04        -0.49998E+08         0.00000E+00
    0.00000E+00         0.00000E+00        -0.50000E+08
 
   -0.49994E+08         0.53907E+04         0.00000E+00
    0.53907E+04        -0.49998E+08         0.00000E+00
    0.00000E+00         0.00000E+00        -0.50000E+08
 
   -0.49994E+08         0.55326E+04         0.00000E+00
    0.55326E+04        -0.49998E+08         0.00000E+00
    0.00000E+00         0.00000E+00        -0.50000E+08
 
   -0.49994E+08         0.56693E+04         0.00000E+00
    0.56693E+04        -0.49998E+08         0.00000E+00
    0.00000E+00         0.00000E+00        -0.50000E+08
 
   -0.49994E+08         0.58005E+04         0.00000E+00
    0.58005E+04        -0.49998E+08         0.00000E+00
    0.00000E+00         0.00000E+00        -0.50000E+08
 
   -0.49995E+08         0.59262E+04         0.00000E+00
    0.59262E+04        -0.49997E+08         0.00000E+00
    0.00000E+00         0.00000E+00        -0.50000E+08
 
   -0.49995E+08         0.60461E+04         0.00000E+00
    0.60461E+04        -0.49997E+08         0.00000E+00
    0.00000E+00         0.00000E+00        -0.50000E+08
 
   -0.49995E+08         0.61600E+04         0.00000E+00
    0.61600E+04        -0.49997E+08         0.00000E+00
    0.00000E+00         0.00000E+00        -0.50000E+08
 
   -0.49995E+08         0.62679E+04         0.00000E+00
    0.62679E+04        -0.49997E+08         0.00000E+00
    0.00000E+00         0.00000E+00        -0.50000E+08
 
   -0.49996E+08         0.63695E+04         0.00000E+00
    0.63695E+04        -0.49997E+08         0.00000E+00
    0.00000E+00         0.00000E+00        -0.50000E+08
 
   -0.49996E+08         0.64647E+04         0.00000E+00
    0.64647E+04        -0.49997E+08         0.00000E+00
    0.00000E+00         0.00000E+00        -0.50000E+08
 
   -0.49996E+08         0.65534E+04         0.00000E+00
    0.65534E+04        -0.49997E+08         0.00000E+00
    0.00000E+00         0.00000E+00        -0.50000E+08
 
   -0.49997E+08         0.66354E+04         0.00000E+00
    0.66354E+04        -0.49996E+08         0.00000E+00
    0.00000E+00         0.00000E+00        -0.50000E+08
 
   -0.49997E+08         0.67106E+04         0.00000E+00
    0.67106E+04        -0.49996E+08         0.00000E+00
    0.00000E+00         0.00000E+00        -0.50000E+08
 
   -0.49997E+08         0.67789E+04         0.00000E+00
    0.67789E+04        -0.49996E+08         0.00000E+00
    0.00000E+00         0.00000E+00        -0.50000E+08
 
   -0.49998E+08         0.68401E+04         0.00000E+00
    0.68401E+04        -0.49996E+08         0.00000E+00
    0.00000E+00         0.00000E+00        -0.50000E+08
 
   -0.49998E+08         0.68941E+04         0.00000E+00
    0.68941E+04        -0.49996E+08         0.00000E+00
    0.00000E+00         0.00000E+00        -0.50000E+08
 
   -0.49998E+08         0.69409E+04         0.00000E+00
    0.69409E+04        -0.49996E+08         0.00000E+00
    0.00000E+00         0.00000E+00        -0.50000E+08
 
   -0.49998E+08         0.69803E+04         0.00000E+00
    0.69803E+04        -0.49995E+08         0.00000E+00
    0.00000E+00         0.00000E+00        -0.50000E+08
 
   -0.49999E+08         0.70122E+04         0.00000E+00
    0.70122E+04        -0.49995E+08         0.00000E+00
    0.00000E+00         0.00000E+00        -0.50000E+08
 
   -0.49999E+08         0.70365E+04         0.00000E+00
    0.70365E+04        -0.49995E+08         0.00000E+00
    0.00000E+00         0.00000E+00        -0.50000E+08
 
   -0.49999E+08         0.70531E+04         0.00000E+00
    0.70531E+04        -0.49995E+08         0.00000E+00
    0.00000E+00         0.00000E+00        -0.50000E+08
 
   -0.50000E+08         0.70620E+04         0.00000E+00
    0.70620E+04        -0.49995E+08         0.00000E+00
    0.00000E+00         0.00000E+00        -0.50000E+08
 
   -0.49990E+08         0.11410E+03         0.00000E+00
    0.11410E+03        -0.50000E+08         0.00000E+00
    0.00000E+00         0.00000E+00        -0.50000E+08
 
   -0.49990E+08         0.34558E+03         0.00000E+00
    0.34558E+03        -0.50000E+08         0.00000E+00
    0.00000E+00         0.00000E+00        -0.50000E+08
 
   -0.49990E+08         0.57793E+03         0.00000E+00
    0.57793E+03        -0.50000E+08         0.00000E+00
    0.00000E+00         0.00000E+00        -0.50000E+08
 
   -0.49990E+08         0.81087E+03         0.00000E+00
    0.81087E+03        -0.50000E+08         0.00000E+00
    0.00000E+00         0.00000E+00        -0.50000E+08
 
   -0.49990E+08         0.10441E+04         0.00000E+00
    0.10441E+04        -0.50000E+08         0.00000E+00
    0.00000E+00         0.00000E+00        -0.50000E+08
 
   -0.49990E+08         0.12775E+04         0.00000E+00
    0.12775E+04        -0.50000E+08         0.00000E+00
    0.00000E+00         0.00000E+00        -0.50000E+08
 
   -0.49990E+08         0.15107E+04         0.00000E+00
    0.15107E+04        -0.50000E+08         0.00000E+00
    0.00000E+00         0.00000E+00        -0.50000E+08
 
   -0.49990E+08         0.17434E+04         0.00000E+00
    0.17434E+04        -0.50000E+08         0.00000E+00
    0.00000E+00         0.00000E+00        -0.50000E+08
 
   -0.49990E+08         0.19754E+04         0.00000E+00
    0.19754E+04        -0.50000E+08         0.00000E+00
    0.00000E+00         0.00000E+00        -0.50000E+08
 
   -0.49990E+08         0.22065E+04         0.00000E+00
    0.22065E+04        -0.50000E+08         0.00000E+00
    0.00000E+00         0.00000E+00        -0.50000E+08
 
   -0.49990E+08         0.24363E+04         0.00000E+00
    0.24363E+04        -0.50000E+08         0.00000E+00
    0.00000E+00         0.00000E+00        -0.50000E+08
 
   -0.49990E+08         0.26647E+04         0.00000E+00
    0.26647E+04        -0.50000E+08         0.00000E+00
    0.00000E+00         0.00000E+00        -0.50000E+08
 
   -0.49990E+08         0.28913E+04         0.00000E+00
    0.28913E+04        -0.50000E+08         0.00000E+00
    0.00000E+00         0.00000E+00        -0.50000E+08
 
   -0.49990E+08         0.31160E+04         0.00000E+00
    0.31160E+04        -0.49999E+08         0.00000E+00
    0.00000E+00         0.00000E+00        -0.50000E+08
 
   -0.49991E+08         0.33384E+04         0.00000E+00
    0.33384E+04        -0.49999E+08         0.00000E+00
    0.00000E+00         0.00000E+00        -0.50000E+08
 
   -0.49991E+08         0.35583E+04         0.00000E+00
    0.35583E+04        -0.49999E+08         0.00000E+00
    0.00000E+00         0.00000E+00        -0.50000E+08
 
   -0.49991E+08         0.37754E+04         0.00000E+00
    0.37754E+04        -0.49999E+08         0.00000E+00
    0.00000E+00         0.00000E+00        -0.50000E+08
 
   -0.49991E+08         0.39896E+04         0.00000E+00
    0.39896E+04        -0.49999E+08         0.00000E+00
    0.00000E+00         0.00000E+00        -0.50000E+08
 
   -0.49991E+08         0.42005E+04         0.00000E+00
    0.42005E+04        -0.49999E+08         0.00000E+00
    0.00000E+00         0.00000E+00        -0.50000E+08
 
   -0.49991E+08         0.44080E+04         0.00000E+00
    0.44080E+04        -0.49999E+08         0.00000E+00
    0.00000E+00         0.00000E+00        -0.50000E+08
 
   -0.49991E+08         0.46117E+04         0.00000E+00
    0.46117E+04        -0.49999E+08         0.00000E+00
    0.00000E+00         0.00000E+00        -0.50000E+08
 
   -0.49992E+08         0.48115E+04         0.00000E+00
    0.48115E+04        -0.49999E+08         0.00000E+00
    0.00000E+00         0.00000E+00        -0.50000E+08
 
   -0.49992E+08         0.50071E+04         0.00000E+00
    0.50071E+04        -0.49999E+08         0.00000E+00
    0.00000E+00         0.00000E+00        -0.50000E+08
 
   -0.49992E+08         0.51982E+04         0.00000E+00
    0.51982E+04        -0.49998E+08         0.00000E+00
    0.00000E+00         0.00000E+00        -0.50000E+08
 
   -0.49992E+08         0.53847E+04         0.00000E+00
    0.53847E+04        -0.49998E+08         0.00000E+00
    0.00000E+00         0.00000E+00        -0.50000E+08
 
   -0.49992E+08         0.55664E+04         0.00000E+00
    0.55664E+04        -0.49998E+08         0.00000E+00
    0.00000E+00         0.00000E+00        -0.50000E+08
 
   -0.49993E+08         0.57429E+04         0.00000E+00
    0.57429E+04        -0.49998E+08         0.00000E+00
    0.00000E+00         0.00000E+00        -0.50000E+08
 
   -0.49993E+08         0.59142E+04         0.00000E+00
    0.59142E+04        -0.49998E+08         0.00000E+00
    0.00000E+00         0.00000E+00        -0.50000E+08
 
   -0.49993E+08         0.60799E+04         0.00000E+00
    0.60799E+04        -0.49998E+08         0.00000E+00
    0.00000E+00         0.00000E+00        -0.50000E+08
 
   -0.49993E+08         0.62399E+04         0.00000E+00
    0.62399E+04        -0.49998E+08         0.00000E+00
    0.00000E+00         0.00000E+00        -0.50000E+08
 
   -0.49994E+08         0.63940E+04         0.00000E+00
    0.63940E+04        -0.49998E+08         0.00000E+00
    0.00000E+00         0.00000E+00        -0.50000E+08
 
   -0.49994E+08         0.65420E+04         0.00000E+00
    0.65420E+04        -0.49997E+08         0.00000E+00
    0.00000E+00         0.00000E+00        -0.50000E+08
 
   -0.49994E+08         0.66836E+04         0.00000E+00
    0.66836E+04        -0.49997E+08         0.00000E+00
    0.00000E+00         0.00000E+00        -0.50000E+08
 
   -0.49994E+08         0.68188E+04         0.00000E+00
    0.68188E+04        -0.49997E+08         0.00000E+00
    0.00000E+00         0.00000E+00        -0.50000E+08
 
   -0.49995E+08         0.69472E+04         0.00000E+00
    0.69472E+04        -0.49997E+08         0.00000E+00
    0.00000E+00         0.00000E+00        -0.50000E+08
 
   -0.49995E+08         0.70688E+04         0.00000E+00
    0.70688E+04        -0.49997E+08         0.00000E+00
    0.00000E+00         0.00000E+00        -0.50000E+08
 
   -0.49995E+08         0.71834E+04         0.00000E+00
    0.71834E+04        -0.49997E+08         0.00000E+00
    0.00000E+00         0.00000E+00        -0.50000E+08
 
   -0.49996E+08         0.72907E+04         0.00000E+00
    0.72907E+04        -0.49996E+08         0.00000E+00
    0.00000E+00         0.00000E+00        -0.50000E+08
 
   -0.49996E+08         0.73907E+04         0.00000E+00
    0.73907E+04        -0.49996E+08         0.00000E+00
    0.00000E+00         0.00000E+00        -0.50000E+08
 
   -0.49996E+08         0.74832E+04         0.00000E+00
    0.74832E+04        -0.49996E+08         0.00000E+00
    0.00000E+00         0.00000E+00        -0.50000E+08
 
   -0.49997E+08         0.75680E+04         0.00000E+00
    0.75680E+04        -0.49996E+08         0.00000E+00
    0.00000E+00         0.00000E+00        -0.50000E+08
 
   -0.49997E+08         0.76450E+04         0.00000E+00
    0.76450E+04        -0.49996E+08         0.00000E+00
    0.00000E+00         0.00000E+00        -0.50000E+08
 
   -0.49997E+08         0.77140E+04         0.00000E+00
    0.77140E+04        -0.49995E+08         0.00000E+00
    0.00000E+00         0.00000E+00        -0.50000E+08
 
   -0.49998E+08         0.77750E+04         0.00000E+00
    0.77750E+04        -0.49995E+08         0.00000E+00
    0.00000E+00         0.00000E+00        -0.50000E+08
 
   -0.49998E+08         0.78277E+04         0.00000E+00
    0.78277E+04        -0.49995E+08         0.00000E+00
    0.00000E+00         0.00000E+00        -0.50000E+08
 
   -0.49998E+08         0.78722E+04         0.00000E+00
    0.78722E+04        -0.49995E+08         0.00000E+00
    0.00000E+00         0.00000E+00        -0.50000E+08
 
   -0.49999E+08         0.79082E+04         0.00000E+00
    0.79082E+04        -0.49995E+08         0.00000E+00
    0.00000E+00         0.00000E+00        -0.50000E+08
 
   -0.49999E+08         0.79357E+04         0.00000E+00
    0.79357E+04        -0.49995E+08         0.00000E+00
    0.00000E+00         0.00000E+00        -0.50000E+08
 
   -0.49999E+08         0.79545E+04         0.00000E+00
    0.79545E+04        -0.49994E+08         0.00000E+00
    0.00000E+00         0.00000E+00        -0.50000E+08
 
   -0.50000E+08         0.79647E+04         0.00000E+00
    0.79647E+04        -0.49994E+08         0.00000E+00
    0.00000E+00         0.00000E+00        -0.50000E+08
 
   -0.49989E+08         0.12873E+03         0.00000E+00
    0.12873E+03        -0.50000E+08         0.00000E+00
    0.00000E+00         0.00000E+00        -0.50000E+08
 
   -0.49989E+08         0.38984E+03         0.00000E+00
    0.38984E+03        -0.50000E+08         0.00000E+00
    0.00000E+00         0.00000E+00        -0.50000E+08
 
   -0.49989E+08         0.65191E+03         0.00000E+00
    0.65191E+03        -0.50000E+08         0.00000E+00
    0.00000E+00         0.00000E+00        -0.50000E+08
 
   -0.49989E+08         0.91463E+03         0.00000E+00
    0.91463E+03        -0.50000E+08         0.00000E+00
    0.00000E+00         0.00000E+00        -0.50000E+08
 
   -0.49989E+08         0.11777E+04         0.00000E+00
    0.11777E+04        -0.50000E+08         0.00000E+00
    0.00000E+00         0.00000E+00        -0.50000E+08
 
   -0.49989E+08         0.14409E+04         0.00000E+00
    0.14409E+04        -0.50000E+08         0.00000E+00
    0.00000E+00         0.00000E+00        -0.50000E+08
 
   -0.49989E+08         0.17038E+04         0.00000E+00
    0.17038E+04        -0.50000E+08         0.00000E+00
    0.00000E+00         0.00000E+00        -0.50000E+08
 
   -0.49989E+08         0.19662E+04         0.00000E+00
    0.19662E+04        -0.50000E+08         0.00000E+00
    0.00000E+00         0.00000E+00        -0.50000E+08
 
   -0.49989E+08         0.22279E+04         0.00000E+00
    0.22279E+04        -0.50000E+08         0.00000E+00
    0.00000E+00         0.00000E+00        -0.50000E+08
 
   -0.49989E+08         0.24884E+04         0.00000E+00
    0.24884E+04        -0.50000E+08         0.00000E+00
    0.00000E+00         0.00000E+00        -0.50000E+08
 
   -0.49989E+08         0.27475E+04         0.00000E+00
    0.27475E+04        -0.50000E+08         0.00000E+00
    0.00000E+00         0.00000E+00        -0.50000E+08
 
   -0.49989E+08         0.30049E+04         0.00000E+00
    0.30049E+04        -0.50000E+08         0.00000E+00
    0.00000E+00         0.00000E+00        -0.50000E+08
 
   -0.49989E+08         0.32604E+04         0.00000E+00
    0.32604E+04        -0.50000E+08         0.00000E+00
    0.00000E+00         0.00000E+00        -0.50000E+08
 
   -0.49989E+08         0.35136E+04         0.00000E+00
    0.35136E+04        -0.49999E+08         0.00000E+00
    0.00000E+00         0.00000E+00        -0.50000E+08
 
   -0.49989E+08         0.37643E+04         0.00000E+00
    0.37643E+04        -0.49999E+08         0.00000E+00
    0.00000E+00         0.00000E+00        -0.50000E+08
 
   -0.49989E+08         0.40122E+04         0.00000E+00
    0.40122E+04        -0.49999E+08         0.00000E+00
    0.00000E+00         0.00000E+00        -0.50000E+08
 
   -0.49990E+08         0.42569E+04         0.00000E+00
    0.42569E+04        -0.49999E+08         0.00000E+00
    0.00000E+00         0.00000E+00        -0.50000E+08
 
   -0.49990E+08         0.44983E+04         0.00000E+00
    0.44983E+04        -0.49999E+08         0.00000E+00
    0.00000E+00         0.00000E+00        -0.50000E+08
 
   -0.49990E+08         0.47360E+04         0.00000E+00
    0.47360E+04        -0.49999E+08         0.00000E+00
    0.00000E+00         0.00000E+00        -0.50000E+08
 
   -0.49990E+08         0.49698E+04         0.00000E+00
    0.49698E+04        -0.49999E+08         0.00000E+00
    0.00000E+00         0.00000E+00        -0.50000E+08
 
   -0.49990E+08         0.51994E+04         0.00000E+00
    0.51994E+04        -0.49999E+08         0.00000E+00
    0.00000E+00         0.00000E+00        -0.50000E+08
 
   -0.49990E+08         0.54245E+04         0.00000E+00
    0.54245E+04        -0.49999E+08         0.00000E+00
    0.00000E+00         0.00000E+00        -0.50000E+08
 
   -0.49991E+08         0.56449E+04         0.00000E+00
    0.56449E+04        -0.49998E+08         0.00000E+00
    0.00000E+00         0.00000E+00        -0.50000E+08
 
   -0.49991E+08         0.58604E+04         0.00000E+00
    0.58604E+04        -0.49998E+08         0.00000E+00
    0.00000E+00         0.00000E+00        -0.50000E+08
 
   -0.49991E+08         0.60705E+04         0.00000E+00
    0.60705E+04        -0.49998E+08         0.00000E+00
    0.00000E+00         0.00000E+00        -0.50000E+08
 
   -0.49991E+08         0.62752E+04         0.00000E+00
    0.62752E+04        -0.49998E+08         0.00000E+00
    0.00000E+00         0.00000E+00        -0.50000E+08
 
   -0.49992E+08         0.64741E+04         0.00000E+00
    0.64741E+04        -0.49998E+08         0.00000E+00
    0.00000E+00         0.00000E+00        -0.50000E+08
 
   -0.49992E+08         0.66671E+04         0.00000E+00
    0.66671E+04        -0.49998E+08         0.00000E+00
    0.00000E+00         0.00000E+00        -0.50000E+08
 
   -0.49992E+08         0.68538E+04         0.00000E+00
    0.68538E+04        -0.49998E+08         0.00000E+00
    0.00000E+00         0.00000E+00        -0.50000E+08
 
   -0.49992E+08         0.70341E+04         0.00000E+00
    0.70341E+04        -0.49997E+08         0.00000E+00
    0.00000E+00         0.00000E+00        -0.50000E+08
 
   -0.49993E+08         0.72077E+04         0.00000E+00
    0.72077E+04        -0.49997E+08         0.00000E+00
    0.00000E+00         0.00000E+00        -0.50000E+08
 
   -0.49993E+08         0.73744E+04         0.00000E+00
    0.73744E+04        -0.49997E+08         0.00000E+00
    0.00000E+00         0.00000E+00        -0.50000E+08
 
   -0.49993E+08         0.75340E+04         0.00000E+00
    0.75340E+04        -0.49997E+08         0.00000E+00
    0.00000E+00         0.00000E+00        -0.50000E+08
 
   -0.49994E+08         0.76863E+04         0.00000E+00
    0.76863E+04        -0.49997E+08         0.00000E+00
    0.00000E+00         0.00000E+00        -0.50000E+08
 
   -0.49994E+08         0.78310E+04         0.00000E+00
    0.78310E+04        -0.49996E+08         0.00000E+00
    0.00000E+00         0.00000E+00        -0.50000E+08
 
   -0.49994E+08         0.79680E+04         0.00000E+00
    0.79680E+04        -0.49996E+08         0.00000E+00
    0.00000E+00         0.00000E+00        -0.50000E+08
 
   -0.49995E+08         0.80971E+04         0.00000E+00
    0.80971E+04        -0.49996E+08         0.00000E+00
    0.00000E+00         0.00000E+00        -0.50000E+08
 
   -0.49995E+08         0.82181E+04         0.00000E+00
    0.82181E+04        -0.49996E+08         0.00000E+00
    0.00000E+00         0.00000E+00        -0.50000E+08
 
   -0.49995E+08         0.83307E+04         0.00000E+00
    0.83307E+04        -0.49996E+08         0.00000E+00
    0.00000E+00         0.00000E+00        -0.50000E+08
 
   -0.49996E+08         0.84349E+04         0.00000E+00
    0.84349E+04        -0.49996E+08         0.00000E+00
    0.00000E+00         0.00000E+00        -0.50000E+08
 
   -0.49996E+08         0.85305E+04         0.00000E+00
    0.85305E+04        -0.49995E+08         0.00000E+00
    0.00000E+00         0.00000E+00        -0.50000E+08
 
   -0.49996E+08         0.86173E+04         0.00000E+00
    0.86173E+04        -0.49995E+08         0.00000E+00
    0.00000E+00         0.00000E+00        -0.50000E+08
 
   -0.49997E+08         0.86951E+04         0.00000E+00
    0.86951E+04        -0.49995E+08         0.00000E+00
    0.00000E+00         0.00000E+00        -0.50000E+08
 
   -0.49997E+08         0.87639E+04         0.00000E+00
    0.87639E+04        -0.49995E+08         0.00000E+00
    0.00000E+00         0.00000E+00        -0.50000E+08
 
   -0.49998E+08         0.88234E+04         0.00000E+00
    0.88234E+04        -0.49994E+08         0.00000E+00
    0.00000E+00         0.00000E+00        -0.50000E+08
 
   -0.49998E+08         0.88736E+04         0.00000E+00
    0.88736E+04        -0.49994E+08         0.00000E+00
    0.00000E+00         0.00000E+00        -0.50000E+08
 
   -0.49998E+08         0.89142E+04         0.00000E+00
    0.89142E+04        -0.49994E+08         0.00000E+00
    0.00000E+00         0.00000E+00        -0.50000E+08
 
   -0.49999E+08         0.89453E+04         0.00000E+00
    0.89453E+04        -0.49994E+08         0.00000E+00
    0.00000E+00         0.00000E+00        -0.50000E+08
 
   -0.49999E+08         0.89666E+04         0.00000E+00
    0.89666E+04        -0.49994E+08         0.00000E+00
    0.00000E+00         0.00000E+00        -0.50000E+08
 
   -0.50000E+08         0.89781E+04         0.00000E+00
    0.89781E+04        -0.49993E+08         0.00000E+00
    0.00000E+00         0.00000E+00        -0.50000E+08
 
   -0.49988E+08         0.14518E+03         0.00000E+00
    0.14518E+03        -0.50000E+08         0.00000E+00
    0.00000E+00         0.00000E+00        -0.50000E+08
 
   -0.49987E+08         0.43961E+03         0.00000E+00
    0.43961E+03        -0.50000E+08         0.00000E+00
    0.00000E+00         0.00000E+00        -0.50000E+08
 
   -0.49987E+08         0.73509E+03         0.00000E+00
    0.73509E+03        -0.50000E+08         0.00000E+00
    0.00000E+00         0.00000E+00        -0.50000E+08
 
   -0.49987E+08         0.10313E+04         0.00000E+00
    0.10313E+04        -0.50000E+08         0.00000E+00
    0.00000E+00         0.00000E+00        -0.50000E+08
 
   -0.49987E+08         0.13279E+04         0.00000E+00
    0.13279E+04        -0.50000E+08         0.00000E+00
    0.00000E+00         0.00000E+00        -0.50000E+08
 
   -0.49987E+08         0.16245E+04         0.00000E+00
    0.16245E+04        -0.50000E+08         0.00000E+00
    0.00000E+00         0.00000E+00        -0.50000E+08
 
   -0.49987E+08         0.19209E+04         0.00000E+00
    0.19209E+04        -0.50000E+08         0.00000E+00
    0.00000E+00         0.00000E+00        -0.50000E+08
 
   -0.49987E+08         0.22167E+04         0.00000E+00
    0.22167E+04        -0.50000E+08         0.00000E+00
    0.00000E+00         0.00000E+00        -0.50000E+08
 
   -0.49987E+08         0.25116E+04         0.00000E+00
    0.25116E+04        -0.50000E+08         0.00000E+00
    0.00000E+00         0.00000E+00        -0.50000E+08
 
   -0.49988E+08         0.28052E+04         0.00000E+00
    0.28052E+04        -0.50000E+08         0.00000E+00
    0.00000E+00         0.00000E+00        -0.50000E+08
 
   -0.49988E+08         0.30972E+04         0.00000E+00
    0.30972E+04        -0.50000E+08         0.00000E+00
    0.00000E+00         0.00000E+00        -0.50000E+08
 
   -0.49988E+08         0.33873E+04         0.00000E+00
    0.33873E+04        -0.50000E+08         0.00000E+00
    0.00000E+00         0.00000E+00        -0.50000E+08
 
   -0.49988E+08         0.36752E+04         0.00000E+00
    0.36752E+04        -0.49999E+08         0.00000E+00
    0.00000E+00         0.00000E+00        -0.50000E+08
 
   -0.49988E+08         0.39605E+04         0.00000E+00
    0.39605E+04        -0.49999E+08         0.00000E+00
    0.00000E+00         0.00000E+00        -0.50000E+08
 
   -0.49988E+08         0.42430E+04         0.00000E+00
    0.42430E+04        -0.49999E+08         0.00000E+00
    0.00000E+00         0.00000E+00        -0.50000E+08
 
   -0.49988E+08         0.45222E+04         0.00000E+00
    0.45222E+04        -0.49999E+08         0.00000E+00
    0.00000E+00         0.00000E+00        -0.50000E+08
 
   -0.49988E+08         0.47980E+04         0.00000E+00
    0.47980E+04        -0.49999E+08         0.00000E+00
    0.00000E+00         0.00000E+00        -0.50000E+08
 
   -0.49988E+08         0.50699E+04         0.00000E+00
    0.50699E+04        -0.49999E+08         0.00000E+00
    0.00000E+00         0.00000E+00        -0.50000E+08
 
   -0.49989E+08         0.53377E+04         0.00000E+00
    0.53377E+04        -0.49999E+08         0.00000E+00
    0.00000E+00         0.00000E+00        -0.50000E+08
 
   -0.49989E+08         0.56010E+04         0.00000E+00
    0.56010E+04        -0.49999E+08         0.00000E+00
    0.00000E+00         0.00000E+00        -0.50000E+08
 
   -0.49989E+08         0.58597E+04         0.00000E+00
    0.58597E+04        -0.49999E+08         0.00000E+00
    0.00000E+00         0.00000E+00        -0.50000E+08
 
   -0.49989E+08         0.61132E+04         0.00000E+00
    0.61132E+04        -0.49998E+08         0.00000E+00
    0.00000E+00         0.00000E+00        -0.50000E+08
 
   -0.49990E+08         0.63615E+04         0.00000E+00
    0.63615E+04        -0.49998E+08         0.00000E+00
    0.00000E+00         0.00000E+00        -0.50000E+08
 
   -0.49990E+08         0.66041E+04         0.00000E+00
    0.66041E+04        -0.49998E+08         0.00000E+00
    0.00000E+00         0.00000E+00        -0.50000E+08
 
   -0.49990E+08         0.68408E+04         0.00000E+00
    0.68408E+04        -0.49998E+08         0.00000E+00
    0.00000E+00         0.00000E+00        -0.50000E+08
 
   -0.49990E+08         0.70713E+04         0.00000E+00
    0.70713E+04        -0.49998E+08         0.00000E+00
    0.00000E+00         0.00000E+00        -0.50000E+08
 
   -0.49991E+08         0.72954E+04         0.00000E+00
    0.72954E+04        -0.49998E+08         0.00000E+00
    0.00000E+00         0.00000E+00        -0.50000E+08
 
   -0.49991E+08         0.75127E+04         0.00000E+00
    0.75127E+04        -0.49997E+08         0.00000E+00
    0.00000E+00         0.00000E+00        -0.50000E+08
 
   -0.49991E+08         0.77230E+04         0.00000E+00
    0.77230E+04        -0.49997E+08         0.00000E+00
    0.00000E+00         0.00000E+00        -0.50000E+08
 
   -0.49991E+08         0.79260E+04         0.00000E+00
    0.79260E+04        -0.49997E+08         0.00000E+00
    0.00000E+00         0.00000E+00        -0.50000E+08
 
   -0.49992E+08         0.81216E+04         0.00000E+00
    0.81216E+04        -0.49997E+08         0.00000E+00
    0.00000E+00         0.00000E+00        -0.50000E+08
 
   -0.49992E+08         0.83093E+04         0.00000E+00
    0.83093E+04        -0.49997E+08         0.00000E+00
    0.00000E+00         0.00000E+00        -0.50000E+08
 
   -0.49992E+08         0.84890E+04         0.00000E+00
    0.84890E+04        -0.49996E+08         0.00000E+00
    0.00000E+00         0.00000E+00        -0.50000E+08
 
   -0.49993E+08         0.86605E+04         0.00000E+00
    0.86605E+04        -0.49996E+08         0.00000E+00
    0.00000E+00         0.00000E+00        -0.50000E+08
 
   -0.49993E+08         0.88235E+04         0.00000E+00
    0.88235E+04        -0.49996E+08         0.00000E+00
    0.00000E+00         0.00000E+00        -0.50000E+08
 
   -0.49994E+08         0.89778E+04         0.00000E+00
    0.89778E+04        -0.49996E+08         0.00000E+00
    0.00000E+00         0.00000E+00        -0.50000E+08
 
   -0.49994E+08         0.91232E+04         0.00000E+00
    0.91232E+04        -0.49996E+08         0.00000E+00
    0.00000E+00         0.00000E+00        -0.50000E+08
 
   -0.49994E+08         0.92594E+04         0.00000E+00
    0.92594E+04        -0.49995E+08         0.00000E+00
    0.00000E+00         0.00000E+00        -0.50000E+08
 
   -0.49995E+08         0.93864E+04         0.00000E+00
    0.93864E+04        -0.49995E+08         0.00000E+00
    0.00000E+00         0.00000E+00        -0.50000E+08
 
   -0.49995E+08         0.95037E+04         0.00000E+00
    0.95037E+04        -0.49995E+08         0.00000E+00
    0.00000E+00         0.00000E+00        -0.50000E+08
 
   -0.49996E+08         0.96114E+04         0.00000E+00
    0.96114E+04        -0.49995E+08         0.00000E+00
    0.00000E+00         0.00000E+00        -0.50000E+08
 
   -0.49996E+08         0.97092E+04         0.00000E+00
    0.97092E+04        -0.49994E+08         0.00000E+00
    0.00000E+00         0.00000E+00        -0.50000E+08
 
   -0.49996E+08         0.97969E+04         0.00000E+00
    0.97969E+04        -0.49994E+08         0.00000E+00
    0.00000E+00         0.00000E+00        -0.50000E+08
 
   -0.49997E+08         0.98744E+04         0.00000E+00
    0.98744E+04        -0.49994E+08         0.00000E+00
    0.00000E+00         0.00000E+00        -0.50000E+08
 
   -0.49997E+08         0.99415E+04         0.00000E+00
    0.99415E+04        -0.49994E+08         0.00000E+00
    0.00000E+00         0.00000E+00        -0.50000E+08
 
   -0.49998E+08         0.99980E+04         0.00000E+00
    0.99980E+04        -0.49994E+08         0.00000E+00
    0.00000E+00         0.00000E+00        -0.50000E+08
 
   -0.49998E+08         0.10044E+05         0.00000E+00
    0.10044E+05        -0.49993E+08         0.00000E+00
    0.00000E+00         0.00000E+00        -0.50000E+08
 
   -0.49999E+08         0.10079E+05         0.00000E+00
    0.10079E+05        -0.49993E+08         0.00000E+00
    0.00000E+00         0.00000E+00        -0.50000E+08
 
   -0.49999E+08         0.10103E+05         0.00000E+00
    0.10103E+05        -0.49993E+08         0.00000E+00
    0.00000E+00         0.00000E+00        -0.50000E+08
 
   -0.50000E+08         0.10116E+05         0.00000E+00
    0.10116E+05        -0.49993E+08         0.00000E+00
    0.00000E+00         0.00000E+00        -0.50000E+08
 
   -0.49986E+08         0.16369E+03         0.00000E+00
    0.16369E+03        -0.50000E+08         0.00000E+00
    0.00000E+00         0.00000E+00        -0.50000E+08
 
   -0.49986E+08         0.49559E+03         0.00000E+00
    0.49559E+03        -0.50000E+08         0.00000E+00
    0.00000E+00         0.00000E+00        -0.50000E+08
 
   -0.49986E+08         0.82864E+03         0.00000E+00
    0.82864E+03        -0.50000E+08         0.00000E+00
    0.00000E+00         0.00000E+00        -0.50000E+08
 
   -0.49986E+08         0.11625E+04         0.00000E+00
    0.11625E+04        -0.50000E+08         0.00000E+00
    0.00000E+00         0.00000E+00        -0.50000E+08
 
   -0.49986E+08         0.14967E+04         0.00000E+00
    0.14967E+04        -0.50000E+08         0.00000E+00
    0.00000E+00         0.00000E+00        -0.50000E+08
 
   -0.49986E+08         0.18310E+04         0.00000E+00
    0.18310E+04        -0.50000E+08         0.00000E+00
    0.00000E+00         0.00000E+00        -0.50000E+08
 
   -0.49986E+08         0.21650E+04         0.00000E+00
    0.21650E+04        -0.50000E+08         0.00000E+00
    0.00000E+00         0.00000E+00        -0.50000E+08
 
   -0.49986E+08         0.24983E+04         0.00000E+00
    0.24983E+04        -0.50000E+08         0.00000E+00
    0.00000E+00         0.00000E+00        -0.50000E+08
 
   -0.49986E+08         0.28305E+04         0.00000E+00
    0.28305E+04        -0.50000E+08         0.00000E+00
    0.00000E+00         0.00000E+00        -0.50000E+08
 
   -0.49986E+08         0.31613E+04         0.00000E+00
    0.31613E+04        -0.50000E+08         0.00000E+00
    0.00000E+00         0.00000E+00        -0.50000E+08
 
   -0.49986E+08         0.34903E+04         0.00000E+00
    0.34903E+04        -0.50000E+08         0.00000E+00
    0.00000E+00         0.00000E+00        -0.50000E+08
 
   -0.49986E+08         0.38171E+04         0.00000E+00
    0.38171E+04        -0.49999E+08         0.00000E+00
    0.00000E+00         0.00000E+00        -0.50000E+08
 
   -0.49986E+08         0.41414E+04         0.00000E+00
    0.41414E+04        -0.49999E+08         0.00000E+00
    0.00000E+00         0.00000E+00        -0.50000E+08
 
   -0.49986E+08         0.44628E+04         0.00000E+00
    0.44628E+04        -0.49999E+08         0.00000E+00
    0.00000E+00         0.00000E+00        -0.50000E+08
 
   -0.49987E+08         0.47809E+04         0.00000E+00
    0.47809E+04        -0.49999E+08         0.00000E+00
    0.00000E+00         0.00000E+00        -0.50000E+08
 
   -0.49987E+08         0.50954E+04         0.00000E+00
    0.50954E+04        -0.49999E+08         0.00000E+00
    0.00000E+00         0.00000E+00        -0.50000E+08
 
   -0.49987E+08         0.54059E+04         0.00000E+00
    0.54059E+04        -0.49999E+08         0.00000E+00
    0.00000E+00         0.00000E+00        -0.50000E+08
 
   -0.49987E+08         0.57122E+04         0.00000E+00
    0.57122E+04        -0.49999E+08         0.00000E+00
    0.00000E+00         0.00000E+00        -0.50000E+08
 
   -0.49987E+08         0.60137E+04         0.00000E+00
    0.60137E+04        -0.49999E+08         0.00000E+00
    0.00000E+00         0.00000E+00        -0.50000E+08
 
   -0.49987E+08         0.63103E+04         0.00000E+00
    0.63103E+04        -0.49999E+08         0.00000E+00
    0.00000E+00         0.00000E+00        -0.50000E+08
 
   -0.49988E+08         0.66015E+04         0.00000E+00
    0.66015E+04        -0.49998E+08         0.00000E+00
    0.00000E+00         0.00000E+00        -0.50000E+08
 
   -0.49988E+08         0.68870E+04         0.00000E+00
    0.68870E+04        -0.49998E+08         0.00000E+00
    0.00000E+00         0.00000E+00        -0.50000E+08
 
   -0.49988E+08         0.71665E+04         0.00000E+00
    0.71665E+04        -0.49998E+08         0.00000E+00
    0.00000E+00         0.00000E+00        -0.50000E+08
 
   -0.49988E+08         0.74397E+04         0.00000E+00
    0.74397E+04        -0.49998E+08         0.00000E+00
    0.00000E+00         0.00000E+00        -0.50000E+08
 
   -0.49989E+08         0.77062E+04         0.00000E+00
    0.77062E+04        -0.49998E+08         0.00000E+00
    0.00000E+00         0.00000E+00        -0.50000E+08
 
   -0.49989E+08         0.79657E+04         0.00000E+00
    0.79657E+04        -0.49997E+08         0.00000E+00
    0.00000E+00         0.00000E+00        -0.50000E+08
 
   -0.49989E+08         0.82180E+04         0.00000E+00
    0.82180E+04        -0.49997E+08         0.00000E+00
    0.00000E+00         0.00000E+00        -0.50000E+08
 
   -0.49990E+08         0.84626E+04         0.00000E+00
    0.84626E+04        -0.49997E+08         0.00000E+00
    0.00000E+00         0.00000E+00        -0.50000E+08
 
   -0.49990E+08         0.86994E+04         0.00000E+00
    0.86994E+04        -0.49997E+08         0.00000E+00
    0.00000E+00         0.00000E+00        -0.50000E+08
 
   -0.49990E+08         0.89279E+04         0.00000E+00
    0.89279E+04        -0.49997E+08         0.00000E+00
    0.00000E+00         0.00000E+00        -0.50000E+08
 
   -0.49991E+08         0.91480E+04         0.00000E+00
    0.91480E+04        -0.49996E+08         0.00000E+00
    0.00000E+00         0.00000E+00        -0.50000E+08
 
   -0.49991E+08         0.93594E+04         0.00000E+00
    0.93594E+04        -0.49996E+08         0.00000E+00
    0.00000E+00         0.00000E+00        -0.50000E+08
 
   -0.49992E+08         0.95617E+04         0.00000E+00
    0.95617E+04        -0.49996E+08         0.00000E+00
    0.00000E+00         0.00000E+00        -0.50000E+08
 
   -0.49992E+08         0.97548E+04         0.00000E+00
    0.97548E+04        -0.49996E+08         0.00000E+00
    0.00000E+00         0.00000E+00        -0.50000E+08
 
   -0.49992E+08         0.99383E+04         0.00000E+00
    0.99383E+04        -0.49996E+08         0.00000E+00
    0.00000E+00         0.00000E+00        -0.50000E+08
 
   -0.49993E+08         0.10112E+05         0.00000E+00
    0.10112E+05        -0.49995E+08         0.00000E+00
    0.00000E+00         0.00000E+00        -0.50000E+08
 
   -0.49993E+08         0.10276E+05         0.00000E+00
    0.10276E+05        -0.49995E+08         0.00000E+00
    0.00000E+00         0.00000E+00        -0.50000E+08
 
   -0.49994E+08         0.10429E+05         0.00000E+00
    0.10429E+05        -0.49995E+08         0.00000E+00
    0.00000E+00         0.00000E+00        -0.50000E+08
 
   -0.49994E+08         0.10572E+05         0.00000E+00
    0.10572E+05        -0.49995E+08         0.00000E+00
    0.00000E+00         0.00000E+00        -0.50000E+08
 
   -0.49995E+08         0.10704E+05         0.00000E+00
    0.10704E+05        -0.49994E+08         0.00000E+00
    0.00000E+00         0.00000E+00        -0.50000E+08
 
   -0.49995E+08         0.10825E+05         0.00000E+00
    0.10825E+05        -0.49994E+08         0.00000E+00
    0.00000E+00         0.00000E+00        -0.50000E+08
 
   -0.49996E+08         0.10936E+05         0.00000E+00
    0.10936E+05        -0.49994E+08         0.00000E+00
    0.00000E+00         0.00000E+00        -0.50000E+08
 
   -0.49996E+08         0.11034E+05         0.00000E+00
    0.11034E+05        -0.49994E+08         0.00000E+00
    0.00000E+00         0.00000E+00        -0.50000E+08
 
   -0.49997E+08         0.11122E+05         0.00000E+00
    0.11122E+05        -0.49993E+08         0.00000E+00
    0.00000E+00         0.00000E+00        -0.50000E+08
 
   -0.49997E+08         0.11197E+05         0.00000E+00
    0.11197E+05        -0.49993E+08         0.00000E+00
    0.00000E+00         0.00000E+00        -0.50000E+08
 
   -0.49998E+08         0.11261E+05         0.00000E+00
    0.11261E+05        -0.49993E+08         0.00000E+00
    0.00000E+00         0.00000E+00        -0.50000E+08
 
   -0.49998E+08         0.11313E+05         0.00000E+00
    0.11313E+05        -0.49992E+08         0.00000E+00
    0.00000E+00         0.00000E+00        -0.50000E+08
 
   -0.49999E+08         0.11352E+05         0.00000E+00
    0.11352E+05        -0.49992E+08         0.00000E+00
    0.00000E+00         0.00000E+00        -0.50000E+08
 
   -0.49999E+08         0.11380E+05         0.00000E+00
    0.11380E+05        -0.49992E+08         0.00000E+00
    0.00000E+00         0.00000E+00        -0.50000E+08
 
   -0.50000E+08         0.11395E+05         0.00000E+00
    0.11395E+05        -0.49992E+08         0.00000E+00
    0.00000E+00         0.00000E+00        -0.50000E+08
 
   -0.49984E+08         0.18452E+03         0.00000E+00
    0.18452E+03        -0.50000E+08         0.00000E+00
    0.00000E+00         0.00000E+00        -0.50000E+08
 
   -0.49984E+08         0.55856E+03         0.00000E+00
    0.55856E+03        -0.50000E+08         0.00000E+00
    0.00000E+00         0.00000E+00        -0.50000E+08
 
   -0.49984E+08         0.93387E+03         0.00000E+00
    0.93387E+03        -0.50000E+08         0.00000E+00
    0.00000E+00         0.00000E+00        -0.50000E+08
 
   -0.49984E+08         0.13100E+04         0.00000E+00
    0.13100E+04        -0.50000E+08         0.00000E+00
    0.00000E+00         0.00000E+00        -0.50000E+08
 
   -0.49984E+08         0.16867E+04         0.00000E+00
    0.16867E+04        -0.50000E+08         0.00000E+00
    0.00000E+00         0.00000E+00        -0.50000E+08
 
   -0.49984E+08         0.20633E+04         0.00000E+00
    0.20633E+04        -0.50000E+08         0.00000E+00
    0.00000E+00         0.00000E+00        -0.50000E+08
 
   -0.49984E+08         0.24395E+04         0.00000E+00
    0.24395E+04        -0.50000E+08         0.00000E+00
    0.00000E+00         0.00000E+00        -0.50000E+08
 
   -0.49984E+08         0.28150E+04         0.00000E+00
    0.28150E+04        -0.50000E+08         0.00000E+00
    0.00000E+00         0.00000E+00        -0.50000E+08
 
   -0.49984E+08         0.31892E+04         0.00000E+00
    0.31892E+04        -0.50000E+08         0.00000E+00
    0.00000E+00         0.00000E+00        -0.50000E+08
 
   -0.49984E+08         0.35617E+04         0.00000E+00
    0.35617E+04        -0.50000E+08         0.00000E+00
    0.00000E+00         0.00000E+00        -0.50000E+08
 
   -0.49984E+08         0.39322E+04         0.00000E+00
    0.39322E+04        -0.50000E+08         0.00000E+00
    0.00000E+00         0.00000E+00        -0.50000E+08
 
   -0.49984E+08         0.43003E+04         0.00000E+00
    0.43003E+04        -0.49999E+08         0.00000E+00
    0.00000E+00         0.00000E+00        -0.50000E+08
 
   -0.49985E+08         0.46654E+04         0.00000E+00
    0.46654E+04        -0.49999E+08         0.00000E+00
    0.00000E+00         0.00000E+00        -0.50000E+08
 
   -0.49985E+08         0.50273E+04         0.00000E+00
    0.50273E+04        -0.49999E+08         0.00000E+00
    0.00000E+00         0.00000E+00        -0.50000E+08
 
   -0.49985E+08         0.53855E+04         0.00000E+00
    0.53855E+04        -0.49999E+08         0.00000E+00
    0.00000E+00         0.00000E+00        -0.50000E+08
 
   -0.49985E+08         0.57396E+04         0.00000E+00
    0.57396E+04        -0.49999E+08         0.00000E+00
    0.00000E+00         0.00000E+00        -0.50000E+08
 
   -0.49985E+08         0.60893E+04         0.00000E+00
    0.60893E+04        -0.49999E+08         0.00000E+00
    0.00000E+00         0.00000E+00        -0.50000E+08
 
   -0.49985E+08         0.64340E+04         0.00000E+00
    0.64340E+04        -0.49999E+08         0.00000E+00
    0.00000E+00         0.00000E+00        -0.50000E+08
 
   -0.49986E+08         0.67735E+04         0.00000E+00
    0.67735E+04        -0.49998E+08         0.00000E+00
    0.00000E+00         0.00000E+00        -0.50000E+08
 
   -0.49986E+08         0.71073E+04         0.00000E+00
    0.71073E+04        -0.49998E+08         0.00000E+00
    0.00000E+00         0.00000E+00        -0.50000E+08
 
   -0.49986E+08         0.74351E+04         0.00000E+00
    0.74351E+04        -0.49998E+08         0.00000E+00
    0.00000E+00         0.00000E+00        -0.50000E+08
 
   -0.49986E+08         0.77565E+04         0.00000E+00
    0.77565E+04        -0.49998E+08         0.00000E+00
    0.00000E+00         0.00000E+00        -0.50000E+08
 
   -0.49987E+08         0.80711E+04         0.00000E+00
    0.80711E+04        -0.49998E+08         0.00000E+00
    0.00000E+00         0.00000E+00        -0.50000E+08
 
   -0.49987E+08         0.83786E+04         0.00000E+00
    0.83786E+04        -0.49998E+08         0.00000E+00
    0.00000E+00         0.00000E+00        -0.50000E+08
 
   -0.49987E+08         0.86785E+04         0.00000E+00
    0.86785E+04        -0.49997E+08         0.00000E+00
    0.00000E+00         0.00000E+00        -0.50000E+08
 
   -0.49988E+08         0.89706E+04         0.00000E+00
    0.89706E+04        -0.49997E+08         0.00000E+00
    0.00000E+00         0.00000E+00        -0.50000E+08
 
   -0.49988E+08         0.92545E+04         0.00000E+00
    0.92545E+04        -0.49997E+08         0.00000E+00
    0.00000E+00         0.00000E+00        -0.50000E+08
 
   -0.49988E+08         0.95298E+04         0.00000E+00
    0.95298E+04        -0.49997E+08         0.00000E+00
    0.00000E+00         0.00000E+00        -0.50000E+08
 
   -0.49989E+08         0.97962E+04         0.00000E+00
    0.97962E+04        -0.49997E+08         0.00000E+00
    0.00000E+00         0.00000E+00        -0.50000E+08
 
   -0.49989E+08         0.10053E+05         0.00000E+00
    0.10053E+05        -0.49996E+08         0.00000E+00
    0.00000E+00         0.00000E+00        -0.50000E+08
 
   -0.49990E+08         0.10301E+05         0.00000E+00
    0.10301E+05        -0.49996E+08         0.00000E+00
    0.00000E+00         0.00000E+00        -0.50000E+08
 
   -0.49990E+08         0.10539E+05         0.00000E+00
    0.10539E+05        -0.49996E+08         0.00000E+00
    0.00000E+00         0.00000E+00        -0.50000E+08
 
   -0.49991E+08         0.10767E+05         0.00000E+00
    0.10767E+05        -0.49996E+08         0.00000E+00
    0.00000E+00         0.00000E+00        -0.50000E+08
 
   -0.49991E+08         0.10984E+05         0.00000E+00
    0.10984E+05        -0.49995E+08         0.00000E+00
    0.00000E+00         0.00000E+00        -0.50000E+08
 
   -0.49991E+08         0.11190E+05         0.00000E+00
    0.11190E+05        -0.49995E+08         0.00000E+00
    0.00000E+00         0.00000E+00        -0.50000E+08
 
   -0.49992E+08         0.11386E+05         0.00000E+00
    0.11386E+05        -0.49995E+08         0.00000E+00
    0.00000E+00         0.00000E+00        -0.50000E+08
 
   -0.49992E+08         0.11570E+05         0.00000E+00
    0.11570E+05        -0.49994E+08         0.00000E+00
    0.00000E+00         0.00000E+00        -0.50000E+08
 
   -0.49993E+08         0.11743E+05         0.00000E+00
    0.11743E+05        -0.49994E+08         0.00000E+00
    0.00000E+00         0.00000E+00        -0.50000E+08
 
   -0.49993E+08         0.11904E+05         0.00000E+00
    0.11904E+05        -0.49994E+08         0.00000E+00
    0.00000E+00         0.00000E+00        -0.50000E+08
 
   -0.49994E+08         0.12052E+05         0.00000E+00
    0.12052E+05        -0.49994E+08         0.00000E+00
    0.00000E+00         0.00000E+00        -0.50000E+08
 
   -0.49994E+08         0.12189E+05         0.00000E+00
    0.12189E+05        -0.49993E+08         0.00000E+00
    0.00000E+00         0.00000E+00        -0.50000E+08
 
   -0.49995E+08         0.12313E+05         0.00000E+00
    0.12313E+05        -0.49993E+08         0.00000E+00
    0.00000E+00         0.00000E+00        -0.50000E+08
 
   -0.49996E+08         0.12424E+05         0.00000E+00
    0.12424E+05        -0.49993E+08         0.00000E+00
    0.00000E+00         0.00000E+00        -0.50000E+08
 
   -0.49996E+08         0.12523E+05         0.00000E+00
    0.12523E+05        -0.49992E+08         0.00000E+00
    0.00000E+00         0.00000E+00        -0.50000E+08
 
   -0.49997E+08         0.12608E+05         0.00000E+00
    0.12608E+05        -0.49992E+08         0.00000E+00
    0.00000E+00         0.00000E+00        -0.50000E+08
 
   -0.49997E+08         0.12680E+05         0.00000E+00
    0.12680E+05        -0.49992E+08         0.00000E+00
    0.00000E+00         0.00000E+00        -0.50000E+08
 
   -0.49998E+08         0.12738E+05         0.00000E+00
    0.12738E+05        -0.49992E+08         0.00000E+00
    0.00000E+00         0.00000E+00        -0.50000E+08
 
   -0.49998E+08         0.12783E+05         0.00000E+00
    0.12783E+05        -0.49991E+08         0.00000E+00
    0.00000E+00         0.00000E+00        -0.50000E+08
 
   -0.49999E+08         0.12814E+05         0.00000E+00
    0.12814E+05        -0.49991E+08         0.00000E+00
    0.00000E+00         0.00000E+00        -0.50000E+08
 
   -0.50000E+08         0.12831E+05         0.00000E+00
    0.12831E+05        -0.49991E+08         0.00000E+00
    0.00000E+00         0.00000E+00        -0.50000E+08
 
   -0.49982E+08         0.20796E+03         0.00000E+00
    0.20796E+03        -0.50000E+08         0.00000E+00
    0.00000E+00         0.00000E+00        -0.50000E+08
 
   -0.49982E+08         0.62941E+03         0.00000E+00
    0.62941E+03        -0.50000E+08         0.00000E+00
    0.00000E+00         0.00000E+00        -0.50000E+08
 
   -0.49982E+08         0.10523E+04         0.00000E+00
    0.10523E+04        -0.50000E+08         0.00000E+00
    0.00000E+00         0.00000E+00        -0.50000E+08
 
   -0.49982E+08         0.14760E+04         0.00000E+00
    0.14760E+04        -0.50000E+08         0.00000E+00
    0.00000E+00         0.00000E+00        -0.50000E+08
 
   -0.49982E+08         0.19003E+04         0.00000E+00
    0.19003E+04        -0.50000E+08         0.00000E+00
    0.00000E+00         0.00000E+00        -0.50000E+08
 
   -0.49982E+08         0.23245E+04         0.00000E+00
    0.23245E+04        -0.50000E+08         0.00000E+00
    0.00000E+00         0.00000E+00        -0.50000E+08
 
   -0.49982E+08         0.27483E+04         0.00000E+00
    0.27483E+04        -0.50000E+08         0.00000E+00
    0.00000E+00         0.00000E+00        -0.50000E+08
 
   -0.49982E+08         0.31711E+04         0.00000E+00
    0.31711E+04        -0.50000E+08         0.00000E+00
    0.00000E+00         0.00000E+00        -0.50000E+08
 
   -0.49982E+08         0.35925E+04         0.00000E+00
    0.35925E+04        -0.50000E+08         0.00000E+00
    0.00000E+00         0.00000E+00        -0.50000E+08
 
   -0.49982E+08         0.40120E+04         0.00000E+00
    0.40120E+04        -0.50000E+08         0.00000E+00
    0.00000E+00         0.00000E+00        -0.50000E+08
 
   -0.49982E+08         0.44291E+04         0.00000E+00
    0.44291E+04        -0.49999E+08         0.00000E+00
    0.00000E+00         0.00000E+00        -0.50000E+08
 
   -0.49982E+08         0.48435E+04         0.00000E+00
    0.48435E+04        -0.49999E+08         0.00000E+00
    0.00000E+00         0.00000E+00        -0.50000E+08
 
   -0.49983E+08         0.52546E+04         0.00000E+00
    0.52546E+04        -0.49999E+08         0.00000E+00
    0.00000E+00         0.00000E+00        -0.50000E+08
 
   -0.49983E+08         0.56620E+04         0.00000E+00
    0.56620E+04        -0.49999E+08         0.00000E+00
    0.00000E+00         0.00000E+00        -0.50000E+08
 
   -0.49983E+08         0.60652E+04         0.00000E+00
    0.60652E+04        -0.49999E+08         0.00000E+00
    0.00000E+00         0.00000E+00        -0.50000E+08
 
   -0.49983E+08         0.64638E+04         0.00000E+00
    0.64638E+04        -0.49999E+08         0.00000E+00
    0.00000E+00         0.00000E+00        -0.50000E+08
 
   -0.49983E+08         0.68573E+04         0.00000E+00
    0.68573E+04        -0.49999E+08         0.00000E+00
    0.00000E+00         0.00000E+00        -0.50000E+08
 
   -0.49984E+08         0.72453E+04         0.00000E+00
    0.72453E+04        -0.49998E+08         0.00000E+00
    0.00000E+00         0.00000E+00        -0.50000E+08
 
   -0.49984E+08         0.76274E+04         0.00000E+00
    0.76274E+04        -0.49998E+08         0.00000E+00
    0.00000E+00         0.00000E+00        -0.50000E+08
 
   -0.49984E+08         0.80031E+04         0.00000E+00
    0.80031E+04        -0.49998E+08         0.00000E+00
    0.00000E+00         0.00000E+00        -0.50000E+08
 
   -0.49984E+08         0.83719E+04         0.00000E+00
    0.83719E+04        -0.49998E+08         0.00000E+00
    0.00000E+00         0.00000E+00        -0.50000E+08
 
   -0.49985E+08         0.87336E+04         0.00000E+00
    0.87336E+04        -0.49998E+08         0.00000E+00
    0.00000E+00         0.00000E+00        -0.50000E+08
 
   -0.49985E+08         0.90876E+04         0.00000E+00
    0.90876E+04        -0.49998E+08         0.00000E+00
    0.00000E+00         0.00000E+00        -0.50000E+08
 
   -0.49985E+08         0.94335E+04         0.00000E+00
    0.94335E+04        -0.49997E+08         0.00000E+00
    0.00000E+00         0.00000E+00        -0.50000E+08
 
   -0.49986E+08         0.97710E+04         0.00000E+00
    0.97710E+04        -0.49997E+08         0.00000E+00
    0.00000E+00         0.00000E+00        -0.50000E+08
 
   -0.49986E+08         0.10100E+05         0.00000E+00
    0.10100E+05        -0.49997E+08         0.00000E+00
    0.00000E+00         0.00000E+00        -0.50000E+08
 
   -0.49987E+08         0.10419E+05         0.00000E+00
    0.10419E+05        -0.49997E+08         0.00000E+00
    0.00000E+00         0.00000E+00        -0.50000E+08
 
   -0.49987E+08         0.10729E+05         0.00000E+00
    0.10729E+05        -0.49996E+08         0.00000E+00
    0.00000E+00         0.00000E+00        -0.50000E+08
 
   -0.49987E+08         0.11029E+05         0.00000E+00
    0.11029E+05        -0.49996E+08         0.00000E+00
    0.00000E+00         0.00000E+00        -0.50000E+08
 
   -0.49988E+08         0.11318E+05         0.00000E+00
    0.11318E+05        -0.49996E+08         0.00000E+00
    0.00000E+00         0.00000E+00        -0.50000E+08
 
   -0.49988E+08         0.11597E+05         0.00000E+00
    0.11597E+05        -0.49996E+08         0.00000E+00
    0.00000E+00         0.00000E+00        -0.50000E+08
 
   -0.49989E+08         0.11864E+05         0.00000E+00
    0.11864E+05        -0.49995E+08         0.00000E+00
    0.00000E+00         0.00000E+00        -0.50000E+08
 
   -0.49989E+08         0.12120E+05         0.00000E+00
    0.12120E+05        -0.49995E+08         0.00000E+00
    0.00000E+00         0.00000E+00        -0.50000E+08
 
   -0.49990E+08         0.12365E+05         0.00000E+00
    0.12365E+05        -0.49995E+08         0.00000E+00
    0.00000E+00         0.00000E+00        -0.50000E+08
 
   -0.49990E+08         0.12597E+05         0.00000E+00
    0.12597E+05        -0.49994E+08         0.00000E+00
    0.00000E+00         0.00000E+00        -0.50000E+08
 
   -0.49991E+08         0.12817E+05         0.00000E+00
    0.12817E+05        -0.49994E+08         0.00000E+00
    0.00000E+00         0.00000E+00        -0.50000E+08
 
   -0.49991E+08         0.13024E+05         0.00000E+00
    0.13024E+05        -0.49994E+08         0.00000E+00
    0.00000E+00         0.00000E+00        -0.50000E+08
 
   -0.49992E+08         0.13219E+05         0.00000E+00
    0.13219E+05        -0.49993E+08         0.00000E+00
    0.00000E+00         0.00000E+00        -0.50000E+08
 
   -0.49993E+08         0.13400E+05         0.00000E+00
    0.13400E+05        -0.49993E+08         0.00000E+00
    0.00000E+00         0.00000E+00        -0.50000E+08
 
   -0.49993E+08         0.13567E+05         0.00000E+00
    0.13567E+05        -0.49993E+08         0.00000E+00
    0.00000E+00         0.00000E+00        -0.50000E+08
 
   -0.49994E+08         0.13721E+05         0.00000E+00
    0.13721E+05        -0.49993E+08         0.00000E+00
    0.00000E+00         0.00000E+00        -0.50000E+08
 
   -0.49994E+08         0.13860E+05         0.00000E+00
    0.13860E+05        -0.49992E+08         0.00000E+00
    0.00000E+00         0.00000E+00        -0.50000E+08
 
   -0.49995E+08         0.13986E+05         0.00000E+00
    0.13986E+05        -0.49992E+08         0.00000E+00
    0.00000E+00         0.00000E+00        -0.50000E+08
 
   -0.49996E+08         0.14096E+05         0.00000E+00
    0.14096E+05        -0.49992E+08         0.00000E+00
    0.00000E+00         0.00000E+00        -0.50000E+08
 
   -0.49996E+08         0.14192E+05         0.00000E+00
    0.14192E+05        -0.49991E+08         0.00000E+00
    0.00000E+00         0.00000E+00        -0.50000E+08
 
   -0.49997E+08         0.14273E+05         0.00000E+00
    0.14273E+05        -0.49991E+08         0.00000E+00
    0.00000E+00         0.00000E+00        -0.50000E+08
 
   -0.49998E+08         0.14339E+05         0.00000E+00
    0.14339E+05        -0.49991E+08         0.00000E+00
    0.00000E+00         0.00000E+00        -0.50000E+08
 
   -0.49998E+08         0.14390E+05         0.00000E+00
    0.14390E+05        -0.49990E+08         0.00000E+00
    0.00000E+00         0.00000E+00        -0.50000E+08
 
   -0.49999E+08         0.14425E+05         0.00000E+00
    0.14425E+05        -0.49990E+08         0.00000E+00
    0.00000E+00         0.00000E+00        -0.50000E+08
 
   -0.50000E+08         0.14444E+05         0.00000E+00
    0.14444E+05        -0.49989E+08         0.00000E+00
    0.00000E+00         0.00000E+00        -0.50000E+08
 
   -0.49980E+08         0.23434E+03         0.00000E+00
    0.23434E+03        -0.50000E+08         0.00000E+00
    0.00000E+00         0.00000E+00        -0.50000E+08
 
   -0.49980E+08         0.70913E+03         0.00000E+00
    0.70913E+03        -0.50000E+08         0.00000E+00
    0.00000E+00         0.00000E+00        -0.50000E+08
 
   -0.49980E+08         0.11854E+04         0.00000E+00
    0.11854E+04        -0.50000E+08         0.00000E+00
    0.00000E+00         0.00000E+00        -0.50000E+08
 
   -0.49980E+08         0.16628E+04         0.00000E+00
    0.16628E+04        -0.50000E+08         0.00000E+00
    0.00000E+00         0.00000E+00        -0.50000E+08
 
   -0.49980E+08         0.21406E+04         0.00000E+00
    0.21406E+04        -0.50000E+08         0.00000E+00
    0.00000E+00         0.00000E+00        -0.50000E+08
 
   -0.49980E+08         0.26183E+04         0.00000E+00
    0.26183E+04        -0.50000E+08         0.00000E+00
    0.00000E+00         0.00000E+00        -0.50000E+08
 
   -0.49980E+08         0.30955E+04         0.00000E+00
    0.30955E+04        -0.50000E+08         0.00000E+00
    0.00000E+00         0.00000E+00        -0.50000E+08
 
   -0.49980E+08         0.35715E+04         0.00000E+00
    0.35715E+04        -0.50000E+08         0.00000E+00
    0.00000E+00         0.00000E+00        -0.50000E+08
 
   -0.49980E+08         0.40460E+04         0.00000E+00
    0.40460E+04        -0.50000E+08         0.00000E+00
    0.00000E+00         0.00000E+00        -0.50000E+08
 
   -0.49980E+08         0.45183E+04         0.00000E+00
    0.45183E+04        -0.49999E+08         0.00000E+00
    0.00000E+00         0.00000E+00        -0.50000E+08
 
   -0.49980E+08         0.49879E+04         0.00000E+00
    0.49879E+04        -0.49999E+08         0.00000E+00
    0.00000E+00         0.00000E+00        -0.50000E+08
 
   -0.49980E+08         0.54543E+04         0.00000E+00
    0.54543E+04        -0.49999E+08         0.00000E+00
    0.00000E+00         0.00000E+00        -0.50000E+08
 
   -0.49980E+08         0.59170E+04         0.00000E+00
    0.59170E+04        -0.49999E+08         0.00000E+00
    0.00000E+00         0.00000E+00        -0.50000E+08
 
   -0.49981E+08         0.63755E+04         0.00000E+00
    0.63755E+04        -0.49999E+08         0.00000E+00
    0.00000E+00         0.00000E+00        -0.50000E+08
 
   -0.49981E+08         0.68293E+04         0.00000E+00
    0.68293E+04        -0.49999E+08         0.00000E+00
    0.00000E+00         0.00000E+00        -0.50000E+08
 
   -0.49981E+08         0.72778E+04         0.00000E+00
    0.72778E+04        -0.49999E+08         0.00000E+00
    0.00000E+00         0.00000E+00        -0.50000E+08
 
   -0.49981E+08         0.77206E+04         0.00000E+00
    0.77206E+04        -0.49998E+08         0.00000E+00
    0.00000E+00         0.00000E+00        -0.50000E+08
 
   -0.49982E+08         0.81572E+04         0.00000E+00
    0.81572E+04        -0.49998E+08         0.00000E+00
    0.00000E+00         0.00000E+00        -0.50000E+08
 
   -0.49982E+08         0.85871E+04         0.00000E+00
    0.85871E+04        -0.49998E+08         0.00000E+00
    0.00000E+00         0.00000E+00        -0.50000E+08
 
   -0.49982E+08         0.90097E+04         0.00000E+00
    0.90097E+04        -0.49998E+08         0.00000E+00
    0.00000E+00         0.00000E+00        -0.50000E+08
 
   -0.49983E+08         0.94247E+04         0.00000E+00
    0.94247E+04        -0.49998E+08         0.00000E+00
    0.00000E+00         0.00000E+00        -0.50000E+08
 
   -0.49983E+08         0.98316E+04         0.00000E+00
    0.98316E+04        -0.49997E+08         0.00000E+00
    0.00000E+00         0.00000E+00        -0.50000E+08
 
   -0.49983E+08         0.10230E+05         0.00000E+00
    0.10230E+05        -0.49997E+08         0.00000E+00
    0.00000E+00         0.00000E+00        -0.50000E+08
 
   -0.49984E+08         0.10619E+05         0.00000E+00
    0.10619E+05        -0.49997E+08         0.00000E+00
    0.00000E+00         0.00000E+00        -0.50000E+08
 
   -0.49984E+08         0.10999E+05         0.00000E+00
    0.10999E+05        -0.49997E+08         0.00000E+00
    0.00000E+00         0.00000E+00        -0.50000E+08
 
   -0.49984E+08         0.11368E+05         0.00000E+00
    0.11368E+05        -0.49996E+08         0.00000E+00
    0.00000E+00         0.00000E+00        -0.50000E+08
 
   -0.49985E+08         0.11727E+05         0.00000E+00
    0.11727E+05        -0.49996E+08         0.00000E+00
    0.00000E+00         0.00000E+00        -0.50000E+08
 
   -0.49985E+08         0.12076E+05         0.00000E+00
    0.12076E+05        -0.49996E+08         0.00000E+00
    0.00000E+00         0.00000E+00        -0.50000E+08
 
   -0.49986E+08         0.12413E+05         0.00000E+00
    0.12413E+05        -0.49996E+08         0.00000E+00
    0.00000E+00         0.00000E+00        -0.50000E+08
 
   -0.49986E+08         0.12738E+05         0.00000E+00
    0.12738E+05        -0.49995E+08         0.00000E+00
    0.00000E+00         0.00000E+00        -0.50000E+08
 
   -0.49987E+08         0.13052E+05         0.00000E+00
    0.13052E+05        -0.49995E+08         0.00000E+00
    0.00000E+00         0.00000E+00        -0.50000E+08
 
   -0.49987E+08         0.13353E+05         0.00000E+00
    0.13353E+05        -0.49995E+08         0.00000E+00
    0.00000E+00         0.00000E+00        -0.50000E+08
 
   -0.49988E+08         0.13641E+05         0.00000E+00
    0.13641E+05        -0.49994E+08         0.00000E+00
    0.00000E+00         0.00000E+00        -0.50000E+08
 
   -0.49989E+08         0.13916E+05         0.00000E+00
    0.13916E+05        -0.49994E+08         0.00000E+00
    0.00000E+00         0.00000E+00        -0.50000E+08
 
   -0.49989E+08         0.14177E+05         0.00000E+00
    0.14177E+05        -0.49994E+08         0.00000E+00
    0.00000E+00         0.00000E+00        -0.50000E+08
 
   -0.49990E+08         0.14425E+05         0.00000E+00
    0.14425E+05        -0.49993E+08         0.00000E+00
    0.00000E+00         0.00000E+00        -0.50000E+08
 
   -0.49990E+08         0.14658E+05         0.00000E+00
    0.14658E+05        -0.49993E+08         0.00000E+00
    0.00000E+00         0.00000E+00        -0.50000E+08
 
   -0.49991E+08         0.14876E+05         0.00000E+00
    0.14876E+05        -0.49993E+08         0.00000E+00
    0.00000E+00         0.00000E+00        -0.50000E+08
 
   -0.49992E+08         0.15080E+05         0.00000E+00
    0.15080E+05        -0.49992E+08         0.00000E+00
    0.00000E+00         0.00000E+00        -0.50000E+08
 
   -0.49992E+08         0.15268E+05         0.00000E+00
    0.15268E+05        -0.49992E+08         0.00000E+00
    0.00000E+00         0.00000E+00        -0.50000E+08
 
   -0.49993E+08         0.15441E+05         0.00000E+00
    0.15441E+05        -0.49992E+08         0.00000E+00
    0.00000E+00         0.00000E+00        -0.50000E+08
 
   -0.49994E+08         0.15598E+05         0.00000E+00
    0.15598E+05        -0.49991E+08         0.00000E+00
    0.00000E+00         0.00000E+00        -0.50000E+08
 
   -0.49994E+08         0.15739E+05         0.00000E+00
    0.15739E+05        -0.49991E+08         0.00000E+00
    0.00000E+00         0.00000E+00        -0.50000E+08
 
   -0.49995E+08         0.15864E+05         0.00000E+00
    0.15864E+05        -0.49990E+08         0.00000E+00
    0.00000E+00         0.00000E+00        -0.50000E+08
 
   -0.49996E+08         0.15972E+05         0.00000E+00
    0.15972E+05        -0.49990E+08         0.00000E+00
    0.00000E+00         0.00000E+00        -0.50000E+08
 
   -0.49997E+08         0.16063E+05         0.00000E+00
    0.16063E+05        -0.49990E+08         0.00000E+00
    0.00000E+00         0.00000E+00        -0.50000E+08
 
   -0.49997E+08         0.16138E+05         0.00000E+00
    0.16138E+05        -0.49989E+08         0.00000E+00
    0.00000E+00         0.00000E+00        -0.50000E+08
 
   -0.49998E+08         0.16195E+05         0.00000E+00
    0.16195E+05        -0.49989E+08         0.00000E+00
    0.00000E+00         0.00000E+00        -0.50000E+08
 
   -0.49999E+08         0.16234E+05         0.00000E+00
    0.16234E+05        -0.49989E+08         0.00000E+00
    0.00000E+00         0.00000E+00        -0.50000E+08
 
   -0.50000E+08         0.16256E+05         0.00000E+00
    0.16256E+05        -0.49988E+08         0.00000E+00
    0.00000E+00         0.00000E+00        -0.50000E+08
 
   -0.49977E+08         0.26404E+03         0.00000E+00
    0.26404E+03        -0.50000E+08         0.00000E+00
    0.00000E+00         0.00000E+00        -0.50000E+08
 
   -0.49977E+08         0.79884E+03         0.00000E+00
    0.79884E+03        -0.50000E+08         0.00000E+00
    0.00000E+00         0.00000E+00        -0.50000E+08
 
   -0.49977E+08         0.13353E+04         0.00000E+00
    0.13353E+04        -0.50000E+08         0.00000E+00
    0.00000E+00         0.00000E+00        -0.50000E+08
 
   -0.49977E+08         0.18729E+04         0.00000E+00
    0.18729E+04        -0.50000E+08         0.00000E+00
    0.00000E+00         0.00000E+00        -0.50000E+08
 
   -0.49977E+08         0.24109E+04         0.00000E+00
    0.24109E+04        -0.50000E+08         0.00000E+00
    0.00000E+00         0.00000E+00        -0.50000E+08
 
   -0.49977E+08         0.29488E+04         0.00000E+00
    0.29488E+04        -0.50000E+08         0.00000E+00
    0.00000E+00         0.00000E+00        -0.50000E+08
 
   -0.49977E+08         0.34860E+04         0.00000E+00
    0.34860E+04        -0.50000E+08         0.00000E+00
    0.00000E+00         0.00000E+00        -0.50000E+08
 
   -0.49977E+08         0.40220E+04         0.00000E+00
    0.40220E+04        -0.50000E+08         0.00000E+00
    0.00000E+00         0.00000E+00        -0.50000E+08
 
   -0.49977E+08         0.45560E+04         0.00000E+00
    0.45560E+04        -0.50000E+08         0.00000E+00
    0.00000E+00         0.00000E+00        -0.50000E+08
 
   -0.49978E+08         0.50876E+04         0.00000E+00
    0.50876E+04        -0.49999E+08         0.00000E+00
    0.00000E+00         0.00000E+00        -0.50000E+08
 
   -0.49978E+08         0.56161E+04         0.00000E+00
    0.56161E+04        -0.49999E+08         0.00000E+00
    0.00000E+00         0.00000E+00        -0.50000E+08
 
   -0.49978E+08         0.61410E+04         0.00000E+00
    0.61410E+04        -0.49999E+08         0.00000E+00
    0.00000E+00         0.00000E+00        -0.50000E+08
 
   -0.49978E+08         0.66617E+04         0.00000E+00
    0.66617E+04        -0.49999E+08         0.00000E+00
    0.00000E+00         0.00000E+00        -0.50000E+08
 
   -0.49978E+08         0.71776E+04         0.00000E+00
    0.71776E+04        -0.49999E+08         0.00000E+00
    0.00000E+00         0.00000E+00        -0.50000E+08
 
   -0.49978E+08         0.76882E+04         0.00000E+00
    0.76882E+04        -0.49999E+08         0.00000E+00
    0.00000E+00         0.00000E+00        -0.50000E+08
 
   -0.49979E+08         0.81928E+04         0.00000E+00
    0.81928E+04        -0.49998E+08         0.00000E+00
    0.00000E+00         0.00000E+00        -0.50000E+08
 
   -0.49979E+08         0.86910E+04         0.00000E+00
    0.86910E+04        -0.49998E+08         0.00000E+00
    0.00000E+00         0.00000E+00        -0.50000E+08
 
   -0.49979E+08         0.91821E+04         0.00000E+00
    0.91821E+04        -0.49998E+08         0.00000E+00
    0.00000E+00         0.00000E+00        -0.50000E+08
 
   -0.49980E+08         0.96657E+04         0.00000E+00
    0.96657E+04        -0.49998E+08         0.00000E+00
    0.00000E+00         0.00000E+00        -0.50000E+08
 
   -0.49980E+08         0.10141E+05         0.00000E+00
    0.10141E+05        -0.49998E+08         0.00000E+00
    0.00000E+00         0.00000E+00        -0.50000E+08
 
   -0.49980E+08         0.10608E+05         0.00000E+00
    0.10608E+05        -0.49997E+08         0.00000E+00
    0.00000E+00         0.00000E+00        -0.50000E+08
 
   -0.49981E+08         0.11065E+05         0.00000E+00
    0.11065E+05        -0.49997E+08         0.00000E+00
    0.00000E+00         0.00000E+00        -0.50000E+08
 
   -0.49981E+08         0.11513E+05         0.00000E+00
    0.11513E+05        -0.49997E+08         0.00000E+00
    0.00000E+00         0.00000E+00        -0.50000E+08
 
   -0.49982E+08         0.11951E+05         0.00000E+00
    0.11951E+05        -0.49997E+08         0.00000E+00
    0.00000E+00         0.00000E+00        -0.50000E+08
 
   -0.49982E+08         0.12378E+05         0.00000E+00
    0.12378E+05        -0.49996E+08         0.00000E+00
    0.00000E+00         0.00000E+00        -0.50000E+08
 
   -0.49983E+08         0.12793E+05         0.00000E+00
    0.12793E+05        -0.49996E+08         0.00000E+00
    0.00000E+00         0.00000E+00        -0.50000E+08
 
   -0.49983E+08         0.13197E+05         0.00000E+00
    0.13197E+05        -0.49996E+08         0.00000E+00
    0.00000E+00         0.00000E+00        -0.50000E+08
 
   -0.49984E+08         0.13589E+05         0.00000E+00
    0.13589E+05        -0.49995E+08         0.00000E+00
    0.00000E+00         0.00000E+00        -0.50000E+08
 
   -0.49984E+08         0.13968E+05         0.00000E+00
    0.13968E+05        -0.49995E+08         0.00000E+00
    0.00000E+00         0.00000E+00        -0.50000E+08
 
   -0.49985E+08         0.14334E+05         0.00000E+00
    0.14334E+05        -0.49995E+08         0.00000E+00
    0.00000E+00         0.00000E+00        -0.50000E+08
 
   -0.49985E+08         0.14687E+05         0.00000E+00
    0.14687E+05        -0.49994E+08         0.00000E+00
    0.00000E+00         0.00000E+00        -0.50000E+08
 
   -0.49986E+08         0.15025E+05         0.00000E+00
    0.15025E+05        -0.49994E+08         0.00000E+00
    0.00000E+00         0.00000E+00        -0.50000E+08
 
   -0.49987E+08         0.15349E+05         0.00000E+00
    0.15349E+05        -0.49994E+08         0.00000E+00
    0.00000E+00         0.00000E+00        -0.50000E+08
 
   -0.49987E+08         0.15658E+05         0.00000E+00
    0.15658E+05        -0.49993E+08         0.00000E+00
    0.00000E+00         0.00000E+00        -0.50000E+08
 
   -0.49988E+08         0.15952E+05         0.00000E+00
    0.15952E+05        -0.49993E+08         0.00000E+00
    0.00000E+00         0.00000E+00        -0.50000E+08
 
   -0.49988E+08         0.16230E+05         0.00000E+00
    0.16230E+05        -0.49993E+08         0.00000E+00
    0.00000E+00         0.00000E+00        -0.50000E+08
 
   -0.49989E+08         0.16492E+05         0.00000E+00
    0.16492E+05        -0.49992E+08         0.00000E+00
    0.00000E+00         0.00000E+00        -0.50000E+08
 
   -0.49990E+08         0.16738E+05         0.00000E+00
    0.16738E+05        -0.49992E+08         0.00000E+00
    0.00000E+00         0.00000E+00        -0.50000E+08
 
   -0.49991E+08         0.16967E+05         0.00000E+00
    0.16967E+05        -0.49991E+08         0.00000E+00
    0.00000E+00         0.00000E+00        -0.50000E+08
 
   -0.49991E+08         0.17179E+05         0.00000E+00
    0.17179E+05        -0.49991E+08         0.00000E+00
    0.00000E+00         0.00000E+00        -0.50000E+08
 
   -0.49992E+08         0.17373E+05         0.00000E+00
    0.17373E+05        -0.49991E+08         0.00000E+00
    0.00000E+00         0.00000E+00        -0.50000E+08
 
   -0.49993E+08         0.17550E+05         0.00000E+00
    0.17550E+05        -0.49990E+08         0.00000E+00
    0.00000E+00         0.00000E+00        -0.50000E+08
 
   -0.49994E+08         0.17709E+05         0.00000E+00
    0.17709E+05        -0.49990E+08         0.00000E+00
    0.00000E+00         0.00000E+00        -0.50000E+08
 
   -0.49994E+08         0.17849E+05         0.00000E+00
    0.17849E+05        -0.49989E+08         0.00000E+00
    0.00000E+00         0.00000E+00        -0.50000E+08
 
   -0.49995E+08         0.17971E+05         0.00000E+00
    0.17971E+05        -0.49989E+08         0.00000E+00
    0.00000E+00         0.00000E+00        -0.50000E+08
 
   -0.49996E+08         0.18074E+05         0.00000E+00
    0.18074E+05        -0.49988E+08         0.00000E+00
    0.00000E+00         0.00000E+00        -0.50000E+08
 
   -0.49997E+08         0.18158E+05         0.00000E+00
    0.18158E+05        -0.49988E+08         0.00000E+00
    0.00000E+00         0.00000E+00        -0.50000E+08
 
   -0.49998E+08         0.18222E+05         0.00000E+00
    0.18222E+05        -0.49988E+08         0.00000E+00
    0.00000E+00         0.00000E+00        -0.50000E+08
 
   -0.49999E+08         0.18267E+05         0.00000E+00
    0.18267E+05        -0.49987E+08         0.00000E+00
    0.00000E+00         0.00000E+00        -0.50000E+08
 
   -0.49999E+08         0.18292E+05         0.00000E+00
    0.18292E+05        -0.49987E+08         0.00000E+00
    0.00000E+00         0.00000E+00        -0.50000E+08
 
   -0.49975E+08         0.29747E+03         0.00000E+00
    0.29747E+03        -0.50000E+08         0.00000E+00
    0.00000E+00         0.00000E+00        -0.50000E+08
 
   -0.49975E+08         0.89979E+03         0.00000E+00
    0.89979E+03        -0.50000E+08         0.00000E+00
    0.00000E+00         0.00000E+00        -0.50000E+08
 
   -0.49974E+08         0.15039E+04         0.00000E+00
    0.15039E+04        -0.50000E+08         0.00000E+00
    0.00000E+00         0.00000E+00        -0.50000E+08
 
   -0.49974E+08         0.21092E+04         0.00000E+00
    0.21092E+04        -0.50000E+08         0.00000E+00
    0.00000E+00         0.00000E+00        -0.50000E+08
 
   -0.49974E+08         0.27150E+04         0.00000E+00
    0.27150E+04        -0.50000E+08         0.00000E+00
    0.00000E+00         0.00000E+00        -0.50000E+08
 
   -0.49974E+08         0.33206E+04         0.00000E+00
    0.33206E+04        -0.50000E+08         0.00000E+00
    0.00000E+00         0.00000E+00        -0.50000E+08
 
   -0.49974E+08         0.39253E+04         0.00000E+00
    0.39253E+04        -0.50000E+08         0.00000E+00
    0.00000E+00         0.00000E+00        -0.50000E+08
 
   -0.49975E+08         0.45285E+04         0.00000E+00
    0.45285E+04        -0.50000E+08         0.00000E+00
    0.00000E+00         0.00000E+00        -0.50000E+08
 
   -0.49975E+08         0.51296E+04         0.00000E+00
    0.51296E+04        -0.49999E+08         0.00000E+00
    0.00000E+00         0.00000E+00        -0.50000E+08
 
   -0.49975E+08         0.57278E+04         0.00000E+00
    0.57278E+04        -0.49999E+08         0.00000E+00
    0.00000E+00         0.00000E+00        -0.50000E+08
 
   -0.49975E+08         0.63226E+04         0.00000E+00
    0.63226E+04        -0.49999E+08         0.00000E+00
    0.00000E+00         0.00000E+00        -0.50000E+08
 
   -0.49975E+08         0.69132E+04         0.00000E+00
    0.69132E+04        -0.49999E+08         0.00000E+00
    0.00000E+00         0.00000E+00        -0.50000E+08
 
   -0.49975E+08         0.74990E+04         0.00000E+00
    0.74990E+04        -0.49999E+08         0.00000E+00
    0.00000E+00         0.00000E+00        -0.50000E+08
 
   -0.49975E+08         0.80794E+04         0.00000E+00
    0.80794E+04        -0.49999E+08         0.00000E+00
    0.00000E+00         0.00000E+00        -0.50000E+08
 
   -0.49976E+08         0.86537E+04         0.00000E+00
    0.86537E+04        -0.49999E+08         0.00000E+00
    0.00000E+00         0.00000E+00        -0.50000E+08
 
   -0.49976E+08         0.92213E+04         0.00000E+00
    0.92213E+04        -0.49998E+08         0.00000E+00
    0.00000E+00         0.00000E+00        -0.50000E+08
 
   -0.49976E+08         0.97816E+04         0.00000E+00
    0.97816E+04        -0.49998E+08         0.00000E+00
    0.00000E+00         0.00000E+00        -0.50000E+08
 
   -0.49977E+08         0.10334E+05         0.00000E+00
    0.10334E+05        -0.49998E+08         0.00000E+00
    0.00000E+00         0.00000E+00        -0.50000E+08
 
   -0.49977E+08         0.10878E+05         0.00000E+00
    0.10878E+05        -0.49998E+08         0.00000E+00
    0.00000E+00         0.00000E+00        -0.50000E+08
 
   -0.49977E+08         0.11412E+05         0.00000E+00
    0.11412E+05        -0.49997E+08         0.00000E+00
    0.00000E+00         0.00000E+00        -0.50000E+08
 
   -0.49978E+08         0.11937E+05         0.00000E+00
    0.11937E+05        -0.49997E+08         0.00000E+00
    0.00000E+00         0.00000E+00        -0.50000E+08
 
   -0.49978E+08         0.12452E+05         0.00000E+00
    0.12452E+05        -0.49997E+08         0.00000E+00
    0.00000E+00         0.00000E+00        -0.50000E+08
 
   -0.49979E+08         0.12955E+05         0.00000E+00
    0.12955E+05        -0.49996E+08         0.00000E+00
    0.00000E+00         0.00000E+00        -0.50000E+08
 
   -0.49979E+08         0.13447E+05         0.00000E+00
    0.13447E+05        -0.49996E+08         0.00000E+00
    0.00000E+00         0.00000E+00        -0.50000E+08
 
   -0.49980E+08         0.13927E+05         0.00000E+00
    0.13927E+05        -0.49996E+08         0.00000E+00
    0.00000E+00         0.00000E+00        -0.50000E+08
 
   -0.49980E+08         0.14395E+05         0.00000E+00
    0.14395E+05        -0.49995E+08         0.00000E+00
    0.00000E+00         0.00000E+00        -0.50000E+08
 
   -0.49981E+08         0.14849E+05         0.00000E+00
    0.14849E+05        -0.49995E+08         0.00000E+00
    0.00000E+00         0.00000E+00        -0.50000E+08
 
   -0.49982E+08         0.15289E+05         0.00000E+00
    0.15289E+05        -0.49995E+08         0.00000E+00
    0.00000E+00         0.00000E+00        -0.50000E+08
 
   -0.49982E+08         0.15715E+05         0.00000E+00
    0.15715E+05        -0.49994E+08         0.00000E+00
    0.00000E+00         0.00000E+00        -0.50000E+08
 
   -0.49983E+08         0.16127E+05         0.00000E+00
    0.16127E+05        -0.49994E+08         0.00000E+00
    0.00000E+00         0.00000E+00        -0.50000E+08
 
   -0.49983E+08         0.16523E+05         0.00000E+00
    0.16523E+05        -0.49994E+08         0.00000E+00
    0.00000E+00         0.00000E+00        -0.50000E+08
 
   -0.49984E+08         0.16903E+05         0.00000E+00
    0.16903E+05        -0.49993E+08         0.00000E+00
    0.00000E+00         0.00000E+00        -0.50000E+08
 
   -0.49985E+08         0.17267E+05         0.00000E+00
    0.17267E+05        -0.49993E+08         0.00000E+00
    0.00000E+00         0.00000E+00        -0.50000E+08
 
   -0.49986E+08         0.17615E+05         0.00000E+00
    0.17615E+05        -0.49992E+08         0.00000E+00
    0.00000E+00         0.00000E+00        -0.50000E+08
 
   -0.49986E+08         0.17945E+05         0.00000E+00
    0.17945E+05        -0.49992E+08         0.00000E+00
    0.00000E+00         0.00000E+00        -0.50000E+08
 
   -0.49987E+08         0.18258E+05         0.00000E+00
    0.18258E+05        -0.49992E+08         0.00000E+00
    0.00000E+00         0.00000E+00        -0.50000E+08
 
   -0.49988E+08         0.18553E+05         0.00000E+00
    0.18553E+05        -0.49991E+08         0.00000E+00
    0.00000E+00         0.00000E+00        -0.50000E+08
 
   -0.49989E+08         0.18829E+05         0.00000E+00
    0.18829E+05        -0.49991E+08         0.00000E+00
    0.00000E+00         0.00000E+00        -0.50000E+08
 
   -0.49989E+08         0.19086E+05         0.00000E+00
    0.19086E+05        -0.49990E+08         0.00000E+00
    0.00000E+00         0.00000E+00        -0.50000E+08
 
   -0.49990E+08         0.19325E+05         0.00000E+00
    0.19325E+05        -0.49990E+08         0.00000E+00
    0.00000E+00         0.00000E+00        -0.50000E+08
 
   -0.49991E+08         0.19544E+05         0.00000E+00
    0.19544E+05        -0.49989E+08         0.00000E+00
    0.00000E+00         0.00000E+00        -0.50000E+08
 
   -0.49992E+08         0.19742E+05         0.00000E+00
    0.19742E+05        -0.49989E+08         0.00000E+00
    0.00000E+00         0.00000E+00        -0.50000E+08
 
   -0.49993E+08         0.19921E+05         0.00000E+00
    0.19921E+05        -0.49988E+08         0.00000E+00
    0.00000E+00         0.00000E+00        -0.50000E+08
 
   -0.49994E+08         0.20079E+05         0.00000E+00
    0.20079E+05        -0.49988E+08         0.00000E+00
    0.00000E+00         0.00000E+00        -0.50000E+08
 
   -0.49995E+08         0.20216E+05         0.00000E+00
    0.20216E+05        -0.49988E+08         0.00000E+00
    0.00000E+00         0.00000E+00        -0.50000E+08
 
   -0.49996E+08         0.20332E+05         0.00000E+00
    0.20332E+05        -0.49987E+08         0.00000E+00
    0.00000E+00         0.00000E+00        -0.50000E+08
 
   -0.49997E+08         0.20427E+05         0.00000E+00
    0.20427E+05        -0.49987E+08         0.00000E+00
    0.00000E+00         0.00000E+00        -0.50000E+08
 
   -0.49997E+08         0.20500E+05         0.00000E+00
    0.20500E+05        -0.49986E+08         0.00000E+00
    0.00000E+00         0.00000E+00        -0.50000E+08
 
   -0.49998E+08         0.20550E+05         0.00000E+00
    0.20550E+05        -0.49986E+08         0.00000E+00
    0.00000E+00         0.00000E+00        -0.50000E+08
 
   -0.49999E+08         0.20579E+05         0.00000E+00
    0.20579E+05        -0.49985E+08         0.00000E+00
    0.00000E+00         0.00000E+00        -0.50000E+08
 
   -0.49971E+08         0.33510E+03         0.00000E+00
    0.33510E+03        -0.50000E+08         0.00000E+00
    0.00000E+00         0.00000E+00        -0.50000E+08
 
   -0.49971E+08         0.10134E+04         0.00000E+00
    0.10134E+04        -0.50000E+08         0.00000E+00
    0.00000E+00         0.00000E+00        -0.50000E+08
 
   -0.49971E+08         0.16937E+04         0.00000E+00
    0.16937E+04        -0.50000E+08         0.00000E+00
    0.00000E+00         0.00000E+00        -0.50000E+08
 
   -0.49971E+08         0.23751E+04         0.00000E+00
    0.23751E+04        -0.50000E+08         0.00000E+00
    0.00000E+00         0.00000E+00        -0.50000E+08
 
   -0.49971E+08         0.30571E+04         0.00000E+00
    0.30571E+04        -0.50000E+08         0.00000E+00
    0.00000E+00         0.00000E+00        -0.50000E+08
 
   -0.49971E+08         0.37387E+04         0.00000E+00
    0.37387E+04        -0.50000E+08         0.00000E+00
    0.00000E+00         0.00000E+00        -0.50000E+08
 
   -0.49971E+08         0.44194E+04         0.00000E+00
    0.44194E+04        -0.50000E+08         0.00000E+00
    0.00000E+00         0.00000E+00        -0.50000E+08
 
   -0.49971E+08         0.50982E+04         0.00000E+00
    0.50982E+04        -0.50000E+08         0.00000E+00
    0.00000E+00         0.00000E+00        -0.50000E+08
 
   -0.49971E+08         0.57746E+04         0.00000E+00
    0.57746E+04        -0.49999E+08         0.00000E+00
    0.00000E+00         0.00000E+00        -0.50000E+08
 
   -0.49972E+08         0.64477E+04         0.00000E+00
    0.64477E+04        -0.49999E+08         0.00000E+00
    0.00000E+00         0.00000E+00        -0.50000E+08
 
   -0.49972E+08         0.71168E+04         0.00000E+00
    0.71168E+04        -0.49999E+08         0.00000E+00
    0.00000E+00         0.00000E+00        -0.50000E+08
 
   -0.49972E+08         0.77812E+04         0.00000E+00
    0.77812E+04        -0.49999E+08         0.00000E+00
    0.00000E+00         0.00000E+00        -0.50000E+08
 
   -0.49972E+08         0.84402E+04         0.00000E+00
    0.84402E+04        -0.49999E+08         0.00000E+00
    0.00000E+00         0.00000E+00        -0.50000E+08
 
   -0.49972E+08         0.90930E+04         0.00000E+00
    0.90930E+04        -0.49999E+08         0.00000E+00
    0.00000E+00         0.00000E+00        -0.50000E+08
 
   -0.49973E+08         0.97389E+04         0.00000E+00
    0.97389E+04        -0.49998E+08         0.00000E+00
    0.00000E+00         0.00000E+00        -0.50000E+08
 
   -0.49973E+08         0.10377E+05         0.00000E+00
    0.10377E+05        -0.49998E+08         0.00000E+00
    0.00000E+00         0.00000E+00        -0.50000E+08
 
   -0.49973E+08         0.11007E+05         0.00000E+00
    0.11007E+05        -0.49998E+08         0.00000E+00
    0.00000E+00         0.00000E+00        -0.50000E+08
 
   -0.49974E+08         0.11628E+05         0.00000E+00
    0.11628E+05        -0.49998E+08         0.00000E+00
    0.00000E+00         0.00000E+00        -0.50000E+08
 
   -0.49974E+08         0.12240E+05         0.00000E+00
    0.12240E+05        -0.49997E+08         0.00000E+00
    0.00000E+00         0.00000E+00        -0.50000E+08
 
   -0.49975E+08         0.12841E+05         0.00000E+00
    0.12841E+05        -0.49997E+08         0.00000E+00
    0.00000E+00         0.00000E+00        -0.50000E+08
 
   -0.49975E+08         0.13431E+05         0.00000E+00
    0.13431E+05        -0.49997E+08         0.00000E+00
    0.00000E+00         0.00000E+00        -0.50000E+08
 
   -0.49976E+08         0.14009E+05         0.00000E+00
    0.14009E+05        -0.49996E+08         0.00000E+00
    0.00000E+00         0.00000E+00        -0.50000E+08
 
   -0.49976E+08         0.14575E+05         0.00000E+00
    0.14575E+05        -0.49996E+08         0.00000E+00
    0.00000E+00         0.00000E+00        -0.50000E+08
 
   -0.49977E+08         0.15128E+05         0.00000E+00
    0.15128E+05        -0.49996E+08         0.00000E+00
    0.00000E+00         0.00000E+00        -0.50000E+08
 
   -0.49977E+08         0.15668E+05         0.00000E+00
    0.15668E+05        -0.49995E+08         0.00000E+00
    0.00000E+00         0.00000E+00        -0.50000E+08
 
   -0.49978E+08         0.16193E+05         0.00000E+00
    0.16193E+05        -0.49995E+08         0.00000E+00
    0.00000E+00         0.00000E+00        -0.50000E+08
 
   -0.49979E+08         0.16704E+05         0.00000E+00
    0.16704E+05        -0.49995E+08         0.00000E+00
    0.00000E+00         0.00000E+00        -0.50000E+08
 
   -0.49979E+08         0.17198E+05         0.00000E+00
    0.17198E+05        -0.49994E+08         0.00000E+00
    0.00000E+00         0.00000E+00        -0.50000E+08
 
   -0.49980E+08         0.17677E+05         0.00000E+00
    0.17677E+05        -0.49994E+08         0.00000E+00
    0.00000E+00         0.00000E+00        -0.50000E+08
 
   -0.49981E+08         0.18140E+05         0.00000E+00
    0.18140E+05        -0.49993E+08         0.00000E+00
    0.00000E+00         0.00000E+00        -0.50000E+08
 
   -0.49981E+08         0.18585E+05         0.00000E+00
    0.18585E+05        -0.49993E+08         0.00000E+00
    0.00000E+00         0.00000E+00        -0.50000E+08
 
   -0.49982E+08         0.19012E+05         0.00000E+00
    0.19012E+05        -0.49992E+08         0.00000E+00
    0.00000E+00         0.00000E+00        -0.50000E+08
 
   -0.49983E+08         0.19422E+05         0.00000E+00
    0.19422E+05        -0.49992E+08         0.00000E+00
    0.00000E+00         0.00000E+00        -0.50000E+08
 
   -0.49984E+08         0.19812E+05         0.00000E+00
    0.19812E+05        -0.49992E+08         0.00000E+00
    0.00000E+00         0.00000E+00        -0.50000E+08
 
   -0.49985E+08         0.20184E+05         0.00000E+00
    0.20184E+05        -0.49991E+08         0.00000E+00
    0.00000E+00         0.00000E+00        -0.50000E+08
 
   -0.49985E+08         0.20535E+05         0.00000E+00
    0.20535E+05        -0.49991E+08         0.00000E+00
    0.00000E+00         0.00000E+00        -0.50000E+08
 
   -0.49986E+08         0.20866E+05         0.00000E+00
    0.20866E+05        -0.49990E+08         0.00000E+00
    0.00000E+00         0.00000E+00        -0.50000E+08
 
   -0.49987E+08         0.21177E+05         0.00000E+00
    0.21177E+05        -0.49990E+08         0.00000E+00
    0.00000E+00         0.00000E+00        -0.50000E+08
 
   -0.49988E+08         0.21466E+05         0.00000E+00
    0.21466E+05        -0.49989E+08         0.00000E+00
    0.00000E+00         0.00000E+00        -0.50000E+08
 
   -0.49989E+08         0.21734E+05         0.00000E+00
    0.21734E+05        -0.49989E+08         0.00000E+00
    0.00000E+00         0.00000E+00        -0.50000E+08
 
   -0.49990E+08         0.21980E+05         0.00000E+00
    0.21980E+05        -0.49988E+08         0.00000E+00
    0.00000E+00         0.00000E+00        -0.50000E+08
 
   -0.49991E+08         0.22204E+05         0.00000E+00
    0.22204E+05        -0.49988E+08         0.00000E+00
    0.00000E+00         0.00000E+00        -0.50000E+08
 
   -0.49992E+08         0.22405E+05         0.00000E+00
    0.22405E+05        -0.49987E+08         0.00000E+00
    0.00000E+00         0.00000E+00        -0.50000E+08
 
   -0.49993E+08         0.22583E+05         0.00000E+00
    0.22583E+05        -0.49987E+08         0.00000E+00
    0.00000E+00         0.00000E+00        -0.50000E+08
 
   -0.49994E+08         0.22737E+05         0.00000E+00
    0.22737E+05        -0.49986E+08         0.00000E+00
    0.00000E+00         0.00000E+00        -0.50000E+08
 
   -0.49995E+08         0.22868E+05         0.00000E+00
    0.22868E+05        -0.49985E+08         0.00000E+00
    0.00000E+00         0.00000E+00        -0.50000E+08
 
   -0.49996E+08         0.22975E+05         0.00000E+00
    0.22975E+05        -0.49985E+08         0.00000E+00
    0.00000E+00         0.00000E+00        -0.50000E+08
 
   -0.49997E+08         0.23057E+05         0.00000E+00
    0.23057E+05        -0.49984E+08         0.00000E+00
    0.00000E+00         0.00000E+00        -0.50000E+08
 
   -0.49998E+08         0.23114E+05         0.00000E+00
    0.23114E+05        -0.49984E+08         0.00000E+00
    0.00000E+00         0.00000E+00        -0.50000E+08
 
   -0.49999E+08         0.23147E+05         0.00000E+00
    0.23147E+05        -0.49983E+08         0.00000E+00
    0.00000E+00         0.00000E+00        -0.50000E+08
 
   -0.49968E+08         0.37746E+03         0.00000E+00
    0.37746E+03        -0.50000E+08         0.00000E+00
    0.00000E+00         0.00000E+00        -0.50000E+08
 
   -0.49968E+08         0.11412E+04         0.00000E+00
    0.11412E+04        -0.50000E+08         0.00000E+00
    0.00000E+00         0.00000E+00        -0.50000E+08
 
   -0.49968E+08         0.19071E+04         0.00000E+00
    0.19071E+04        -0.50000E+08         0.00000E+00
    0.00000E+00         0.00000E+00        -0.50000E+08
 
   -0.49968E+08         0.26743E+04         0.00000E+00
    0.26743E+04        -0.50000E+08         0.00000E+00
    0.00000E+00         0.00000E+00        -0.50000E+08
 
   -0.49968E+08         0.34419E+04         0.00000E+00
    0.34419E+04        -0.50000E+08         0.00000E+00
    0.00000E+00         0.00000E+00        -0.50000E+08
 
   -0.49968E+08         0.42090E+04         0.00000E+00
    0.42090E+04        -0.50000E+08         0.00000E+00
    0.00000E+00         0.00000E+00        -0.50000E+08
 
   -0.49968E+08         0.49750E+04         0.00000E+00
    0.49750E+04        -0.50000E+08         0.00000E+00
    0.00000E+00         0.00000E+00        -0.50000E+08
 
   -0.49968E+08         0.57388E+04         0.00000E+00
    0.57388E+04        -0.49999E+08         0.00000E+00
    0.00000E+00         0.00000E+00        -0.50000E+08
 
   -0.49968E+08         0.64998E+04         0.00000E+00
    0.64998E+04        -0.49999E+08         0.00000E+00
    0.00000E+00         0.00000E+00        -0.50000E+08
 
   -0.49968E+08         0.72570E+04         0.00000E+00
    0.72570E+04        -0.49999E+08         0.00000E+00
    0.00000E+00         0.00000E+00        -0.50000E+08
 
   -0.49968E+08         0.80097E+04         0.00000E+00
    0.80097E+04        -0.49999E+08         0.00000E+00
    0.00000E+00         0.00000E+00        -0.50000E+08
 
   -0.49968E+08         0.87570E+04         0.00000E+00
    0.87570E+04        -0.49999E+08         0.00000E+00
    0.00000E+00         0.00000E+00        -0.50000E+08
 
   -0.49969E+08         0.94981E+04         0.00000E+00
    0.94981E+04        -0.49999E+08         0.00000E+00
    0.00000E+00         0.00000E+00        -0.50000E+08
 
   -0.49969E+08         0.10232E+05         0.00000E+00
    0.10232E+05        -0.49998E+08         0.00000E+00
    0.00000E+00         0.00000E+00        -0.50000E+08
 
   -0.49969E+08         0.10959E+05         0.00000E+00
    0.10959E+05        -0.49998E+08         0.00000E+00
    0.00000E+00         0.00000E+00        -0.50000E+08
 
   -0.49970E+08         0.11676E+05         0.00000E+00
    0.11676E+05        -0.49998E+08         0.00000E+00
    0.00000E+00         0.00000E+00        -0.50000E+08
 
   -0.49970E+08         0.12385E+05         0.00000E+00
    0.12385E+05        -0.49998E+08         0.00000E+00
    0.00000E+00         0.00000E+00        -0.50000E+08
 
   -0.49971E+08         0.13083E+05         0.00000E+00
    0.13083E+05        -0.49997E+08         0.00000E+00
    0.00000E+00         0.00000E+00        -0.50000E+08
 
   -0.49971E+08         0.13770E+05         0.00000E+00
    0.13770E+05        -0.49997E+08         0.00000E+00
    0.00000E+00         0.00000E+00        -0.50000E+08
 
   -0.49971E+08         0.14446E+05         0.00000E+00
    0.14446E+05        -0.49997E+08         0.00000E+00
    0.00000E+00         0.00000E+00        -0.50000E+08
 
   -0.49972E+08         0.15109E+05         0.00000E+00
    0.15109E+05        -0.49996E+08         0.00000E+00
    0.00000E+00         0.00000E+00        -0.50000E+08
 
   -0.49973E+08         0.15759E+05         0.00000E+00
    0.15759E+05        -0.49996E+08         0.00000E+00
    0.00000E+00         0.00000E+00        -0.50000E+08
 
   -0.49973E+08         0.16395E+05         0.00000E+00
    0.16395E+05        -0.49996E+08         0.00000E+00
    0.00000E+00         0.00000E+00        -0.50000E+08
 
   -0.49974E+08         0.17017E+05         0.00000E+00
    0.17017E+05        -0.49995E+08         0.00000E+00
    0.00000E+00         0.00000E+00        -0.50000E+08
 
   -0.49974E+08         0.17623E+05         0.00000E+00
    0.17623E+05        -0.49995E+08         0.00000E+00
    0.00000E+00         0.00000E+00        -0.50000E+08
 
   -0.49975E+08         0.18213E+05         0.00000E+00
    0.18213E+05        -0.49994E+08         0.00000E+00
    0.00000E+00         0.00000E+00        -0.50000E+08
 
   -0.49976E+08         0.18787E+05         0.00000E+00
    0.18787E+05        -0.49994E+08         0.00000E+00
    0.00000E+00         0.00000E+00        -0.50000E+08
 
   -0.49977E+08         0.19343E+05         0.00000E+00
    0.19343E+05        -0.49993E+08         0.00000E+00
    0.00000E+00         0.00000E+00        -0.50000E+08
 
   -0.49977E+08         0.19881E+05         0.00000E+00
    0.19881E+05        -0.49993E+08         0.00000E+00
    0.00000E+00         0.00000E+00        -0.50000E+08
 
   -0.49978E+08         0.20400E+05         0.00000E+00
    0.20400E+05        -0.49992E+08         0.00000E+00
    0.00000E+00         0.00000E+00        -0.50000E+08
 
   -0.49979E+08         0.20901E+05         0.00000E+00
    0.20901E+05        -0.49992E+08         0.00000E+00
    0.00000E+00         0.00000E+00        -0.50000E+08
 
   -0.49980E+08         0.21381E+05         0.00000E+00
    0.21381E+05        -0.49991E+08         0.00000E+00
    0.00000E+00         0.00000E+00        -0.50000E+08
 
   -0.49981E+08         0.21841E+05         0.00000E+00
    0.21841E+05        -0.49991E+08         0.00000E+00
    0.00000E+00         0.00000E+00        -0.50000E+08
 
   -0.49982E+08         0.22280E+05         0.00000E+00
    0.22280E+05        -0.49990E+08         0.00000E+00
    0.00000E+00         0.00000E+00        -0.50000E+08
 
   -0.49983E+08         0.22697E+05         0.00000E+00
    0.22697E+05        -0.49990E+08         0.00000E+00
    0.00000E+00         0.00000E+00        -0.50000E+08
 
   -0.49984E+08         0.23092E+05         0.00000E+00
    0.23092E+05        -0.49989E+08         0.00000E+00
    0.00000E+00         0.00000E+00        -0.50000E+08
 
   -0.49985E+08         0.23464E+05         0.00000E+00
    0.23464E+05        -0.49989E+08         0.00000E+00
    0.00000E+00         0.00000E+00        -0.50000E+08
 
   -0.49986E+08         0.23813E+05         0.00000E+00
    0.23813E+05        -0.49988E+08         0.00000E+00
    0.00000E+00         0.00000E+00        -0.50000E+08
 
   -0.49987E+08         0.24138E+05         0.00000E+00
    0.24138E+05        -0.49988E+08         0.00000E+00
    0.00000E+00         0.00000E+00        -0.50000E+08
 
   -0.49988E+08         0.24440E+05         0.00000E+00
    0.24440E+05        -0.49987E+08         0.00000E+00
    0.00000E+00         0.00000E+00        -0.50000E+08
 
   -0.49989E+08         0.24716E+05         0.00000E+00
    0.24716E+05        -0.49987E+08         0.00000E+00
    0.00000E+00         0.00000E+00        -0.50000E+08
 
   -0.49990E+08         0.24968E+05         0.00000E+00
    0.24968E+05        -0.49986E+08         0.00000E+00
    0.00000E+00         0.00000E+00        -0.50000E+08
 
   -0.49991E+08         0.25194E+05         0.00000E+00
    0.25194E+05        -0.49985E+08         0.00000E+00
    0.00000E+00         0.00000E+00        -0.50000E+08
 
   -0.49992E+08         0.25394E+05         0.00000E+00
    0.25394E+05        -0.49985E+08         0.00000E+00
    0.00000E+00         0.00000E+00        -0.50000E+08
 
   -0.49993E+08         0.25568E+05         0.00000E+00
    0.25568E+05        -0.49984E+08         0.00000E+00
    0.00000E+00         0.00000E+00        -0.50000E+08
 
   -0.49994E+08         0.25715E+05         0.00000E+00
    0.25715E+05        -0.49984E+08         0.00000E+00
    0.00000E+00         0.00000E+00        -0.50000E+08
 
   -0.49996E+08         0.25835E+05         0.00000E+00
    0.25835E+05        -0.49983E+08         0.00000E+00
    0.00000E+00         0.00000E+00        -0.50000E+08
 
   -0.49997E+08         0.25928E+05         0.00000E+00
    0.25928E+05        -0.49982E+08         0.00000E+00
    0.00000E+00         0.00000E+00        -0.50000E+08
 
   -0.49998E+08         0.25994E+05         0.00000E+00
    0.25994E+05        -0.49982E+08         0.00000E+00
    0.00000E+00         0.00000E+00        -0.50000E+08
 
   -0.49999E+08         0.26031E+05         0.00000E+00
    0.26031E+05        -0.49981E+08         0.00000E+00
    0.00000E+00         0.00000E+00        -0.50000E+08
 
   -0.49964E+08         0.42515E+03         0.00000E+00
    0.42515E+03        -0.50000E+08         0.00000E+00
    0.00000E+00         0.00000E+00        -0.50000E+08
 
   -0.49964E+08         0.12851E+04         0.00000E+00
    0.12851E+04        -0.50000E+08         0.00000E+00
    0.00000E+00         0.00000E+00        -0.50000E+08
 
   -0.49964E+08         0.21473E+04         0.00000E+00
    0.21473E+04        -0.50000E+08         0.00000E+00
    0.00000E+00         0.00000E+00        -0.50000E+08
 
   -0.49964E+08         0.30108E+04         0.00000E+00
    0.30108E+04        -0.50000E+08         0.00000E+00
    0.00000E+00         0.00000E+00        -0.50000E+08
 
   -0.49963E+08         0.38747E+04         0.00000E+00
    0.38747E+04        -0.50000E+08         0.00000E+00
    0.00000E+00         0.00000E+00        -0.50000E+08
 
   -0.49964E+08         0.47380E+04         0.00000E+00
    0.47380E+04        -0.50000E+08         0.00000E+00
    0.00000E+00         0.00000E+00        -0.50000E+08
 
   -0.49964E+08         0.55998E+04         0.00000E+00
    0.55998E+04        -0.50000E+08         0.00000E+00
    0.00000E+00         0.00000E+00        -0.50000E+08
 
   -0.49964E+08         0.64592E+04         0.00000E+00
    0.64592E+04        -0.49999E+08         0.00000E+00
    0.00000E+00         0.00000E+00        -0.50000E+08
 
   -0.49964E+08         0.73152E+04         0.00000E+00
    0.73152E+04        -0.49999E+08         0.00000E+00
    0.00000E+00         0.00000E+00        -0.50000E+08
 
   -0.49964E+08         0.81669E+04         0.00000E+00
    0.81669E+04        -0.49999E+08         0.00000E+00
    0.00000E+00         0.00000E+00        -0.50000E+08
 
   -0.49964E+08         0.90135E+04         0.00000E+00
    0.90135E+04        -0.49999E+08         0.00000E+00
    0.00000E+00         0.00000E+00        -0.50000E+08
 
   -0.49964E+08         0.98538E+04         0.00000E+00
    0.98538E+04        -0.49999E+08         0.00000E+00
    0.00000E+00         0.00000E+00        -0.50000E+08
 
   -0.49965E+08         0.10687E+05         0.00000E+00
    0.10687E+05        -0.49998E+08         0.00000E+00
    0.00000E+00         0.00000E+00        -0.50000E+08
 
   -0.49965E+08         0.11513E+05         0.00000E+00
    0.11513E+05        -0.49998E+08         0.00000E+00
    0.00000E+00         0.00000E+00        -0.50000E+08
 
   -0.49965E+08         0.12329E+05         0.00000E+00
    0.12329E+05        -0.49998E+08         0.00000E+00
    0.00000E+00         0.00000E+00        -0.50000E+08
 
   -0.49966E+08         0.13136E+05         0.00000E+00
    0.13136E+05        -0.49998E+08         0.00000E+00
    0.00000E+00         0.00000E+00        -0.50000E+08
 
   -0.49966E+08         0.13932E+05         0.00000E+00
    0.13932E+05        -0.49997E+08         0.00000E+00
    0.00000E+00         0.00000E+00        -0.50000E+08
 
   -0.49967E+08         0.14717E+05         0.00000E+00
    0.14717E+05        -0.49997E+08         0.00000E+00
    0.00000E+00         0.00000E+00        -0.50000E+08
 
   -0.49967E+08         0.15489E+05         0.00000E+00
    0.15489E+05        -0.49997E+08         0.00000E+00
    0.00000E+00         0.00000E+00        -0.50000E+08
 
   -0.49968E+08         0.16249E+05         0.00000E+00
    0.16249E+05        -0.49996E+08         0.00000E+00
    0.00000E+00         0.00000E+00        -0.50000E+08
 
   -0.49969E+08         0.16994E+05         0.00000E+00
    0.16994E+05        -0.49996E+08         0.00000E+00
    0.00000E+00         0.00000E+00        -0.50000E+08
 
   -0.49969E+08         0.17724E+05         0.00000E+00
    0.17724E+05        -0.49995E+08         0.00000E+00
    0.00000E+00         0.00000E+00        -0.50000E+08
 
   -0.49970E+08         0.18439E+05         0.00000E+00
    0.18439E+05        -0.49995E+08         0.00000E+00
    0.00000E+00         0.00000E+00        -0.50000E+08
 
   -0.49971E+08         0.19137E+05         0.00000E+00
    0.19137E+05        -0.49995E+08         0.00000E+00
    0.00000E+00         0.00000E+00        -0.50000E+08
 
   -0.49971E+08         0.19818E+05         0.00000E+00
    0.19818E+05        -0.49994E+08         0.00000E+00
    0.00000E+00         0.00000E+00        -0.50000E+08
 
   -0.49972E+08         0.20481E+05         0.00000E+00
    0.20481E+05        -0.49994E+08         0.00000E+00
    0.00000E+00         0.00000E+00        -0.50000E+08
 
   -0.49973E+08         0.21126E+05         0.00000E+00
    0.21126E+05        -0.49993E+08         0.00000E+00
    0.00000E+00         0.00000E+00        -0.50000E+08
 
   -0.49974E+08         0.21750E+05         0.00000E+00
    0.21750E+05        -0.49993E+08         0.00000E+00
    0.00000E+00         0.00000E+00        -0.50000E+08
 
   -0.49975E+08         0.22355E+05         0.00000E+00
    0.22355E+05        -0.49992E+08         0.00000E+00
    0.00000E+00         0.00000E+00        -0.50000E+08
 
   -0.49976E+08         0.22938E+05         0.00000E+00
    0.22938E+05        -0.49992E+08         0.00000E+00
    0.00000E+00         0.00000E+00        -0.50000E+08
 
   -0.49976E+08         0.23500E+05         0.00000E+00
    0.23500E+05        -0.49991E+08         0.00000E+00
    0.00000E+00         0.00000E+00        -0.50000E+08
 
   -0.49977E+08         0.24040E+05         0.00000E+00
    0.24040E+05        -0.49990E+08         0.00000E+00
    0.00000E+00         0.00000E+00        -0.50000E+08
 
   -0.49978E+08         0.24556E+05         0.00000E+00
    0.24556E+05        -0.49990E+08         0.00000E+00
    0.00000E+00         0.00000E+00        -0.50000E+08
 
   -0.49979E+08         0.25049E+05         0.00000E+00
    0.25049E+05        -0.49989E+08         0.00000E+00
    0.00000E+00         0.00000E+00        -0.50000E+08
 
   -0.49981E+08         0.25518E+05         0.00000E+00
    0.25518E+05        -0.49989E+08         0.00000E+00
    0.00000E+00         0.00000E+00        -0.50000E+08
 
   -0.49982E+08         0.25962E+05         0.00000E+00
    0.25962E+05        -0.49988E+08         0.00000E+00
    0.00000E+00         0.00000E+00        -0.50000E+08
 
   -0.49983E+08         0.26380E+05         0.00000E+00
    0.26380E+05        -0.49987E+08         0.00000E+00
    0.00000E+00         0.00000E+00        -0.50000E+08
 
   -0.49984E+08         0.26772E+05         0.00000E+00
    0.26772E+05        -0.49987E+08         0.00000E+00
    0.00000E+00         0.00000E+00        -0.50000E+08
 
   -0.49985E+08         0.27138E+05         0.00000E+00
    0.27138E+05        -0.49986E+08         0.00000E+00
    0.00000E+00         0.00000E+00        -0.50000E+08
 
   -0.49986E+08         0.27476E+05         0.00000E+00
    0.27476E+05        -0.49986E+08         0.00000E+00
    0.00000E+00         0.00000E+00        -0.50000E+08
 
   -0.49987E+08         0.27787E+05         0.00000E+00
    0.27787E+05        -0.49985E+08         0.00000E+00
    0.00000E+00         0.00000E+00        -0.50000E+08
 
   -0.49989E+08         0.28070E+05         0.00000E+00
    0.28070E+05        -0.49984E+08         0.00000E+00
    0.00000E+00         0.00000E+00        -0.50000E+08
 
   -0.49990E+08         0.28324E+05         0.00000E+00
    0.28324E+05        -0.49984E+08         0.00000E+00
    0.00000E+00         0.00000E+00        -0.50000E+08
 
   -0.49991E+08         0.28549E+05         0.00000E+00
    0.28549E+05        -0.49983E+08         0.00000E+00
    0.00000E+00         0.00000E+00        -0.50000E+08
 
   -0.49992E+08         0.28745E+05         0.00000E+00
    0.28745E+05        -0.49982E+08         0.00000E+00
    0.00000E+00         0.00000E+00        -0.50000E+08
 
   -0.49994E+08         0.28911E+05         0.00000E+00
    0.28911E+05        -0.49982E+08         0.00000E+00
    0.00000E+00         0.00000E+00        -0.50000E+08
 
   -0.49995E+08         0.29047E+05         0.00000E+00
    0.29047E+05        -0.49981E+08         0.00000E+00
    0.00000E+00         0.00000E+00        -0.50000E+08
 
   -0.49996E+08         0.29152E+05         0.00000E+00
    0.29152E+05        -0.49980E+08         0.00000E+00
    0.00000E+00         0.00000E+00        -0.50000E+08
 
   -0.49998E+08         0.29226E+05         0.00000E+00
    0.29226E+05        -0.49980E+08         0.00000E+00
    0.00000E+00         0.00000E+00        -0.50000E+08
 
   -0.49999E+08         0.29269E+05         0.00000E+00
    0.29269E+05        -0.49979E+08         0.00000E+00
    0.00000E+00         0.00000E+00        -0.50000E+08
 
   -0.49959E+08         0.47883E+03         0.00000E+00
    0.47883E+03        -0.50000E+08         0.00000E+00
    0.00000E+00         0.00000E+00        -0.50000E+08
 
   -0.49959E+08         0.14469E+04         0.00000E+00
    0.14469E+04        -0.50000E+08         0.00000E+00
    0.00000E+00         0.00000E+00        -0.50000E+08
 
   -0.49959E+08         0.24174E+04         0.00000E+00
    0.24174E+04        -0.50000E+08         0.00000E+00
    0.00000E+00         0.00000E+00        -0.50000E+08
 
   -0.49959E+08         0.33893E+04         0.00000E+00
    0.33893E+04        -0.50000E+08         0.00000E+00
    0.00000E+00         0.00000E+00        -0.50000E+08
 
   -0.49959E+08         0.43614E+04         0.00000E+00
    0.43614E+04        -0.50000E+08         0.00000E+00
    0.00000E+00         0.00000E+00        -0.50000E+08
 
   -0.49959E+08         0.53328E+04         0.00000E+00
    0.53328E+04        -0.50000E+08         0.00000E+00
    0.00000E+00         0.00000E+00        -0.50000E+08
 
   -0.49959E+08         0.63024E+04         0.00000E+00
    0.63024E+04        -0.50000E+08         0.00000E+00
    0.00000E+00         0.00000E+00        -0.50000E+08
 
   -0.49959E+08         0.72691E+04         0.00000E+00
    0.72691E+04        -0.49999E+08         0.00000E+00
    0.00000E+00         0.00000E+00        -0.50000E+08
 
   -0.49959E+08         0.82319E+04         0.00000E+00
    0.82319E+04        -0.49999E+08         0.00000E+00
    0.00000E+00         0.00000E+00        -0.50000E+08
 
   -0.49959E+08         0.91897E+04         0.00000E+00
    0.91897E+04        -0.49999E+08         0.00000E+00
    0.00000E+00         0.00000E+00        -0.50000E+08
 
   -0.49960E+08         0.10142E+05         0.00000E+00
    0.10142E+05        -0.49999E+08         0.00000E+00
    0.00000E+00         0.00000E+00        -0.50000E+08
 
   -0.49960E+08         0.11086E+05         0.00000E+00
    0.11086E+05        -0.49998E+08         0.00000E+00
    0.00000E+00         0.00000E+00        -0.50000E+08
 
   -0.49960E+08         0.12023E+05         0.00000E+00
    0.12023E+05        -0.49998E+08         0.00000E+00
    0.00000E+00         0.00000E+00        -0.50000E+08
 
   -0.49961E+08         0.12951E+05         0.00000E+00
    0.12951E+05        -0.49998E+08         0.00000E+00
    0.00000E+00         0.00000E+00        -0.50000E+08
 
   -0.49961E+08         0.13869E+05         0.00000E+00
    0.13869E+05        -0.49998E+08         0.00000E+00
    0.00000E+00         0.00000E+00        -0.50000E+08
 
   -0.49962E+08         0.14776E+05         0.00000E+00
    0.14776E+05        -0.49997E+08         0.00000E+00
    0.00000E+00         0.00000E+00        -0.50000E+08
 
   -0.49962E+08         0.15671E+05         0.00000E+00
    0.15671E+05        -0.49997E+08         0.00000E+00
    0.00000E+00         0.00000E+00        -0.50000E+08
 
   -0.49963E+08         0.16553E+05         0.00000E+00
    0.16553E+05        -0.49997E+08         0.00000E+00
    0.00000E+00         0.00000E+00        -0.50000E+08
 
   -0.49963E+08         0.17420E+05         0.00000E+00
    0.17420E+05        -0.49996E+08         0.00000E+00
    0.00000E+00         0.00000E+00        -0.50000E+08
 
   -0.49964E+08         0.18274E+05         0.00000E+00
    0.18274E+05        -0.49996E+08         0.00000E+00
    0.00000E+00         0.00000E+00        -0.50000E+08
 
   -0.49965E+08         0.19111E+05         0.00000E+00
    0.19111E+05        -0.49995E+08         0.00000E+00
    0.00000E+00         0.00000E+00        -0.50000E+08
 
   -0.49965E+08         0.19931E+05         0.00000E+00
    0.19931E+05        -0.49995E+08         0.00000E+00
    0.00000E+00         0.00000E+00        -0.50000E+08
 
   -0.49966E+08         0.20734E+05         0.00000E+00
    0.20734E+05        -0.49994E+08         0.00000E+00
    0.00000E+00         0.00000E+00        -0.50000E+08
 
   -0.49967E+08         0.21518E+05         0.00000E+00
    0.21518E+05        -0.49994E+08         0.00000E+00
    0.00000E+00         0.00000E+00        -0.50000E+08
 
   -0.49968E+08         0.22283E+05         0.00000E+00
    0.22283E+05        -0.49993E+08         0.00000E+00
    0.00000E+00         0.00000E+00        -0.50000E+08
 
   -0.49969E+08         0.23028E+05         0.00000E+00
    0.23028E+05        -0.49993E+08         0.00000E+00
    0.00000E+00         0.00000E+00        -0.50000E+08
 
   -0.49970E+08         0.23752E+05         0.00000E+00
    0.23752E+05        -0.49992E+08         0.00000E+00
    0.00000E+00         0.00000E+00        -0.50000E+08
 
   -0.49970E+08         0.24453E+05         0.00000E+00
    0.24453E+05        -0.49992E+08         0.00000E+00
    0.00000E+00         0.00000E+00        -0.50000E+08
 
   -0.49971E+08         0.25132E+05         0.00000E+00
    0.25132E+05        -0.49991E+08         0.00000E+00
    0.00000E+00         0.00000E+00        -0.50000E+08
 
   -0.49972E+08         0.25787E+05         0.00000E+00
    0.25787E+05        -0.49991E+08         0.00000E+00
    0.00000E+00         0.00000E+00        -0.50000E+08
 
   -0.49974E+08         0.26418E+05         0.00000E+00
    0.26418E+05        -0.49990E+08         0.00000E+00
    0.00000E+00         0.00000E+00        -0.50000E+08
 
   -0.49975E+08         0.27024E+05         0.00000E+00
    0.27024E+05        -0.49989E+08         0.00000E+00
    0.00000E+00         0.00000E+00        -0.50000E+08
 
   -0.49976E+08         0.27604E+05         0.00000E+00
    0.27604E+05        -0.49989E+08         0.00000E+00
    0.00000E+00         0.00000E+00        -0.50000E+08
 
   -0.49977E+08         0.28158E+05         0.00000E+00
    0.28158E+05        -0.49988E+08         0.00000E+00
    0.00000E+00         0.00000E+00        -0.50000E+08
 
   -0.49978E+08         0.28684E+05         0.00000E+00
    0.28684E+05        -0.49987E+08         0.00000E+00
    0.00000E+00         0.00000E+00        -0.50000E+08
 
   -0.49979E+08         0.29182E+05         0.00000E+00
    0.29182E+05        -0.49987E+08         0.00000E+00
    0.00000E+00         0.00000E+00        -0.50000E+08
 
   -0.49981E+08         0.29652E+05         0.00000E+00
    0.29652E+05        -0.49986E+08         0.00000E+00
    0.00000E+00         0.00000E+00        -0.50000E+08
 
   -0.49982E+08         0.30093E+05         0.00000E+00
    0.30093E+05        -0.49985E+08         0.00000E+00
    0.00000E+00         0.00000E+00        -0.50000E+08
 
   -0.49983E+08         0.30504E+05         0.00000E+00
    0.30504E+05        -0.49985E+08         0.00000E+00
    0.00000E+00         0.00000E+00        -0.50000E+08
 
   -0.49984E+08         0.30884E+05         0.00000E+00
    0.30884E+05        -0.49984E+08         0.00000E+00
    0.00000E+00         0.00000E+00        -0.50000E+08
 
   -0.49986E+08         0.31234E+05         0.00000E+00
    0.31234E+05        -0.49983E+08         0.00000E+00
    0.00000E+00         0.00000E+00        -0.50000E+08
 
   -0.49987E+08         0.31551E+05         0.00000E+00
    0.31551E+05        -0.49982E+08         0.00000E+00
    0.00000E+00         0.00000E+00        -0.50000E+08
 
   -0.49989E+08         0.31837E+05         0.00000E+00
    0.31837E+05        -0.49982E+08         0.00000E+00
    0.00000E+00         0.00000E+00        -0.50000E+08
 
   -0.49990E+08         0.32091E+05         0.00000E+00
    0.32091E+05        -0.49981E+08         0.00000E+00
    0.00000E+00         0.00000E+00        -0.50000E+08
 
   -0.49991E+08         0.32311E+05         0.00000E+00
    0.32311E+05        -0.49980E+08         0.00000E+00
    0.00000E+00         0.00000E+00        -0.50000E+08
 
   -0.49993E+08         0.32498E+05         0.00000E+00
    0.32498E+05        -0.49979E+08         0.00000E+00
    0.00000E+00         0.00000E+00        -0.50000E+08
 
   -0.49994E+08         0.32651E+05         0.00000E+00
    0.32651E+05        -0.49979E+08         0.00000E+00
    0.00000E+00         0.00000E+00        -0.50000E+08
 
   -0.49996E+08         0.32770E+05         0.00000E+00
    0.32770E+05        -0.49978E+08         0.00000E+00
    0.00000E+00         0.00000E+00        -0.50000E+08
 
   -0.49997E+08         0.32854E+05         0.00000E+00
    0.32854E+05        -0.49977E+08         0.00000E+00
    0.00000E+00         0.00000E+00        -0.50000E+08
 
   -0.49999E+08         0.32903E+05         0.00000E+00
    0.32903E+05        -0.49976E+08         0.00000E+00
    0.00000E+00         0.00000E+00        -0.50000E+08
 
   -0.49954E+08         0.53926E+03         0.00000E+00
    0.53926E+03        -0.50000E+08         0.00000E+00
    0.00000E+00         0.00000E+00        -0.50000E+08
 
   -0.49954E+08         0.16290E+04         0.00000E+00
    0.16290E+04        -0.50000E+08         0.00000E+00
    0.00000E+00         0.00000E+00        -0.50000E+08
 
   -0.49954E+08         0.27213E+04         0.00000E+00
    0.27213E+04        -0.50000E+08         0.00000E+00
    0.00000E+00         0.00000E+00        -0.50000E+08
 
   -0.49954E+08         0.38150E+04         0.00000E+00
    0.38150E+04        -0.50000E+08         0.00000E+00
    0.00000E+00         0.00000E+00        -0.50000E+08
 
   -0.49954E+08         0.49088E+04         0.00000E+00
    0.49088E+04        -0.50000E+08         0.00000E+00
    0.00000E+00         0.00000E+00        -0.50000E+08
 
   -0.49954E+08         0.60016E+04         0.00000E+00
    0.60016E+04        -0.50000E+08         0.00000E+00
    0.00000E+00         0.00000E+00        -0.50000E+08
 
   -0.49954E+08         0.70922E+04         0.00000E+00
    0.70922E+04        -0.49999E+08         0.00000E+00
    0.00000E+00         0.00000E+00        -0.50000E+08
 
   -0.49954E+08         0.81795E+04         0.00000E+00
    0.81795E+04        -0.49999E+08         0.00000E+00
    0.00000E+00         0.00000E+00        -0.50000E+08
 
   -0.49954E+08         0.92622E+04         0.00000E+00
    0.92622E+04        -0.49999E+08         0.00000E+00
    0.00000E+00         0.00000E+00        -0.50000E+08
 
   -0.49954E+08         0.10339E+05         0.00000E+00
    0.10339E+05        -0.49999E+08         0.00000E+00
    0.00000E+00         0.00000E+00        -0.50000E+08
 
   -0.49955E+08         0.11409E+05         0.00000E+00
    0.11409E+05        -0.49999E+08         0.00000E+00
    0.00000E+00         0.00000E+00        -0.50000E+08
 
   -0.49955E+08         0.12472E+05         0.00000E+00
    0.12472E+05        -0.49998E+08         0.00000E+00
    0.00000E+00         0.00000E+00        -0.50000E+08
 
   -0.49955E+08         0.13525E+05         0.00000E+00
    0.13525E+05        -0.49998E+08         0.00000E+00
    0.00000E+00         0.00000E+00        -0.50000E+08
 
   -0.49956E+08         0.14567E+05         0.00000E+00
    0.14567E+05        -0.49998E+08         0.00000E+00
    0.00000E+00         0.00000E+00        -0.50000E+08
 
   -0.49956E+08         0.15599E+05         0.00000E+00
    0.15599E+05        -0.49997E+08         0.00000E+00
    0.00000E+00         0.00000E+00        -0.50000E+08
 
   -0.49957E+08         0.16618E+05         0.00000E+00
    0.16618E+05        -0.49997E+08         0.00000E+00
    0.00000E+00         0.00000E+00        -0.50000E+08
 
   -0.49957E+08         0.17623E+05         0.00000E+00
    0.17623E+05        -0.49997E+08         0.00000E+00
    0.00000E+00         0.00000E+00        -0.50000E+08
 
   -0.49958E+08         0.18614E+05         0.00000E+00
    0.18614E+05        -0.49996E+08         0.00000E+00
    0.00000E+00         0.00000E+00        -0.50000E+08
 
   -0.49959E+08         0.19589E+05         0.00000E+00
    0.19589E+05        -0.49996E+08         0.00000E+00
    0.00000E+00         0.00000E+00        -0.50000E+08
 
   -0.49959E+08         0.20547E+05         0.00000E+00
    0.20547E+05        -0.49995E+08         0.00000E+00
    0.00000E+00         0.00000E+00        -0.50000E+08
 
   -0.49960E+08         0.21487E+05         0.00000E+00
    0.21487E+05        -0.49995E+08         0.00000E+00
    0.00000E+00         0.00000E+00        -0.50000E+08
 
   -0.49961E+08         0.22409E+05         0.00000E+00
    0.22409E+05        -0.49994E+08         0.00000E+00
    0.00000E+00         0.00000E+00        -0.50000E+08
 
   -0.49962E+08         0.23311E+05         0.00000E+00
    0.23311E+05        -0.49994E+08         0.00000E+00
    0.00000E+00         0.00000E+00        -0.50000E+08
 
   -0.49963E+08         0.24191E+05         0.00000E+00
    0.24191E+05        -0.49993E+08         0.00000E+00
    0.00000E+00         0.00000E+00        -0.50000E+08
 
   -0.49964E+08         0.25050E+05         0.00000E+00
    0.25050E+05        -0.49993E+08         0.00000E+00
    0.00000E+00         0.00000E+00        -0.50000E+08
 
   -0.49965E+08         0.25886E+05         0.00000E+00
    0.25886E+05        -0.49992E+08         0.00000E+00
    0.00000E+00         0.00000E+00        -0.50000E+08
 
   -0.49966E+08         0.26699E+05         0.00000E+00
    0.26699E+05        -0.49991E+08         0.00000E+00
    0.00000E+00         0.00000E+00        -0.50000E+08
 
   -0.49967E+08         0.27487E+05         0.00000E+00
    0.27487E+05        -0.49991E+08         0.00000E+00
    0.00000E+00         0.00000E+00        -0.50000E+08
 
   -0.49968E+08         0.28249E+05         0.00000E+00
    0.28249E+05        -0.49990E+08         0.00000E+00
    0.00000E+00         0.00000E+00        -0.50000E+08
 
   -0.49969E+08         0.28984E+05         0.00000E+00
    0.28984E+05        -0.49989E+08         0.00000E+00
    0.00000E+00         0.00000E+00        -0.50000E+08
 
   -0.49970E+08         0.29693E+05         0.00000E+00
    0.29693E+05        -0.49989E+08         0.00000E+00
    0.00000E+00         0.00000E+00        -0.50000E+08
 
   -0.49972E+08         0.30373E+05         0.00000E+00
    0.30373E+05        -0.49988E+08         0.00000E+00
    0.00000E+00         0.00000E+00        -0.50000E+08
 
   -0.49973E+08         0.31024E+05         0.00000E+00
    0.31024E+05        -0.49987E+08         0.00000E+00
    0.00000E+00         0.00000E+00        -0.50000E+08
 
   -0.49974E+08         0.31646E+05         0.00000E+00
    0.31646E+05        -0.49987E+08         0.00000E+00
    0.00000E+00         0.00000E+00        -0.50000E+08
 
   -0.49975E+08         0.32237E+05         0.00000E+00
    0.32237E+05        -0.49986E+08         0.00000E+00
    0.00000E+00         0.00000E+00        -0.50000E+08
 
   -0.49977E+08         0.32796E+05         0.00000E+00
    0.32796E+05        -0.49985E+08         0.00000E+00
    0.00000E+00         0.00000E+00        -0.50000E+08
 
   -0.49978E+08         0.33324E+05         0.00000E+00
    0.33324E+05        -0.49984E+08         0.00000E+00
    0.00000E+00         0.00000E+00        -0.50000E+08
 
   -0.49980E+08         0.33819E+05         0.00000E+00
    0.33819E+05        -0.49983E+08         0.00000E+00
    0.00000E+00         0.00000E+00        -0.50000E+08
 
   -0.49981E+08         0.34280E+05         0.00000E+00
    0.34280E+05        -0.49983E+08         0.00000E+00
    0.00000E+00         0.00000E+00        -0.50000E+08
 
   -0.49983E+08         0.34707E+05         0.00000E+00
    0.34707E+05        -0.49982E+08         0.00000E+00
    0.00000E+00         0.00000E+00        -0.50000E+08
 
   -0.49984E+08         0.35100E+05         0.00000E+00
    0.35100E+05        -0.49981E+08         0.00000E+00
    0.00000E+00         0.00000E+00        -0.50000E+08
 
   -0.49986E+08         0.35457E+05         0.00000E+00
    0.35457E+05        -0.49980E+08         0.00000E+00
    0.00000E+00         0.00000E+00        -0.50000E+08
 
   -0.49987E+08         0.35779E+05         0.00000E+00
    0.35779E+05        -0.49979E+08         0.00000E+00
    0.00000E+00         0.00000E+00        -0.50000E+08
 
   -0.49989E+08         0.36064E+05         0.00000E+00
    0.36064E+05        -0.49979E+08         0.00000E+00
    0.00000E+00         0.00000E+00        -0.50000E+08
 
   -0.49990E+08         0.36312E+05         0.00000E+00
    0.36312E+05        -0.49978E+08         0.00000E+00
    0.00000E+00         0.00000E+00        -0.50000E+08
 
   -0.49992E+08         0.36522E+05         0.00000E+00
    0.36522E+05        -0.49977E+08         0.00000E+00
    0.00000E+00         0.00000E+00        -0.50000E+08
 
   -0.49994E+08         0.36695E+05         0.00000E+00
    0.36695E+05        -0.49976E+08         0.00000E+00
    0.00000E+00         0.00000E+00        -0.50000E+08
 
   -0.49995E+08         0.36829E+05         0.00000E+00
    0.36829E+05        -0.49975E+08         0.00000E+00
    0.00000E+00         0.00000E+00        -0.50000E+08
 
   -0.49997E+08         0.36925E+05         0.00000E+00
    0.36925E+05        -0.49974E+08         0.00000E+00
    0.00000E+00         0.00000E+00        -0.50000E+08
 
   -0.49999E+08         0.36981E+05         0.00000E+00
    0.36981E+05        -0.49973E+08         0.00000E+00
    0.00000E+00         0.00000E+00        -0.50000E+08
 
   -0.49948E+08         0.60726E+03         0.00000E+00
    0.60726E+03        -0.50000E+08         0.00000E+00
    0.00000E+00         0.00000E+00        -0.49999E+08
 
   -0.49948E+08         0.18339E+04         0.00000E+00
    0.18339E+04        -0.50000E+08         0.00000E+00
    0.00000E+00         0.00000E+00        -0.49999E+08
 
   -0.49948E+08         0.30631E+04         0.00000E+00
    0.30631E+04        -0.50000E+08         0.00000E+00
    0.00000E+00         0.00000E+00        -0.49999E+08
 
   -0.49948E+08         0.42937E+04         0.00000E+00
    0.42937E+04        -0.50000E+08         0.00000E+00
    0.00000E+00         0.00000E+00        -0.49999E+08
 
   -0.49948E+08         0.55243E+04         0.00000E+00
    0.55243E+04        -0.50000E+08         0.00000E+00
    0.00000E+00         0.00000E+00        -0.49999E+08
 
   -0.49948E+08         0.67535E+04         0.00000E+00
    0.67535E+04        -0.50000E+08         0.00000E+00
    0.00000E+00         0.00000E+00        -0.49999E+08
 
   -0.49948E+08         0.79801E+04         0.00000E+00
    0.79801E+04        -0.49999E+08         0.00000E+00
    0.00000E+00         0.00000E+00        -0.49999E+08
 
   -0.49948E+08         0.92028E+04         0.00000E+00
    0.92028E+04        -0.49999E+08         0.00000E+00
    0.00000E+00         0.00000E+00        -0.49999E+08
 
   -0.49948E+08         0.10420E+05         0.00000E+00
    0.10420E+05        -0.49999E+08         0.00000E+00
    0.00000E+00         0.00000E+00        -0.49999E+08
 
   -0.49949E+08         0.11631E+05         0.00000E+00
    0.11631E+05        -0.49999E+08         0.00000E+00
    0.00000E+00         0.00000E+00        -0.49999E+08
 
   -0.49949E+08         0.12834E+05         0.00000E+00
    0.12834E+05        -0.49998E+08         0.00000E+00
    0.00000E+00         0.00000E+00        -0.49999E+08
 
   -0.49949E+08         0.14028E+05         0.00000E+00
    0.14028E+05        -0.49998E+08         0.00000E+00
    0.00000E+00         0.00000E+00        -0.49999E+08
 
   -0.49950E+08         0.15211E+05         0.00000E+00
    0.15211E+05        -0.49998E+08         0.00000E+00
    0.00000E+00         0.00000E+00        -0.49999E+08
 
   -0.49950E+08         0.16383E+05         0.00000E+00
    0.16383E+05        -0.49997E+08         0.00000E+00
    0.00000E+00         0.00000E+00        -0.49999E+08
 
   -0.49951E+08         0.17542E+05         0.00000E+00
    0.17542E+05        -0.49997E+08         0.00000E+00
    0.00000E+00         0.00000E+00        -0.49999E+08
 
   -0.49951E+08         0.18686E+05         0.00000E+00
    0.18686E+05        -0.49997E+08         0.00000E+00
    0.00000E+00         0.00000E+00        -0.49999E+08
 
   -0.49952E+08         0.19816E+05         0.00000E+00
    0.19816E+05        -0.49996E+08         0.00000E+00
    0.00000E+00         0.00000E+00        -0.49999E+08
 
   -0.49953E+08         0.20928E+05         0.00000E+00
    0.20928E+05        -0.49996E+08         0.00000E+00
    0.00000E+00         0.00000E+00        -0.49999E+08
 
   -0.49954E+08         0.22023E+05         0.00000E+00
    0.22023E+05        -0.49995E+08         0.00000E+00
    0.00000E+00         0.00000E+00        -0.49999E+08
 
   -0.49954E+08         0.23099E+05         0.00000E+00
    0.23099E+05        -0.49995E+08         0.00000E+00
    0.00000E+00         0.00000E+00        -0.49999E+08
 
   -0.49955E+08         0.24155E+05         0.00000E+00
    0.24155E+05        -0.49994E+08         0.00000E+00
    0.00000E+00         0.00000E+00        -0.49999E+08
 
   -0.49956E+08         0.25190E+05         0.00000E+00
    0.25190E+05        -0.49993E+08         0.00000E+00
    0.00000E+00         0.00000E+00        -0.49999E+08
 
   -0.49957E+08         0.26202E+05         0.00000E+00
    0.26202E+05        -0.49993E+08         0.00000E+00
    0.00000E+00         0.00000E+00        -0.49999E+08
 
   -0.49958E+08         0.27191E+05         0.00000E+00
    0.27191E+05        -0.49992E+08         0.00000E+00
    0.00000E+00         0.00000E+00        -0.49999E+08
 
   -0.49959E+08         0.28155E+05         0.00000E+00
    0.28155E+05        -0.49992E+08         0.00000E+00
    0.00000E+00         0.00000E+00        -0.49999E+08
 
   -0.49960E+08         0.29094E+05         0.00000E+00
    0.29094E+05        -0.49991E+08         0.00000E+00
    0.00000E+00         0.00000E+00        -0.49999E+08
 
   -0.49962E+08         0.30006E+05         0.00000E+00
    0.30006E+05        -0.49990E+08         0.00000E+00
    0.00000E+00         0.00000E+00        -0.49999E+08
 
   -0.49963E+08         0.30890E+05         0.00000E+00
    0.30890E+05        -0.49990E+08         0.00000E+00
    0.00000E+00         0.00000E+00        -0.49999E+08
 
   -0.49964E+08         0.31745E+05         0.00000E+00
    0.31745E+05        -0.49989E+08         0.00000E+00
    0.00000E+00         0.00000E+00        -0.49999E+08
 
   -0.49965E+08         0.32571E+05         0.00000E+00
    0.32571E+05        -0.49988E+08         0.00000E+00
    0.00000E+00         0.00000E+00        -0.49999E+08
 
   -0.49967E+08         0.33366E+05         0.00000E+00
    0.33366E+05        -0.49987E+08         0.00000E+00
    0.00000E+00         0.00000E+00        -0.49999E+08
 
   -0.49968E+08         0.34130E+05         0.00000E+00
    0.34130E+05        -0.49986E+08         0.00000E+00
    0.00000E+00         0.00000E+00        -0.49999E+08
 
   -0.49969E+08         0.34861E+05         0.00000E+00
    0.34861E+05        -0.49986E+08         0.00000E+00
    0.00000E+00         0.00000E+00        -0.49999E+08
 
   -0.49971E+08         0.35558E+05         0.00000E+00
    0.35558E+05        -0.49985E+08         0.00000E+00
    0.00000E+00         0.00000E+00        -0.49999E+08
 
   -0.49972E+08         0.36221E+05         0.00000E+00
    0.36221E+05        -0.49984E+08         0.00000E+00
    0.00000E+00         0.00000E+00        -0.49999E+08
 
   -0.49974E+08         0.36850E+05         0.00000E+00
    0.36850E+05        -0.49983E+08         0.00000E+00
    0.00000E+00         0.00000E+00        -0.49999E+08
 
   -0.49975E+08         0.37442E+05         0.00000E+00
    0.37442E+05        -0.49982E+08         0.00000E+00
    0.00000E+00         0.00000E+00        -0.49999E+08
 
   -0.49977E+08         0.37998E+05         0.00000E+00
    0.37998E+05        -0.49981E+08         0.00000E+00
    0.00000E+00         0.00000E+00        -0.49999E+08
 
   -0.49979E+08         0.38516E+05         0.00000E+00
    0.38516E+05        -0.49981E+08         0.00000E+00
    0.00000E+00         0.00000E+00        -0.49999E+08
 
   -0.49980E+08         0.38996E+05         0.00000E+00
    0.38996E+05        -0.49980E+08         0.00000E+00
    0.00000E+00         0.00000E+00        -0.49999E+08
 
   -0.49982E+08         0.39437E+05         0.00000E+00
    0.39437E+05        -0.49979E+08         0.00000E+00
    0.00000E+00         0.00000E+00        -0.49999E+08
 
   -0.49984E+08         0.39838E+05         0.00000E+00
    0.39838E+05        -0.49978E+08         0.00000E+00
    0.00000E+00         0.00000E+00        -0.49999E+08
 
   -0.49986E+08         0.40200E+05         0.00000E+00
    0.40200E+05        -0.49977E+08         0.00000E+00
    0.00000E+00         0.00000E+00        -0.49999E+08
 
   -0.49987E+08         0.40520E+05         0.00000E+00
    0.40520E+05        -0.49976E+08         0.00000E+00
    0.00000E+00         0.00000E+00        -0.49999E+08
 
   -0.49989E+08         0.40799E+05         0.00000E+00
    0.40799E+05        -0.49975E+08         0.00000E+00
    0.00000E+00         0.00000E+00        -0.49999E+08
 
   -0.49991E+08         0.41037E+05         0.00000E+00
    0.41037E+05        -0.49974E+08         0.00000E+00
    0.00000E+00         0.00000E+00        -0.49999E+08
 
   -0.49993E+08         0.41231E+05         0.00000E+00
    0.41231E+05        -0.49973E+08         0.00000E+00
    0.00000E+00         0.00000E+00        -0.49999E+08
 
   -0.49995E+08         0.41383E+05         0.00000E+00
    0.41383E+05        -0.49972E+08         0.00000E+00
    0.00000E+00         0.00000E+00        -0.49999E+08
 
   -0.49997E+08         0.41492E+05         0.00000E+00
    0.41492E+05        -0.49971E+08         0.00000E+00
    0.00000E+00         0.00000E+00        -0.49999E+08
 
   -0.49999E+08         0.41556E+05         0.00000E+00
    0.41556E+05        -0.49970E+08         0.00000E+00
    0.00000E+00         0.00000E+00        -0.49999E+08
 
   -0.49942E+08         0.68379E+03         0.00000E+00
    0.68379E+03        -0.50000E+08         0.00000E+00
    0.00000E+00         0.00000E+00        -0.49999E+08
 
   -0.49942E+08         0.20643E+04         0.00000E+00
    0.20643E+04        -0.50000E+08         0.00000E+00
    0.00000E+00         0.00000E+00        -0.49999E+08
 
   -0.49942E+08         0.34475E+04         0.00000E+00
    0.34475E+04        -0.50000E+08         0.00000E+00
    0.00000E+00         0.00000E+00        -0.49999E+08
 
   -0.49941E+08         0.48320E+04         0.00000E+00
    0.48320E+04        -0.50000E+08         0.00000E+00
    0.00000E+00         0.00000E+00        -0.49999E+08
 
   -0.49941E+08         0.62162E+04         0.00000E+00
    0.62162E+04        -0.50000E+08         0.00000E+00
    0.00000E+00         0.00000E+00        -0.49999E+08
 
   -0.49941E+08         0.75987E+04         0.00000E+00
    0.75987E+04        -0.50000E+08         0.00000E+00
    0.00000E+00         0.00000E+00        -0.49999E+08
 
   -0.49942E+08         0.89780E+04         0.00000E+00
    0.89780E+04        -0.49999E+08         0.00000E+00
    0.00000E+00         0.00000E+00        -0.49999E+08
 
   -0.49942E+08         0.10353E+05         0.00000E+00
    0.10353E+05        -0.49999E+08         0.00000E+00
    0.00000E+00         0.00000E+00        -0.49999E+08
 
   -0.49942E+08         0.11721E+05         0.00000E+00
    0.11721E+05        -0.49999E+08         0.00000E+00
    0.00000E+00         0.00000E+00        -0.49999E+08
 
   -0.49942E+08         0.13082E+05         0.00000E+00
    0.13082E+05        -0.49999E+08         0.00000E+00
    0.00000E+00         0.00000E+00        -0.49999E+08
 
   -0.49943E+08         0.14434E+05         0.00000E+00
    0.14434E+05        -0.49998E+08         0.00000E+00
    0.00000E+00         0.00000E+00        -0.49999E+08
 
   -0.49943E+08         0.15776E+05         0.00000E+00
    0.15776E+05        -0.49998E+08         0.00000E+00
    0.00000E+00         0.00000E+00        -0.49999E+08
 
   -0.49944E+08         0.17105E+05         0.00000E+00
    0.17105E+05        -0.49997E+08         0.00000E+00
    0.00000E+00         0.00000E+00        -0.49999E+08
 
   -0.49944E+08         0.18421E+05         0.00000E+00
    0.18421E+05        -0.49997E+08         0.00000E+00
    0.00000E+00         0.00000E+00        -0.49999E+08
 
   -0.49945E+08         0.19723E+05         0.00000E+00
    0.19723E+05        -0.49997E+08         0.00000E+00
    0.00000E+00         0.00000E+00        -0.49999E+08
 
   -0.49945E+08         0.21009E+05         0.00000E+00
    0.21009E+05        -0.49996E+08         0.00000E+00
    0.00000E+00         0.00000E+00        -0.49999E+08
 
   -0.49946E+08         0.22277E+05         0.00000E+00
    0.22277E+05        -0.49996E+08         0.00000E+00
    0.00000E+00         0.00000E+00        -0.49999E+08
 
   -0.49947E+08         0.23527E+05         0.00000E+00
    0.23527E+05        -0.49995E+08         0.00000E+00
    0.00000E+00         0.00000E+00        -0.49999E+08
 
   -0.49948E+08         0.24756E+05         0.00000E+00
    0.24756E+05        -0.49995E+08         0.00000E+00
    0.00000E+00         0.00000E+00        -0.49999E+08
 
   -0.49949E+08         0.25964E+05         0.00000E+00
    0.25964E+05        -0.49994E+08         0.00000E+00
    0.00000E+00         0.00000E+00        -0.49999E+08
 
   -0.49950E+08         0.27149E+05         0.00000E+00
    0.27149E+05        -0.49993E+08         0.00000E+00
    0.00000E+00         0.00000E+00        -0.49999E+08
 
   -0.49951E+08         0.28311E+05         0.00000E+00
    0.28311E+05        -0.49993E+08         0.00000E+00
    0.00000E+00         0.00000E+00        -0.49999E+08
 
   -0.49952E+08         0.29447E+05         0.00000E+00
    0.29447E+05        -0.49992E+08         0.00000E+00
    0.00000E+00         0.00000E+00        -0.49999E+08
 
   -0.49953E+08         0.30557E+05         0.00000E+00
    0.30557E+05        -0.49991E+08         0.00000E+00
    0.00000E+00         0.00000E+00        -0.49999E+08
 
   -0.49954E+08         0.31639E+05         0.00000E+00
    0.31639E+05        -0.49991E+08         0.00000E+00
    0.00000E+00         0.00000E+00        -0.49999E+08
 
   -0.49955E+08         0.32692E+05         0.00000E+00
    0.32692E+05        -0.49990E+08         0.00000E+00
    0.00000E+00         0.00000E+00        -0.49999E+08
 
   -0.49957E+08         0.33715E+05         0.00000E+00
    0.33715E+05        -0.49989E+08         0.00000E+00
    0.00000E+00         0.00000E+00        -0.49999E+08
 
   -0.49958E+08         0.34707E+05         0.00000E+00
    0.34707E+05        -0.49988E+08         0.00000E+00
    0.00000E+00         0.00000E+00        -0.49999E+08
 
   -0.49960E+08         0.35667E+05         0.00000E+00
    0.35667E+05        -0.49987E+08         0.00000E+00
    0.00000E+00         0.00000E+00        -0.49999E+08
 
   -0.49961E+08         0.36594E+05         0.00000E+00
    0.36594E+05        -0.49987E+08         0.00000E+00
    0.00000E+00         0.00000E+00        -0.49999E+08
 
   -0.49962E+08         0.37486E+05         0.00000E+00
    0.37486E+05        -0.49986E+08         0.00000E+00
    0.00000E+00         0.00000E+00        -0.49999E+08
 
   -0.49964E+08         0.38343E+05         0.00000E+00
    0.38343E+05        -0.49985E+08         0.00000E+00
    0.00000E+00         0.00000E+00        -0.49999E+08
 
   -0.49966E+08         0.39163E+05         0.00000E+00
    0.39163E+05        -0.49984E+08         0.00000E+00
    0.00000E+00         0.00000E+00        -0.49999E+08
 
   -0.49967E+08         0.39945E+05         0.00000E+00
    0.39945E+05        -0.49983E+08         0.00000E+00
    0.00000E+00         0.00000E+00        -0.49999E+08
 
   -0.49969E+08         0.40690E+05         0.00000E+00
    0.40690E+05        -0.49982E+08         0.00000E+00
    0.00000E+00         0.00000E+00        -0.49999E+08
 
   -0.49971E+08         0.41395E+05         0.00000E+00
    0.41395E+05        -0.49981E+08         0.00000E+00
    0.00000E+00         0.00000E+00        -0.49999E+08
 
   -0.49972E+08         0.42060E+05         0.00000E+00
    0.42060E+05        -0.49980E+08         0.00000E+00
    0.00000E+00         0.00000E+00        -0.49999E+08
 
   -0.49974E+08         0.42683E+05         0.00000E+00
    0.42683E+05        -0.49979E+08         0.00000E+00
    0.00000E+00         0.00000E+00        -0.49999E+08
 
   -0.49976E+08         0.43265E+05         0.00000E+00
    0.43265E+05        -0.49978E+08         0.00000E+00
    0.00000E+00         0.00000E+00        -0.49999E+08
 
   -0.49978E+08         0.43804E+05         0.00000E+00
    0.43804E+05        -0.49977E+08         0.00000E+00
    0.00000E+00         0.00000E+00        -0.49999E+08
 
   -0.49980E+08         0.44299E+05         0.00000E+00
    0.44299E+05        -0.49976E+08         0.00000E+00
    0.00000E+00         0.00000E+00        -0.49999E+08
 
   -0.49982E+08         0.44751E+05         0.00000E+00
    0.44751E+05        -0.49975E+08         0.00000E+00
    0.00000E+00         0.00000E+00        -0.49999E+08
 
   -0.49984E+08         0.45157E+05         0.00000E+00
    0.45157E+05        -0.49974E+08         0.00000E+00
    0.00000E+00         0.00000E+00        -0.49999E+08
 
   -0.49986E+08         0.45517E+05         0.00000E+00
    0.45517E+05        -0.49973E+08         0.00000E+00
    0.00000E+00         0.00000E+00        -0.49999E+08
 
   -0.49988E+08         0.45832E+05         0.00000E+00
    0.45832E+05        -0.49972E+08         0.00000E+00
    0.00000E+00         0.00000E+00        -0.49999E+08
 
   -0.49990E+08         0.46099E+05         0.00000E+00
    0.46099E+05        -0.49971E+08         0.00000E+00
    0.00000E+00         0.00000E+00        -0.49999E+08
 
   -0.49992E+08         0.46319E+05         0.00000E+00
    0.46319E+05        -0.49970E+08         0.00000E+00
    0.00000E+00         0.00000E+00        -0.49999E+08
 
   -0.49994E+08         0.46490E+05         0.00000E+00
    0.46490E+05        -0.49969E+08         0.00000E+00
    0.00000E+00         0.00000E+00        -0.49999E+08
 
   -0.49996E+08         0.46614E+05         0.00000E+00
    0.46614E+05        -0.49968E+08         0.00000E+00
    0.00000E+00         0.00000E+00        -0.49999E+08
 
   -0.49998E+08         0.46688E+05         0.00000E+00
    0.46688E+05        -0.49967E+08         0.00000E+00
    0.00000E+00         0.00000E+00        -0.49999E+08
 
   -0.49935E+08         0.76992E+03         0.00000E+00
    0.76992E+03        -0.50000E+08         0.00000E+00
    0.00000E+00         0.00000E+00        -0.49999E+08
 
   -0.49934E+08         0.23234E+04         0.00000E+00
    0.23234E+04        -0.50000E+08         0.00000E+00
    0.00000E+00         0.00000E+00        -0.49999E+08
 
   -0.49934E+08         0.38797E+04         0.00000E+00
    0.38797E+04        -0.50000E+08         0.00000E+00
    0.00000E+00         0.00000E+00        -0.49999E+08
 
   -0.49934E+08         0.54371E+04         0.00000E+00
    0.54371E+04        -0.50000E+08         0.00000E+00
    0.00000E+00         0.00000E+00        -0.49999E+08
 
   -0.49934E+08         0.69939E+04         0.00000E+00
    0.69939E+04        -0.50000E+08         0.00000E+00
    0.00000E+00         0.00000E+00        -0.49999E+08
 
   -0.49934E+08         0.85486E+04         0.00000E+00
    0.85486E+04        -0.49999E+08         0.00000E+00
    0.00000E+00         0.00000E+00        -0.49999E+08
 
   -0.49934E+08         0.10099E+05         0.00000E+00
    0.10099E+05        -0.49999E+08         0.00000E+00
    0.00000E+00         0.00000E+00        -0.49999E+08
 
   -0.49934E+08         0.11645E+05         0.00000E+00
    0.11645E+05        -0.49999E+08         0.00000E+00
    0.00000E+00         0.00000E+00        -0.49999E+08
 
   -0.49935E+08         0.13183E+05         0.00000E+00
    0.13183E+05        -0.49999E+08         0.00000E+00
    0.00000E+00         0.00000E+00        -0.49999E+08
 
   -0.49935E+08         0.14712E+05         0.00000E+00
    0.14712E+05        -0.49998E+08         0.00000E+00
    0.00000E+00         0.00000E+00        -0.49999E+08
 
   -0.49936E+08         0.16231E+05         0.00000E+00
    0.16231E+05        -0.49998E+08         0.00000E+00
    0.00000E+00         0.00000E+00        -0.49999E+08
 
   -0.49936E+08         0.17738E+05         0.00000E+00
    0.17738E+05        -0.49998E+08         0.00000E+00
    0.00000E+00         0.00000E+00        -0.49999E+08
 
   -0.49937E+08         0.19232E+05         0.00000E+00
    0.19232E+05        -0.49997E+08         0.00000E+00
    0.00000E+00         0.00000E+00        -0.49999E+08
 
   -0.49937E+08         0.20710E+05         0.00000E+00
    0.20710E+05        -0.49997E+08         0.00000E+00
    0.00000E+00         0.00000E+00        -0.49999E+08
 
   -0.49938E+08         0.22172E+05         0.00000E+00
    0.22172E+05        -0.49996E+08         0.00000E+00
    0.00000E+00         0.00000E+00        -0.49999E+08
 
   -0.49939E+08         0.23616E+05         0.00000E+00
    0.23616E+05        -0.49996E+08         0.00000E+00
    0.00000E+00         0.00000E+00        -0.49999E+08
 
   -0.49940E+08         0.25040E+05         0.00000E+00
    0.25040E+05        -0.49995E+08         0.00000E+00
    0.00000E+00         0.00000E+00        -0.49999E+08
 
   -0.49940E+08         0.26442E+05         0.00000E+00
    0.26442E+05        -0.49994E+08         0.00000E+00
    0.00000E+00         0.00000E+00        -0.49999E+08
 
   -0.49941E+08         0.27822E+05         0.00000E+00
    0.27822E+05        -0.49994E+08         0.00000E+00
    0.00000E+00         0.00000E+00        -0.49999E+08
 
   -0.49942E+08         0.29178E+05         0.00000E+00
    0.29178E+05        -0.49993E+08         0.00000E+00
    0.00000E+00         0.00000E+00        -0.49999E+08
 
   -0.49944E+08         0.30508E+05         0.00000E+00
    0.30508E+05        -0.49992E+08         0.00000E+00
    0.00000E+00         0.00000E+00        -0.49999E+08
 
   -0.49945E+08         0.31812E+05         0.00000E+00
    0.31812E+05        -0.49992E+08         0.00000E+00
    0.00000E+00         0.00000E+00        -0.49999E+08
 
   -0.49946E+08         0.33087E+05         0.00000E+00
    0.33087E+05        -0.49991E+08         0.00000E+00
    0.00000E+00         0.00000E+00        -0.49999E+08
 
   -0.49947E+08         0.34332E+05         0.00000E+00
    0.34332E+05        -0.49990E+08         0.00000E+00
    0.00000E+00         0.00000E+00        -0.49999E+08
 
   -0.49949E+08         0.35546E+05         0.00000E+00
    0.35546E+05        -0.49989E+08         0.00000E+00
    0.00000E+00         0.00000E+00        -0.49999E+08
 
   -0.49950E+08         0.36727E+05         0.00000E+00
    0.36727E+05        -0.49989E+08         0.00000E+00
    0.00000E+00         0.00000E+00        -0.49999E+08
 
   -0.49951E+08         0.37875E+05         0.00000E+00
    0.37875E+05        -0.49988E+08         0.00000E+00
    0.00000E+00         0.00000E+00        -0.49999E+08
 
   -0.49953E+08         0.38988E+05         0.00000E+00
    0.38988E+05        -0.49987E+08         0.00000E+00
    0.00000E+00         0.00000E+00        -0.49999E+08
 
   -0.49955E+08         0.40065E+05         0.00000E+00
    0.40065E+05        -0.49986E+08         0.00000E+00
    0.00000E+00         0.00000E+00        -0.49999E+08
 
   -0.49956E+08         0.41104E+05         0.00000E+00
    0.41104E+05        -0.49985E+08         0.00000E+00
    0.00000E+00         0.00000E+00        -0.49999E+08
 
   -0.49958E+08         0.42105E+05         0.00000E+00
    0.42105E+05        -0.49984E+08         0.00000E+00
    0.00000E+00         0.00000E+00        -0.49999E+08
 
   -0.49960E+08         0.43066E+05         0.00000E+00
    0.43066E+05        -0.49983E+08         0.00000E+00
    0.00000E+00         0.00000E+00        -0.49999E+08
 
   -0.49961E+08         0.43986E+05         0.00000E+00
    0.43986E+05        -0.49982E+08         0.00000E+00
    0.00000E+00         0.00000E+00        -0.49999E+08
 
   -0.49963E+08         0.44864E+05         0.00000E+00
    0.44864E+05        -0.49981E+08         0.00000E+00
    0.00000E+00         0.00000E+00        -0.49999E+08
 
   -0.49965E+08         0.45699E+05         0.00000E+00
    0.45699E+05        -0.49980E+08         0.00000E+00
    0.00000E+00         0.00000E+00        -0.49999E+08
 
   -0.49967E+08         0.46490E+05         0.00000E+00
    0.46490E+05        -0.49979E+08         0.00000E+00
    0.00000E+00         0.00000E+00        -0.49999E+08
 
   -0.49969E+08         0.47236E+05         0.00000E+00
    0.47236E+05        -0.49978E+08         0.00000E+00
    0.00000E+00         0.00000E+00        -0.49999E+08
 
   -0.49971E+08         0.47935E+05         0.00000E+00
    0.47935E+05        -0.49977E+08         0.00000E+00
    0.00000E+00         0.00000E+00        -0.49999E+08
 
   -0.49973E+08         0.48588E+05         0.00000E+00
    0.48588E+05        -0.49976E+08         0.00000E+00
    0.00000E+00         0.00000E+00        -0.49999E+08
 
   -0.49975E+08         0.49193E+05         0.00000E+00
    0.49193E+05        -0.49974E+08         0.00000E+00
    0.00000E+00         0.00000E+00        -0.49999E+08
 
   -0.49977E+08         0.49750E+05         0.00000E+00
    0.49750E+05        -0.49973E+08         0.00000E+00
    0.00000E+00         0.00000E+00        -0.49999E+08
 
   -0.49979E+08         0.50257E+05         0.00000E+00
    0.50257E+05        -0.49972E+08         0.00000E+00
    0.00000E+00         0.00000E+00        -0.49999E+08
 
   -0.49982E+08         0.50713E+05         0.00000E+00
    0.50713E+05        -0.49971E+08         0.00000E+00
    0.00000E+00         0.00000E+00        -0.49999E+08
 
   -0.49984E+08         0.51119E+05         0.00000E+00
    0.51119E+05        -0.49970E+08         0.00000E+00
    0.00000E+00         0.00000E+00        -0.49999E+08
 
   -0.49986E+08         0.51472E+05         0.00000E+00
    0.51472E+05        -0.49969E+08         0.00000E+00
    0.00000E+00         0.00000E+00        -0.49999E+08
 
   -0.49989E+08         0.51773E+05         0.00000E+00
    0.51773E+05        -0.49967E+08         0.00000E+00
    0.00000E+00         0.00000E+00        -0.49999E+08
 
   -0.49991E+08         0.52022E+05         0.00000E+00
    0.52022E+05        -0.49966E+08         0.00000E+00
    0.00000E+00         0.00000E+00        -0.49999E+08
 
   -0.49993E+08         0.52216E+05         0.00000E+00
    0.52216E+05        -0.49965E+08         0.00000E+00
    0.00000E+00         0.00000E+00        -0.49999E+08
 
   -0.49996E+08         0.52356E+05         0.00000E+00
    0.52356E+05        -0.49964E+08         0.00000E+00
    0.00000E+00         0.00000E+00        -0.49999E+08
 
   -0.49998E+08         0.52441E+05         0.00000E+00
    0.52441E+05        -0.49962E+08         0.00000E+00
    0.00000E+00         0.00000E+00        -0.49999E+08
 
   -0.49926E+08         0.86681E+03         0.00000E+00
    0.86681E+03        -0.50000E+08         0.00000E+00
    0.00000E+00         0.00000E+00        -0.49999E+08
 
   -0.49926E+08         0.26148E+04         0.00000E+00
    0.26148E+04        -0.50000E+08         0.00000E+00
    0.00000E+00         0.00000E+00        -0.49999E+08
 
   -0.49926E+08         0.43656E+04         0.00000E+00
    0.43656E+04        -0.50000E+08         0.00000E+00
    0.00000E+00         0.00000E+00        -0.49999E+08
 
   -0.49926E+08         0.61173E+04         0.00000E+00
    0.61173E+04        -0.50000E+08         0.00000E+00
    0.00000E+00         0.00000E+00        -0.49999E+08
 
   -0.49926E+08         0.78680E+04         0.00000E+00
    0.78680E+04        -0.50000E+08         0.00000E+00
    0.00000E+00         0.00000E+00        -0.49999E+08
 
   -0.49926E+08         0.96158E+04         0.00000E+00
    0.96158E+04        -0.49999E+08         0.00000E+00
    0.00000E+00         0.00000E+00        -0.49999E+08
 
   -0.49926E+08         0.11359E+05         0.00000E+00
    0.11359E+05        -0.49999E+08         0.00000E+00
    0.00000E+00         0.00000E+00        -0.49999E+08
 
   -0.49926E+08         0.13096E+05         0.00000E+00
    0.13096E+05        -0.49999E+08         0.00000E+00
    0.00000E+00         0.00000E+00        -0.49999E+08
 
   -0.49927E+08         0.14824E+05         0.00000E+00
    0.14824E+05        -0.49999E+08         0.00000E+00
    0.00000E+00         0.00000E+00        -0.49999E+08
 
   -0.49927E+08         0.16543E+05         0.00000E+00
    0.16543E+05        -0.49998E+08         0.00000E+00
    0.00000E+00         0.00000E+00        -0.49999E+08
 
   -0.49928E+08         0.18249E+05         0.00000E+00
    0.18249E+05        -0.49998E+08         0.00000E+00
    0.00000E+00         0.00000E+00        -0.49999E+08
 
   -0.49928E+08         0.19942E+05         0.00000E+00
    0.19942E+05        -0.49997E+08         0.00000E+00
    0.00000E+00         0.00000E+00        -0.49999E+08
 
   -0.49929E+08         0.21619E+05         0.00000E+00
    0.21619E+05        -0.49997E+08         0.00000E+00
    0.00000E+00         0.00000E+00        -0.49999E+08
 
   -0.49929E+08         0.23279E+05         0.00000E+00
    0.23279E+05        -0.49996E+08         0.00000E+00
    0.00000E+00         0.00000E+00        -0.49999E+08
 
   -0.49930E+08         0.24920E+05         0.00000E+00
    0.24920E+05        -0.49996E+08         0.00000E+00
    0.00000E+00         0.00000E+00        -0.49999E+08
 
   -0.49931E+08         0.26541E+05         0.00000E+00
    0.26541E+05        -0.49995E+08         0.00000E+00
    0.00000E+00         0.00000E+00        -0.49999E+08
 
   -0.49932E+08         0.28139E+05         0.00000E+00
    0.28139E+05        -0.49994E+08         0.00000E+00
    0.00000E+00         0.00000E+00        -0.49999E+08
 
   -0.49933E+08         0.29713E+05         0.00000E+00
    0.29713E+05        -0.49994E+08         0.00000E+00
    0.00000E+00         0.00000E+00        -0.49999E+08
 
   -0.49934E+08         0.31262E+05         0.00000E+00
    0.31262E+05        -0.49993E+08         0.00000E+00
    0.00000E+00         0.00000E+00        -0.49999E+08
 
   -0.49935E+08         0.32783E+05         0.00000E+00
    0.32783E+05        -0.49992E+08         0.00000E+00
    0.00000E+00         0.00000E+00        -0.49999E+08
 
   -0.49937E+08         0.34276E+05         0.00000E+00
    0.34276E+05        -0.49992E+08         0.00000E+00
    0.00000E+00         0.00000E+00        -0.49999E+08
 
   -0.49938E+08         0.35738E+05         0.00000E+00
    0.35738E+05        -0.49991E+08         0.00000E+00
    0.00000E+00         0.00000E+00        -0.49999E+08
 
   -0.49939E+08         0.37168E+05         0.00000E+00
    0.37168E+05        -0.49990E+08         0.00000E+00
    0.00000E+00         0.00000E+00        -0.49999E+08
 
   -0.49941E+08         0.38564E+05         0.00000E+00
    0.38564E+05        -0.49989E+08         0.00000E+00
    0.00000E+00         0.00000E+00        -0.49999E+08
 
   -0.49942E+08         0.39926E+05         0.00000E+00
    0.39926E+05        -0.49988E+08         0.00000E+00
    0.00000E+00         0.00000E+00        -0.49999E+08
 
   -0.49944E+08         0.41251E+05         0.00000E+00
    0.41251E+05        -0.49987E+08         0.00000E+00
    0.00000E+00         0.00000E+00        -0.49999E+08
 
   -0.49945E+08         0.42538E+05         0.00000E+00
    0.42538E+05        -0.49986E+08         0.00000E+00
    0.00000E+00         0.00000E+00        -0.49999E+08
 
   -0.49947E+08         0.43786E+05         0.00000E+00
    0.43786E+05        -0.49985E+08         0.00000E+00
    0.00000E+00         0.00000E+00        -0.49999E+08
 
   -0.49949E+08         0.44994E+05         0.00000E+00
    0.44994E+05        -0.49984E+08         0.00000E+00
    0.00000E+00         0.00000E+00        -0.49999E+08
 
   -0.49951E+08         0.46159E+05         0.00000E+00
    0.46159E+05        -0.49983E+08         0.00000E+00
    0.00000E+00         0.00000E+00        -0.49999E+08
 
   -0.49953E+08         0.47281E+05         0.00000E+00
    0.47281E+05        -0.49982E+08         0.00000E+00
    0.00000E+00         0.00000E+00        -0.49999E+08
 
   -0.49955E+08         0.48359E+05         0.00000E+00
    0.48359E+05        -0.49981E+08         0.00000E+00
    0.00000E+00         0.00000E+00        -0.49999E+08
 
   -0.49957E+08         0.49390E+05         0.00000E+00
    0.49390E+05        -0.49980E+08         0.00000E+00
    0.00000E+00         0.00000E+00        -0.49999E+08
 
   -0.49959E+08         0.50375E+05         0.00000E+00
    0.50375E+05        -0.49979E+08         0.00000E+00
    0.00000E+00         0.00000E+00        -0.49999E+08
 
   -0.49961E+08         0.51311E+05         0.00000E+00
    0.51311E+05        -0.49977E+08         0.00000E+00
    0.00000E+00         0.00000E+00        -0.49999E+08
 
   -0.49963E+08         0.52199E+05         0.00000E+00
    0.52199E+05        -0.49976E+08         0.00000E+00
    0.00000E+00         0.00000E+00        -0.49999E+08
 
   -0.49965E+08         0.53035E+05         0.00000E+00
    0.53035E+05        -0.49975E+08         0.00000E+00
    0.00000E+00         0.00000E+00        -0.49999E+08
 
   -0.49967E+08         0.53820E+05         0.00000E+00
    0.53820E+05        -0.49974E+08         0.00000E+00
    0.00000E+00         0.00000E+00        -0.49999E+08
 
   -0.49970E+08         0.54553E+05         0.00000E+00
    0.54553E+05        -0.49973E+08         0.00000E+00
    0.00000E+00         0.00000E+00        -0.49999E+08
 
   -0.49972E+08         0.55232E+05         0.00000E+00
    0.55232E+05        -0.49971E+08         0.00000E+00
    0.00000E+00         0.00000E+00        -0.49999E+08
 
   -0.49974E+08         0.55857E+05         0.00000E+00
    0.55857E+05        -0.49970E+08         0.00000E+00
    0.00000E+00         0.00000E+00        -0.49999E+08
 
   -0.49977E+08         0.56426E+05         0.00000E+00
    0.56426E+05        -0.49969E+08         0.00000E+00
    0.00000E+00         0.00000E+00        -0.49999E+08
 
   -0.49979E+08         0.56939E+05         0.00000E+00
    0.56939E+05        -0.49967E+08         0.00000E+00
    0.00000E+00         0.00000E+00        -0.49999E+08
 
   -0.49982E+08         0.57395E+05         0.00000E+00
    0.57395E+05        -0.49966E+08         0.00000E+00
    0.00000E+00         0.00000E+00        -0.49999E+08
 
   -0.49984E+08         0.57793E+05         0.00000E+00
    0.57793E+05        -0.49965E+08         0.00000E+00
    0.00000E+00         0.00000E+00        -0.49999E+08
 
   -0.49987E+08         0.58132E+05         0.00000E+00
    0.58132E+05        -0.49963E+08         0.00000E+00
    0.00000E+00         0.00000E+00        -0.49999E+08
 
   -0.49990E+08         0.58412E+05         0.00000E+00
    0.58412E+05        -0.49962E+08         0.00000E+00
    0.00000E+00         0.00000E+00        -0.49999E+08
 
   -0.49992E+08         0.58632E+05         0.00000E+00
    0.58632E+05        -0.49961E+08         0.00000E+00
    0.00000E+00         0.00000E+00        -0.49999E+08
 
   -0.49995E+08         0.58792E+05         0.00000E+00
    0.58792E+05        -0.49959E+08         0.00000E+00
    0.00000E+00         0.00000E+00        -0.49999E+08
 
   -0.49998E+08         0.58890E+05         0.00000E+00
    0.58890E+05        -0.49958E+08         0.00000E+00
    0.00000E+00         0.00000E+00        -0.49999E+08
 
   -0.49917E+08         0.97582E+03         0.00000E+00
    0.97582E+03        -0.50000E+08         0.00000E+00
    0.00000E+00         0.00000E+00        -0.49999E+08
 
   -0.49917E+08         0.29424E+04         0.00000E+00
    0.29424E+04        -0.50000E+08         0.00000E+00
    0.00000E+00         0.00000E+00        -0.49999E+08
 
   -0.49917E+08         0.49117E+04         0.00000E+00
    0.49117E+04        -0.50000E+08         0.00000E+00
    0.00000E+00         0.00000E+00        -0.49999E+08
 
   -0.49917E+08         0.68816E+04         0.00000E+00
    0.68816E+04        -0.50000E+08         0.00000E+00
    0.00000E+00         0.00000E+00        -0.49999E+08
 
   -0.49917E+08         0.88499E+04         0.00000E+00
    0.88499E+04        -0.50000E+08         0.00000E+00
    0.00000E+00         0.00000E+00        -0.49999E+08
 
   -0.49917E+08         0.10815E+05         0.00000E+00
    0.10815E+05        -0.49999E+08         0.00000E+00
    0.00000E+00         0.00000E+00        -0.49999E+08
 
   -0.49917E+08         0.12774E+05         0.00000E+00
    0.12774E+05        -0.49999E+08         0.00000E+00
    0.00000E+00         0.00000E+00        -0.49999E+08
 
   -0.49917E+08         0.14726E+05         0.00000E+00
    0.14726E+05        -0.49999E+08         0.00000E+00
    0.00000E+00         0.00000E+00        -0.49999E+08
 
   -0.49917E+08         0.16667E+05         0.00000E+00
    0.16667E+05        -0.49998E+08         0.00000E+00
    0.00000E+00         0.00000E+00        -0.49999E+08
 
   -0.49918E+08         0.18598E+05         0.00000E+00
    0.18598E+05        -0.49998E+08         0.00000E+00
    0.00000E+00         0.00000E+00        -0.49999E+08
 
   -0.49919E+08         0.20514E+05         0.00000E+00
    0.20514E+05        -0.49997E+08         0.00000E+00
    0.00000E+00         0.00000E+00        -0.49999E+08
 
   -0.49919E+08         0.22415E+05         0.00000E+00
    0.22415E+05        -0.49997E+08         0.00000E+00
    0.00000E+00         0.00000E+00        -0.49999E+08
 
   -0.49920E+08         0.24298E+05         0.00000E+00
    0.24298E+05        -0.49996E+08         0.00000E+00
    0.00000E+00         0.00000E+00        -0.49999E+08
 
   -0.49921E+08         0.26161E+05         0.00000E+00
    0.26161E+05        -0.49996E+08         0.00000E+00
    0.00000E+00         0.00000E+00        -0.49999E+08
 
   -0.49922E+08         0.28003E+05         0.00000E+00
    0.28003E+05        -0.49995E+08         0.00000E+00
    0.00000E+00         0.00000E+00        -0.49999E+08
 
   -0.49923E+08         0.29822E+05         0.00000E+00
    0.29822E+05        -0.49995E+08         0.00000E+00
    0.00000E+00         0.00000E+00        -0.49999E+08
 
   -0.49924E+08         0.31615E+05         0.00000E+00
    0.31615E+05        -0.49994E+08         0.00000E+00
    0.00000E+00         0.00000E+00        -0.49999E+08
 
   -0.49925E+08         0.33382E+05         0.00000E+00
    0.33382E+05        -0.49993E+08         0.00000E+00
    0.00000E+00         0.00000E+00        -0.49999E+08
 
   -0.49926E+08         0.35119E+05         0.00000E+00
    0.35119E+05        -0.49992E+08         0.00000E+00
    0.00000E+00         0.00000E+00        -0.49999E+08
 
   -0.49927E+08         0.36825E+05         0.00000E+00
    0.36825E+05        -0.49991E+08         0.00000E+00
    0.00000E+00         0.00000E+00        -0.49999E+08
 
   -0.49929E+08         0.38499E+05         0.00000E+00
    0.38499E+05        -0.49991E+08         0.00000E+00
    0.00000E+00         0.00000E+00        -0.49999E+08
 
   -0.49930E+08         0.40139E+05         0.00000E+00
    0.40139E+05        -0.49990E+08         0.00000E+00
    0.00000E+00         0.00000E+00        -0.49999E+08
 
   -0.49932E+08         0.41742E+05         0.00000E+00
    0.41742E+05        -0.49989E+08         0.00000E+00
    0.00000E+00         0.00000E+00        -0.49999E+08
 
   -0.49933E+08         0.43308E+05         0.00000E+00
    0.43308E+05        -0.49988E+08         0.00000E+00
    0.00000E+00         0.00000E+00        -0.49999E+08
 
   -0.49935E+08         0.44835E+05         0.00000E+00
    0.44835E+05        -0.49987E+08         0.00000E+00
    0.00000E+00         0.00000E+00        -0.49999E+08
 
   -0.49937E+08         0.46321E+05         0.00000E+00
    0.46321E+05        -0.49986E+08         0.00000E+00
    0.00000E+00         0.00000E+00        -0.49999E+08
 
   -0.49939E+08         0.47764E+05         0.00000E+00
    0.47764E+05        -0.49985E+08         0.00000E+00
    0.00000E+00         0.00000E+00        -0.49999E+08
 
   -0.49941E+08         0.49163E+05         0.00000E+00
    0.49163E+05        -0.49983E+08         0.00000E+00
    0.00000E+00         0.00000E+00        -0.49999E+08
 
   -0.49943E+08         0.50516E+05         0.00000E+00
    0.50516E+05        -0.49982E+08         0.00000E+00
    0.00000E+00         0.00000E+00        -0.49999E+08
 
   -0.49945E+08         0.51822E+05         0.00000E+00
    0.51822E+05        -0.49981E+08         0.00000E+00
    0.00000E+00         0.00000E+00        -0.49999E+08
 
   -0.49947E+08         0.53080E+05         0.00000E+00
    0.53080E+05        -0.49980E+08         0.00000E+00
    0.00000E+00         0.00000E+00        -0.49999E+08
 
   -0.49949E+08         0.54288E+05         0.00000E+00
    0.54288E+05        -0.49979E+08         0.00000E+00
    0.00000E+00         0.00000E+00        -0.49999E+08
 
   -0.49951E+08         0.55445E+05         0.00000E+00
    0.55445E+05        -0.49977E+08         0.00000E+00
    0.00000E+00         0.00000E+00        -0.49999E+08
 
   -0.49954E+08         0.56548E+05         0.00000E+00
    0.56548E+05        -0.49976E+08         0.00000E+00
    0.00000E+00         0.00000E+00        -0.49999E+08
 
   -0.49956E+08         0.57598E+05         0.00000E+00
    0.57598E+05        -0.49975E+08         0.00000E+00
    0.00000E+00         0.00000E+00        -0.49999E+08
 
   -0.49958E+08         0.58593E+05         0.00000E+00
    0.58593E+05        -0.49973E+08         0.00000E+00
    0.00000E+00         0.00000E+00        -0.49999E+08
 
   -0.49961E+08         0.59531E+05         0.00000E+00
    0.59531E+05        -0.49972E+08         0.00000E+00
    0.00000E+00         0.00000E+00        -0.49999E+08
 
   -0.49963E+08         0.60412E+05         0.00000E+00
    0.60412E+05        -0.49971E+08         0.00000E+00
    0.00000E+00         0.00000E+00        -0.49999E+08
 
   -0.49966E+08         0.61233E+05         0.00000E+00
    0.61233E+05        -0.49969E+08         0.00000E+00
    0.00000E+00         0.00000E+00        -0.49999E+08
 
   -0.49969E+08         0.61996E+05         0.00000E+00
    0.61996E+05        -0.49968E+08         0.00000E+00
    0.00000E+00         0.00000E+00        -0.49999E+08
 
   -0.49971E+08         0.62697E+05         0.00000E+00
    0.62697E+05        -0.49966E+08         0.00000E+00
    0.00000E+00         0.00000E+00        -0.49999E+08
 
   -0.49974E+08         0.63336E+05         0.00000E+00
    0.63336E+05        -0.49965E+08         0.00000E+00
    0.00000E+00         0.00000E+00        -0.49999E+08
 
   -0.49977E+08         0.63912E+05         0.00000E+00
    0.63912E+05        -0.49963E+08         0.00000E+00
    0.00000E+00         0.00000E+00        -0.49999E+08
 
   -0.49980E+08         0.64425E+05         0.00000E+00
    0.64425E+05        -0.49962E+08         0.00000E+00
    0.00000E+00         0.00000E+00        -0.49999E+08
 
   -0.49983E+08         0.64873E+05         0.00000E+00
    0.64873E+05        -0.49960E+08         0.00000E+00
    0.00000E+00         0.00000E+00        -0.49999E+08
 
   -0.49985E+08         0.65255E+05         0.00000E+00
    0.65255E+05        -0.49959E+08         0.00000E+00
    0.00000E+00         0.00000E+00        -0.49999E+08
 
   -0.49988E+08         0.65571E+05         0.00000E+00
    0.65571E+05        -0.49957E+08         0.00000E+00
    0.00000E+00         0.00000E+00        -0.49999E+08
 
   -0.49991E+08         0.65820E+05         0.00000E+00
    0.65820E+05        -0.49956E+08         0.00000E+00
    0.00000E+00         0.00000E+00        -0.49999E+08
 
   -0.49994E+08         0.66002E+05         0.00000E+00
    0.66002E+05        -0.49954E+08         0.00000E+00
    0.00000E+00         0.00000E+00        -0.49999E+08
 
   -0.49997E+08         0.66115E+05         0.00000E+00
    0.66115E+05        -0.49953E+08         0.00000E+00
    0.00000E+00         0.00000E+00        -0.49999E+08
 
   -0.49907E+08         0.10984E+04         0.00000E+00
    0.10984E+04        -0.50000E+08         0.00000E+00
    0.00000E+00         0.00000E+00        -0.49999E+08
 
   -0.49906E+08         0.33107E+04         0.00000E+00
    0.33107E+04        -0.50000E+08         0.00000E+00
    0.00000E+00         0.00000E+00        -0.49999E+08
 
   -0.49906E+08         0.55254E+04         0.00000E+00
    0.55254E+04        -0.50000E+08         0.00000E+00
    0.00000E+00         0.00000E+00        -0.49999E+08
 
   -0.49906E+08         0.77402E+04         0.00000E+00
    0.77402E+04        -0.50000E+08         0.00000E+00
    0.00000E+00         0.00000E+00        -0.49999E+08
 
   -0.49906E+08         0.99530E+04         0.00000E+00
    0.99530E+04        -0.49999E+08         0.00000E+00
    0.00000E+00         0.00000E+00        -0.49999E+08
 
   -0.49906E+08         0.12161E+05         0.00000E+00
    0.12161E+05        -0.49999E+08         0.00000E+00
    0.00000E+00         0.00000E+00        -0.49999E+08
 
   -0.49906E+08         0.14363E+05         0.00000E+00
    0.14363E+05        -0.49999E+08         0.00000E+00
    0.00000E+00         0.00000E+00        -0.49999E+08
 
   -0.49907E+08         0.16555E+05         0.00000E+00
    0.16555E+05        -0.49999E+08         0.00000E+00
    0.00000E+00         0.00000E+00        -0.49999E+08
 
   -0.49907E+08         0.18736E+05         0.00000E+00
    0.18736E+05        -0.49998E+08         0.00000E+00
    0.00000E+00         0.00000E+00        -0.49999E+08
 
   -0.49908E+08         0.20904E+05         0.00000E+00
    0.20904E+05        -0.49998E+08         0.00000E+00
    0.00000E+00         0.00000E+00        -0.49999E+08
 
   -0.49908E+08         0.23056E+05         0.00000E+00
    0.23056E+05        -0.49997E+08         0.00000E+00
    0.00000E+00         0.00000E+00        -0.49999E+08
 
   -0.49909E+08         0.25189E+05         0.00000E+00
    0.25189E+05        -0.49997E+08         0.00000E+00
    0.00000E+00         0.00000E+00        -0.49999E+08
 
   -0.49910E+08         0.27303E+05         0.00000E+00
    0.27303E+05        -0.49996E+08         0.00000E+00
    0.00000E+00         0.00000E+00        -0.49999E+08
 
   -0.49911E+08         0.29394E+05         0.00000E+00
    0.29394E+05        -0.49995E+08         0.00000E+00
    0.00000E+00         0.00000E+00        -0.49999E+08
 
   -0.49912E+08         0.31461E+05         0.00000E+00
    0.31461E+05        -0.49995E+08         0.00000E+00
    0.00000E+00         0.00000E+00        -0.49999E+08
 
   -0.49913E+08         0.33502E+05         0.00000E+00
    0.33502E+05        -0.49994E+08         0.00000E+00
    0.00000E+00         0.00000E+00        -0.49999E+08
 
   -0.49914E+08         0.35513E+05         0.00000E+00
    0.35513E+05        -0.49993E+08         0.00000E+00
    0.00000E+00         0.00000E+00        -0.49999E+08
 
   -0.49916E+08         0.37494E+05         0.00000E+00
    0.37494E+05        -0.49992E+08         0.00000E+00
    0.00000E+00         0.00000E+00        -0.49999E+08
 
   -0.49917E+08         0.39442E+05         0.00000E+00
    0.39442E+05        -0.49991E+08         0.00000E+00
    0.00000E+00         0.00000E+00        -0.49999E+08
 
   -0.49918E+08         0.41356E+05         0.00000E+00
    0.41356E+05        -0.49990E+08         0.00000E+00
    0.00000E+00         0.00000E+00        -0.49999E+08
 
   -0.49920E+08         0.43232E+05         0.00000E+00
    0.43232E+05        -0.49989E+08         0.00000E+00
    0.00000E+00         0.00000E+00        -0.49999E+08
 
   -0.49922E+08         0.45071E+05         0.00000E+00
    0.45071E+05        -0.49988E+08         0.00000E+00
    0.00000E+00         0.00000E+00        -0.49999E+08
 
   -0.49923E+08         0.46868E+05         0.00000E+00
    0.46868E+05        -0.49987E+08         0.00000E+00
    0.00000E+00         0.00000E+00        -0.49999E+08
 
   -0.49925E+08         0.48623E+05         0.00000E+00
    0.48623E+05        -0.49986E+08         0.00000E+00
    0.00000E+00         0.00000E+00        -0.49999E+08
 
   -0.49927E+08         0.50334E+05         0.00000E+00
    0.50334E+05        -0.49985E+08         0.00000E+00
    0.00000E+00         0.00000E+00        -0.49999E+08
 
   -0.49929E+08         0.51999E+05         0.00000E+00
    0.51999E+05        -0.49984E+08         0.00000E+00
    0.00000E+00         0.00000E+00        -0.49999E+08
 
   -0.49931E+08         0.53617E+05         0.00000E+00
    0.53617E+05        -0.49983E+08         0.00000E+00
    0.00000E+00         0.00000E+00        -0.49999E+08
 
   -0.49933E+08         0.55184E+05         0.00000E+00
    0.55184E+05        -0.49981E+08         0.00000E+00
    0.00000E+00         0.00000E+00        -0.49999E+08
 
   -0.49936E+08         0.56701E+05         0.00000E+00
    0.56701E+05        -0.49980E+08         0.00000E+00
    0.00000E+00         0.00000E+00        -0.49999E+08
 
   -0.49938E+08         0.58165E+05         0.00000E+00
    0.58165E+05        -0.49979E+08         0.00000E+00
    0.00000E+00         0.00000E+00        -0.49999E+08
 
   -0.49940E+08         0.59574E+05         0.00000E+00
    0.59574E+05        -0.49977E+08         0.00000E+00
    0.00000E+00         0.00000E+00        -0.49999E+08
 
   -0.49943E+08         0.60927E+05         0.00000E+00
    0.60927E+05        -0.49976E+08         0.00000E+00
    0.00000E+00         0.00000E+00        -0.49999E+08
 
   -0.49945E+08         0.62223E+05         0.00000E+00
    0.62223E+05        -0.49975E+08         0.00000E+00
    0.00000E+00         0.00000E+00        -0.49999E+08
 
   -0.49948E+08         0.63460E+05         0.00000E+00
    0.63460E+05        -0.49973E+08         0.00000E+00
    0.00000E+00         0.00000E+00        -0.49999E+08
 
   -0.49951E+08         0.64637E+05         0.00000E+00
    0.64637E+05        -0.49972E+08         0.00000E+00
    0.00000E+00         0.00000E+00        -0.49999E+08
 
   -0.49953E+08         0.65752E+05         0.00000E+00
    0.65752E+05        -0.49970E+08         0.00000E+00
    0.00000E+00         0.00000E+00        -0.49999E+08
 
   -0.49956E+08         0.66803E+05         0.00000E+00
    0.66803E+05        -0.49969E+08         0.00000E+00
    0.00000E+00         0.00000E+00        -0.49999E+08
 
   -0.49959E+08         0.67791E+05         0.00000E+00
    0.67791E+05        -0.49967E+08         0.00000E+00
    0.00000E+00         0.00000E+00        -0.49999E+08
 
   -0.49962E+08         0.68712E+05         0.00000E+00
    0.68712E+05        -0.49966E+08         0.00000E+00
    0.00000E+00         0.00000E+00        -0.49999E+08
 
   -0.49965E+08         0.69567E+05         0.00000E+00
    0.69567E+05        -0.49964E+08         0.00000E+00
    0.00000E+00         0.00000E+00        -0.49999E+08
 
   -0.49968E+08         0.70354E+05         0.00000E+00
    0.70354E+05        -0.49962E+08         0.00000E+00
    0.00000E+00         0.00000E+00        -0.49999E+08
 
   -0.49971E+08         0.71072E+05         0.00000E+00
    0.71072E+05        -0.49961E+08         0.00000E+00
    0.00000E+00         0.00000E+00        -0.49999E+08
 
   -0.49974E+08         0.71719E+05         0.00000E+00
    0.71719E+05        -0.49959E+08         0.00000E+00
    0.00000E+00         0.00000E+00        -0.49999E+08
 
   -0.49977E+08         0.72295E+05         0.00000E+00
    0.72295E+05        -0.49957E+08         0.00000E+00
    0.00000E+00         0.00000E+00        -0.49999E+08
 
   -0.49980E+08         0.72799E+05         0.00000E+00
    0.72799E+05        -0.49956E+08         0.00000E+00
    0.00000E+00         0.00000E+00        -0.49999E+08
 
   -0.49984E+08         0.73230E+05         0.00000E+00
    0.73230E+05        -0.49954E+08         0.00000E+00
    0.00000E+00         0.00000E+00        -0.49999E+08
 
   -0.49987E+08         0.73587E+05         0.00000E+00
    0.73587E+05        -0.49952E+08         0.00000E+00
    0.00000E+00         0.00000E+00        -0.49999E+08
 
   -0.49990E+08         0.73870E+05         0.00000E+00
    0.73870E+05        -0.49951E+08         0.00000E+00
    0.00000E+00         0.00000E+00        -0.49999E+08
 
   -0.49994E+08         0.74076E+05         0.00000E+00
    0.74076E+05        -0.49949E+08         0.00000E+00
    0.00000E+00         0.00000E+00        -0.49999E+08
 
   -0.49997E+08         0.74207E+05         0.00000E+00
    0.74207E+05        -0.49947E+08         0.00000E+00
    0.00000E+00         0.00000E+00        -0.49999E+08
 
   -0.49895E+08         0.12363E+04         0.00000E+00
    0.12363E+04        -0.50000E+08         0.00000E+00
    0.00000E+00         0.00000E+00        -0.49998E+08
 
   -0.49895E+08         0.37245E+04         0.00000E+00
    0.37245E+04        -0.50000E+08         0.00000E+00
    0.00000E+00         0.00000E+00        -0.49998E+08
 
   -0.49894E+08         0.62148E+04         0.00000E+00
    0.62148E+04        -0.50000E+08         0.00000E+00
    0.00000E+00         0.00000E+00        -0.49998E+08
 
   -0.49894E+08         0.87047E+04         0.00000E+00
    0.87047E+04        -0.50000E+08         0.00000E+00
    0.00000E+00         0.00000E+00        -0.49998E+08
 
   -0.49894E+08         0.11192E+05         0.00000E+00
    0.11192E+05        -0.49999E+08         0.00000E+00
    0.00000E+00         0.00000E+00        -0.49998E+08
 
   -0.49895E+08         0.13673E+05         0.00000E+00
    0.13673E+05        -0.49999E+08         0.00000E+00
    0.00000E+00         0.00000E+00        -0.49998E+08
 
   -0.49895E+08         0.16146E+05         0.00000E+00
    0.16146E+05        -0.49999E+08         0.00000E+00
    0.00000E+00         0.00000E+00        -0.49998E+08
 
   -0.49895E+08         0.18609E+05         0.00000E+00
    0.18609E+05        -0.49998E+08         0.00000E+00
    0.00000E+00         0.00000E+00        -0.49998E+08
 
   -0.49896E+08         0.21058E+05         0.00000E+00
    0.21058E+05        -0.49998E+08         0.00000E+00
    0.00000E+00         0.00000E+00        -0.49998E+08
 
   -0.49896E+08         0.23491E+05         0.00000E+00
    0.23491E+05        -0.49997E+08         0.00000E+00
    0.00000E+00         0.00000E+00        -0.49998E+08
 
   -0.49897E+08         0.25907E+05         0.00000E+00
    0.25907E+05        -0.49997E+08         0.00000E+00
    0.00000E+00         0.00000E+00        -0.49998E+08
 
   -0.49898E+08         0.28301E+05         0.00000E+00
    0.28301E+05        -0.49996E+08         0.00000E+00
    0.00000E+00         0.00000E+00        -0.49998E+08
 
   -0.49899E+08         0.30673E+05         0.00000E+00
    0.30673E+05        -0.49995E+08         0.00000E+00
    0.00000E+00         0.00000E+00        -0.49998E+08
 
   -0.49900E+08         0.33019E+05         0.00000E+00
    0.33019E+05        -0.49995E+08         0.00000E+00
    0.00000E+00         0.00000E+00        -0.49998E+08
 
   -0.49901E+08         0.35338E+05         0.00000E+00
    0.35338E+05        -0.49994E+08         0.00000E+00
    0.00000E+00         0.00000E+00        -0.49998E+08
 
   -0.49902E+08         0.37626E+05         0.00000E+00
    0.37626E+05        -0.49993E+08         0.00000E+00
    0.00000E+00         0.00000E+00        -0.49998E+08
 
   -0.49904E+08         0.39882E+05         0.00000E+00
    0.39882E+05        -0.49992E+08         0.00000E+00
    0.00000E+00         0.00000E+00        -0.49998E+08
 
   -0.49905E+08         0.42103E+05         0.00000E+00
    0.42103E+05        -0.49991E+08         0.00000E+00
    0.00000E+00         0.00000E+00        -0.49998E+08
 
   -0.49907E+08         0.44287E+05         0.00000E+00
    0.44287E+05        -0.49990E+08         0.00000E+00
    0.00000E+00         0.00000E+00        -0.49998E+08
 
   -0.49908E+08         0.46432E+05         0.00000E+00
    0.46432E+05        -0.49989E+08         0.00000E+00
    0.00000E+00         0.00000E+00        -0.49998E+08
 
   -0.49910E+08         0.48535E+05         0.00000E+00
    0.48535E+05        -0.49988E+08         0.00000E+00
    0.00000E+00         0.00000E+00        -0.49998E+08
 
   -0.49912E+08         0.50595E+05         0.00000E+00
    0.50595E+05        -0.49987E+08         0.00000E+00
    0.00000E+00         0.00000E+00        -0.49998E+08
 
   -0.49914E+08         0.52609E+05         0.00000E+00
    0.52609E+05        -0.49986E+08         0.00000E+00
    0.00000E+00         0.00000E+00        -0.49998E+08
 
   -0.49916E+08         0.54576E+05         0.00000E+00
    0.54576E+05        -0.49985E+08         0.00000E+00
    0.00000E+00         0.00000E+00        -0.49998E+08
 
   -0.49918E+08         0.56493E+05         0.00000E+00
    0.56493E+05        -0.49983E+08         0.00000E+00
    0.00000E+00         0.00000E+00        -0.49998E+08
 
   -0.49920E+08         0.58358E+05         0.00000E+00
    0.58358E+05        -0.49982E+08         0.00000E+00
    0.00000E+00         0.00000E+00        -0.49998E+08
 
   -0.49923E+08         0.60169E+05         0.00000E+00
    0.60169E+05        -0.49981E+08         0.00000E+00
    0.00000E+00         0.00000E+00        -0.49998E+08
 
   -0.49925E+08         0.61926E+05         0.00000E+00
    0.61926E+05        -0.49979E+08         0.00000E+00
    0.00000E+00         0.00000E+00        -0.49998E+08
 
   -0.49928E+08         0.63624E+05         0.00000E+00
    0.63624E+05        -0.49978E+08         0.00000E+00
    0.00000E+00         0.00000E+00        -0.49998E+08
 
   -0.49930E+08         0.65264E+05         0.00000E+00
    0.65264E+05        -0.49976E+08         0.00000E+00
    0.00000E+00         0.00000E+00        -0.49998E+08
 
   -0.49933E+08         0.66842E+05         0.00000E+00
    0.66842E+05        -0.49975E+08         0.00000E+00
    0.00000E+00         0.00000E+00        -0.49998E+08
 
   -0.49936E+08         0.68358E+05         0.00000E+00
    0.68358E+05        -0.49973E+08         0.00000E+00
    0.00000E+00         0.00000E+00        -0.49998E+08
 
   -0.49939E+08         0.69810E+05         0.00000E+00
    0.69810E+05        -0.49972E+08         0.00000E+00
    0.00000E+00         0.00000E+00        -0.49998E+08
 
   -0.49941E+08         0.71196E+05         0.00000E+00
    0.71196E+05        -0.49970E+08         0.00000E+00
    0.00000E+00         0.00000E+00        -0.49998E+08
 
   -0.49944E+08         0.72514E+05         0.00000E+00
    0.72514E+05        -0.49968E+08         0.00000E+00
    0.00000E+00         0.00000E+00        -0.49998E+08
 
   -0.49948E+08         0.73763E+05         0.00000E+00
    0.73763E+05        -0.49967E+08         0.00000E+00
    0.00000E+00         0.00000E+00        -0.49998E+08
 
   -0.49951E+08         0.74942E+05         0.00000E+00
    0.74942E+05        -0.49965E+08         0.00000E+00
    0.00000E+00         0.00000E+00        -0.49998E+08
 
   -0.49954E+08         0.76048E+05         0.00000E+00
    0.76048E+05        -0.49963E+08         0.00000E+00
    0.00000E+00         0.00000E+00        -0.49998E+08
 
   -0.49957E+08         0.77081E+05         0.00000E+00
    0.77081E+05        -0.49961E+08         0.00000E+00
    0.00000E+00         0.00000E+00        -0.49998E+08
 
   -0.49960E+08         0.78040E+05         0.00000E+00
    0.78040E+05        -0.49960E+08         0.00000E+00
    0.00000E+00         0.00000E+00        -0.49998E+08
 
   -0.49964E+08         0.78923E+05         0.00000E+00
    0.78923E+05        -0.49958E+08         0.00000E+00
    0.00000E+00         0.00000E+00        -0.49998E+08
 
   -0.49967E+08         0.79728E+05         0.00000E+00
    0.79728E+05        -0.49956E+08         0.00000E+00
    0.00000E+00         0.00000E+00        -0.49998E+08
 
   -0.49971E+08         0.80455E+05         0.00000E+00
    0.80455E+05        -0.49954E+08         0.00000E+00
    0.00000E+00         0.00000E+00        -0.49998E+08
 
   -0.49974E+08         0.81103E+05         0.00000E+00
    0.81103E+05        -0.49952E+08         0.00000E+00
    0.00000E+00         0.00000E+00        -0.49998E+08
 
   -0.49978E+08         0.81670E+05         0.00000E+00
    0.81670E+05        -0.49950E+08         0.00000E+00
    0.00000E+00         0.00000E+00        -0.49998E+08
 
   -0.49981E+08         0.82156E+05         0.00000E+00
    0.82156E+05        -0.49949E+08         0.00000E+00
    0.00000E+00         0.00000E+00        -0.49998E+08
 
   -0.49985E+08         0.82559E+05         0.00000E+00
    0.82559E+05        -0.49947E+08         0.00000E+00
    0.00000E+00         0.00000E+00        -0.49998E+08
 
   -0.49989E+08         0.82879E+05         0.00000E+00
    0.82879E+05        -0.49945E+08         0.00000E+00
    0.00000E+00         0.00000E+00        -0.49998E+08
 
   -0.49993E+08         0.83114E+05         0.00000E+00
    0.83114E+05        -0.49943E+08         0.00000E+00
    0.00000E+00         0.00000E+00        -0.49998E+08
 
   -0.49996E+08         0.83265E+05         0.00000E+00
    0.83265E+05        -0.49941E+08         0.00000E+00
    0.00000E+00         0.00000E+00        -0.49998E+08
 
   -0.49882E+08         0.13913E+04         0.00000E+00
    0.13913E+04        -0.50000E+08         0.00000E+00
    0.00000E+00         0.00000E+00        -0.49998E+08
 
   -0.49881E+08         0.41894E+04         0.00000E+00
    0.41894E+04        -0.50000E+08         0.00000E+00
    0.00000E+00         0.00000E+00        -0.49998E+08
 
   -0.49881E+08         0.69891E+04         0.00000E+00
    0.69891E+04        -0.50000E+08         0.00000E+00
    0.00000E+00         0.00000E+00        -0.49998E+08
 
   -0.49881E+08         0.97876E+04         0.00000E+00
    0.97876E+04        -0.50000E+08         0.00000E+00
    0.00000E+00         0.00000E+00        -0.49998E+08
 
   -0.49881E+08         0.12582E+05         0.00000E+00
    0.12582E+05        -0.49999E+08         0.00000E+00
    0.00000E+00         0.00000E+00        -0.49998E+08
 
   -0.49881E+08         0.15370E+05         0.00000E+00
    0.15370E+05        -0.49999E+08         0.00000E+00
    0.00000E+00         0.00000E+00        -0.49998E+08
 
   -0.49882E+08         0.18147E+05         0.00000E+00
    0.18147E+05        -0.49999E+08         0.00000E+00
    0.00000E+00         0.00000E+00        -0.49998E+08
 
   -0.49882E+08         0.20912E+05         0.00000E+00
    0.20912E+05        -0.49998E+08         0.00000E+00
    0.00000E+00         0.00000E+00        -0.49998E+08
 
   -0.49883E+08         0.23662E+05         0.00000E+00
    0.23662E+05        -0.49998E+08         0.00000E+00
    0.00000E+00         0.00000E+00        -0.49998E+08
 
   -0.49883E+08         0.26393E+05         0.00000E+00
    0.26393E+05        -0.49997E+08         0.00000E+00
    0.00000E+00         0.00000E+00        -0.49998E+08
 
   -0.49884E+08         0.29104E+05         0.00000E+00
    0.29104E+05        -0.49996E+08         0.00000E+00
    0.00000E+00         0.00000E+00        -0.49998E+08
 
   -0.49885E+08         0.31791E+05         0.00000E+00
    0.31791E+05        -0.49996E+08         0.00000E+00
    0.00000E+00         0.00000E+00        -0.49998E+08
 
   -0.49886E+08         0.34451E+05         0.00000E+00
    0.34451E+05        -0.49995E+08         0.00000E+00
    0.00000E+00         0.00000E+00        -0.49998E+08
 
   -0.49887E+08         0.37082E+05         0.00000E+00
    0.37082E+05        -0.49994E+08         0.00000E+00
    0.00000E+00         0.00000E+00        -0.49998E+08
 
   -0.49889E+08         0.39682E+05         0.00000E+00
    0.39682E+05        -0.49993E+08         0.00000E+00
    0.00000E+00         0.00000E+00        -0.49998E+08
 
   -0.49890E+08         0.42247E+05         0.00000E+00
    0.42247E+05        -0.49992E+08         0.00000E+00
    0.00000E+00         0.00000E+00        -0.49998E+08
 
   -0.49892E+08         0.44776E+05         0.00000E+00
    0.44776E+05        -0.49991E+08         0.00000E+00
    0.00000E+00         0.00000E+00        -0.49998E+08
 
   -0.49893E+08         0.47265E+05         0.00000E+00
    0.47265E+05        -0.49990E+08         0.00000E+00
    0.00000E+00         0.00000E+00        -0.49998E+08
 
   -0.49895E+08         0.49713E+05         0.00000E+00
    0.49713E+05        -0.49989E+08         0.00000E+00
    0.00000E+00         0.00000E+00        -0.49998E+08
 
   -0.49897E+08         0.52116E+05         0.00000E+00
    0.52116E+05        -0.49988E+08         0.00000E+00
    0.00000E+00         0.00000E+00        -0.49998E+08
 
   -0.49899E+08         0.54472E+05         0.00000E+00
    0.54472E+05        -0.49987E+08         0.00000E+00
    0.00000E+00         0.00000E+00        -0.49998E+08
 
   -0.49901E+08         0.56780E+05         0.00000E+00
    0.56780E+05        -0.49985E+08         0.00000E+00
    0.00000E+00         0.00000E+00        -0.49998E+08
 
   -0.49903E+08         0.59036E+05         0.00000E+00
    0.59036E+05        -0.49984E+08         0.00000E+00
    0.00000E+00         0.00000E+00        -0.49998E+08
 
   -0.49906E+08         0.61239E+05         0.00000E+00
    0.61239E+05        -0.49983E+08         0.00000E+00
    0.00000E+00         0.00000E+00        -0.49998E+08
 
   -0.49908E+08         0.63385E+05         0.00000E+00
    0.63385E+05        -0.49981E+08         0.00000E+00
    0.00000E+00         0.00000E+00        -0.49998E+08
 
   -0.49911E+08         0.65474E+05         0.00000E+00
    0.65474E+05        -0.49980E+08         0.00000E+00
    0.00000E+00         0.00000E+00        -0.49998E+08
 
   -0.49913E+08         0.67502E+05         0.00000E+00
    0.67502E+05        -0.49978E+08         0.00000E+00
    0.00000E+00         0.00000E+00        -0.49998E+08
 
   -0.49916E+08         0.69469E+05         0.00000E+00
    0.69469E+05        -0.49977E+08         0.00000E+00
    0.00000E+00         0.00000E+00        -0.49998E+08
 
   -0.49919E+08         0.71371E+05         0.00000E+00
    0.71371E+05        -0.49975E+08         0.00000E+00
    0.00000E+00         0.00000E+00        -0.49998E+08
 
   -0.49922E+08         0.73206E+05         0.00000E+00
    0.73206E+05        -0.49973E+08         0.00000E+00
    0.00000E+00         0.00000E+00        -0.49998E+08
 
   -0.49925E+08         0.74974E+05         0.00000E+00
    0.74974E+05        -0.49972E+08         0.00000E+00
    0.00000E+00         0.00000E+00        -0.49998E+08
 
   -0.49928E+08         0.76671E+05         0.00000E+00
    0.76671E+05        -0.49970E+08         0.00000E+00
    0.00000E+00         0.00000E+00        -0.49998E+08
 
   -0.49931E+08         0.78296E+05         0.00000E+00
    0.78296E+05        -0.49968E+08         0.00000E+00
    0.00000E+00         0.00000E+00        -0.49998E+08
 
   -0.49934E+08         0.79848E+05         0.00000E+00
    0.79848E+05        -0.49966E+08         0.00000E+00
    0.00000E+00         0.00000E+00        -0.49998E+08
 
   -0.49938E+08         0.81324E+05         0.00000E+00
    0.81324E+05        -0.49965E+08         0.00000E+00
    0.00000E+00         0.00000E+00        -0.49998E+08
 
   -0.49941E+08         0.82723E+05         0.00000E+00
    0.82723E+05        -0.49963E+08         0.00000E+00
    0.00000E+00         0.00000E+00        -0.49998E+08
 
   -0.49945E+08         0.84043E+05         0.00000E+00
    0.84043E+05        -0.49961E+08         0.00000E+00
    0.00000E+00         0.00000E+00        -0.49998E+08
 
   -0.49948E+08         0.85283E+05         0.00000E+00
    0.85283E+05        -0.49959E+08         0.00000E+00
    0.00000E+00         0.00000E+00        -0.49998E+08
 
   -0.49952E+08         0.86441E+05         0.00000E+00
    0.86441E+05        -0.49957E+08         0.00000E+00
    0.00000E+00         0.00000E+00        -0.49998E+08
 
   -0.49956E+08         0.87516E+05         0.00000E+00
    0.87516E+05        -0.49955E+08         0.00000E+00
    0.00000E+00         0.00000E+00        -0.49998E+08
 
   -0.49959E+08         0.88506E+05         0.00000E+00
    0.88506E+05        -0.49953E+08         0.00000E+00
    0.00000E+00         0.00000E+00        -0.49998E+08
 
   -0.49963E+08         0.89410E+05         0.00000E+00
    0.89410E+05        -0.49951E+08         0.00000E+00
    0.00000E+00         0.00000E+00        -0.49998E+08
 
   -0.49967E+08         0.90227E+05         0.00000E+00
    0.90227E+05        -0.49949E+08         0.00000E+00
    0.00000E+00         0.00000E+00        -0.49998E+08
 
   -0.49971E+08         0.90955E+05         0.00000E+00
    0.90955E+05        -0.49947E+08         0.00000E+00
    0.00000E+00         0.00000E+00        -0.49998E+08
 
   -0.49975E+08         0.91593E+05         0.00000E+00
    0.91593E+05        -0.49945E+08         0.00000E+00
    0.00000E+00         0.00000E+00        -0.49998E+08
 
   -0.49979E+08         0.92140E+05         0.00000E+00
    0.92140E+05        -0.49942E+08         0.00000E+00
    0.00000E+00         0.00000E+00        -0.49998E+08
 
   -0.49983E+08         0.92596E+05         0.00000E+00
    0.92596E+05        -0.49940E+08         0.00000E+00
    0.00000E+00         0.00000E+00        -0.49998E+08
 
   -0.49987E+08         0.92958E+05         0.00000E+00
    0.92958E+05        -0.49938E+08         0.00000E+00
    0.00000E+00         0.00000E+00        -0.49998E+08
 
   -0.49992E+08         0.93227E+05         0.00000E+00
    0.93227E+05        -0.49936E+08         0.00000E+00
    0.00000E+00         0.00000E+00        -0.49998E+08
 
   -0.49996E+08         0.93401E+05         0.00000E+00
    0.93401E+05        -0.49934E+08         0.00000E+00
    0.00000E+00         0.00000E+00        -0.49998E+08
 
   -0.49867E+08         0.15656E+04         0.00000E+00
    0.15656E+04        -0.50000E+08         0.00000E+00
    0.00000E+00         0.00000E+00        -0.49998E+08
 
   -0.49867E+08         0.47115E+04         0.00000E+00
    0.47115E+04        -0.50000E+08         0.00000E+00
    0.00000E+00         0.00000E+00        -0.49998E+08
 
   -0.49866E+08         0.78585E+04         0.00000E+00
    0.78585E+04        -0.50000E+08         0.00000E+00
    0.00000E+00         0.00000E+00        -0.49998E+08
 
   -0.49866E+08         0.11003E+05         0.00000E+00
    0.11003E+05        -0.50000E+08         0.00000E+00
    0.00000E+00         0.00000E+00        -0.49998E+08
 
   -0.49866E+08         0.14143E+05         0.00000E+00
    0.14143E+05        -0.49999E+08         0.00000E+00
    0.00000E+00         0.00000E+00        -0.49998E+08
 
   -0.49867E+08         0.17273E+05         0.00000E+00
    0.17273E+05        -0.49999E+08         0.00000E+00
    0.00000E+00         0.00000E+00        -0.49998E+08
 
   -0.49867E+08         0.20392E+05         0.00000E+00
    0.20392E+05        -0.49998E+08         0.00000E+00
    0.00000E+00         0.00000E+00        -0.49998E+08
 
   -0.49868E+08         0.23496E+05         0.00000E+00
    0.23496E+05        -0.49998E+08         0.00000E+00
    0.00000E+00         0.00000E+00        -0.49998E+08
 
   -0.49868E+08         0.26582E+05         0.00000E+00
    0.26582E+05        -0.49997E+08         0.00000E+00
    0.00000E+00         0.00000E+00        -0.49998E+08
 
   -0.49869E+08         0.29647E+05         0.00000E+00
    0.29647E+05        -0.49997E+08         0.00000E+00
    0.00000E+00         0.00000E+00        -0.49998E+08
 
   -0.49870E+08         0.32687E+05         0.00000E+00
    0.32687E+05        -0.49996E+08         0.00000E+00
    0.00000E+00         0.00000E+00        -0.49998E+08
 
   -0.49871E+08         0.35701E+05         0.00000E+00
    0.35701E+05        -0.49995E+08         0.00000E+00
    0.00000E+00         0.00000E+00        -0.49998E+08
 
   -0.49872E+08         0.38684E+05         0.00000E+00
    0.38684E+05        -0.49994E+08         0.00000E+00
    0.00000E+00         0.00000E+00        -0.49998E+08
 
   -0.49874E+08         0.41634E+05         0.00000E+00
    0.41634E+05        -0.49993E+08         0.00000E+00
    0.00000E+00         0.00000E+00        -0.49998E+08
 
   -0.49875E+08         0.44548E+05         0.00000E+00
    0.44548E+05        -0.49992E+08         0.00000E+00
    0.00000E+00         0.00000E+00        -0.49998E+08
 
   -0.49877E+08         0.47423E+05         0.00000E+00
    0.47423E+05        -0.49991E+08         0.00000E+00
    0.00000E+00         0.00000E+00        -0.49998E+08
 
   -0.49878E+08         0.50256E+05         0.00000E+00
    0.50256E+05        -0.49990E+08         0.00000E+00
    0.00000E+00         0.00000E+00        -0.49998E+08
 
   -0.49880E+08         0.53045E+05         0.00000E+00
    0.53045E+05        -0.49989E+08         0.00000E+00
    0.00000E+00         0.00000E+00        -0.49998E+08
 
   -0.49882E+08         0.55787E+05         0.00000E+00
    0.55787E+05        -0.49988E+08         0.00000E+00
    0.00000E+00         0.00000E+00        -0.49998E+08
 
   -0.49884E+08         0.58478E+05         0.00000E+00
    0.58478E+05        -0.49986E+08         0.00000E+00
    0.00000E+00         0.00000E+00        -0.49998E+08
 
   -0.49887E+08         0.61117E+05         0.00000E+00
    0.61117E+05        -0.49985E+08         0.00000E+00
    0.00000E+00         0.00000E+00        -0.49998E+08
 
   -0.49889E+08         0.63701E+05         0.00000E+00
    0.63701E+05        -0.49984E+08         0.00000E+00
    0.00000E+00         0.00000E+00        -0.49998E+08
 
   -0.49892E+08         0.66227E+05         0.00000E+00
    0.66227E+05        -0.49982E+08         0.00000E+00
    0.00000E+00         0.00000E+00        -0.49998E+08
 
   -0.49894E+08         0.68693E+05         0.00000E+00
    0.68693E+05        -0.49981E+08         0.00000E+00
    0.00000E+00         0.00000E+00        -0.49998E+08
 
   -0.49897E+08         0.71096E+05         0.00000E+00
    0.71096E+05        -0.49979E+08         0.00000E+00
    0.00000E+00         0.00000E+00        -0.49998E+08
 
   -0.49900E+08         0.73434E+05         0.00000E+00
    0.73434E+05        -0.49977E+08         0.00000E+00
    0.00000E+00         0.00000E+00        -0.49998E+08
 
   -0.49903E+08         0.75704E+05         0.00000E+00
    0.75704E+05        -0.49976E+08         0.00000E+00
    0.00000E+00         0.00000E+00        -0.49998E+08
 
   -0.49906E+08         0.77905E+05         0.00000E+00
    0.77905E+05        -0.49974E+08         0.00000E+00
    0.00000E+00         0.00000E+00        -0.49998E+08
 
   -0.49909E+08         0.80033E+05         0.00000E+00
    0.80033E+05        -0.49972E+08         0.00000E+00
    0.00000E+00         0.00000E+00        -0.49998E+08
 
   -0.49912E+08         0.82088E+05         0.00000E+00
    0.82088E+05        -0.49970E+08         0.00000E+00
    0.00000E+00         0.00000E+00        -0.49998E+08
 
   -0.49916E+08         0.84065E+05         0.00000E+00
    0.84065E+05        -0.49968E+08         0.00000E+00
    0.00000E+00         0.00000E+00        -0.49998E+08
 
   -0.49919E+08         0.85965E+05         0.00000E+00
    0.85965E+05        -0.49966E+08         0.00000E+00
    0.00000E+00         0.00000E+00        -0.49998E+08
 
   -0.49923E+08         0.87784E+05         0.00000E+00
    0.87784E+05        -0.49964E+08         0.00000E+00
    0.00000E+00         0.00000E+00        -0.49998E+08
 
   -0.49926E+08         0.89521E+05         0.00000E+00
    0.89521E+05        -0.49962E+08         0.00000E+00
    0.00000E+00         0.00000E+00        -0.49998E+08
 
   -0.49930E+08         0.91173E+05         0.00000E+00
    0.91173E+05        -0.49960E+08         0.00000E+00
    0.00000E+00         0.00000E+00        -0.49998E+08
 
   -0.49934E+08         0.92740E+05         0.00000E+00
    0.92740E+05        -0.49958E+08         0.00000E+00
    0.00000E+00         0.00000E+00        -0.49998E+08
 
   -0.49938E+08         0.94218E+05         0.00000E+00
    0.94218E+05        -0.49956E+08         0.00000E+00
    0.00000E+00         0.00000E+00        -0.49998E+08
 
   -0.49942E+08         0.95607E+05         0.00000E+00
    0.95607E+05        -0.49954E+08         0.00000E+00
    0.00000E+00         0.00000E+00        -0.49998E+08
 
   -0.49946E+08         0.96904E+05         0.00000E+00
    0.96904E+05        -0.49952E+08         0.00000E+00
    0.00000E+00         0.00000E+00        -0.49998E+08
 
   -0.49950E+08         0.98109E+05         0.00000E+00
    0.98109E+05        -0.49949E+08         0.00000E+00
    0.00000E+00         0.00000E+00        -0.49998E+08
 
   -0.49954E+08         0.99219E+05         0.00000E+00
    0.99219E+05        -0.49947E+08         0.00000E+00
    0.00000E+00         0.00000E+00        -0.49998E+08
 
   -0.49959E+08         0.10023E+06         0.00000E+00
    0.10023E+06        -0.49945E+08         0.00000E+00
    0.00000E+00         0.00000E+00        -0.49998E+08
 
   -0.49963E+08         0.10115E+06         0.00000E+00
    0.10115E+06        -0.49943E+08         0.00000E+00
    0.00000E+00         0.00000E+00        -0.49998E+08
 
   -0.49967E+08         0.10197E+06         0.00000E+00
    0.10197E+06        -0.49940E+08         0.00000E+00
    0.00000E+00         0.00000E+00        -0.49998E+08
 
   -0.49972E+08         0.10269E+06         0.00000E+00
    0.10269E+06        -0.49938E+08         0.00000E+00
    0.00000E+00         0.00000E+00        -0.49998E+08
 
   -0.49976E+08         0.10330E+06         0.00000E+00
    0.10330E+06        -0.49936E+08         0.00000E+00
    0.00000E+00         0.00000E+00        -0.49998E+08
 
   -0.49981E+08         0.10382E+06         0.00000E+00
    0.10382E+06        -0.49933E+08         0.00000E+00
    0.00000E+00         0.00000E+00        -0.49998E+08
 
   -0.49986E+08         0.10423E+06         0.00000E+00
    0.10423E+06        -0.49931E+08         0.00000E+00
    0.00000E+00         0.00000E+00        -0.49998E+08
 
   -0.49990E+08         0.10454E+06         0.00000E+00
    0.10454E+06        -0.49929E+08         0.00000E+00
    0.00000E+00         0.00000E+00        -0.49998E+08
 
   -0.49995E+08         0.10474E+06         0.00000E+00
    0.10474E+06        -0.49926E+08         0.00000E+00
    0.00000E+00         0.00000E+00        -0.49998E+08
 
   -0.49850E+08         0.17614E+04         0.00000E+00
    0.17614E+04        -0.50000E+08         0.00000E+00
    0.00000E+00         0.00000E+00        -0.49997E+08
 
   -0.49850E+08         0.52978E+04         0.00000E+00
    0.52978E+04        -0.50000E+08         0.00000E+00
    0.00000E+00         0.00000E+00        -0.49997E+08
 
   -0.49850E+08         0.88342E+04         0.00000E+00
    0.88342E+04        -0.50000E+08         0.00000E+00
    0.00000E+00         0.00000E+00        -0.49997E+08
 
   -0.49850E+08         0.12367E+05         0.00000E+00
    0.12367E+05        -0.49999E+08         0.00000E+00
    0.00000E+00         0.00000E+00        -0.49997E+08
 
   -0.49850E+08         0.15893E+05         0.00000E+00
    0.15893E+05        -0.49999E+08         0.00000E+00
    0.00000E+00         0.00000E+00        -0.49997E+08
 
   -0.49850E+08         0.19408E+05         0.00000E+00
    0.19408E+05        -0.49999E+08         0.00000E+00
    0.00000E+00         0.00000E+00        -0.49997E+08
 
   -0.49851E+08         0.22909E+05         0.00000E+00
    0.22909E+05        -0.49998E+08         0.00000E+00
    0.00000E+00         0.00000E+00        -0.49997E+08
 
   -0.49851E+08         0.26393E+05         0.00000E+00
    0.26393E+05        -0.49998E+08         0.00000E+00
    0.00000E+00         0.00000E+00        -0.49997E+08
 
   -0.49852E+08         0.29855E+05         0.00000E+00
    0.29855E+05        -0.49997E+08         0.00000E+00
    0.00000E+00         0.00000E+00        -0.49997E+08
 
   -0.49853E+08         0.33292E+05         0.00000E+00
    0.33292E+05        -0.49996E+08         0.00000E+00
    0.00000E+00         0.00000E+00        -0.49997E+08
 
   -0.49854E+08         0.36702E+05         0.00000E+00
    0.36702E+05        -0.49995E+08         0.00000E+00
    0.00000E+00         0.00000E+00        -0.49997E+08
 
   -0.49855E+08         0.40081E+05         0.00000E+00
    0.40081E+05        -0.49995E+08         0.00000E+00
    0.00000E+00         0.00000E+00        -0.49997E+08
 
   -0.49857E+08         0.43425E+05         0.00000E+00
    0.43425E+05        -0.49994E+08         0.00000E+00
    0.00000E+00         0.00000E+00        -0.49997E+08
 
   -0.49858E+08         0.46731E+05         0.00000E+00
    0.46731E+05        -0.49993E+08         0.00000E+00
    0.00000E+00         0.00000E+00        -0.49997E+08
 
   -0.49860E+08         0.49996E+05         0.00000E+00
    0.49996E+05        -0.49991E+08         0.00000E+00
    0.00000E+00         0.00000E+00        -0.49997E+08
 
   -0.49862E+08         0.53217E+05         0.00000E+00
    0.53217E+05        -0.49990E+08         0.00000E+00
    0.00000E+00         0.00000E+00        -0.49997E+08
 
   -0.49864E+08         0.56390E+05         0.00000E+00
    0.56390E+05        -0.49989E+08         0.00000E+00
    0.00000E+00         0.00000E+00        -0.49997E+08
 
   -0.49866E+08         0.59513E+05         0.00000E+00
    0.59513E+05        -0.49988E+08         0.00000E+00
    0.00000E+00         0.00000E+00        -0.49997E+08
 
   -0.49868E+08         0.62583E+05         0.00000E+00
    0.62583E+05        -0.49986E+08         0.00000E+00
    0.00000E+00         0.00000E+00        -0.49997E+08
 
   -0.49870E+08         0.65596E+05         0.00000E+00
    0.65596E+05        -0.49985E+08         0.00000E+00
    0.00000E+00         0.00000E+00        -0.49997E+08
 
   -0.49873E+08         0.68550E+05         0.00000E+00
    0.68550E+05        -0.49983E+08         0.00000E+00
    0.00000E+00         0.00000E+00        -0.49997E+08
 
   -0.49876E+08         0.71442E+05         0.00000E+00
    0.71442E+05        -0.49982E+08         0.00000E+00
    0.00000E+00         0.00000E+00        -0.49997E+08
 
   -0.49878E+08         0.74269E+05         0.00000E+00
    0.74269E+05        -0.49980E+08         0.00000E+00
    0.00000E+00         0.00000E+00        -0.49997E+08
 
   -0.49881E+08         0.77028E+05         0.00000E+00
    0.77028E+05        -0.49978E+08         0.00000E+00
    0.00000E+00         0.00000E+00        -0.49997E+08
 
   -0.49884E+08         0.79717E+05         0.00000E+00
    0.79717E+05        -0.49976E+08         0.00000E+00
    0.00000E+00         0.00000E+00        -0.49997E+08
 
   -0.49888E+08         0.82332E+05         0.00000E+00
    0.82332E+05        -0.49975E+08         0.00000E+00
    0.00000E+00         0.00000E+00        -0.49997E+08
 
   -0.49891E+08         0.84872E+05         0.00000E+00
    0.84872E+05        -0.49973E+08         0.00000E+00
    0.00000E+00         0.00000E+00        -0.49997E+08
 
   -0.49894E+08         0.87334E+05         0.00000E+00
    0.87334E+05        -0.49971E+08         0.00000E+00
    0.00000E+00         0.00000E+00        -0.49997E+08
 
   -0.49898E+08         0.89715E+05         0.00000E+00
    0.89715E+05        -0.49969E+08         0.00000E+00
    0.00000E+00         0.00000E+00        -0.49997E+08
 
   -0.49902E+08         0.92013E+05         0.00000E+00
    0.92013E+05        -0.49967E+08         0.00000E+00
    0.00000E+00         0.00000E+00        -0.49997E+08
 
   -0.49905E+08         0.94225E+05         0.00000E+00
    0.94225E+05        -0.49965E+08         0.00000E+00
    0.00000E+00         0.00000E+00        -0.49997E+08
 
   -0.49909E+08         0.96350E+05         0.00000E+00
    0.96350E+05        -0.49962E+08         0.00000E+00
    0.00000E+00         0.00000E+00        -0.49997E+08
 
   -0.49913E+08         0.98385E+05         0.00000E+00
    0.98385E+05        -0.49960E+08         0.00000E+00
    0.00000E+00         0.00000E+00        -0.49997E+08
 
   -0.49917E+08         0.10033E+06         0.00000E+00
    0.10033E+06        -0.49958E+08         0.00000E+00
    0.00000E+00         0.00000E+00        -0.49997E+08
 
   -0.49922E+08         0.10218E+06         0.00000E+00
    0.10218E+06        -0.49956E+08         0.00000E+00
    0.00000E+00         0.00000E+00        -0.49997E+08
 
   -0.49926E+08         0.10393E+06         0.00000E+00
    0.10393E+06        -0.49953E+08         0.00000E+00
    0.00000E+00         0.00000E+00        -0.49997E+08
 
   -0.49930E+08         0.10558E+06         0.00000E+00
    0.10558E+06        -0.49951E+08         0.00000E+00
    0.00000E+00         0.00000E+00        -0.49997E+08
 
   -0.49935E+08         0.10714E+06         0.00000E+00
    0.10714E+06        -0.49948E+08         0.00000E+00
    0.00000E+00         0.00000E+00        -0.49997E+08
 
   -0.49939E+08         0.10859E+06         0.00000E+00
    0.10859E+06        -0.49946E+08         0.00000E+00
    0.00000E+00         0.00000E+00        -0.49997E+08
 
   -0.49944E+08         0.10994E+06         0.00000E+00
    0.10994E+06        -0.49944E+08         0.00000E+00
    0.00000E+00         0.00000E+00        -0.49997E+08
 
   -0.49949E+08         0.11119E+06         0.00000E+00
    0.11119E+06        -0.49941E+08         0.00000E+00
    0.00000E+00         0.00000E+00        -0.49997E+08
 
   -0.49953E+08         0.11232E+06         0.00000E+00
    0.11232E+06        -0.49938E+08         0.00000E+00
    0.00000E+00         0.00000E+00        -0.49997E+08
 
   -0.49958E+08         0.11335E+06         0.00000E+00
    0.11335E+06        -0.49936E+08         0.00000E+00
    0.00000E+00         0.00000E+00        -0.49997E+08
 
   -0.49963E+08         0.11427E+06         0.00000E+00
    0.11427E+06        -0.49933E+08         0.00000E+00
    0.00000E+00         0.00000E+00        -0.49997E+08
 
   -0.49968E+08         0.11508E+06         0.00000E+00
    0.11508E+06        -0.49931E+08         0.00000E+00
    0.00000E+00         0.00000E+00        -0.49997E+08
 
   -0.49973E+08         0.11578E+06         0.00000E+00
    0.11578E+06        -0.49928E+08         0.00000E+00
    0.00000E+00         0.00000E+00        -0.49997E+08
 
   -0.49979E+08         0.11636E+06         0.00000E+00
    0.11636E+06        -0.49925E+08         0.00000E+00
    0.00000E+00         0.00000E+00        -0.49997E+08
 
   -0.49984E+08         0.11682E+06         0.00000E+00
    0.11682E+06        -0.49923E+08         0.00000E+00
    0.00000E+00         0.00000E+00        -0.49997E+08
 
   -0.49989E+08         0.11717E+06         0.00000E+00
    0.11717E+06        -0.49920E+08         0.00000E+00
    0.00000E+00         0.00000E+00        -0.49997E+08
 
   -0.49994E+08         0.11741E+06         0.00000E+00
    0.11741E+06        -0.49917E+08         0.00000E+00
    0.00000E+00         0.00000E+00        -0.49997E+08
 
   -0.49831E+08         0.19814E+04         0.00000E+00
    0.19814E+04        -0.50000E+08         0.00000E+00
    0.00000E+00         0.00000E+00        -0.49996E+08
 
   -0.49831E+08         0.59558E+04         0.00000E+00
    0.59558E+04        -0.50000E+08         0.00000E+00
    0.00000E+00         0.00000E+00        -0.49996E+08
 
   -0.49831E+08         0.99290E+04         0.00000E+00
    0.99290E+04        -0.50000E+08         0.00000E+00
    0.00000E+00         0.00000E+00        -0.49996E+08
 
   -0.49831E+08         0.13897E+05         0.00000E+00
    0.13897E+05        -0.49999E+08         0.00000E+00
    0.00000E+00         0.00000E+00        -0.49996E+08
 
   -0.49831E+08         0.17856E+05         0.00000E+00
    0.17856E+05        -0.49999E+08         0.00000E+00
    0.00000E+00         0.00000E+00        -0.49996E+08
 
   -0.49831E+08         0.21802E+05         0.00000E+00
    0.21802E+05        -0.49999E+08         0.00000E+00
    0.00000E+00         0.00000E+00        -0.49996E+08
 
   -0.49832E+08         0.25730E+05         0.00000E+00
    0.25730E+05        -0.49998E+08         0.00000E+00
    0.00000E+00         0.00000E+00        -0.49996E+08
 
   -0.49833E+08         0.29638E+05         0.00000E+00
    0.29638E+05        -0.49997E+08         0.00000E+00
    0.00000E+00         0.00000E+00        -0.49996E+08
 
   -0.49834E+08         0.33521E+05         0.00000E+00
    0.33521E+05        -0.49997E+08         0.00000E+00
    0.00000E+00         0.00000E+00        -0.49996E+08
 
   -0.49835E+08         0.37376E+05         0.00000E+00
    0.37376E+05        -0.49996E+08         0.00000E+00
    0.00000E+00         0.00000E+00        -0.49996E+08
 
   -0.49836E+08         0.41198E+05         0.00000E+00
    0.41198E+05        -0.49995E+08         0.00000E+00
    0.00000E+00         0.00000E+00        -0.49996E+08
 
   -0.49837E+08         0.44985E+05         0.00000E+00
    0.44985E+05        -0.49994E+08         0.00000E+00
    0.00000E+00         0.00000E+00        -0.49996E+08
 
   -0.49839E+08         0.48731E+05         0.00000E+00
    0.48731E+05        -0.49993E+08         0.00000E+00
    0.00000E+00         0.00000E+00        -0.49996E+08
 
   -0.49841E+08         0.52435E+05         0.00000E+00
    0.52435E+05        -0.49992E+08         0.00000E+00
    0.00000E+00         0.00000E+00        -0.49996E+08
 
   -0.49843E+08         0.56092E+05         0.00000E+00
    0.56092E+05        -0.49990E+08         0.00000E+00
    0.00000E+00         0.00000E+00        -0.49996E+08
 
   -0.49845E+08         0.59699E+05         0.00000E+00
    0.59699E+05        -0.49989E+08         0.00000E+00
    0.00000E+00         0.00000E+00        -0.49996E+08
 
   -0.49847E+08         0.63252E+05         0.00000E+00
    0.63252E+05        -0.49988E+08         0.00000E+00
    0.00000E+00         0.00000E+00        -0.49996E+08
 
   -0.49849E+08         0.66747E+05         0.00000E+00
    0.66747E+05        -0.49986E+08         0.00000E+00
    0.00000E+00         0.00000E+00        -0.49996E+08
 
   -0.49852E+08         0.70183E+05         0.00000E+00
    0.70183E+05        -0.49985E+08         0.00000E+00
    0.00000E+00         0.00000E+00        -0.49996E+08
 
   -0.49855E+08         0.73555E+05         0.00000E+00
    0.73555E+05        -0.49983E+08         0.00000E+00
    0.00000E+00         0.00000E+00        -0.49996E+08
 
   -0.49857E+08         0.76860E+05         0.00000E+00
    0.76860E+05        -0.49981E+08         0.00000E+00
    0.00000E+00         0.00000E+00        -0.49996E+08
 
   -0.49860E+08         0.80095E+05         0.00000E+00
    0.80095E+05        -0.49980E+08         0.00000E+00
    0.00000E+00         0.00000E+00        -0.49996E+08
 
   -0.49864E+08         0.83257E+05         0.00000E+00
    0.83257E+05        -0.49978E+08         0.00000E+00
    0.00000E+00         0.00000E+00        -0.49996E+08
 
   -0.49867E+08         0.86342E+05         0.00000E+00
    0.86342E+05        -0.49976E+08         0.00000E+00
    0.00000E+00         0.00000E+00        -0.49996E+08
 
   -0.49870E+08         0.89349E+05         0.00000E+00
    0.89349E+05        -0.49974E+08         0.00000E+00
    0.00000E+00         0.00000E+00        -0.49996E+08
 
   -0.49874E+08         0.92274E+05         0.00000E+00
    0.92274E+05        -0.49972E+08         0.00000E+00
    0.00000E+00         0.00000E+00        -0.49996E+08
 
   -0.49878E+08         0.95114E+05         0.00000E+00
    0.95114E+05        -0.49970E+08         0.00000E+00
    0.00000E+00         0.00000E+00        -0.49996E+08
 
   -0.49882E+08         0.97866E+05         0.00000E+00
    0.97866E+05        -0.49967E+08         0.00000E+00
    0.00000E+00         0.00000E+00        -0.49996E+08
 
   -0.49886E+08         0.10053E+06         0.00000E+00
    0.10053E+06        -0.49965E+08         0.00000E+00
    0.00000E+00         0.00000E+00        -0.49996E+08
 
   -0.49890E+08         0.10310E+06         0.00000E+00
    0.10310E+06        -0.49963E+08         0.00000E+00
    0.00000E+00         0.00000E+00        -0.49996E+08
 
   -0.49894E+08         0.10557E+06         0.00000E+00
    0.10557E+06        -0.49960E+08         0.00000E+00
    0.00000E+00         0.00000E+00        -0.49996E+08
 
   -0.49898E+08         0.10795E+06         0.00000E+00
    0.10795E+06        -0.49958E+08         0.00000E+00
    0.00000E+00         0.00000E+00        -0.49996E+08
 
   -0.49903E+08         0.11022E+06         0.00000E+00
    0.11022E+06        -0.49955E+08         0.00000E+00
    0.00000E+00         0.00000E+00        -0.49996E+08
 
   -0.49907E+08         0.11240E+06         0.00000E+00
    0.11240E+06        -0.49953E+08         0.00000E+00
    0.00000E+00         0.00000E+00        -0.49996E+08
 
   -0.49912E+08         0.11446E+06         0.00000E+00
    0.11446E+06        -0.49950E+08         0.00000E+00
    0.00000E+00         0.00000E+00        -0.49996E+08
 
   -0.49917E+08         0.11642E+06         0.00000E+00
    0.11642E+06        -0.49948E+08         0.00000E+00
    0.00000E+00         0.00000E+00        -0.49996E+08
 
   -0.49922E+08         0.11827E+06         0.00000E+00
    0.11827E+06        -0.49945E+08         0.00000E+00
    0.00000E+00         0.00000E+00        -0.49996E+08
 
   -0.49927E+08         0.12001E+06         0.00000E+00
    0.12001E+06        -0.49942E+08         0.00000E+00
    0.00000E+00         0.00000E+00        -0.49996E+08
 
   -0.49932E+08         0.12164E+06         0.00000E+00
    0.12164E+06        -0.49940E+08         0.00000E+00
    0.00000E+00         0.00000E+00        -0.49996E+08
 
   -0.49937E+08         0.12315E+06         0.00000E+00
    0.12315E+06        -0.49937E+08         0.00000E+00
    0.00000E+00         0.00000E+00        -0.49996E+08
 
   -0.49942E+08         0.12455E+06         0.00000E+00
    0.12455E+06        -0.49934E+08         0.00000E+00
    0.00000E+00         0.00000E+00        -0.49996E+08
 
   -0.49948E+08         0.12582E+06         0.00000E+00
    0.12582E+06        -0.49931E+08         0.00000E+00
    0.00000E+00         0.00000E+00        -0.49996E+08
 
   -0.49953E+08         0.12698E+06         0.00000E+00
    0.12698E+06        -0.49928E+08         0.00000E+00
    0.00000E+00         0.00000E+00        -0.49996E+08
 
   -0.49959E+08         0.12801E+06         0.00000E+00
    0.12801E+06        -0.49925E+08         0.00000E+00
    0.00000E+00         0.00000E+00        -0.49996E+08
 
   -0.49964E+08         0.12892E+06         0.00000E+00
    0.12892E+06        -0.49923E+08         0.00000E+00
    0.00000E+00         0.00000E+00        -0.49996E+08
 
   -0.49970E+08         0.12970E+06         0.00000E+00
    0.12970E+06        -0.49920E+08         0.00000E+00
    0.00000E+00         0.00000E+00        -0.49996E+08
 
   -0.49976E+08         0.13036E+06         0.00000E+00
    0.13036E+06        -0.49917E+08         0.00000E+00
    0.00000E+00         0.00000E+00        -0.49996E+08
 
   -0.49982E+08         0.13089E+06         0.00000E+00
    0.13089E+06        -0.49914E+08         0.00000E+00
    0.00000E+00         0.00000E+00        -0.49996E+08
 
   -0.49988E+08         0.13129E+06         0.00000E+00
    0.13129E+06        -0.49911E+08         0.00000E+00
    0.00000E+00         0.00000E+00        -0.49996E+08
 
   -0.49993E+08         0.13156E+06         0.00000E+00
    0.13156E+06        -0.49908E+08         0.00000E+00
    0.00000E+00         0.00000E+00        -0.49996E+08
 
   -0.49810E+08         0.22284E+04         0.00000E+00
    0.22284E+04        -0.50000E+08         0.00000E+00
    0.00000E+00         0.00000E+00        -0.49996E+08
 
   -0.49810E+08         0.66940E+04         0.00000E+00
    0.66940E+04        -0.50000E+08         0.00000E+00
    0.00000E+00         0.00000E+00        -0.49996E+08
 
   -0.49810E+08         0.11157E+05         0.00000E+00
    0.11157E+05        -0.50000E+08         0.00000E+00
    0.00000E+00         0.00000E+00        -0.49996E+08
 
   -0.49810E+08         0.15612E+05         0.00000E+00
    0.15612E+05        -0.49999E+08         0.00000E+00
    0.00000E+00         0.00000E+00        -0.49996E+08
 
   -0.49810E+08         0.20056E+05         0.00000E+00
    0.20056E+05        -0.49999E+08         0.00000E+00
    0.00000E+00         0.00000E+00        -0.49996E+08
 
   -0.49811E+08         0.24483E+05         0.00000E+00
    0.24483E+05        -0.49998E+08         0.00000E+00
    0.00000E+00         0.00000E+00        -0.49996E+08
 
   -0.49811E+08         0.28891E+05         0.00000E+00
    0.28891E+05        -0.49998E+08         0.00000E+00
    0.00000E+00         0.00000E+00        -0.49996E+08
 
   -0.49812E+08         0.33273E+05         0.00000E+00
    0.33273E+05        -0.49997E+08         0.00000E+00
    0.00000E+00         0.00000E+00        -0.49996E+08
 
   -0.49813E+08         0.37627E+05         0.00000E+00
    0.37627E+05        -0.49996E+08         0.00000E+00
    0.00000E+00         0.00000E+00        -0.49996E+08
 
   -0.49814E+08         0.41947E+05         0.00000E+00
    0.41947E+05        -0.49995E+08         0.00000E+00
    0.00000E+00         0.00000E+00        -0.49996E+08
 
   -0.49816E+08         0.46230E+05         0.00000E+00
    0.46230E+05        -0.49994E+08         0.00000E+00
    0.00000E+00         0.00000E+00        -0.49996E+08
 
   -0.49817E+08         0.50472E+05         0.00000E+00
    0.50472E+05        -0.49993E+08         0.00000E+00
    0.00000E+00         0.00000E+00        -0.49996E+08
 
   -0.49819E+08         0.54669E+05         0.00000E+00
    0.54669E+05        -0.49992E+08         0.00000E+00
    0.00000E+00         0.00000E+00        -0.49996E+08
 
   -0.49821E+08         0.58816E+05         0.00000E+00
    0.58816E+05        -0.49991E+08         0.00000E+00
    0.00000E+00         0.00000E+00        -0.49996E+08
 
   -0.49823E+08         0.62909E+05         0.00000E+00
    0.62909E+05        -0.49989E+08         0.00000E+00
    0.00000E+00         0.00000E+00        -0.49996E+08
 
   -0.49826E+08         0.66946E+05         0.00000E+00
    0.66946E+05        -0.49988E+08         0.00000E+00
    0.00000E+00         0.00000E+00        -0.49996E+08
 
   -0.49828E+08         0.70922E+05         0.00000E+00
    0.70922E+05        -0.49986E+08         0.00000E+00
    0.00000E+00         0.00000E+00        -0.49996E+08
 
   -0.49831E+08         0.74833E+05         0.00000E+00
    0.74833E+05        -0.49985E+08         0.00000E+00
    0.00000E+00         0.00000E+00        -0.49996E+08
 
   -0.49834E+08         0.78676E+05         0.00000E+00
    0.78676E+05        -0.49983E+08         0.00000E+00
    0.00000E+00         0.00000E+00        -0.49996E+08
 
   -0.49837E+08         0.82447E+05         0.00000E+00
    0.82447E+05        -0.49981E+08         0.00000E+00
    0.00000E+00         0.00000E+00        -0.49996E+08
 
   -0.49840E+08         0.86143E+05         0.00000E+00
    0.86143E+05        -0.49979E+08         0.00000E+00
    0.00000E+00         0.00000E+00        -0.49996E+08
 
   -0.49844E+08         0.89760E+05         0.00000E+00
    0.89760E+05        -0.49977E+08         0.00000E+00
    0.00000E+00         0.00000E+00        -0.49996E+08
 
   -0.49847E+08         0.93295E+05         0.00000E+00
    0.93295E+05        -0.49975E+08         0.00000E+00
    0.00000E+00         0.00000E+00        -0.49996E+08
 
   -0.49851E+08         0.96744E+05         0.00000E+00
    0.96744E+05        -0.49973E+08         0.00000E+00
    0.00000E+00         0.00000E+00        -0.49996E+08
 
   -0.49855E+08         0.10010E+06         0.00000E+00
    0.10010E+06        -0.49971E+08         0.00000E+00
    0.00000E+00         0.00000E+00        -0.49996E+08
 
   -0.49859E+08         0.10337E+06         0.00000E+00
    0.10337E+06        -0.49968E+08         0.00000E+00
    0.00000E+00         0.00000E+00        -0.49996E+08
 
   -0.49863E+08         0.10655E+06         0.00000E+00
    0.10655E+06        -0.49966E+08         0.00000E+00
    0.00000E+00         0.00000E+00        -0.49996E+08
 
   -0.49867E+08         0.10962E+06         0.00000E+00
    0.10962E+06        -0.49963E+08         0.00000E+00
    0.00000E+00         0.00000E+00        -0.49996E+08
 
   -0.49872E+08         0.11260E+06         0.00000E+00
    0.11260E+06        -0.49961E+08         0.00000E+00
    0.00000E+00         0.00000E+00        -0.49996E+08
 
   -0.49876E+08         0.11547E+06         0.00000E+00
    0.11547E+06        -0.49958E+08         0.00000E+00
    0.00000E+00         0.00000E+00        -0.49996E+08
 
   -0.49881E+08         0.11823E+06         0.00000E+00
    0.11823E+06        -0.49956E+08         0.00000E+00
    0.00000E+00         0.00000E+00        -0.49996E+08
 
   -0.49886E+08         0.12089E+06         0.00000E+00
    0.12089E+06        -0.49953E+08         0.00000E+00
    0.00000E+00         0.00000E+00        -0.49996E+08
 
   -0.49891E+08         0.12343E+06         0.00000E+00
    0.12343E+06        -0.49950E+08         0.00000E+00
    0.00000E+00         0.00000E+00        -0.49996E+08
 
   -0.49896E+08         0.12586E+06         0.00000E+00
    0.12586E+06        -0.49947E+08         0.00000E+00
    0.00000E+00         0.00000E+00        -0.49996E+08
 
   -0.49901E+08         0.12817E+06         0.00000E+00
    0.12817E+06        -0.49945E+08         0.00000E+00
    0.00000E+00         0.00000E+00        -0.49996E+08
 
   -0.49907E+08         0.13036E+06         0.00000E+00
    0.13036E+06        -0.49942E+08         0.00000E+00
    0.00000E+00         0.00000E+00        -0.49996E+08
 
   -0.49912E+08         0.13243E+06         0.00000E+00
    0.13243E+06        -0.49939E+08         0.00000E+00
    0.00000E+00         0.00000E+00        -0.49996E+08
 
   -0.49918E+08         0.13438E+06         0.00000E+00
    0.13438E+06        -0.49936E+08         0.00000E+00
    0.00000E+00         0.00000E+00        -0.49996E+08
 
   -0.49924E+08         0.13620E+06         0.00000E+00
    0.13620E+06        -0.49933E+08         0.00000E+00
    0.00000E+00         0.00000E+00        -0.49996E+08
 
   -0.49929E+08         0.13789E+06         0.00000E+00
    0.13789E+06        -0.49930E+08         0.00000E+00
    0.00000E+00         0.00000E+00        -0.49996E+08
 
   -0.49935E+08         0.13945E+06         0.00000E+00
    0.13945E+06        -0.49926E+08         0.00000E+00
    0.00000E+00         0.00000E+00        -0.49996E+08
 
   -0.49941E+08         0.14088E+06         0.00000E+00
    0.14088E+06        -0.49923E+08         0.00000E+00
    0.00000E+00         0.00000E+00        -0.49996E+08
 
   -0.49947E+08         0.14218E+06         0.00000E+00
    0.14218E+06        -0.49920E+08         0.00000E+00
    0.00000E+00         0.00000E+00        -0.49996E+08
 
   -0.49954E+08         0.14334E+06         0.00000E+00
    0.14334E+06        -0.49917E+08         0.00000E+00
    0.00000E+00         0.00000E+00        -0.49996E+08
 
   -0.49960E+08         0.14436E+06         0.00000E+00
    0.14436E+06        -0.49914E+08         0.00000E+00
    0.00000E+00         0.00000E+00        -0.49996E+08
 
   -0.49966E+08         0.14525E+06         0.00000E+00
    0.14525E+06        -0.49910E+08         0.00000E+00
    0.00000E+00         0.00000E+00        -0.49996E+08
 
   -0.49973E+08         0.14599E+06         0.00000E+00
    0.14599E+06        -0.49907E+08         0.00000E+00
    0.00000E+00         0.00000E+00        -0.49996E+08
 
   -0.49979E+08         0.14659E+06         0.00000E+00
    0.14659E+06        -0.49904E+08         0.00000E+00
    0.00000E+00         0.00000E+00        -0.49996E+08
 
   -0.49986E+08         0.14705E+06         0.00000E+00
    0.14705E+06        -0.49900E+08         0.00000E+00
    0.00000E+00         0.00000E+00        -0.49996E+08
 
   -0.49992E+08         0.14736E+06         0.00000E+00
    0.14736E+06        -0.49897E+08         0.00000E+00
    0.00000E+00         0.00000E+00        -0.49996E+08
 
   -0.49787E+08         0.25058E+04         0.00000E+00
    0.25058E+04        -0.50000E+08         0.00000E+00
    0.00000E+00         0.00000E+00        -0.49995E+08
 
   -0.49786E+08         0.75218E+04         0.00000E+00
    0.75218E+04        -0.50000E+08         0.00000E+00
    0.00000E+00         0.00000E+00        -0.49995E+08
 
   -0.49786E+08         0.12533E+05         0.00000E+00
    0.12533E+05        -0.50000E+08         0.00000E+00
    0.00000E+00         0.00000E+00        -0.49995E+08
 
   -0.49786E+08         0.17534E+05         0.00000E+00
    0.17534E+05        -0.49999E+08         0.00000E+00
    0.00000E+00         0.00000E+00        -0.49995E+08
 
   -0.49787E+08         0.22520E+05         0.00000E+00
    0.22520E+05        -0.49999E+08         0.00000E+00
    0.00000E+00         0.00000E+00        -0.49995E+08
 
   -0.49787E+08         0.27487E+05         0.00000E+00
    0.27487E+05        -0.49998E+08         0.00000E+00
    0.00000E+00         0.00000E+00        -0.49995E+08
 
   -0.49788E+08         0.32429E+05         0.00000E+00
    0.32429E+05        -0.49998E+08         0.00000E+00
    0.00000E+00         0.00000E+00        -0.49995E+08
 
   -0.49789E+08         0.37342E+05         0.00000E+00
    0.37342E+05        -0.49997E+08         0.00000E+00
    0.00000E+00         0.00000E+00        -0.49995E+08
 
   -0.49790E+08         0.42221E+05         0.00000E+00
    0.42221E+05        -0.49996E+08         0.00000E+00
    0.00000E+00         0.00000E+00        -0.49995E+08
 
   -0.49792E+08         0.47062E+05         0.00000E+00
    0.47062E+05        -0.49995E+08         0.00000E+00
    0.00000E+00         0.00000E+00        -0.49995E+08
 
   -0.49793E+08         0.51859E+05         0.00000E+00
    0.51859E+05        -0.49994E+08         0.00000E+00
    0.00000E+00         0.00000E+00        -0.49995E+08
 
   -0.49795E+08         0.56609E+05         0.00000E+00
    0.56609E+05        -0.49992E+08         0.00000E+00
    0.00000E+00         0.00000E+00        -0.49995E+08
 
   -0.49797E+08         0.61307E+05         0.00000E+00
    0.61307E+05        -0.49991E+08         0.00000E+00
    0.00000E+00         0.00000E+00        -0.49995E+08
 
   -0.49799E+08         0.65948E+05         0.00000E+00
    0.65948E+05        -0.49990E+08         0.00000E+00
    0.00000E+00         0.00000E+00        -0.49995E+08
 
   -0.49802E+08         0.70529E+05         0.00000E+00
    0.70529E+05        -0.49988E+08         0.00000E+00
    0.00000E+00         0.00000E+00        -0.49995E+08
 
   -0.49805E+08         0.75045E+05         0.00000E+00
    0.75045E+05        -0.49986E+08         0.00000E+00
    0.00000E+00         0.00000E+00        -0.49995E+08
 
   -0.49807E+08         0.79491E+05         0.00000E+00
    0.79491E+05        -0.49985E+08         0.00000E+00
    0.00000E+00         0.00000E+00        -0.49995E+08
 
   -0.49810E+08         0.83865E+05         0.00000E+00
    0.83865E+05        -0.49983E+08         0.00000E+00
    0.00000E+00         0.00000E+00        -0.49995E+08
 
   -0.49814E+08         0.88162E+05         0.00000E+00
    0.88162E+05        -0.49981E+08         0.00000E+00
    0.00000E+00         0.00000E+00        -0.49995E+08
 
   -0.49817E+08         0.92377E+05         0.00000E+00
    0.92377E+05        -0.49979E+08         0.00000E+00
    0.00000E+00         0.00000E+00        -0.49995E+08
 
   -0.49821E+08         0.96508E+05         0.00000E+00
    0.96508E+05        -0.49977E+08         0.00000E+00
    0.00000E+00         0.00000E+00        -0.49995E+08
 
   -0.49825E+08         0.10055E+06         0.00000E+00
    0.10055E+06        -0.49974E+08         0.00000E+00
    0.00000E+00         0.00000E+00        -0.49995E+08
 
   -0.49829E+08         0.10450E+06         0.00000E+00
    0.10450E+06        -0.49972E+08         0.00000E+00
    0.00000E+00         0.00000E+00        -0.49995E+08
 
   -0.49833E+08         0.10835E+06         0.00000E+00
    0.10835E+06        -0.49970E+08         0.00000E+00
    0.00000E+00         0.00000E+00        -0.49995E+08
 
   -0.49837E+08         0.11211E+06         0.00000E+00
    0.11211E+06        -0.49967E+08         0.00000E+00
    0.00000E+00         0.00000E+00        -0.49995E+08
 
   -0.49842E+08         0.11576E+06         0.00000E+00
    0.11576E+06        -0.49965E+08         0.00000E+00
    0.00000E+00         0.00000E+00        -0.49995E+08
 
   -0.49846E+08         0.11930E+06         0.00000E+00
    0.11930E+06        -0.49962E+08         0.00000E+00
    0.00000E+00         0.00000E+00        -0.49995E+08
 
   -0.49851E+08         0.12274E+06         0.00000E+00
    0.12274E+06        -0.49959E+08         0.00000E+00
    0.00000E+00         0.00000E+00        -0.49995E+08
 
   -0.49856E+08         0.12606E+06         0.00000E+00
    0.12606E+06        -0.49956E+08         0.00000E+00
    0.00000E+00         0.00000E+00        -0.49995E+08
 
   -0.49861E+08         0.12927E+06         0.00000E+00
    0.12927E+06        -0.49954E+08         0.00000E+00
    0.00000E+00         0.00000E+00        -0.49995E+08
 
   -0.49867E+08         0.13235E+06         0.00000E+00
    0.13235E+06        -0.49951E+08         0.00000E+00
    0.00000E+00         0.00000E+00        -0.49995E+08
 
   -0.49872E+08         0.13532E+06         0.00000E+00
    0.13532E+06        -0.49948E+08         0.00000E+00
    0.00000E+00         0.00000E+00        -0.49995E+08
 
   -0.49878E+08         0.13816E+06         0.00000E+00
    0.13816E+06        -0.49944E+08         0.00000E+00
    0.00000E+00         0.00000E+00        -0.49995E+08
 
   -0.49884E+08         0.14087E+06         0.00000E+00
    0.14087E+06        -0.49941E+08         0.00000E+00
    0.00000E+00         0.00000E+00        -0.49995E+08
 
   -0.49889E+08         0.14345E+06         0.00000E+00
    0.14345E+06        -0.49938E+08         0.00000E+00
    0.00000E+00         0.00000E+00        -0.49995E+08
 
   -0.49895E+08         0.14590E+06         0.00000E+00
    0.14590E+06        -0.49935E+08         0.00000E+00
    0.00000E+00         0.00000E+00        -0.49995E+08
 
   -0.49902E+08         0.14822E+06         0.00000E+00
    0.14822E+06        -0.49932E+08         0.00000E+00
    0.00000E+00         0.00000E+00        -0.49995E+08
 
   -0.49908E+08         0.15039E+06         0.00000E+00
    0.15039E+06        -0.49928E+08         0.00000E+00
    0.00000E+00         0.00000E+00        -0.49995E+08
 
   -0.49914E+08         0.15243E+06         0.00000E+00
    0.15243E+06        -0.49925E+08         0.00000E+00
    0.00000E+00         0.00000E+00        -0.49995E+08
 
   -0.49921E+08         0.15432E+06         0.00000E+00
    0.15432E+06        -0.49921E+08         0.00000E+00
    0.00000E+00         0.00000E+00        -0.49995E+08
 
   -0.49927E+08         0.15607E+06         0.00000E+00
    0.15607E+06        -0.49918E+08         0.00000E+00
    0.00000E+00         0.00000E+00        -0.49995E+08
 
   -0.49934E+08         0.15768E+06         0.00000E+00
    0.15768E+06        -0.49914E+08         0.00000E+00
    0.00000E+00         0.00000E+00        -0.49995E+08
 
   -0.49941E+08         0.15913E+06         0.00000E+00
    0.15913E+06        -0.49911E+08         0.00000E+00
    0.00000E+00         0.00000E+00        -0.49995E+08
 
   -0.49948E+08         0.16043E+06         0.00000E+00
    0.16043E+06        -0.49907E+08         0.00000E+00
    0.00000E+00         0.00000E+00        -0.49995E+08
 
   -0.49955E+08         0.16158E+06         0.00000E+00
    0.16158E+06        -0.49904E+08         0.00000E+00
    0.00000E+00         0.00000E+00        -0.49995E+08
 
   -0.49962E+08         0.16258E+06         0.00000E+00
    0.16258E+06        -0.49900E+08         0.00000E+00
    0.00000E+00         0.00000E+00        -0.49995E+08
 
   -0.49969E+08         0.16342E+06         0.00000E+00
    0.16342E+06        -0.49896E+08         0.00000E+00
    0.00000E+00         0.00000E+00        -0.49995E+08
 
   -0.49976E+08         0.16411E+06         0.00000E+00
    0.16411E+06        -0.49893E+08         0.00000E+00
    0.00000E+00         0.00000E+00        -0.49995E+08
 
   -0.49984E+08         0.16463E+06         0.00000E+00
    0.16463E+06        -0.49889E+08         0.00000E+00
    0.00000E+00         0.00000E+00        -0.49995E+08
 
   -0.49991E+08         0.16499E+06         0.00000E+00
    0.16499E+06        -0.49885E+08         0.00000E+00
    0.00000E+00         0.00000E+00        -0.49995E+08
 
   -0.49760E+08         0.28169E+04         0.00000E+00
    0.28169E+04        -0.50000E+08         0.00000E+00
    0.00000E+00         0.00000E+00        -0.49994E+08
 
   -0.49760E+08         0.84497E+04         0.00000E+00
    0.84497E+04        -0.50000E+08         0.00000E+00
    0.00000E+00         0.00000E+00        -0.49994E+08
 
   -0.49760E+08         0.14075E+05         0.00000E+00
    0.14075E+05        -0.50000E+08         0.00000E+00
    0.00000E+00         0.00000E+00        -0.49994E+08
 
   -0.49760E+08         0.19686E+05         0.00000E+00
    0.19686E+05        -0.49999E+08         0.00000E+00
    0.00000E+00         0.00000E+00        -0.49994E+08
 
   -0.49760E+08         0.25280E+05         0.00000E+00
    0.25280E+05        -0.49999E+08         0.00000E+00
    0.00000E+00         0.00000E+00        -0.49994E+08
 
   -0.49761E+08         0.30849E+05         0.00000E+00
    0.30849E+05        -0.49998E+08         0.00000E+00
    0.00000E+00         0.00000E+00        -0.49994E+08
 
   -0.49762E+08         0.36389E+05         0.00000E+00
    0.36389E+05        -0.49997E+08         0.00000E+00
    0.00000E+00         0.00000E+00        -0.49994E+08
 
   -0.49763E+08         0.41894E+05         0.00000E+00
    0.41894E+05        -0.49996E+08         0.00000E+00
    0.00000E+00         0.00000E+00        -0.49994E+08
 
   -0.49764E+08         0.47359E+05         0.00000E+00
    0.47359E+05        -0.49995E+08         0.00000E+00
    0.00000E+00         0.00000E+00        -0.49994E+08
 
   -0.49766E+08         0.52780E+05         0.00000E+00
    0.52780E+05        -0.49994E+08         0.00000E+00
    0.00000E+00         0.00000E+00        -0.49994E+08
 
   -0.49768E+08         0.58151E+05         0.00000E+00
    0.58151E+05        -0.49993E+08         0.00000E+00
    0.00000E+00         0.00000E+00        -0.49994E+08
 
   -0.49770E+08         0.63467E+05         0.00000E+00
    0.63467E+05        -0.49992E+08         0.00000E+00
    0.00000E+00         0.00000E+00        -0.49994E+08
 
   -0.49772E+08         0.68723E+05         0.00000E+00
    0.68723E+05        -0.49990E+08         0.00000E+00
    0.00000E+00         0.00000E+00        -0.49994E+08
 
   -0.49775E+08         0.73915E+05         0.00000E+00
    0.73915E+05        -0.49988E+08         0.00000E+00
    0.00000E+00         0.00000E+00        -0.49994E+08
 
   -0.49778E+08         0.79038E+05         0.00000E+00
    0.79038E+05        -0.49987E+08         0.00000E+00
    0.00000E+00         0.00000E+00        -0.49994E+08
 
   -0.49781E+08         0.84087E+05         0.00000E+00
    0.84087E+05        -0.49985E+08         0.00000E+00
    0.00000E+00         0.00000E+00        -0.49994E+08
 
   -0.49784E+08         0.89058E+05         0.00000E+00
    0.89058E+05        -0.49983E+08         0.00000E+00
    0.00000E+00         0.00000E+00        -0.49994E+08
 
   -0.49788E+08         0.93946E+05         0.00000E+00
    0.93946E+05        -0.49981E+08         0.00000E+00
    0.00000E+00         0.00000E+00        -0.49994E+08
 
   -0.49791E+08         0.98747E+05         0.00000E+00
    0.98747E+05        -0.49979E+08         0.00000E+00
    0.00000E+00         0.00000E+00        -0.49994E+08
 
   -0.49795E+08         0.10346E+06         0.00000E+00
    0.10346E+06        -0.49976E+08         0.00000E+00
    0.00000E+00         0.00000E+00        -0.49994E+08
 
   -0.49799E+08         0.10807E+06         0.00000E+00
    0.10807E+06        -0.49974E+08         0.00000E+00
    0.00000E+00         0.00000E+00        -0.49994E+08
 
   -0.49803E+08         0.11258E+06         0.00000E+00
    0.11258E+06        -0.49971E+08         0.00000E+00
    0.00000E+00         0.00000E+00        -0.49994E+08
 
   -0.49808E+08         0.11699E+06         0.00000E+00
    0.11699E+06        -0.49969E+08         0.00000E+00
    0.00000E+00         0.00000E+00        -0.49994E+08
 
   -0.49813E+08         0.12130E+06         0.00000E+00
    0.12130E+06        -0.49966E+08         0.00000E+00
    0.00000E+00         0.00000E+00        -0.49994E+08
 
   -0.49818E+08         0.12549E+06         0.00000E+00
    0.12549E+06        -0.49963E+08         0.00000E+00
    0.00000E+00         0.00000E+00        -0.49994E+08
 
   -0.49823E+08         0.12956E+06         0.00000E+00
    0.12956E+06        -0.49960E+08         0.00000E+00
    0.00000E+00         0.00000E+00        -0.49994E+08
 
   -0.49828E+08         0.13352E+06         0.00000E+00
    0.13352E+06        -0.49958E+08         0.00000E+00
    0.00000E+00         0.00000E+00        -0.49994E+08
 
   -0.49833E+08         0.13735E+06         0.00000E+00
    0.13735E+06        -0.49954E+08         0.00000E+00
    0.00000E+00         0.00000E+00        -0.49994E+08
 
   -0.49839E+08         0.14106E+06         0.00000E+00
    0.14106E+06        -0.49951E+08         0.00000E+00
    0.00000E+00         0.00000E+00        -0.49994E+08
 
   -0.49845E+08         0.14464E+06         0.00000E+00
    0.14464E+06        -0.49948E+08         0.00000E+00
    0.00000E+00         0.00000E+00        -0.49994E+08
 
   -0.49851E+08         0.14809E+06         0.00000E+00
    0.14809E+06        -0.49945E+08         0.00000E+00
    0.00000E+00         0.00000E+00        -0.49994E+08
 
   -0.49857E+08         0.15140E+06         0.00000E+00
    0.15140E+06        -0.49942E+08         0.00000E+00
    0.00000E+00         0.00000E+00        -0.49994E+08
 
   -0.49863E+08         0.15457E+06         0.00000E+00
    0.15457E+06        -0.49938E+08         0.00000E+00
    0.00000E+00         0.00000E+00        -0.49994E+08
 
   -0.49870E+08         0.15760E+06         0.00000E+00
    0.15760E+06        -0.49935E+08         0.00000E+00
    0.00000E+00         0.00000E+00        -0.49994E+08
 
   -0.49876E+08         0.16048E+06         0.00000E+00
    0.16048E+06        -0.49931E+08         0.00000E+00
    0.00000E+00         0.00000E+00        -0.49994E+08
 
   -0.49883E+08         0.16322E+06         0.00000E+00
    0.16322E+06        -0.49927E+08         0.00000E+00
    0.00000E+00         0.00000E+00        -0.49994E+08
 
   -0.49890E+08         0.16580E+06         0.00000E+00
    0.16580E+06        -0.49924E+08         0.00000E+00
    0.00000E+00         0.00000E+00        -0.49994E+08
 
   -0.49897E+08         0.16823E+06         0.00000E+00
    0.16823E+06        -0.49920E+08         0.00000E+00
    0.00000E+00         0.00000E+00        -0.49994E+08
 
   -0.49904E+08         0.17051E+06         0.00000E+00
    0.17051E+06        -0.49916E+08         0.00000E+00
    0.00000E+00         0.00000E+00        -0.49994E+08
 
   -0.49911E+08         0.17263E+06         0.00000E+00
    0.17263E+06        -0.49912E+08         0.00000E+00
    0.00000E+00         0.00000E+00        -0.49994E+08
 
   -0.49919E+08         0.17459E+06         0.00000E+00
    0.17459E+06        -0.49908E+08         0.00000E+00
    0.00000E+00         0.00000E+00        -0.49994E+08
 
   -0.49926E+08         0.17638E+06         0.00000E+00
    0.17638E+06        -0.49905E+08         0.00000E+00
    0.00000E+00         0.00000E+00        -0.49994E+08
 
   -0.49934E+08         0.17801E+06         0.00000E+00
    0.17801E+06        -0.49901E+08         0.00000E+00
    0.00000E+00         0.00000E+00        -0.49994E+08
 
   -0.49941E+08         0.17948E+06         0.00000E+00
    0.17948E+06        -0.49897E+08         0.00000E+00
    0.00000E+00         0.00000E+00        -0.49994E+08
 
   -0.49949E+08         0.18077E+06         0.00000E+00
    0.18077E+06        -0.49893E+08         0.00000E+00
    0.00000E+00         0.00000E+00        -0.49994E+08
 
   -0.49957E+08         0.18190E+06         0.00000E+00
    0.18190E+06        -0.49889E+08         0.00000E+00
    0.00000E+00         0.00000E+00        -0.49994E+08
 
   -0.49965E+08         0.18285E+06         0.00000E+00
    0.18285E+06        -0.49884E+08         0.00000E+00
    0.00000E+00         0.00000E+00        -0.49994E+08
 
   -0.49973E+08         0.18363E+06         0.00000E+00
    0.18363E+06        -0.49880E+08         0.00000E+00
    0.00000E+00         0.00000E+00        -0.49994E+08
 
   -0.49981E+08         0.18423E+06         0.00000E+00
    0.18423E+06        -0.49876E+08         0.00000E+00
    0.00000E+00         0.00000E+00        -0.49994E+08
 
   -0.49989E+08         0.18465E+06         0.00000E+00
    0.18465E+06        -0.49872E+08         0.00000E+00
    0.00000E+00         0.00000E+00        -0.49994E+08
 
   -0.49730E+08         0.31659E+04         0.00000E+00
    0.31659E+04        -0.50000E+08         0.00000E+00
    0.00000E+00         0.00000E+00        -0.49992E+08
 
   -0.49730E+08         0.94891E+04         0.00000E+00
    0.94891E+04        -0.50000E+08         0.00000E+00
    0.00000E+00         0.00000E+00        -0.49992E+08
 
   -0.49730E+08         0.15801E+05         0.00000E+00
    0.15801E+05        -0.50000E+08         0.00000E+00
    0.00000E+00         0.00000E+00        -0.49992E+08
 
   -0.49730E+08         0.22096E+05         0.00000E+00
    0.22096E+05        -0.49999E+08         0.00000E+00
    0.00000E+00         0.00000E+00        -0.49992E+08
 
   -0.49731E+08         0.28367E+05         0.00000E+00
    0.28367E+05        -0.49999E+08         0.00000E+00
    0.00000E+00         0.00000E+00        -0.49992E+08
 
   -0.49732E+08         0.34609E+05         0.00000E+00
    0.34609E+05        -0.49998E+08         0.00000E+00
    0.00000E+00         0.00000E+00        -0.49992E+08
 
   -0.49733E+08         0.40816E+05         0.00000E+00
    0.40816E+05        -0.49997E+08         0.00000E+00
    0.00000E+00         0.00000E+00        -0.49992E+08
 
   -0.49734E+08         0.46982E+05         0.00000E+00
    0.46982E+05        -0.49996E+08         0.00000E+00
    0.00000E+00         0.00000E+00        -0.49992E+08
 
   -0.49736E+08         0.53102E+05         0.00000E+00
    0.53102E+05        -0.49995E+08         0.00000E+00
    0.00000E+00         0.00000E+00        -0.49992E+08
 
   -0.49738E+08         0.59169E+05         0.00000E+00
    0.59169E+05        -0.49993E+08         0.00000E+00
    0.00000E+00         0.00000E+00        -0.49992E+08
 
   -0.49740E+08         0.65179E+05         0.00000E+00
    0.65179E+05        -0.49992E+08         0.00000E+00
    0.00000E+00         0.00000E+00        -0.49992E+08
 
   -0.49742E+08         0.71126E+05         0.00000E+00
    0.71126E+05        -0.49991E+08         0.00000E+00
    0.00000E+00         0.00000E+00        -0.49992E+08
 
   -0.49745E+08         0.77004E+05         0.00000E+00
    0.77004E+05        -0.49989E+08         0.00000E+00
    0.00000E+00         0.00000E+00        -0.49992E+08
 
   -0.49748E+08         0.82809E+05         0.00000E+00
    0.82809E+05        -0.49987E+08         0.00000E+00
    0.00000E+00         0.00000E+00        -0.49992E+08
 
   -0.49751E+08         0.88535E+05         0.00000E+00
    0.88535E+05        -0.49985E+08         0.00000E+00
    0.00000E+00         0.00000E+00        -0.49992E+08
 
   -0.49754E+08         0.94177E+05         0.00000E+00
    0.94177E+05        -0.49983E+08         0.00000E+00
    0.00000E+00         0.00000E+00        -0.49992E+08
 
   -0.49758E+08         0.99730E+05         0.00000E+00
    0.99730E+05        -0.49981E+08         0.00000E+00
    0.00000E+00         0.00000E+00        -0.49992E+08
 
   -0.49762E+08         0.10519E+06         0.00000E+00
    0.10519E+06        -0.49979E+08         0.00000E+00
    0.00000E+00         0.00000E+00        -0.49992E+08
 
   -0.49766E+08         0.11055E+06         0.00000E+00
    0.11055E+06        -0.49976E+08         0.00000E+00
    0.00000E+00         0.00000E+00        -0.49992E+08
 
   -0.49770E+08         0.11581E+06         0.00000E+00
    0.11581E+06        -0.49974E+08         0.00000E+00
    0.00000E+00         0.00000E+00        -0.49992E+08
 
   -0.49775E+08         0.12096E+06         0.00000E+00
    0.12096E+06        -0.49971E+08         0.00000E+00
    0.00000E+00         0.00000E+00        -0.49992E+08
 
   -0.49780E+08         0.12600E+06         0.00000E+00
    0.12600E+06        -0.49968E+08         0.00000E+00
    0.00000E+00         0.00000E+00        -0.49992E+08
 
   -0.49785E+08         0.13092E+06         0.00000E+00
    0.13092E+06        -0.49965E+08         0.00000E+00
    0.00000E+00         0.00000E+00        -0.49992E+08
 
   -0.49790E+08         0.13572E+06         0.00000E+00
    0.13572E+06        -0.49962E+08         0.00000E+00
    0.00000E+00         0.00000E+00        -0.49992E+08
 
   -0.49796E+08         0.14039E+06         0.00000E+00
    0.14039E+06        -0.49959E+08         0.00000E+00
    0.00000E+00         0.00000E+00        -0.49992E+08
 
   -0.49801E+08         0.14494E+06         0.00000E+00
    0.14494E+06        -0.49956E+08         0.00000E+00
    0.00000E+00         0.00000E+00        -0.49992E+08
 
   -0.49807E+08         0.14935E+06         0.00000E+00
    0.14935E+06        -0.49953E+08         0.00000E+00
    0.00000E+00         0.00000E+00        -0.49992E+08
 
   -0.49813E+08         0.15363E+06         0.00000E+00
    0.15363E+06        -0.49949E+08         0.00000E+00
    0.00000E+00         0.00000E+00        -0.49992E+08
 
   -0.49820E+08         0.15777E+06         0.00000E+00
    0.15777E+06        -0.49946E+08         0.00000E+00
    0.00000E+00         0.00000E+00        -0.49992E+08
 
   -0.49826E+08         0.16176E+06         0.00000E+00
    0.16176E+06        -0.49942E+08         0.00000E+00
    0.00000E+00         0.00000E+00        -0.49992E+08
 
   -0.49833E+08         0.16560E+06         0.00000E+00
    0.16560E+06        -0.49939E+08         0.00000E+00
    0.00000E+00         0.00000E+00        -0.49992E+08
 
   -0.49840E+08         0.16929E+06         0.00000E+00
    0.16929E+06        -0.49935E+08         0.00000E+00
    0.00000E+00         0.00000E+00        -0.49992E+08
 
   -0.49847E+08         0.17283E+06         0.00000E+00
    0.17283E+06        -0.49931E+08         0.00000E+00
    0.00000E+00         0.00000E+00        -0.49992E+08
 
   -0.49854E+08         0.17621E+06         0.00000E+00
    0.17621E+06        -0.49927E+08         0.00000E+00
    0.00000E+00         0.00000E+00        -0.49992E+08
 
   -0.49861E+08         0.17943E+06         0.00000E+00
    0.17943E+06        -0.49923E+08         0.00000E+00
    0.00000E+00         0.00000E+00        -0.49992E+08
 
   -0.49869E+08         0.18248E+06         0.00000E+00
    0.18248E+06        -0.49919E+08         0.00000E+00
    0.00000E+00         0.00000E+00        -0.49992E+08
 
   -0.49876E+08         0.18537E+06         0.00000E+00
    0.18537E+06        -0.49915E+08         0.00000E+00
    0.00000E+00         0.00000E+00        -0.49992E+08
 
   -0.49884E+08         0.18809E+06         0.00000E+00
    0.18809E+06        -0.49911E+08         0.00000E+00
    0.00000E+00         0.00000E+00        -0.49992E+08
 
   -0.49892E+08         0.19063E+06         0.00000E+00
    0.19063E+06        -0.49907E+08         0.00000E+00
    0.00000E+00         0.00000E+00        -0.49992E+08
 
   -0.49900E+08         0.19300E+06         0.00000E+00
    0.19300E+06        -0.49902E+08         0.00000E+00
    0.00000E+00         0.00000E+00        -0.49992E+08
 
   -0.49909E+08         0.19519E+06         0.00000E+00
    0.19519E+06        -0.49898E+08         0.00000E+00
    0.00000E+00         0.00000E+00        -0.49992E+08
 
   -0.49917E+08         0.19721E+06         0.00000E+00
    0.19721E+06        -0.49894E+08         0.00000E+00
    0.00000E+00         0.00000E+00        -0.49992E+08
 
   -0.49925E+08         0.19903E+06         0.00000E+00
    0.19903E+06        -0.49889E+08         0.00000E+00
    0.00000E+00         0.00000E+00        -0.49992E+08
 
   -0.49934E+08         0.20068E+06         0.00000E+00
    0.20068E+06        -0.49885E+08         0.00000E+00
    0.00000E+00         0.00000E+00        -0.49992E+08
 
   -0.49943E+08         0.20214E+06         0.00000E+00
    0.20214E+06        -0.49880E+08         0.00000E+00
    0.00000E+00         0.00000E+00        -0.49992E+08
 
   -0.49952E+08         0.20340E+06         0.00000E+00
    0.20340E+06        -0.49876E+08         0.00000E+00
    0.00000E+00         0.00000E+00        -0.49992E+08
 
   -0.49960E+08         0.20448E+06         0.00000E+00
    0.20448E+06        -0.49871E+08         0.00000E+00
    0.00000E+00         0.00000E+00        -0.49992E+08
 
   -0.49969E+08         0.20536E+06         0.00000E+00
    0.20536E+06        -0.49867E+08         0.00000E+00
    0.00000E+00         0.00000E+00        -0.49992E+08
 
   -0.49978E+08         0.20605E+06         0.00000E+00
    0.20605E+06        -0.49862E+08         0.00000E+00
    0.00000E+00         0.00000E+00        -0.49992E+08
 
   -0.49988E+08         0.20655E+06         0.00000E+00
    0.20655E+06        -0.49858E+08         0.00000E+00
    0.00000E+00         0.00000E+00        -0.49992E+08
 
   -0.49697E+08         0.35570E+04         0.00000E+00
    0.35570E+04        -0.50000E+08         0.00000E+00
    0.00000E+00         0.00000E+00        -0.49991E+08
 
   -0.49696E+08         0.10653E+05         0.00000E+00
    0.10653E+05        -0.50000E+08         0.00000E+00
    0.00000E+00         0.00000E+00        -0.49991E+08
 
   -0.49696E+08         0.17733E+05         0.00000E+00
    0.17733E+05        -0.49999E+08         0.00000E+00
    0.00000E+00         0.00000E+00        -0.49991E+08
 
   -0.49697E+08         0.24790E+05         0.00000E+00
    0.24790E+05        -0.49999E+08         0.00000E+00
    0.00000E+00         0.00000E+00        -0.49991E+08
 
   -0.49698E+08         0.31819E+05         0.00000E+00
    0.31819E+05        -0.49998E+08         0.00000E+00
    0.00000E+00         0.00000E+00        -0.49991E+08
 
   -0.49699E+08         0.38812E+05         0.00000E+00
    0.38812E+05        -0.49998E+08         0.00000E+00
    0.00000E+00         0.00000E+00        -0.49991E+08
 
   -0.49700E+08         0.45763E+05         0.00000E+00
    0.45763E+05        -0.49997E+08         0.00000E+00
    0.00000E+00         0.00000E+00        -0.49991E+08
 
   -0.49701E+08         0.52666E+05         0.00000E+00
    0.52666E+05        -0.49995E+08         0.00000E+00
    0.00000E+00         0.00000E+00        -0.49991E+08
 
   -0.49703E+08         0.59515E+05         0.00000E+00
    0.59515E+05        -0.49994E+08         0.00000E+00
    0.00000E+00         0.00000E+00        -0.49991E+08
 
   -0.49706E+08         0.66303E+05         0.00000E+00
    0.66303E+05        -0.49993E+08         0.00000E+00
    0.00000E+00         0.00000E+00        -0.49991E+08
 
   -0.49708E+08         0.73024E+05         0.00000E+00
    0.73024E+05        -0.49991E+08         0.00000E+00
    0.00000E+00         0.00000E+00        -0.49991E+08
 
   -0.49711E+08         0.79672E+05         0.00000E+00
    0.79672E+05        -0.49989E+08         0.00000E+00
    0.00000E+00         0.00000E+00        -0.49991E+08
 
   -0.49714E+08         0.86242E+05         0.00000E+00
    0.86242E+05        -0.49988E+08         0.00000E+00
    0.00000E+00         0.00000E+00        -0.49991E+08
 
   -0.49717E+08         0.92728E+05         0.00000E+00
    0.92728E+05        -0.49986E+08         0.00000E+00
    0.00000E+00         0.00000E+00        -0.49991E+08
 
   -0.49721E+08         0.99124E+05         0.00000E+00
    0.99124E+05        -0.49983E+08         0.00000E+00
    0.00000E+00         0.00000E+00        -0.49991E+08
 
   -0.49725E+08         0.10542E+06         0.00000E+00
    0.10542E+06        -0.49981E+08         0.00000E+00
    0.00000E+00         0.00000E+00        -0.49991E+08
 
   -0.49729E+08         0.11162E+06         0.00000E+00
    0.11162E+06        -0.49979E+08         0.00000E+00
    0.00000E+00         0.00000E+00        -0.49991E+08
 
   -0.49733E+08         0.11772E+06         0.00000E+00
    0.11772E+06        -0.49976E+08         0.00000E+00
    0.00000E+00         0.00000E+00        -0.49991E+08
 
   -0.49738E+08         0.12370E+06         0.00000E+00
    0.12370E+06        -0.49973E+08         0.00000E+00
    0.00000E+00         0.00000E+00        -0.49991E+08
 
   -0.49743E+08         0.12957E+06         0.00000E+00
    0.12957E+06        -0.49970E+08         0.00000E+00
    0.00000E+00         0.00000E+00        -0.49991E+08
 
   -0.49748E+08         0.13531E+06         0.00000E+00
    0.13531E+06        -0.49968E+08         0.00000E+00
    0.00000E+00         0.00000E+00        -0.49991E+08
 
   -0.49754E+08         0.14093E+06         0.00000E+00
    0.14093E+06        -0.49964E+08         0.00000E+00
    0.00000E+00         0.00000E+00        -0.49991E+08
 
   -0.49759E+08         0.14642E+06         0.00000E+00
    0.14642E+06        -0.49961E+08         0.00000E+00
    0.00000E+00         0.00000E+00        -0.49991E+08
 
   -0.49765E+08         0.15177E+06         0.00000E+00
    0.15177E+06        -0.49958E+08         0.00000E+00
    0.00000E+00         0.00000E+00        -0.49991E+08
 
   -0.49771E+08         0.15699E+06         0.00000E+00
    0.15699E+06        -0.49954E+08         0.00000E+00
    0.00000E+00         0.00000E+00        -0.49991E+08
 
   -0.49778E+08         0.16205E+06         0.00000E+00
    0.16205E+06        -0.49951E+08         0.00000E+00
    0.00000E+00         0.00000E+00        -0.49991E+08
 
   -0.49784E+08         0.16697E+06         0.00000E+00
    0.16697E+06        -0.49947E+08         0.00000E+00
    0.00000E+00         0.00000E+00        -0.49991E+08
 
   -0.49791E+08         0.17174E+06         0.00000E+00
    0.17174E+06        -0.49943E+08         0.00000E+00
    0.00000E+00         0.00000E+00        -0.49991E+08
 
   -0.49798E+08         0.17635E+06         0.00000E+00
    0.17635E+06        -0.49940E+08         0.00000E+00
    0.00000E+00         0.00000E+00        -0.49991E+08
 
   -0.49806E+08         0.18080E+06         0.00000E+00
    0.18080E+06        -0.49936E+08         0.00000E+00
    0.00000E+00         0.00000E+00        -0.49991E+08
 
   -0.49813E+08         0.18509E+06         0.00000E+00
    0.18509E+06        -0.49932E+08         0.00000E+00
    0.00000E+00         0.00000E+00        -0.49991E+08
 
   -0.49821E+08         0.18920E+06         0.00000E+00
    0.18920E+06        -0.49927E+08         0.00000E+00
    0.00000E+00         0.00000E+00        -0.49991E+08
 
   -0.49828E+08         0.19315E+06         0.00000E+00
    0.19315E+06        -0.49923E+08         0.00000E+00
    0.00000E+00         0.00000E+00        -0.49991E+08
 
   -0.49836E+08         0.19691E+06         0.00000E+00
    0.19691E+06        -0.49919E+08         0.00000E+00
    0.00000E+00         0.00000E+00        -0.49991E+08
 
   -0.49845E+08         0.20050E+06         0.00000E+00
    0.20050E+06        -0.49914E+08         0.00000E+00
    0.00000E+00         0.00000E+00        -0.49991E+08
 
   -0.49853E+08         0.20391E+06         0.00000E+00
    0.20391E+06        -0.49910E+08         0.00000E+00
    0.00000E+00         0.00000E+00        -0.49991E+08
 
   -0.49862E+08         0.20713E+06         0.00000E+00
    0.20713E+06        -0.49905E+08         0.00000E+00
    0.00000E+00         0.00000E+00        -0.49991E+08
 
   -0.49870E+08         0.21017E+06         0.00000E+00
    0.21017E+06        -0.49901E+08         0.00000E+00
    0.00000E+00         0.00000E+00        -0.49991E+08
 
   -0.49879E+08         0.21301E+06         0.00000E+00
    0.21301E+06        -0.49896E+08         0.00000E+00
    0.00000E+00         0.00000E+00        -0.49991E+08
 
   -0.49888E+08         0.21566E+06         0.00000E+00
    0.21566E+06        -0.49891E+08         0.00000E+00
    0.00000E+00         0.00000E+00        -0.49991E+08
 
   -0.49897E+08         0.21811E+06         0.00000E+00
    0.21811E+06        -0.49887E+08         0.00000E+00
    0.00000E+00         0.00000E+00        -0.49991E+08
 
   -0.49907E+08         0.22036E+06         0.00000E+00
    0.22036E+06        -0.49882E+08         0.00000E+00
    0.00000E+00         0.00000E+00        -0.49991E+08
 
   -0.49916E+08         0.22241E+06         0.00000E+00
    0.22241E+06        -0.49877E+08         0.00000E+00
    0.00000E+00         0.00000E+00        -0.49991E+08
 
   -0.49926E+08         0.22426E+06         0.00000E+00
    0.22426E+06        -0.49872E+08         0.00000E+00
    0.00000E+00         0.00000E+00        -0.49991E+08
 
   -0.49935E+08         0.22590E+06         0.00000E+00
    0.22590E+06        -0.49867E+08         0.00000E+00
    0.00000E+00         0.00000E+00        -0.49991E+08
 
   -0.49945E+08         0.22733E+06         0.00000E+00
    0.22733E+06        -0.49862E+08         0.00000E+00
    0.00000E+00         0.00000E+00        -0.49991E+08
 
   -0.49955E+08         0.22855E+06         0.00000E+00
    0.22855E+06        -0.49857E+08         0.00000E+00
    0.00000E+00         0.00000E+00        -0.49991E+08
 
   -0.49965E+08         0.22956E+06         0.00000E+00
    0.22956E+06        -0.49852E+08         0.00000E+00
    0.00000E+00         0.00000E+00        -0.49991E+08
 
   -0.49975E+08         0.23035E+06         0.00000E+00
    0.23035E+06        -0.49847E+08         0.00000E+00
    0.00000E+00         0.00000E+00        -0.49991E+08
 
   -0.49986E+08         0.23092E+06         0.00000E+00
    0.23092E+06        -0.49841E+08         0.00000E+00
    0.00000E+00         0.00000E+00        -0.49991E+08
 
   -0.49659E+08         0.39951E+04         0.00000E+00
    0.39951E+04        -0.50000E+08         0.00000E+00
    0.00000E+00         0.00000E+00        -0.49989E+08
 
   -0.49659E+08         0.11954E+05         0.00000E+00
    0.11954E+05        -0.50000E+08         0.00000E+00
    0.00000E+00         0.00000E+00        -0.49989E+08
 
   -0.49659E+08         0.19893E+05         0.00000E+00
    0.19893E+05        -0.49999E+08         0.00000E+00
    0.00000E+00         0.00000E+00        -0.49989E+08
 
   -0.49660E+08         0.27802E+05         0.00000E+00
    0.27802E+05        -0.49999E+08         0.00000E+00
    0.00000E+00         0.00000E+00        -0.49989E+08
 
   -0.49660E+08         0.35676E+05         0.00000E+00
    0.35676E+05        -0.49998E+08         0.00000E+00
    0.00000E+00         0.00000E+00        -0.49989E+08
 
   -0.49662E+08         0.43507E+05         0.00000E+00
    0.43507E+05        -0.49997E+08         0.00000E+00
    0.00000E+00         0.00000E+00        -0.49989E+08
 
   -0.49663E+08         0.51287E+05         0.00000E+00
    0.51287E+05        -0.49996E+08         0.00000E+00
    0.00000E+00         0.00000E+00        -0.49989E+08
 
   -0.49665E+08         0.59011E+05         0.00000E+00
    0.59011E+05        -0.49995E+08         0.00000E+00
    0.00000E+00         0.00000E+00        -0.49989E+08
 
   -0.49667E+08         0.66671E+05         0.00000E+00
    0.66671E+05        -0.49993E+08         0.00000E+00
    0.00000E+00         0.00000E+00        -0.49989E+08
 
   -0.49670E+08         0.74260E+05         0.00000E+00
    0.74260E+05        -0.49992E+08         0.00000E+00
    0.00000E+00         0.00000E+00        -0.49989E+08
 
   -0.49673E+08         0.81772E+05         0.00000E+00
    0.81772E+05        -0.49990E+08         0.00000E+00
    0.00000E+00         0.00000E+00        -0.49989E+08
 
   -0.49676E+08         0.89201E+05         0.00000E+00
    0.89201E+05        -0.49988E+08         0.00000E+00
    0.00000E+00         0.00000E+00        -0.49989E+08
 
   -0.49679E+08         0.96539E+05         0.00000E+00
    0.96539E+05        -0.49986E+08         0.00000E+00
    0.00000E+00         0.00000E+00        -0.49989E+08
 
   -0.49683E+08         0.10378E+06         0.00000E+00
    0.10378E+06        -0.49984E+08         0.00000E+00
    0.00000E+00         0.00000E+00        -0.49989E+08
 
   -0.49687E+08         0.11092E+06         0.00000E+00
    0.11092E+06        -0.49981E+08         0.00000E+00
    0.00000E+00         0.00000E+00        -0.49989E+08
 
   -0.49692E+08         0.11795E+06         0.00000E+00
    0.11795E+06        -0.49979E+08         0.00000E+00
    0.00000E+00         0.00000E+00        -0.49989E+08
 
   -0.49696E+08         0.12487E+06         0.00000E+00
    0.12487E+06        -0.49976E+08         0.00000E+00
    0.00000E+00         0.00000E+00        -0.49989E+08
 
   -0.49701E+08         0.13167E+06         0.00000E+00
    0.13167E+06        -0.49973E+08         0.00000E+00
    0.00000E+00         0.00000E+00        -0.49989E+08
 
   -0.49707E+08         0.13834E+06         0.00000E+00
    0.13834E+06        -0.49970E+08         0.00000E+00
    0.00000E+00         0.00000E+00        -0.49989E+08
 
   -0.49712E+08         0.14488E+06         0.00000E+00
    0.14488E+06        -0.49967E+08         0.00000E+00
    0.00000E+00         0.00000E+00        -0.49989E+08
 
   -0.49718E+08         0.15128E+06         0.00000E+00
    0.15128E+06        -0.49964E+08         0.00000E+00
    0.00000E+00         0.00000E+00        -0.49989E+08
 
   -0.49724E+08         0.15755E+06         0.00000E+00
    0.15755E+06        -0.49960E+08         0.00000E+00
    0.00000E+00         0.00000E+00        -0.49989E+08
 
   -0.49731E+08         0.16366E+06         0.00000E+00
    0.16366E+06        -0.49957E+08         0.00000E+00
    0.00000E+00         0.00000E+00        -0.49989E+08
 
   -0.49737E+08         0.16963E+06         0.00000E+00
    0.16963E+06        -0.49953E+08         0.00000E+00
    0.00000E+00         0.00000E+00        -0.49989E+08
 
   -0.49744E+08         0.17543E+06         0.00000E+00
    0.17543E+06        -0.49949E+08         0.00000E+00
    0.00000E+00         0.00000E+00        -0.49989E+08
 
   -0.49751E+08         0.18108E+06         0.00000E+00
    0.18108E+06        -0.49945E+08         0.00000E+00
    0.00000E+00         0.00000E+00        -0.49989E+08
 
   -0.49759E+08         0.18656E+06         0.00000E+00
    0.18656E+06        -0.49941E+08         0.00000E+00
    0.00000E+00         0.00000E+00        -0.49989E+08
 
   -0.49766E+08         0.19187E+06         0.00000E+00
    0.19187E+06        -0.49937E+08         0.00000E+00
    0.00000E+00         0.00000E+00        -0.49989E+08
 
   -0.49774E+08         0.19701E+06         0.00000E+00
    0.19701E+06        -0.49933E+08         0.00000E+00
    0.00000E+00         0.00000E+00        -0.49989E+08
 
   -0.49782E+08         0.20196E+06         0.00000E+00
    0.20196E+06        -0.49928E+08         0.00000E+00
    0.00000E+00         0.00000E+00        -0.49989E+08
 
   -0.49791E+08         0.20673E+06         0.00000E+00
    0.20673E+06        -0.49924E+08         0.00000E+00
    0.00000E+00         0.00000E+00        -0.49989E+08
 
   -0.49799E+08         0.21132E+06         0.00000E+00
    0.21132E+06        -0.49919E+08         0.00000E+00
    0.00000E+00         0.00000E+00        -0.49989E+08
 
   -0.49808E+08         0.21571E+06         0.00000E+00
    0.21571E+06        -0.49915E+08         0.00000E+00
    0.00000E+00         0.00000E+00        -0.49989E+08
 
   -0.49817E+08         0.21991E+06         0.00000E+00
    0.21991E+06        -0.49910E+08         0.00000E+00
    0.00000E+00         0.00000E+00        -0.49989E+08
 
   -0.49826E+08         0.22392E+06         0.00000E+00
    0.22392E+06        -0.49905E+08         0.00000E+00
    0.00000E+00         0.00000E+00        -0.49989E+08
 
   -0.49836E+08         0.22771E+06         0.00000E+00
    0.22771E+06        -0.49900E+08         0.00000E+00
    0.00000E+00         0.00000E+00        -0.49989E+08
 
   -0.49845E+08         0.23131E+06         0.00000E+00
    0.23131E+06        -0.49895E+08         0.00000E+00
    0.00000E+00         0.00000E+00        -0.49989E+08
 
   -0.49855E+08         0.23469E+06         0.00000E+00
    0.23469E+06        -0.49890E+08         0.00000E+00
    0.00000E+00         0.00000E+00        -0.49989E+08
 
   -0.49865E+08         0.23787E+06         0.00000E+00
    0.23787E+06        -0.49885E+08         0.00000E+00
    0.00000E+00         0.00000E+00        -0.49989E+08
 
   -0.49875E+08         0.24083E+06         0.00000E+00
    0.24083E+06        -0.49879E+08         0.00000E+00
    0.00000E+00         0.00000E+00        -0.49989E+08
 
   -0.49885E+08         0.24357E+06         0.00000E+00
    0.24357E+06        -0.49874E+08         0.00000E+00
    0.00000E+00         0.00000E+00        -0.49989E+08
 
   -0.49895E+08         0.24609E+06         0.00000E+00
    0.24609E+06        -0.49869E+08         0.00000E+00
    0.00000E+00         0.00000E+00        -0.49989E+08
 
   -0.49906E+08         0.24839E+06         0.00000E+00
    0.24839E+06        -0.49863E+08         0.00000E+00
    0.00000E+00         0.00000E+00        -0.49989E+08
 
   -0.49917E+08         0.25046E+06         0.00000E+00
    0.25046E+06        -0.49858E+08         0.00000E+00
    0.00000E+00         0.00000E+00        -0.49989E+08
 
   -0.49927E+08         0.25231E+06         0.00000E+00
    0.25231E+06        -0.49852E+08         0.00000E+00
    0.00000E+00         0.00000E+00        -0.49989E+08
 
   -0.49938E+08         0.25392E+06         0.00000E+00
    0.25392E+06        -0.49846E+08         0.00000E+00
    0.00000E+00         0.00000E+00        -0.49989E+08
 
   -0.49949E+08         0.25530E+06         0.00000E+00
    0.25530E+06        -0.49841E+08         0.00000E+00
    0.00000E+00         0.00000E+00        -0.49989E+08
 
   -0.49960E+08         0.25645E+06         0.00000E+00
    0.25645E+06        -0.49835E+08         0.00000E+00
    0.00000E+00         0.00000E+00        -0.49989E+08
 
   -0.49972E+08         0.25736E+06         0.00000E+00
    0.25736E+06        -0.49830E+08         0.00000E+00
    0.00000E+00         0.00000E+00        -0.49989E+08
 
   -0.49983E+08         0.25803E+06         0.00000E+00
    0.25803E+06        -0.49824E+08         0.00000E+00
    0.00000E+00         0.00000E+00        -0.49989E+08
 
   -0.49617E+08         0.44855E+04         0.00000E+00
    0.44855E+04        -0.50000E+08         0.00000E+00
    0.00000E+00         0.00000E+00        -0.49986E+08
 
   -0.49617E+08         0.13410E+05         0.00000E+00
    0.13410E+05        -0.50000E+08         0.00000E+00
    0.00000E+00         0.00000E+00        -0.49986E+08
 
   -0.49617E+08         0.22306E+05         0.00000E+00
    0.22306E+05        -0.49999E+08         0.00000E+00
    0.00000E+00         0.00000E+00        -0.49986E+08
 
   -0.49618E+08         0.31166E+05         0.00000E+00
    0.31166E+05        -0.49999E+08         0.00000E+00
    0.00000E+00         0.00000E+00        -0.49986E+08
 
   -0.49619E+08         0.39981E+05         0.00000E+00
    0.39981E+05        -0.49998E+08         0.00000E+00
    0.00000E+00         0.00000E+00        -0.49986E+08
 
   -0.49620E+08         0.48745E+05         0.00000E+00
    0.48745E+05        -0.49997E+08         0.00000E+00
    0.00000E+00         0.00000E+00        -0.49986E+08
 
   -0.49622E+08         0.57449E+05         0.00000E+00
    0.57449E+05        -0.49996E+08         0.00000E+00
    0.00000E+00         0.00000E+00        -0.49986E+08
 
   -0.49624E+08         0.66086E+05         0.00000E+00
    0.66086E+05        -0.49994E+08         0.00000E+00
    0.00000E+00         0.00000E+00        -0.49986E+08
 
   -0.49627E+08         0.74648E+05         0.00000E+00
    0.74648E+05        -0.49993E+08         0.00000E+00
    0.00000E+00         0.00000E+00        -0.49986E+08
 
   -0.49630E+08         0.83128E+05         0.00000E+00
    0.83128E+05        -0.49991E+08         0.00000E+00
    0.00000E+00         0.00000E+00        -0.49986E+08
 
   -0.49633E+08         0.91519E+05         0.00000E+00
    0.91519E+05        -0.49989E+08         0.00000E+00
    0.00000E+00         0.00000E+00        -0.49986E+08
 
   -0.49637E+08         0.99814E+05         0.00000E+00
    0.99814E+05        -0.49987E+08         0.00000E+00
    0.00000E+00         0.00000E+00        -0.49986E+08
 
   -0.49641E+08         0.10800E+06         0.00000E+00
    0.10800E+06        -0.49985E+08         0.00000E+00
    0.00000E+00         0.00000E+00        -0.49986E+08
 
   -0.49645E+08         0.11609E+06         0.00000E+00
    0.11609E+06        -0.49982E+08         0.00000E+00
    0.00000E+00         0.00000E+00        -0.49986E+08
 
   -0.49650E+08         0.12405E+06         0.00000E+00
    0.12405E+06        -0.49979E+08         0.00000E+00
    0.00000E+00         0.00000E+00        -0.49986E+08
 
   -0.49655E+08         0.13189E+06         0.00000E+00
    0.13189E+06        -0.49976E+08         0.00000E+00
    0.00000E+00         0.00000E+00        -0.49986E+08
 
   -0.49660E+08         0.13960E+06         0.00000E+00
    0.13960E+06        -0.49973E+08         0.00000E+00
    0.00000E+00         0.00000E+00        -0.49986E+08
 
   -0.49666E+08         0.14718E+06         0.00000E+00
    0.14718E+06        -0.49970E+08         0.00000E+00
    0.00000E+00         0.00000E+00        -0.49986E+08
 
   -0.49672E+08         0.15462E+06         0.00000E+00
    0.15462E+06        -0.49967E+08         0.00000E+00
    0.00000E+00         0.00000E+00        -0.49986E+08
 
   -0.49678E+08         0.16190E+06         0.00000E+00
    0.16190E+06        -0.49963E+08         0.00000E+00
    0.00000E+00         0.00000E+00        -0.49986E+08
 
   -0.49685E+08         0.16904E+06         0.00000E+00
    0.16904E+06        -0.49960E+08         0.00000E+00
    0.00000E+00         0.00000E+00        -0.49986E+08
 
   -0.49692E+08         0.17601E+06         0.00000E+00
    0.17601E+06        -0.49956E+08         0.00000E+00
    0.00000E+00         0.00000E+00        -0.49986E+08
 
   -0.49699E+08         0.18282E+06         0.00000E+00
    0.18282E+06        -0.49952E+08         0.00000E+00
    0.00000E+00         0.00000E+00        -0.49986E+08
 
   -0.49706E+08         0.18946E+06         0.00000E+00
    0.18946E+06        -0.49948E+08         0.00000E+00
    0.00000E+00         0.00000E+00        -0.49986E+08
 
   -0.49714E+08         0.19593E+06         0.00000E+00
    0.19593E+06        -0.49944E+08         0.00000E+00
    0.00000E+00         0.00000E+00        -0.49986E+08
 
   -0.49722E+08         0.20221E+06         0.00000E+00
    0.20221E+06        -0.49939E+08         0.00000E+00
    0.00000E+00         0.00000E+00        -0.49986E+08
 
   -0.49730E+08         0.20831E+06         0.00000E+00
    0.20831E+06        -0.49935E+08         0.00000E+00
    0.00000E+00         0.00000E+00        -0.49986E+08
 
   -0.49739E+08         0.21422E+06         0.00000E+00
    0.21422E+06        -0.49930E+08         0.00000E+00
    0.00000E+00         0.00000E+00        -0.49986E+08
 
   -0.49748E+08         0.21993E+06         0.00000E+00
    0.21993E+06        -0.49925E+08         0.00000E+00
    0.00000E+00         0.00000E+00        -0.49986E+08
 
   -0.49757E+08         0.22545E+06         0.00000E+00
    0.22545E+06        -0.49920E+08         0.00000E+00
    0.00000E+00         0.00000E+00        -0.49986E+08
 
   -0.49766E+08         0.23076E+06         0.00000E+00
    0.23076E+06        -0.49915E+08         0.00000E+00
    0.00000E+00         0.00000E+00        -0.49986E+08
 
   -0.49776E+08         0.23587E+06         0.00000E+00
    0.23587E+06        -0.49910E+08         0.00000E+00
    0.00000E+00         0.00000E+00        -0.49986E+08
 
   -0.49785E+08         0.24076E+06         0.00000E+00
    0.24076E+06        -0.49905E+08         0.00000E+00
    0.00000E+00         0.00000E+00        -0.49986E+08
 
   -0.49795E+08         0.24544E+06         0.00000E+00
    0.24544E+06        -0.49900E+08         0.00000E+00
    0.00000E+00         0.00000E+00        -0.49986E+08
 
   -0.49806E+08         0.24989E+06         0.00000E+00
    0.24989E+06        -0.49894E+08         0.00000E+00
    0.00000E+00         0.00000E+00        -0.49986E+08
 
   -0.49816E+08         0.25413E+06         0.00000E+00
    0.25413E+06        -0.49889E+08         0.00000E+00
    0.00000E+00         0.00000E+00        -0.49986E+08
 
   -0.49827E+08         0.25813E+06         0.00000E+00
    0.25813E+06        -0.49883E+08         0.00000E+00
    0.00000E+00         0.00000E+00        -0.49986E+08
 
   -0.49838E+08         0.26191E+06         0.00000E+00
    0.26191E+06        -0.49878E+08         0.00000E+00
    0.00000E+00         0.00000E+00        -0.49986E+08
 
   -0.49849E+08         0.26545E+06         0.00000E+00
    0.26545E+06        -0.49872E+08         0.00000E+00
    0.00000E+00         0.00000E+00        -0.49986E+08
 
   -0.49860E+08         0.26876E+06         0.00000E+00
    0.26876E+06        -0.49866E+08         0.00000E+00
    0.00000E+00         0.00000E+00        -0.49986E+08
 
   -0.49871E+08         0.27182E+06         0.00000E+00
    0.27182E+06        -0.49860E+08         0.00000E+00
    0.00000E+00         0.00000E+00        -0.49986E+08
 
   -0.49883E+08         0.27464E+06         0.00000E+00
    0.27464E+06        -0.49854E+08         0.00000E+00
    0.00000E+00         0.00000E+00        -0.49986E+08
 
   -0.49894E+08         0.27722E+06         0.00000E+00
    0.27722E+06        -0.49848E+08         0.00000E+00
    0.00000E+00         0.00000E+00        -0.49986E+08
 
   -0.49906E+08         0.27955E+06         0.00000E+00
    0.27955E+06        -0.49842E+08         0.00000E+00
    0.00000E+00         0.00000E+00        -0.49986E+08
 
   -0.49918E+08         0.28162E+06         0.00000E+00
    0.28162E+06        -0.49836E+08         0.00000E+00
    0.00000E+00         0.00000E+00        -0.49986E+08
 
   -0.49930E+08         0.28345E+06         0.00000E+00
    0.28345E+06        -0.49830E+08         0.00000E+00
    0.00000E+00         0.00000E+00        -0.49986E+08
 
   -0.49943E+08         0.28501E+06         0.00000E+00
    0.28501E+06        -0.49823E+08         0.00000E+00
    0.00000E+00         0.00000E+00        -0.49986E+08
 
   -0.49955E+08         0.28632E+06         0.00000E+00
    0.28632E+06        -0.49817E+08         0.00000E+00
    0.00000E+00         0.00000E+00        -0.49986E+08
 
   -0.49967E+08         0.28737E+06         0.00000E+00
    0.28737E+06        -0.49811E+08         0.00000E+00
    0.00000E+00         0.00000E+00        -0.49986E+08
 
   -0.49980E+08         0.28815E+06         0.00000E+00
    0.28815E+06        -0.49804E+08         0.00000E+00
    0.00000E+00         0.00000E+00        -0.49986E+08
 
   -0.49569E+08         0.50339E+04         0.00000E+00
    0.50339E+04        -0.50000E+08         0.00000E+00
    0.00000E+00         0.00000E+00        -0.49983E+08
 
   -0.49570E+08         0.15035E+05         0.00000E+00
    0.15035E+05        -0.50000E+08         0.00000E+00
    0.00000E+00         0.00000E+00        -0.49983E+08
 
   -0.49570E+08         0.24999E+05         0.00000E+00
    0.24999E+05        -0.49999E+08         0.00000E+00
    0.00000E+00         0.00000E+00        -0.49983E+08
 
   -0.49571E+08         0.34918E+05         0.00000E+00
    0.34918E+05        -0.49999E+08         0.00000E+00
    0.00000E+00         0.00000E+00        -0.49983E+08
 
   -0.49572E+08         0.44783E+05         0.00000E+00
    0.44783E+05        -0.49998E+08         0.00000E+00
    0.00000E+00         0.00000E+00        -0.49983E+08
 
   -0.49574E+08         0.54585E+05         0.00000E+00
    0.54585E+05        -0.49997E+08         0.00000E+00
    0.00000E+00         0.00000E+00        -0.49983E+08
 
   -0.49576E+08         0.64317E+05         0.00000E+00
    0.64317E+05        -0.49995E+08         0.00000E+00
    0.00000E+00         0.00000E+00        -0.49983E+08
 
   -0.49579E+08         0.73969E+05         0.00000E+00
    0.73969E+05        -0.49994E+08         0.00000E+00
    0.00000E+00         0.00000E+00        -0.49983E+08
 
   -0.49582E+08         0.83533E+05         0.00000E+00
    0.83533E+05        -0.49992E+08         0.00000E+00
    0.00000E+00         0.00000E+00        -0.49983E+08
 
   -0.49585E+08         0.93002E+05         0.00000E+00
    0.93002E+05        -0.49990E+08         0.00000E+00
    0.00000E+00         0.00000E+00        -0.49983E+08
 
   -0.49589E+08         0.10237E+06         0.00000E+00
    0.10237E+06        -0.49988E+08         0.00000E+00
    0.00000E+00         0.00000E+00        -0.49983E+08
 
   -0.49593E+08         0.11162E+06         0.00000E+00
    0.11162E+06        -0.49985E+08         0.00000E+00
    0.00000E+00         0.00000E+00        -0.49983E+08
 
   -0.49598E+08         0.12076E+06         0.00000E+00
    0.12076E+06        -0.49983E+08         0.00000E+00
    0.00000E+00         0.00000E+00        -0.49983E+08
 
   -0.49603E+08         0.12977E+06         0.00000E+00
    0.12977E+06        -0.49980E+08         0.00000E+00
    0.00000E+00         0.00000E+00        -0.49983E+08
 
   -0.49608E+08         0.13865E+06         0.00000E+00
    0.13865E+06        -0.49977E+08         0.00000E+00
    0.00000E+00         0.00000E+00        -0.49983E+08
 
   -0.49614E+08         0.14739E+06         0.00000E+00
    0.14739E+06        -0.49974E+08         0.00000E+00
    0.00000E+00         0.00000E+00        -0.49983E+08
 
   -0.49620E+08         0.15598E+06         0.00000E+00
    0.15598E+06        -0.49970E+08         0.00000E+00
    0.00000E+00         0.00000E+00        -0.49983E+08
 
   -0.49626E+08         0.16441E+06         0.00000E+00
    0.16441E+06        -0.49967E+08         0.00000E+00
    0.00000E+00         0.00000E+00        -0.49983E+08
 
   -0.49633E+08         0.17269E+06         0.00000E+00
    0.17269E+06        -0.49963E+08         0.00000E+00
    0.00000E+00         0.00000E+00        -0.49983E+08
 
   -0.49640E+08         0.18080E+06         0.00000E+00
    0.18080E+06        -0.49959E+08         0.00000E+00
    0.00000E+00         0.00000E+00        -0.49983E+08
 
   -0.49647E+08         0.18874E+06         0.00000E+00
    0.18874E+06        -0.49955E+08         0.00000E+00
    0.00000E+00         0.00000E+00        -0.49983E+08
 
   -0.49655E+08         0.19650E+06         0.00000E+00
    0.19650E+06        -0.49951E+08         0.00000E+00
    0.00000E+00         0.00000E+00        -0.49983E+08
 
   -0.49663E+08         0.20408E+06         0.00000E+00
    0.20408E+06        -0.49947E+08         0.00000E+00
    0.00000E+00         0.00000E+00        -0.49983E+08
 
   -0.49672E+08         0.21147E+06         0.00000E+00
    0.21147E+06        -0.49942E+08         0.00000E+00
    0.00000E+00         0.00000E+00        -0.49983E+08
 
   -0.49680E+08         0.21866E+06         0.00000E+00
    0.21866E+06        -0.49937E+08         0.00000E+00
    0.00000E+00         0.00000E+00        -0.49983E+08
 
   -0.49689E+08         0.22565E+06         0.00000E+00
    0.22565E+06        -0.49932E+08         0.00000E+00
    0.00000E+00         0.00000E+00        -0.49983E+08
 
   -0.49699E+08         0.23243E+06         0.00000E+00
    0.23243E+06        -0.49927E+08         0.00000E+00
    0.00000E+00         0.00000E+00        -0.49983E+08
 
   -0.49708E+08         0.23900E+06         0.00000E+00
    0.23900E+06        -0.49922E+08         0.00000E+00
    0.00000E+00         0.00000E+00        -0.49983E+08
 
   -0.49718E+08         0.24536E+06         0.00000E+00
    0.24536E+06        -0.49917E+08         0.00000E+00
    0.00000E+00         0.00000E+00        -0.49983E+08
 
   -0.49728E+08         0.25149E+06         0.00000E+00
    0.25149E+06        -0.49912E+08         0.00000E+00
    0.00000E+00         0.00000E+00        -0.49983E+08
 
   -0.49739E+08         0.25740E+06         0.00000E+00
    0.25740E+06        -0.49906E+08         0.00000E+00
    0.00000E+00         0.00000E+00        -0.49983E+08
 
   -0.49749E+08         0.26308E+06         0.00000E+00
    0.26308E+06        -0.49900E+08         0.00000E+00
    0.00000E+00         0.00000E+00        -0.49983E+08
 
   -0.49760E+08         0.26852E+06         0.00000E+00
    0.26852E+06        -0.49895E+08         0.00000E+00
    0.00000E+00         0.00000E+00        -0.49983E+08
 
   -0.49771E+08         0.27373E+06         0.00000E+00
    0.27373E+06        -0.49889E+08         0.00000E+00
    0.00000E+00         0.00000E+00        -0.49983E+08
 
   -0.49783E+08         0.27869E+06         0.00000E+00
    0.27869E+06        -0.49883E+08         0.00000E+00
    0.00000E+00         0.00000E+00        -0.49983E+08
 
   -0.49794E+08         0.28340E+06         0.00000E+00
    0.28340E+06        -0.49877E+08         0.00000E+00
    0.00000E+00         0.00000E+00        -0.49983E+08
 
   -0.49806E+08         0.28787E+06         0.00000E+00
    0.28787E+06        -0.49870E+08         0.00000E+00
    0.00000E+00         0.00000E+00        -0.49983E+08
 
   -0.49818E+08         0.29208E+06         0.00000E+00
    0.29208E+06        -0.49864E+08         0.00000E+00
    0.00000E+00         0.00000E+00        -0.49983E+08
 
   -0.49830E+08         0.29603E+06         0.00000E+00
    0.29603E+06        -0.49858E+08         0.00000E+00
    0.00000E+00         0.00000E+00        -0.49983E+08
 
   -0.49843E+08         0.29972E+06         0.00000E+00
    0.29972E+06        -0.49851E+08         0.00000E+00
    0.00000E+00         0.00000E+00        -0.49983E+08
 
   -0.49855E+08         0.30314E+06         0.00000E+00
    0.30314E+06        -0.49845E+08         0.00000E+00
    0.00000E+00         0.00000E+00        -0.49983E+08
 
   -0.49868E+08         0.30630E+06         0.00000E+00
    0.30630E+06        -0.49838E+08         0.00000E+00
    0.00000E+00         0.00000E+00        -0.49983E+08
 
   -0.49881E+08         0.30919E+06         0.00000E+00
    0.30919E+06        -0.49831E+08         0.00000E+00
    0.00000E+00         0.00000E+00        -0.49983E+08
 
   -0.49894E+08         0.31180E+06         0.00000E+00
    0.31180E+06        -0.49825E+08         0.00000E+00
    0.00000E+00         0.00000E+00        -0.49983E+08
 
   -0.49908E+08         0.31414E+06         0.00000E+00
    0.31414E+06        -0.49818E+08         0.00000E+00
    0.00000E+00         0.00000E+00        -0.49983E+08
 
   -0.49921E+08         0.31619E+06         0.00000E+00
    0.31619E+06        -0.49811E+08         0.00000E+00
    0.00000E+00         0.00000E+00        -0.49983E+08
 
   -0.49935E+08         0.31797E+06         0.00000E+00
    0.31797E+06        -0.49804E+08         0.00000E+00
    0.00000E+00         0.00000E+00        -0.49983E+08
 
   -0.49949E+08         0.31946E+06         0.00000E+00
    0.31946E+06        -0.49797E+08         0.00000E+00
    0.00000E+00         0.00000E+00        -0.49983E+08
 
   -0.49962E+08         0.32066E+06         0.00000E+00
    0.32066E+06        -0.49790E+08         0.00000E+00
    0.00000E+00         0.00000E+00        -0.49983E+08
 
   -0.49976E+08         0.32158E+06         0.00000E+00
    0.32158E+06        -0.49783E+08         0.00000E+00
    0.00000E+00         0.00000E+00        -0.49983E+08
 
   -0.49516E+08         0.56468E+04         0.00000E+00
    0.56468E+04        -0.50000E+08         0.00000E+00
    0.00000E+00         0.00000E+00        -0.49980E+08
 
   -0.49517E+08         0.16848E+05         0.00000E+00
    0.16848E+05        -0.50000E+08         0.00000E+00
    0.00000E+00         0.00000E+00        -0.49980E+08
 
   -0.49517E+08         0.28003E+05         0.00000E+00
    0.28003E+05        -0.49999E+08         0.00000E+00
    0.00000E+00         0.00000E+00        -0.49980E+08
 
   -0.49519E+08         0.39101E+05         0.00000E+00
    0.39101E+05        -0.49998E+08         0.00000E+00
    0.00000E+00         0.00000E+00        -0.49980E+08
 
   -0.49520E+08         0.50133E+05         0.00000E+00
    0.50133E+05        -0.49997E+08         0.00000E+00
    0.00000E+00         0.00000E+00        -0.49980E+08
 
   -0.49522E+08         0.61090E+05         0.00000E+00
    0.61090E+05        -0.49996E+08         0.00000E+00
    0.00000E+00         0.00000E+00        -0.49980E+08
 
   -0.49525E+08         0.71962E+05         0.00000E+00
    0.71962E+05        -0.49995E+08         0.00000E+00
    0.00000E+00         0.00000E+00        -0.49980E+08
 
   -0.49528E+08         0.82740E+05         0.00000E+00
    0.82740E+05        -0.49993E+08         0.00000E+00
    0.00000E+00         0.00000E+00        -0.49980E+08
 
   -0.49532E+08         0.93417E+05         0.00000E+00
    0.93417E+05        -0.49991E+08         0.00000E+00
    0.00000E+00         0.00000E+00        -0.49980E+08
 
   -0.49536E+08         0.10398E+06         0.00000E+00
    0.10398E+06        -0.49989E+08         0.00000E+00
    0.00000E+00         0.00000E+00        -0.49980E+08
 
   -0.49540E+08         0.11443E+06         0.00000E+00
    0.11443E+06        -0.49986E+08         0.00000E+00
    0.00000E+00         0.00000E+00        -0.49980E+08
 
   -0.49545E+08         0.12475E+06         0.00000E+00
    0.12475E+06        -0.49984E+08         0.00000E+00
    0.00000E+00         0.00000E+00        -0.49980E+08
 
   -0.49550E+08         0.13493E+06         0.00000E+00
    0.13493E+06        -0.49981E+08         0.00000E+00
    0.00000E+00         0.00000E+00        -0.49980E+08
 
   -0.49556E+08         0.14497E+06         0.00000E+00
    0.14497E+06        -0.49978E+08         0.00000E+00
    0.00000E+00         0.00000E+00        -0.49980E+08
 
   -0.49562E+08         0.15486E+06         0.00000E+00
    0.15486E+06        -0.49974E+08         0.00000E+00
    0.00000E+00         0.00000E+00        -0.49980E+08
 
   -0.49568E+08         0.16458E+06         0.00000E+00
    0.16458E+06        -0.49971E+08         0.00000E+00
    0.00000E+00         0.00000E+00        -0.49980E+08
 
   -0.49575E+08         0.17415E+06         0.00000E+00
    0.17415E+06        -0.49967E+08         0.00000E+00
    0.00000E+00         0.00000E+00        -0.49980E+08
 
   -0.49582E+08         0.18354E+06         0.00000E+00
    0.18354E+06        -0.49963E+08         0.00000E+00
    0.00000E+00         0.00000E+00        -0.49980E+08
 
   -0.49590E+08         0.19275E+06         0.00000E+00
    0.19275E+06        -0.49959E+08         0.00000E+00
    0.00000E+00         0.00000E+00        -0.49980E+08
 
   -0.49598E+08         0.20177E+06         0.00000E+00
    0.20177E+06        -0.49955E+08         0.00000E+00
    0.00000E+00         0.00000E+00        -0.49980E+08
 
   -0.49606E+08         0.21060E+06         0.00000E+00
    0.21060E+06        -0.49950E+08         0.00000E+00
    0.00000E+00         0.00000E+00        -0.49980E+08
 
   -0.49615E+08         0.21922E+06         0.00000E+00
    0.21922E+06        -0.49946E+08         0.00000E+00
    0.00000E+00         0.00000E+00        -0.49980E+08
 
   -0.49624E+08         0.22765E+06         0.00000E+00
    0.22765E+06        -0.49941E+08         0.00000E+00
    0.00000E+00         0.00000E+00        -0.49980E+08
 
   -0.49633E+08         0.23586E+06         0.00000E+00
    0.23586E+06        -0.49936E+08         0.00000E+00
    0.00000E+00         0.00000E+00        -0.49980E+08
 
   -0.49643E+08         0.24385E+06         0.00000E+00
    0.24385E+06        -0.49930E+08         0.00000E+00
    0.00000E+00         0.00000E+00        -0.49980E+08
 
   -0.49653E+08         0.25161E+06         0.00000E+00
    0.25161E+06        -0.49925E+08         0.00000E+00
    0.00000E+00         0.00000E+00        -0.49980E+08
 
   -0.49663E+08         0.25915E+06         0.00000E+00
    0.25915E+06        -0.49920E+08         0.00000E+00
    0.00000E+00         0.00000E+00        -0.49980E+08
 
   -0.49674E+08         0.26645E+06         0.00000E+00
    0.26645E+06        -0.49914E+08         0.00000E+00
    0.00000E+00         0.00000E+00        -0.49980E+08
 
   -0.49685E+08         0.27352E+06         0.00000E+00
    0.27352E+06        -0.49908E+08         0.00000E+00
    0.00000E+00         0.00000E+00        -0.49980E+08
 
   -0.49696E+08         0.28033E+06         0.00000E+00
    0.28033E+06        -0.49902E+08         0.00000E+00
    0.00000E+00         0.00000E+00        -0.49980E+08
 
   -0.49708E+08         0.28690E+06         0.00000E+00
    0.28690E+06        -0.49896E+08         0.00000E+00
    0.00000E+00         0.00000E+00        -0.49980E+08
 
   -0.49720E+08         0.29321E+06         0.00000E+00
    0.29321E+06        -0.49890E+08         0.00000E+00
    0.00000E+00         0.00000E+00        -0.49980E+08
 
   -0.49732E+08         0.29926E+06         0.00000E+00
    0.29926E+06        -0.49883E+08         0.00000E+00
    0.00000E+00         0.00000E+00        -0.49980E+08
 
   -0.49744E+08         0.30505E+06         0.00000E+00
    0.30505E+06        -0.49877E+08         0.00000E+00
    0.00000E+00         0.00000E+00        -0.49980E+08
 
   -0.49757E+08         0.31057E+06         0.00000E+00
    0.31057E+06        -0.49870E+08         0.00000E+00
    0.00000E+00         0.00000E+00        -0.49980E+08
 
   -0.49770E+08         0.31581E+06         0.00000E+00
    0.31581E+06        -0.49863E+08         0.00000E+00
    0.00000E+00         0.00000E+00        -0.49980E+08
 
   -0.49783E+08         0.32078E+06         0.00000E+00
    0.32078E+06        -0.49856E+08         0.00000E+00
    0.00000E+00         0.00000E+00        -0.49980E+08
 
   -0.49797E+08         0.32547E+06         0.00000E+00
    0.32547E+06        -0.49849E+08         0.00000E+00
    0.00000E+00         0.00000E+00        -0.49980E+08
 
   -0.49810E+08         0.32988E+06         0.00000E+00
    0.32988E+06        -0.49842E+08         0.00000E+00
    0.00000E+00         0.00000E+00        -0.49980E+08
 
   -0.49824E+08         0.33399E+06         0.00000E+00
    0.33399E+06        -0.49835E+08         0.00000E+00
    0.00000E+00         0.00000E+00        -0.49980E+08
 
   -0.49838E+08         0.33782E+06         0.00000E+00
    0.33782E+06        -0.49828E+08         0.00000E+00
    0.00000E+00         0.00000E+00        -0.49980E+08
 
   -0.49852E+08         0.34135E+06         0.00000E+00
    0.34135E+06        -0.49821E+08         0.00000E+00
    0.00000E+00         0.00000E+00        -0.49980E+08
 
   -0.49867E+08         0.34459E+06         0.00000E+00
    0.34459E+06        -0.49813E+08         0.00000E+00
    0.00000E+00         0.00000E+00        -0.49980E+08
 
   -0.49881E+08         0.34752E+06         0.00000E+00
    0.34752E+06        -0.49806E+08         0.00000E+00
    0.00000E+00         0.00000E+00        -0.49980E+08
 
   -0.49896E+08         0.35015E+06         0.00000E+00
    0.35015E+06        -0.49798E+08         0.00000E+00
    0.00000E+00         0.00000E+00        -0.49980E+08
 
   -0.49911E+08         0.35247E+06         0.00000E+00
    0.35247E+06        -0.49791E+08         0.00000E+00
    0.00000E+00         0.00000E+00        -0.49980E+08
 
   -0.49926E+08         0.35449E+06         0.00000E+00
    0.35449E+06        -0.49783E+08         0.00000E+00
    0.00000E+00         0.00000E+00        -0.49980E+08
 
   -0.49941E+08         0.35619E+06         0.00000E+00
    0.35619E+06        -0.49775E+08         0.00000E+00
    0.00000E+00         0.00000E+00        -0.49980E+08
 
   -0.49957E+08         0.35758E+06         0.00000E+00
    0.35758E+06        -0.49768E+08         0.00000E+00
    0.00000E+00         0.00000E+00        -0.49980E+08
 
   -0.49972E+08         0.35865E+06         0.00000E+00
    0.35865E+06        -0.49760E+08         0.00000E+00
    0.00000E+00         0.00000E+00        -0.49980E+08
 
   -0.49457E+08         0.63309E+04         0.00000E+00
    0.63309E+04        -0.50000E+08         0.00000E+00
    0.00000E+00         0.00000E+00        -0.49976E+08
 
   -0.49458E+08         0.18869E+05         0.00000E+00
    0.18869E+05        -0.50000E+08         0.00000E+00
    0.00000E+00         0.00000E+00        -0.49976E+08
 
   -0.49459E+08         0.31348E+05         0.00000E+00
    0.31348E+05        -0.49999E+08         0.00000E+00
    0.00000E+00         0.00000E+00        -0.49976E+08
 
   -0.49460E+08         0.43757E+05         0.00000E+00
    0.43757E+05        -0.49998E+08         0.00000E+00
    0.00000E+00         0.00000E+00        -0.49976E+08
 
   -0.49462E+08         0.56086E+05         0.00000E+00
    0.56086E+05        -0.49997E+08         0.00000E+00
    0.00000E+00         0.00000E+00        -0.49976E+08
 
   -0.49465E+08         0.68324E+05         0.00000E+00
    0.68324E+05        -0.49996E+08         0.00000E+00
    0.00000E+00         0.00000E+00        -0.49976E+08
 
   -0.49468E+08         0.80462E+05         0.00000E+00
    0.80462E+05        -0.49994E+08         0.00000E+00
    0.00000E+00         0.00000E+00        -0.49976E+08
 
   -0.49471E+08         0.92490E+05         0.00000E+00
    0.92490E+05        -0.49992E+08         0.00000E+00
    0.00000E+00         0.00000E+00        -0.49976E+08
 
   -0.49475E+08         0.10440E+06         0.00000E+00
    0.10440E+06        -0.49990E+08         0.00000E+00
    0.00000E+00         0.00000E+00        -0.49976E+08
 
   -0.49480E+08         0.11618E+06         0.00000E+00
    0.11618E+06        -0.49988E+08         0.00000E+00
    0.00000E+00         0.00000E+00        -0.49976E+08
 
   -0.49485E+08         0.12782E+06         0.00000E+00
    0.12782E+06        -0.49985E+08         0.00000E+00
    0.00000E+00         0.00000E+00        -0.49976E+08
 
   -0.49491E+08         0.13931E+06         0.00000E+00
    0.13931E+06        -0.49982E+08         0.00000E+00
    0.00000E+00         0.00000E+00        -0.49976E+08
 
   -0.49497E+08         0.15065E+06         0.00000E+00
    0.15065E+06        -0.49979E+08         0.00000E+00
    0.00000E+00         0.00000E+00        -0.49976E+08
 
   -0.49503E+08         0.16183E+06         0.00000E+00
    0.16183E+06        -0.49975E+08         0.00000E+00
    0.00000E+00         0.00000E+00        -0.49976E+08
 
   -0.49510E+08         0.17283E+06         0.00000E+00
    0.17283E+06        -0.49972E+08         0.00000E+00
    0.00000E+00         0.00000E+00        -0.49976E+08
 
   -0.49517E+08         0.18365E+06         0.00000E+00
    0.18365E+06        -0.49968E+08         0.00000E+00
    0.00000E+00         0.00000E+00        -0.49976E+08
 
   -0.49525E+08         0.19429E+06         0.00000E+00
    0.19429E+06        -0.49964E+08         0.00000E+00
    0.00000E+00         0.00000E+00        -0.49976E+08
 
   -0.49533E+08         0.20472E+06         0.00000E+00
    0.20472E+06        -0.49959E+08         0.00000E+00
    0.00000E+00         0.00000E+00        -0.49976E+08
 
   -0.49542E+08         0.21496E+06         0.00000E+00
    0.21496E+06        -0.49955E+08         0.00000E+00
    0.00000E+00         0.00000E+00        -0.49976E+08
 
   -0.49551E+08         0.22498E+06         0.00000E+00
    0.22498E+06        -0.49950E+08         0.00000E+00
    0.00000E+00         0.00000E+00        -0.49976E+08
 
   -0.49560E+08         0.23479E+06         0.00000E+00
    0.23479E+06        -0.49945E+08         0.00000E+00
    0.00000E+00         0.00000E+00        -0.49976E+08
 
   -0.49570E+08         0.24438E+06         0.00000E+00
    0.24438E+06        -0.49940E+08         0.00000E+00
    0.00000E+00         0.00000E+00        -0.49976E+08
 
   -0.49580E+08         0.25373E+06         0.00000E+00
    0.25373E+06        -0.49934E+08         0.00000E+00
    0.00000E+00         0.00000E+00        -0.49976E+08
 
   -0.49591E+08         0.26284E+06         0.00000E+00
    0.26284E+06        -0.49929E+08         0.00000E+00
    0.00000E+00         0.00000E+00        -0.49976E+08
 
   -0.49601E+08         0.27172E+06         0.00000E+00
    0.27172E+06        -0.49923E+08         0.00000E+00
    0.00000E+00         0.00000E+00        -0.49976E+08
 
   -0.49613E+08         0.28034E+06         0.00000E+00
    0.28034E+06        -0.49917E+08         0.00000E+00
    0.00000E+00         0.00000E+00        -0.49976E+08
 
   -0.49624E+08         0.28871E+06         0.00000E+00
    0.28871E+06        -0.49911E+08         0.00000E+00
    0.00000E+00         0.00000E+00        -0.49976E+08
 
   -0.49636E+08         0.29681E+06         0.00000E+00
    0.29681E+06        -0.49905E+08         0.00000E+00
    0.00000E+00         0.00000E+00        -0.49976E+08
 
   -0.49649E+08         0.30465E+06         0.00000E+00
    0.30465E+06        -0.49898E+08         0.00000E+00
    0.00000E+00         0.00000E+00        -0.49976E+08
 
   -0.49661E+08         0.31222E+06         0.00000E+00
    0.31222E+06        -0.49892E+08         0.00000E+00
    0.00000E+00         0.00000E+00        -0.49976E+08
 
   -0.49674E+08         0.31951E+06         0.00000E+00
    0.31951E+06        -0.49885E+08         0.00000E+00
    0.00000E+00         0.00000E+00        -0.49976E+08
 
   -0.49687E+08         0.32652E+06         0.00000E+00
    0.32652E+06        -0.49878E+08         0.00000E+00
    0.00000E+00         0.00000E+00        -0.49976E+08
 
   -0.49701E+08         0.33324E+06         0.00000E+00
    0.33324E+06        -0.49871E+08         0.00000E+00
    0.00000E+00         0.00000E+00        -0.49976E+08
 
   -0.49715E+08         0.33967E+06         0.00000E+00
    0.33967E+06        -0.49864E+08         0.00000E+00
    0.00000E+00         0.00000E+00        -0.49976E+08
 
   -0.49729E+08         0.34581E+06         0.00000E+00
    0.34581E+06        -0.49856E+08         0.00000E+00
    0.00000E+00         0.00000E+00        -0.49976E+08
 
   -0.49743E+08         0.35164E+06         0.00000E+00
    0.35164E+06        -0.49849E+08         0.00000E+00
    0.00000E+00         0.00000E+00        -0.49976E+08
 
   -0.49758E+08         0.35717E+06         0.00000E+00
    0.35717E+06        -0.49841E+08         0.00000E+00
    0.00000E+00         0.00000E+00        -0.49976E+08
 
   -0.49773E+08         0.36239E+06         0.00000E+00
    0.36239E+06        -0.49833E+08         0.00000E+00
    0.00000E+00         0.00000E+00        -0.49976E+08
 
   -0.49788E+08         0.36730E+06         0.00000E+00
    0.36730E+06        -0.49826E+08         0.00000E+00
    0.00000E+00         0.00000E+00        -0.49976E+08
 
   -0.49803E+08         0.37189E+06         0.00000E+00
    0.37189E+06        -0.49818E+08         0.00000E+00
    0.00000E+00         0.00000E+00        -0.49976E+08
 
   -0.49819E+08         0.37617E+06         0.00000E+00
    0.37617E+06        -0.49810E+08         0.00000E+00
    0.00000E+00         0.00000E+00        -0.49976E+08
 
   -0.49834E+08         0.38011E+06         0.00000E+00
    0.38011E+06        -0.49802E+08         0.00000E+00
    0.00000E+00         0.00000E+00        -0.49976E+08
 
   -0.49850E+08         0.38374E+06         0.00000E+00
    0.38374E+06        -0.49793E+08         0.00000E+00
    0.00000E+00         0.00000E+00        -0.49976E+08
 
   -0.49867E+08         0.38703E+06         0.00000E+00
    0.38703E+06        -0.49785E+08         0.00000E+00
    0.00000E+00         0.00000E+00        -0.49976E+08
 
   -0.49883E+08         0.38999E+06         0.00000E+00
    0.38999E+06        -0.49777E+08         0.00000E+00
    0.00000E+00         0.00000E+00        -0.49976E+08
 
   -0.49899E+08         0.39261E+06         0.00000E+00
    0.39261E+06        -0.49768E+08         0.00000E+00
    0.00000E+00         0.00000E+00        -0.49976E+08
 
   -0.49916E+08         0.39490E+06         0.00000E+00
    0.39490E+06        -0.49760E+08         0.00000E+00
    0.00000E+00         0.00000E+00        -0.49976E+08
 
   -0.49933E+08         0.39685E+06         0.00000E+00
    0.39685E+06        -0.49751E+08         0.00000E+00
    0.00000E+00         0.00000E+00        -0.49976E+08
 
   -0.49950E+08         0.39845E+06         0.00000E+00
    0.39845E+06        -0.49743E+08         0.00000E+00
    0.00000E+00         0.00000E+00        -0.49976E+08
 
   -0.49967E+08         0.39970E+06         0.00000E+00
    0.39970E+06        -0.49734E+08         0.00000E+00
    0.00000E+00         0.00000E+00        -0.49976E+08
 
   -0.49391E+08         0.70938E+04         0.00000E+00
    0.70938E+04        -0.50000E+08         0.00000E+00
    0.00000E+00         0.00000E+00        -0.49971E+08
 
   -0.49391E+08         0.21119E+05         0.00000E+00
    0.21119E+05        -0.50000E+08         0.00000E+00
    0.00000E+00         0.00000E+00        -0.49971E+08
 
   -0.49393E+08         0.35070E+05         0.00000E+00
    0.35070E+05        -0.49999E+08         0.00000E+00
    0.00000E+00         0.00000E+00        -0.49971E+08
 
   -0.49395E+08         0.48935E+05         0.00000E+00
    0.48935E+05        -0.49998E+08         0.00000E+00
    0.00000E+00         0.00000E+00        -0.49971E+08
 
   -0.49397E+08         0.62703E+05         0.00000E+00
    0.62703E+05        -0.49997E+08         0.00000E+00
    0.00000E+00         0.00000E+00        -0.49971E+08
 
   -0.49400E+08         0.76362E+05         0.00000E+00
    0.76362E+05        -0.49995E+08         0.00000E+00
    0.00000E+00         0.00000E+00        -0.49971E+08
 
   -0.49404E+08         0.89902E+05         0.00000E+00
    0.89902E+05        -0.49993E+08         0.00000E+00
    0.00000E+00         0.00000E+00        -0.49971E+08
 
   -0.49408E+08         0.10331E+06         0.00000E+00
    0.10331E+06        -0.49991E+08         0.00000E+00
    0.00000E+00         0.00000E+00        -0.49971E+08
 
   -0.49413E+08         0.11658E+06         0.00000E+00
    0.11658E+06        -0.49989E+08         0.00000E+00
    0.00000E+00         0.00000E+00        -0.49971E+08
 
   -0.49418E+08         0.12970E+06         0.00000E+00
    0.12970E+06        -0.49986E+08         0.00000E+00
    0.00000E+00         0.00000E+00        -0.49971E+08
 
   -0.49424E+08         0.14267E+06         0.00000E+00
    0.14267E+06        -0.49983E+08         0.00000E+00
    0.00000E+00         0.00000E+00        -0.49971E+08
 
   -0.49430E+08         0.15546E+06         0.00000E+00
    0.15546E+06        -0.49980E+08         0.00000E+00
    0.00000E+00         0.00000E+00        -0.49971E+08
 
   -0.49437E+08         0.16807E+06         0.00000E+00
    0.16807E+06        -0.49976E+08         0.00000E+00
    0.00000E+00         0.00000E+00        -0.49971E+08
 
   -0.49444E+08         0.18050E+06         0.00000E+00
    0.18050E+06        -0.49973E+08         0.00000E+00
    0.00000E+00         0.00000E+00        -0.49971E+08
 
   -0.49452E+08         0.19273E+06         0.00000E+00
    0.19273E+06        -0.49969E+08         0.00000E+00
    0.00000E+00         0.00000E+00        -0.49971E+08
 
   -0.49461E+08         0.20476E+06         0.00000E+00
    0.20476E+06        -0.49964E+08         0.00000E+00
    0.00000E+00         0.00000E+00        -0.49971E+08
 
   -0.49469E+08         0.21657E+06         0.00000E+00
    0.21657E+06        -0.49960E+08         0.00000E+00
    0.00000E+00         0.00000E+00        -0.49971E+08
 
   -0.49479E+08         0.22817E+06         0.00000E+00
    0.22817E+06        -0.49955E+08         0.00000E+00
    0.00000E+00         0.00000E+00        -0.49971E+08
 
   -0.49488E+08         0.23953E+06         0.00000E+00
    0.23953E+06        -0.49950E+08         0.00000E+00
    0.00000E+00         0.00000E+00        -0.49971E+08
 
   -0.49498E+08         0.25066E+06         0.00000E+00
    0.25066E+06        -0.49945E+08         0.00000E+00
    0.00000E+00         0.00000E+00        -0.49971E+08
 
   -0.49509E+08         0.26155E+06         0.00000E+00
    0.26155E+06        -0.49939E+08         0.00000E+00
    0.00000E+00         0.00000E+00        -0.49971E+08
 
   -0.49520E+08         0.27218E+06         0.00000E+00
    0.27218E+06        -0.49933E+08         0.00000E+00
    0.00000E+00         0.00000E+00        -0.49971E+08
 
   -0.49531E+08         0.28256E+06         0.00000E+00
    0.28256E+06        -0.49927E+08         0.00000E+00
    0.00000E+00         0.00000E+00        -0.49971E+08
 
   -0.49543E+08         0.29267E+06         0.00000E+00
    0.29267E+06        -0.49921E+08         0.00000E+00
    0.00000E+00         0.00000E+00        -0.49971E+08
 
   -0.49555E+08         0.30251E+06         0.00000E+00
    0.30251E+06        -0.49915E+08         0.00000E+00
    0.00000E+00         0.00000E+00        -0.49971E+08
 
   -0.49568E+08         0.31207E+06         0.00000E+00
    0.31207E+06        -0.49908E+08         0.00000E+00
    0.00000E+00         0.00000E+00        -0.49971E+08
 
   -0.49581E+08         0.32135E+06         0.00000E+00
    0.32135E+06        -0.49901E+08         0.00000E+00
    0.00000E+00         0.00000E+00        -0.49971E+08
 
   -0.49594E+08         0.33034E+06         0.00000E+00
    0.33034E+06        -0.49895E+08         0.00000E+00
    0.00000E+00         0.00000E+00        -0.49971E+08
 
   -0.49608E+08         0.33904E+06         0.00000E+00
    0.33904E+06        -0.49887E+08         0.00000E+00
    0.00000E+00         0.00000E+00        -0.49971E+08
 
   -0.49622E+08         0.34743E+06         0.00000E+00
    0.34743E+06        -0.49880E+08         0.00000E+00
    0.00000E+00         0.00000E+00        -0.49971E+08
 
   -0.49636E+08         0.35552E+06         0.00000E+00
    0.35552E+06        -0.49873E+08         0.00000E+00
    0.00000E+00         0.00000E+00        -0.49971E+08
 
   -0.49651E+08         0.36330E+06         0.00000E+00
    0.36330E+06        -0.49865E+08         0.00000E+00
    0.00000E+00         0.00000E+00        -0.49971E+08
 
   -0.49666E+08         0.37076E+06         0.00000E+00
    0.37076E+06        -0.49857E+08         0.00000E+00
    0.00000E+00         0.00000E+00        -0.49971E+08
 
   -0.49682E+08         0.37789E+06         0.00000E+00
    0.37789E+06        -0.49849E+08         0.00000E+00
    0.00000E+00         0.00000E+00        -0.49971E+08
 
   -0.49697E+08         0.38471E+06         0.00000E+00
    0.38471E+06        -0.49841E+08         0.00000E+00
    0.00000E+00         0.00000E+00        -0.49971E+08
 
   -0.49713E+08         0.39119E+06         0.00000E+00
    0.39119E+06        -0.49833E+08         0.00000E+00
    0.00000E+00         0.00000E+00        -0.49971E+08
 
   -0.49729E+08         0.39734E+06         0.00000E+00
    0.39734E+06        -0.49825E+08         0.00000E+00
    0.00000E+00         0.00000E+00        -0.49971E+08
 
   -0.49746E+08         0.40315E+06         0.00000E+00
    0.40315E+06        -0.49816E+08         0.00000E+00
    0.00000E+00         0.00000E+00        -0.49971E+08
 
   -0.49763E+08         0.40862E+06         0.00000E+00
    0.40862E+06        -0.49807E+08         0.00000E+00
    0.00000E+00         0.00000E+00        -0.49971E+08
 
   -0.49780E+08         0.41374E+06         0.00000E+00
    0.41374E+06        -0.49799E+08         0.00000E+00
    0.00000E+00         0.00000E+00        -0.49971E+08
 
   -0.49797E+08         0.41850E+06         0.00000E+00
    0.41850E+06        -0.49790E+08         0.00000E+00
    0.00000E+00         0.00000E+00        -0.49971E+08
 
   -0.49814E+08         0.42292E+06         0.00000E+00
    0.42292E+06        -0.49781E+08         0.00000E+00
    0.00000E+00         0.00000E+00        -0.49971E+08
 
   -0.49832E+08         0.42698E+06         0.00000E+00
    0.42698E+06        -0.49772E+08         0.00000E+00
    0.00000E+00         0.00000E+00        -0.49971E+08
 
   -0.49850E+08         0.43067E+06         0.00000E+00
    0.43067E+06        -0.49763E+08         0.00000E+00
    0.00000E+00         0.00000E+00        -0.49971E+08
 
   -0.49868E+08         0.43401E+06         0.00000E+00
    0.43401E+06        -0.49754E+08         0.00000E+00
    0.00000E+00         0.00000E+00        -0.49971E+08
 
   -0.49886E+08         0.43697E+06         0.00000E+00
    0.43697E+06        -0.49744E+08         0.00000E+00
    0.00000E+00         0.00000E+00        -0.49971E+08
 
   -0.49905E+08         0.43957E+06         0.00000E+00
    0.43957E+06        -0.49735E+08         0.00000E+00
    0.00000E+00         0.00000E+00        -0.49971E+08
 
   -0.49924E+08         0.44179E+06         0.00000E+00
    0.44179E+06        -0.49725E+08         0.00000E+00
    0.00000E+00         0.00000E+00        -0.49971E+08
 
   -0.49942E+08         0.44364E+06         0.00000E+00
    0.44364E+06        -0.49716E+08         0.00000E+00
    0.00000E+00         0.00000E+00        -0.49971E+08
 
   -0.49961E+08         0.44511E+06         0.00000E+00
    0.44511E+06        -0.49707E+08         0.00000E+00
    0.00000E+00         0.00000E+00        -0.49971E+08
 
   -0.49316E+08         0.79433E+04         0.00000E+00
    0.79433E+04        -0.50000E+08         0.00000E+00
    0.00000E+00         0.00000E+00        -0.49965E+08
 
   -0.49317E+08         0.23621E+05         0.00000E+00
    0.23621E+05        -0.50000E+08         0.00000E+00
    0.00000E+00         0.00000E+00        -0.49965E+08
 
   -0.49319E+08         0.39205E+05         0.00000E+00
    0.39205E+05        -0.49999E+08         0.00000E+00
    0.00000E+00         0.00000E+00        -0.49965E+08
 
   -0.49322E+08         0.54684E+05         0.00000E+00
    0.54684E+05        -0.49998E+08         0.00000E+00
    0.00000E+00         0.00000E+00        -0.49965E+08
 
   -0.49325E+08         0.70046E+05         0.00000E+00
    0.70046E+05        -0.49996E+08         0.00000E+00
    0.00000E+00         0.00000E+00        -0.49965E+08
 
   -0.49328E+08         0.85278E+05         0.00000E+00
    0.85278E+05        -0.49995E+08         0.00000E+00
    0.00000E+00         0.00000E+00        -0.49965E+08
 
   -0.49333E+08         0.10037E+06         0.00000E+00
    0.10037E+06        -0.49993E+08         0.00000E+00
    0.00000E+00         0.00000E+00        -0.49965E+08
 
   -0.49338E+08         0.11531E+06         0.00000E+00
    0.11531E+06        -0.49990E+08         0.00000E+00
    0.00000E+00         0.00000E+00        -0.49965E+08
 
   -0.49343E+08         0.13008E+06         0.00000E+00
    0.13008E+06        -0.49988E+08         0.00000E+00
    0.00000E+00         0.00000E+00        -0.49965E+08
 
   -0.49349E+08         0.14469E+06         0.00000E+00
    0.14469E+06        -0.49985E+08         0.00000E+00
    0.00000E+00         0.00000E+00        -0.49965E+08
 
   -0.49356E+08         0.15910E+06         0.00000E+00
    0.15910E+06        -0.49981E+08         0.00000E+00
    0.00000E+00         0.00000E+00        -0.49965E+08
 
   -0.49363E+08         0.17333E+06         0.00000E+00
    0.17333E+06        -0.49978E+08         0.00000E+00
    0.00000E+00         0.00000E+00        -0.49965E+08
 
   -0.49371E+08         0.18735E+06         0.00000E+00
    0.18735E+06        -0.49974E+08         0.00000E+00
    0.00000E+00         0.00000E+00        -0.49965E+08
 
   -0.49379E+08         0.20116E+06         0.00000E+00
    0.20116E+06        -0.49970E+08         0.00000E+00
    0.00000E+00         0.00000E+00        -0.49965E+08
 
   -0.49388E+08         0.21474E+06         0.00000E+00
    0.21474E+06        -0.49965E+08         0.00000E+00
    0.00000E+00         0.00000E+00        -0.49965E+08
 
   -0.49398E+08         0.22809E+06         0.00000E+00
    0.22809E+06        -0.49960E+08         0.00000E+00
    0.00000E+00         0.00000E+00        -0.49965E+08
 
   -0.49408E+08         0.24120E+06         0.00000E+00
    0.24120E+06        -0.49955E+08         0.00000E+00
    0.00000E+00         0.00000E+00        -0.49965E+08
 
   -0.49418E+08         0.25407E+06         0.00000E+00
    0.25407E+06        -0.49950E+08         0.00000E+00
    0.00000E+00         0.00000E+00        -0.49965E+08
 
   -0.49429E+08         0.26667E+06         0.00000E+00
    0.26667E+06        -0.49944E+08         0.00000E+00
    0.00000E+00         0.00000E+00        -0.49965E+08
 
   -0.49440E+08         0.27901E+06         0.00000E+00
    0.27901E+06        -0.49939E+08         0.00000E+00
    0.00000E+00         0.00000E+00        -0.49965E+08
 
   -0.49452E+08         0.29108E+06         0.00000E+00
    0.29108E+06        -0.49933E+08         0.00000E+00
    0.00000E+00         0.00000E+00        -0.49965E+08
 
   -0.49465E+08         0.30287E+06         0.00000E+00
    0.30287E+06        -0.49926E+08         0.00000E+00
    0.00000E+00         0.00000E+00        -0.49965E+08
 
   -0.49477E+08         0.31436E+06         0.00000E+00
    0.31436E+06        -0.49920E+08         0.00000E+00
    0.00000E+00         0.00000E+00        -0.49965E+08
 
   -0.49491E+08         0.32557E+06         0.00000E+00
    0.32557E+06        -0.49913E+08         0.00000E+00
    0.00000E+00         0.00000E+00        -0.49965E+08
 
   -0.49504E+08         0.33647E+06         0.00000E+00
    0.33647E+06        -0.49906E+08         0.00000E+00
    0.00000E+00         0.00000E+00        -0.49965E+08
 
   -0.49518E+08         0.34707E+06         0.00000E+00
    0.34707E+06        -0.49899E+08         0.00000E+00
    0.00000E+00         0.00000E+00        -0.49965E+08
 
   -0.49533E+08         0.35735E+06         0.00000E+00
    0.35735E+06        -0.49891E+08         0.00000E+00
    0.00000E+00         0.00000E+00        -0.49965E+08
 
   -0.49548E+08         0.36731E+06         0.00000E+00
    0.36731E+06        -0.49884E+08         0.00000E+00
    0.00000E+00         0.00000E+00        -0.49965E+08
 
   -0.49563E+08         0.37694E+06         0.00000E+00
    0.37694E+06        -0.49876E+08         0.00000E+00
    0.00000E+00         0.00000E+00        -0.49965E+08
 
   -0.49579E+08         0.38624E+06         0.00000E+00
    0.38624E+06        -0.49868E+08         0.00000E+00
    0.00000E+00         0.00000E+00        -0.49965E+08
 
   -0.49595E+08         0.39521E+06         0.00000E+00
    0.39521E+06        -0.49859E+08         0.00000E+00
    0.00000E+00         0.00000E+00        -0.49965E+08
 
   -0.49611E+08         0.40383E+06         0.00000E+00
    0.40383E+06        -0.49851E+08         0.00000E+00
    0.00000E+00         0.00000E+00        -0.49965E+08
 
   -0.49628E+08         0.41210E+06         0.00000E+00
    0.41210E+06        -0.49842E+08         0.00000E+00
    0.00000E+00         0.00000E+00        -0.49965E+08
 
   -0.49645E+08         0.42002E+06         0.00000E+00
    0.42002E+06        -0.49834E+08         0.00000E+00
    0.00000E+00         0.00000E+00        -0.49965E+08
 
   -0.49662E+08         0.42758E+06         0.00000E+00
    0.42758E+06        -0.49825E+08         0.00000E+00
    0.00000E+00         0.00000E+00        -0.49965E+08
 
   -0.49680E+08         0.43478E+06         0.00000E+00
    0.43478E+06        -0.49816E+08         0.00000E+00
    0.00000E+00         0.00000E+00        -0.49965E+08
 
   -0.49698E+08         0.44161E+06         0.00000E+00
    0.44161E+06        -0.49806E+08         0.00000E+00
    0.00000E+00         0.00000E+00        -0.49965E+08
 
   -0.49716E+08         0.44807E+06         0.00000E+00
    0.44807E+06        -0.49797E+08         0.00000E+00
    0.00000E+00         0.00000E+00        -0.49965E+08
 
   -0.49735E+08         0.45416E+06         0.00000E+00
    0.45416E+06        -0.49788E+08         0.00000E+00
    0.00000E+00         0.00000E+00        -0.49965E+08
 
   -0.49754E+08         0.45986E+06         0.00000E+00
    0.45986E+06        -0.49778E+08         0.00000E+00
    0.00000E+00         0.00000E+00        -0.49965E+08
 
   -0.49773E+08         0.46519E+06         0.00000E+00
    0.46519E+06        -0.49768E+08         0.00000E+00
    0.00000E+00         0.00000E+00        -0.49965E+08
 
   -0.49792E+08         0.47012E+06         0.00000E+00
    0.47012E+06        -0.49758E+08         0.00000E+00
    0.00000E+00         0.00000E+00        -0.49965E+08
 
   -0.49812E+08         0.47467E+06         0.00000E+00
    0.47467E+06        -0.49748E+08         0.00000E+00
    0.00000E+00         0.00000E+00        -0.49965E+08
 
   -0.49831E+08         0.47882E+06         0.00000E+00
    0.47882E+06        -0.49738E+08         0.00000E+00
    0.00000E+00         0.00000E+00        -0.49965E+08
 
   -0.49851E+08         0.48257E+06         0.00000E+00
    0.48257E+06        -0.49728E+08         0.00000E+00
    0.00000E+00         0.00000E+00        -0.49965E+08
 
   -0.49872E+08         0.48592E+06         0.00000E+00
    0.48592E+06        -0.49718E+08         0.00000E+00
    0.00000E+00         0.00000E+00        -0.49965E+08
 
   -0.49892E+08         0.48887E+06         0.00000E+00
    0.48887E+06        -0.49708E+08         0.00000E+00
    0.00000E+00         0.00000E+00        -0.49965E+08
 
   -0.49913E+08         0.49142E+06         0.00000E+00
    0.49142E+06        -0.49697E+08         0.00000E+00
    0.00000E+00         0.00000E+00        -0.49965E+08
 
   -0.49933E+08         0.49355E+06         0.00000E+00
    0.49355E+06        -0.49687E+08         0.00000E+00
    0.00000E+00         0.00000E+00        -0.49965E+08
 
   -0.49954E+08         0.49528E+06         0.00000E+00
    0.49528E+06        -0.49676E+08         0.00000E+00
    0.00000E+00         0.00000E+00        -0.49965E+08
 
   -0.49233E+08         0.88881E+04         0.00000E+00
    0.88881E+04        -0.50000E+08         0.00000E+00
    0.00000E+00         0.00000E+00        -0.49958E+08
 
   -0.49235E+08         0.26398E+05         0.00000E+00
    0.26398E+05        -0.50000E+08         0.00000E+00
    0.00000E+00         0.00000E+00        -0.49958E+08
 
   -0.49237E+08         0.43792E+05         0.00000E+00
    0.43792E+05        -0.49999E+08         0.00000E+00
    0.00000E+00         0.00000E+00        -0.49958E+08
 
   -0.49240E+08         0.61058E+05         0.00000E+00
    0.61058E+05        -0.49998E+08         0.00000E+00
    0.00000E+00         0.00000E+00        -0.49958E+08
 
   -0.49244E+08         0.78182E+05         0.00000E+00
    0.78182E+05        -0.49996E+08         0.00000E+00
    0.00000E+00         0.00000E+00        -0.49958E+08
 
   -0.49248E+08         0.95152E+05         0.00000E+00
    0.95152E+05        -0.49994E+08         0.00000E+00
    0.00000E+00         0.00000E+00        -0.49958E+08
 
   -0.49254E+08         0.11196E+06         0.00000E+00
    0.11196E+06        -0.49992E+08         0.00000E+00
    0.00000E+00         0.00000E+00        -0.49958E+08
 
   -0.49259E+08         0.12858E+06         0.00000E+00
    0.12858E+06        -0.49989E+08         0.00000E+00
    0.00000E+00         0.00000E+00        -0.49958E+08
 
   -0.49266E+08         0.14502E+06         0.00000E+00
    0.14502E+06        -0.49986E+08         0.00000E+00
    0.00000E+00         0.00000E+00        -0.49958E+08
 
   -0.49273E+08         0.16125E+06         0.00000E+00
    0.16125E+06        -0.49983E+08         0.00000E+00
    0.00000E+00         0.00000E+00        -0.49958E+08
 
   -0.49280E+08         0.17727E+06         0.00000E+00
    0.17727E+06        -0.49979E+08         0.00000E+00
    0.00000E+00         0.00000E+00        -0.49958E+08
 
   -0.49289E+08         0.19307E+06         0.00000E+00
    0.19307E+06        -0.49975E+08         0.00000E+00
    0.00000E+00         0.00000E+00        -0.49958E+08
 
   -0.49298E+08         0.20864E+06         0.00000E+00
    0.20864E+06        -0.49971E+08         0.00000E+00
    0.00000E+00         0.00000E+00        -0.49958E+08
 
   -0.49307E+08         0.22396E+06         0.00000E+00
    0.22396E+06        -0.49966E+08         0.00000E+00
    0.00000E+00         0.00000E+00        -0.49958E+08
 
   -0.49317E+08         0.23903E+06         0.00000E+00
    0.23903E+06        -0.49962E+08         0.00000E+00
    0.00000E+00         0.00000E+00        -0.49958E+08
 
   -0.49328E+08         0.25383E+06         0.00000E+00
    0.25383E+06        -0.49956E+08         0.00000E+00
    0.00000E+00         0.00000E+00        -0.49958E+08
 
   -0.49339E+08         0.26837E+06         0.00000E+00
    0.26837E+06        -0.49951E+08         0.00000E+00
    0.00000E+00         0.00000E+00        -0.49958E+08
 
   -0.49351E+08         0.28262E+06         0.00000E+00
    0.28262E+06        -0.49945E+08         0.00000E+00
    0.00000E+00         0.00000E+00        -0.49958E+08
 
   -0.49363E+08         0.29659E+06         0.00000E+00
    0.29659E+06        -0.49939E+08         0.00000E+00
    0.00000E+00         0.00000E+00        -0.49958E+08
 
   -0.49376E+08         0.31026E+06         0.00000E+00
    0.31026E+06        -0.49932E+08         0.00000E+00
    0.00000E+00         0.00000E+00        -0.49958E+08
 
   -0.49389E+08         0.32362E+06         0.00000E+00
    0.32362E+06        -0.49926E+08         0.00000E+00
    0.00000E+00         0.00000E+00        -0.49958E+08
 
   -0.49403E+08         0.33667E+06         0.00000E+00
    0.33667E+06        -0.49919E+08         0.00000E+00
    0.00000E+00         0.00000E+00        -0.49958E+08
 
   -0.49418E+08         0.34940E+06         0.00000E+00
    0.34940E+06        -0.49911E+08         0.00000E+00
    0.00000E+00         0.00000E+00        -0.49958E+08
 
   -0.49432E+08         0.36180E+06         0.00000E+00
    0.36180E+06        -0.49904E+08         0.00000E+00
    0.00000E+00         0.00000E+00        -0.49958E+08
 
   -0.49448E+08         0.37387E+06         0.00000E+00
    0.37387E+06        -0.49896E+08         0.00000E+00
    0.00000E+00         0.00000E+00        -0.49958E+08
 
   -0.49463E+08         0.38559E+06         0.00000E+00
    0.38559E+06        -0.49888E+08         0.00000E+00
    0.00000E+00         0.00000E+00        -0.49958E+08
 
   -0.49480E+08         0.39697E+06         0.00000E+00
    0.39697E+06        -0.49880E+08         0.00000E+00
    0.00000E+00         0.00000E+00        -0.49958E+08
 
   -0.49496E+08         0.40799E+06         0.00000E+00
    0.40799E+06        -0.49872E+08         0.00000E+00
    0.00000E+00         0.00000E+00        -0.49958E+08
 
   -0.49513E+08         0.41866E+06         0.00000E+00
    0.41866E+06        -0.49863E+08         0.00000E+00
    0.00000E+00         0.00000E+00        -0.49958E+08
 
   -0.49531E+08         0.42895E+06         0.00000E+00
    0.42895E+06        -0.49854E+08         0.00000E+00
    0.00000E+00         0.00000E+00        -0.49958E+08
 
   -0.49548E+08         0.43888E+06         0.00000E+00
    0.43888E+06        -0.49845E+08         0.00000E+00
    0.00000E+00         0.00000E+00        -0.49958E+08
 
   -0.49567E+08         0.44843E+06         0.00000E+00
    0.44843E+06        -0.49836E+08         0.00000E+00
    0.00000E+00         0.00000E+00        -0.49958E+08
 
   -0.49585E+08         0.45759E+06         0.00000E+00
    0.45759E+06        -0.49826E+08         0.00000E+00
    0.00000E+00         0.00000E+00        -0.49958E+08
 
   -0.49604E+08         0.46637E+06         0.00000E+00
    0.46637E+06        -0.49817E+08         0.00000E+00
    0.00000E+00         0.00000E+00        -0.49958E+08
 
   -0.49623E+08         0.47475E+06         0.00000E+00
    0.47475E+06        -0.49807E+08         0.00000E+00
    0.00000E+00         0.00000E+00        -0.49958E+08
 
   -0.49643E+08         0.48274E+06         0.00000E+00
    0.48274E+06        -0.49797E+08         0.00000E+00
    0.00000E+00         0.00000E+00        -0.49958E+08
 
   -0.49663E+08         0.49033E+06         0.00000E+00
    0.49033E+06        -0.49787E+08         0.00000E+00
    0.00000E+00         0.00000E+00        -0.49958E+08
 
   -0.49683E+08         0.49751E+06         0.00000E+00
    0.49751E+06        -0.49777E+08         0.00000E+00
    0.00000E+00         0.00000E+00        -0.49958E+08
 
   -0.49704E+08         0.50428E+06         0.00000E+00
    0.50428E+06        -0.49766E+08         0.00000E+00
    0.00000E+00         0.00000E+00        -0.49958E+08
 
   -0.49724E+08         0.51063E+06         0.00000E+00
    0.51063E+06        -0.49756E+08         0.00000E+00
    0.00000E+00         0.00000E+00        -0.49958E+08
 
   -0.49745E+08         0.51657E+06         0.00000E+00
    0.51657E+06        -0.49745E+08         0.00000E+00
    0.00000E+00         0.00000E+00        -0.49958E+08
 
   -0.49767E+08         0.52208E+06         0.00000E+00
    0.52208E+06        -0.49734E+08         0.00000E+00
    0.00000E+00         0.00000E+00        -0.49958E+08
 
   -0.49788E+08         0.52717E+06         0.00000E+00
    0.52717E+06        -0.49723E+08         0.00000E+00
    0.00000E+00         0.00000E+00        -0.49958E+08
 
   -0.49810E+08         0.53184E+06         0.00000E+00
    0.53184E+06        -0.49712E+08         0.00000E+00
    0.00000E+00         0.00000E+00        -0.49958E+08
 
   -0.49832E+08         0.53606E+06         0.00000E+00
    0.53606E+06        -0.49701E+08         0.00000E+00
    0.00000E+00         0.00000E+00        -0.49958E+08
 
   -0.49855E+08         0.53986E+06         0.00000E+00
    0.53986E+06        -0.49690E+08         0.00000E+00
    0.00000E+00         0.00000E+00        -0.49958E+08
 
   -0.49877E+08         0.54321E+06         0.00000E+00
    0.54321E+06        -0.49678E+08         0.00000E+00
    0.00000E+00         0.00000E+00        -0.49958E+08
 
   -0.49900E+08         0.54612E+06         0.00000E+00
    0.54612E+06        -0.49667E+08         0.00000E+00
    0.00000E+00         0.00000E+00        -0.49958E+08
 
   -0.49923E+08         0.54859E+06         0.00000E+00
    0.54859E+06        -0.49655E+08         0.00000E+00
    0.00000E+00         0.00000E+00        -0.49958E+08
 
   -0.49946E+08         0.55061E+06         0.00000E+00
    0.55061E+06        -0.49644E+08         0.00000E+00
    0.00000E+00         0.00000E+00        -0.49958E+08
 
   -0.49140E+08         0.99370E+04         0.00000E+00
    0.99370E+04        -0.50000E+08         0.00000E+00
    0.00000E+00         0.00000E+00        -0.49949E+08
 
   -0.49142E+08         0.29475E+05         0.00000E+00
    0.29475E+05        -0.49999E+08         0.00000E+00
    0.00000E+00         0.00000E+00        -0.49949E+08
 
   -0.49145E+08         0.48871E+05         0.00000E+00
    0.48871E+05        -0.49999E+08         0.00000E+00
    0.00000E+00         0.00000E+00        -0.49949E+08
 
   -0.49149E+08         0.68112E+05         0.00000E+00
    0.68112E+05        -0.49997E+08         0.00000E+00
    0.00000E+00         0.00000E+00        -0.49949E+08
 
   -0.49154E+08         0.87182E+05         0.00000E+00
    0.87182E+05        -0.49996E+08         0.00000E+00
    0.00000E+00         0.00000E+00        -0.49949E+08
 
   -0.49159E+08         0.10607E+06         0.00000E+00
    0.10607E+06        -0.49994E+08         0.00000E+00
    0.00000E+00         0.00000E+00        -0.49949E+08
 
   -0.49165E+08         0.12476E+06         0.00000E+00
    0.12476E+06        -0.49991E+08         0.00000E+00
    0.00000E+00         0.00000E+00        -0.49949E+08
 
   -0.49172E+08         0.14324E+06         0.00000E+00
    0.14324E+06        -0.49988E+08         0.00000E+00
    0.00000E+00         0.00000E+00        -0.49949E+08
 
   -0.49180E+08         0.16150E+06         0.00000E+00
    0.16150E+06        -0.49985E+08         0.00000E+00
    0.00000E+00         0.00000E+00        -0.49949E+08
 
   -0.49188E+08         0.17953E+06         0.00000E+00
    0.17953E+06        -0.49981E+08         0.00000E+00
    0.00000E+00         0.00000E+00        -0.49949E+08
 
   -0.49197E+08         0.19731E+06         0.00000E+00
    0.19731E+06        -0.49977E+08         0.00000E+00
    0.00000E+00         0.00000E+00        -0.49949E+08
 
   -0.49206E+08         0.21484E+06         0.00000E+00
    0.21484E+06        -0.49973E+08         0.00000E+00
    0.00000E+00         0.00000E+00        -0.49949E+08
 
   -0.49216E+08         0.23210E+06         0.00000E+00
    0.23210E+06        -0.49968E+08         0.00000E+00
    0.00000E+00         0.00000E+00        -0.49949E+08
 
   -0.49227E+08         0.24909E+06         0.00000E+00
    0.24909E+06        -0.49963E+08         0.00000E+00
    0.00000E+00         0.00000E+00        -0.49949E+08
 
   -0.49239E+08         0.26578E+06         0.00000E+00
    0.26578E+06        -0.49958E+08         0.00000E+00
    0.00000E+00         0.00000E+00        -0.49949E+08
 
   -0.49251E+08         0.28218E+06         0.00000E+00
    0.28218E+06        -0.49952E+08         0.00000E+00
    0.00000E+00         0.00000E+00        -0.49949E+08
 
   -0.49263E+08         0.29828E+06         0.00000E+00
    0.29828E+06        -0.49946E+08         0.00000E+00
    0.00000E+00         0.00000E+00        -0.49949E+08
 
   -0.49277E+08         0.31405E+06         0.00000E+00
    0.31405E+06        -0.49939E+08         0.00000E+00
    0.00000E+00         0.00000E+00        -0.49949E+08
 
   -0.49291E+08         0.32951E+06         0.00000E+00
    0.32951E+06        -0.49933E+08         0.00000E+00
    0.00000E+00         0.00000E+00        -0.49949E+08
 
   -0.49305E+08         0.34463E+06         0.00000E+00
    0.34463E+06        -0.49925E+08         0.00000E+00
    0.00000E+00         0.00000E+00        -0.49949E+08
 
   -0.49320E+08         0.35941E+06         0.00000E+00
    0.35941E+06        -0.49918E+08         0.00000E+00
    0.00000E+00         0.00000E+00        -0.49949E+08
 
   -0.49335E+08         0.37384E+06         0.00000E+00
    0.37384E+06        -0.49910E+08         0.00000E+00
    0.00000E+00         0.00000E+00        -0.49949E+08
 
   -0.49351E+08         0.38791E+06         0.00000E+00
    0.38791E+06        -0.49903E+08         0.00000E+00
    0.00000E+00         0.00000E+00        -0.49949E+08
 
   -0.49368E+08         0.40162E+06         0.00000E+00
    0.40162E+06        -0.49894E+08         0.00000E+00
    0.00000E+00         0.00000E+00        -0.49949E+08
 
   -0.49385E+08         0.41496E+06         0.00000E+00
    0.41496E+06        -0.49886E+08         0.00000E+00
    0.00000E+00         0.00000E+00        -0.49949E+08
 
   -0.49403E+08         0.42792E+06         0.00000E+00
    0.42792E+06        -0.49877E+08         0.00000E+00
    0.00000E+00         0.00000E+00        -0.49949E+08
 
   -0.49421E+08         0.44050E+06         0.00000E+00
    0.44050E+06        -0.49868E+08         0.00000E+00
    0.00000E+00         0.00000E+00        -0.49949E+08
 
   -0.49439E+08         0.45269E+06         0.00000E+00
    0.45269E+06        -0.49859E+08         0.00000E+00
    0.00000E+00         0.00000E+00        -0.49949E+08
 
   -0.49458E+08         0.46448E+06         0.00000E+00
    0.46448E+06        -0.49849E+08         0.00000E+00
    0.00000E+00         0.00000E+00        -0.49949E+08
 
   -0.49477E+08         0.47586E+06         0.00000E+00
    0.47586E+06        -0.49840E+08         0.00000E+00
    0.00000E+00         0.00000E+00        -0.49949E+08
 
   -0.49497E+08         0.48684E+06         0.00000E+00
    0.48684E+06        -0.49830E+08         0.00000E+00
    0.00000E+00         0.00000E+00        -0.49949E+08
 
   -0.49517E+08         0.49740E+06         0.00000E+00
    0.49740E+06        -0.49820E+08         0.00000E+00
    0.00000E+00         0.00000E+00        -0.49949E+08
 
   -0.49538E+08         0.50755E+06         0.00000E+00
    0.50755E+06        -0.49809E+08         0.00000E+00
    0.00000E+00         0.00000E+00        -0.49949E+08
 
   -0.49559E+08         0.51727E+06         0.00000E+00
    0.51727E+06        -0.49799E+08         0.00000E+00
    0.00000E+00         0.00000E+00        -0.49949E+08
 
   -0.49580E+08         0.52656E+06         0.00000E+00
    0.52656E+06        -0.49788E+08         0.00000E+00
    0.00000E+00         0.00000E+00        -0.49949E+08
 
   -0.49602E+08         0.53541E+06         0.00000E+00
    0.53541E+06        -0.49777E+08         0.00000E+00
    0.00000E+00         0.00000E+00        -0.49949E+08
 
   -0.49624E+08         0.54383E+06         0.00000E+00
    0.54383E+06        -0.49766E+08         0.00000E+00
    0.00000E+00         0.00000E+00        -0.49949E+08
 
   -0.49646E+08         0.55180E+06         0.00000E+00
    0.55180E+06        -0.49755E+08         0.00000E+00
    0.00000E+00         0.00000E+00        -0.49949E+08
 
   -0.49669E+08         0.55933E+06         0.00000E+00
    0.55933E+06        -0.49743E+08         0.00000E+00
    0.00000E+00         0.00000E+00        -0.49949E+08
 
   -0.49692E+08         0.56641E+06         0.00000E+00
    0.56641E+06        -0.49732E+08         0.00000E+00
    0.00000E+00         0.00000E+00        -0.49949E+08
 
   -0.49715E+08         0.57303E+06         0.00000E+00
    0.57303E+06        -0.49720E+08         0.00000E+00
    0.00000E+00         0.00000E+00        -0.49949E+08
 
   -0.49739E+08         0.57919E+06         0.00000E+00
    0.57919E+06        -0.49708E+08         0.00000E+00
    0.00000E+00         0.00000E+00        -0.49949E+08
 
   -0.49763E+08         0.58489E+06         0.00000E+00
    0.58489E+06        -0.49696E+08         0.00000E+00
    0.00000E+00         0.00000E+00        -0.49949E+08
 
   -0.49787E+08         0.59013E+06         0.00000E+00
    0.59013E+06        -0.49684E+08         0.00000E+00
    0.00000E+00         0.00000E+00        -0.49949E+08
 
   -0.49811E+08         0.59489E+06         0.00000E+00
    0.59489E+06        -0.49671E+08         0.00000E+00
    0.00000E+00         0.00000E+00        -0.49949E+08
 
   -0.49836E+08         0.59918E+06         0.00000E+00
    0.59918E+06        -0.49659E+08         0.00000E+00
    0.00000E+00         0.00000E+00        -0.49949E+08
 
   -0.49861E+08         0.60300E+06         0.00000E+00
    0.60300E+06        -0.49647E+08         0.00000E+00
    0.00000E+00         0.00000E+00        -0.49949E+08
 
   -0.49886E+08         0.60634E+06         0.00000E+00
    0.60634E+06        -0.49634E+08         0.00000E+00
    0.00000E+00         0.00000E+00        -0.49949E+08
 
   -0.49911E+08         0.60920E+06         0.00000E+00
    0.60920E+06        -0.49621E+08         0.00000E+00
    0.00000E+00         0.00000E+00        -0.49949E+08
 
   -0.49936E+08         0.61157E+06         0.00000E+00
    0.61157E+06        -0.49609E+08         0.00000E+00
    0.00000E+00         0.00000E+00        -0.49949E+08
 
   -0.49037E+08         0.11099E+05         0.00000E+00
    0.11099E+05        -0.50000E+08         0.00000E+00
    0.00000E+00         0.00000E+00        -0.49939E+08
 
   -0.49040E+08         0.32879E+05         0.00000E+00
    0.32879E+05        -0.49999E+08         0.00000E+00
    0.00000E+00         0.00000E+00        -0.49939E+08
 
   -0.49043E+08         0.54485E+05         0.00000E+00
    0.54485E+05        -0.49998E+08         0.00000E+00
    0.00000E+00         0.00000E+00        -0.49939E+08
 
   -0.49048E+08         0.75903E+05         0.00000E+00
    0.75903E+05        -0.49997E+08         0.00000E+00
    0.00000E+00         0.00000E+00        -0.49939E+08
 
   -0.49054E+08         0.97117E+05         0.00000E+00
    0.97117E+05        -0.49995E+08         0.00000E+00
    0.00000E+00         0.00000E+00        -0.49939E+08
 
   -0.49060E+08         0.11811E+06         0.00000E+00
    0.11811E+06        -0.49993E+08         0.00000E+00
    0.00000E+00         0.00000E+00        -0.49939E+08
 
   -0.49067E+08         0.13888E+06         0.00000E+00
    0.13888E+06        -0.49990E+08         0.00000E+00
    0.00000E+00         0.00000E+00        -0.49939E+08
 
   -0.49075E+08         0.15940E+06         0.00000E+00
    0.15940E+06        -0.49987E+08         0.00000E+00
    0.00000E+00         0.00000E+00        -0.49939E+08
 
   -0.49084E+08         0.17967E+06         0.00000E+00
    0.17967E+06        -0.49983E+08         0.00000E+00
    0.00000E+00         0.00000E+00        -0.49939E+08
 
   -0.49093E+08         0.19966E+06         0.00000E+00
    0.19966E+06        -0.49979E+08         0.00000E+00
    0.00000E+00         0.00000E+00        -0.49939E+08
 
   -0.49104E+08         0.21938E+06         0.00000E+00
    0.21938E+06        -0.49975E+08         0.00000E+00
    0.00000E+00         0.00000E+00        -0.49939E+08
 
   -0.49115E+08         0.23880E+06         0.00000E+00
    0.23880E+06        -0.49970E+08         0.00000E+00
    0.00000E+00         0.00000E+00        -0.49939E+08
 
   -0.49126E+08         0.25791E+06         0.00000E+00
    0.25791E+06        -0.49965E+08         0.00000E+00
    0.00000E+00         0.00000E+00        -0.49939E+08
 
   -0.49139E+08         0.27672E+06         0.00000E+00
    0.27672E+06        -0.49959E+08         0.00000E+00
    0.00000E+00         0.00000E+00        -0.49939E+08
 
   -0.49152E+08         0.29519E+06         0.00000E+00
    0.29519E+06        -0.49953E+08         0.00000E+00
    0.00000E+00         0.00000E+00        -0.49939E+08
 
   -0.49165E+08         0.31333E+06         0.00000E+00
    0.31333E+06        -0.49947E+08         0.00000E+00
    0.00000E+00         0.00000E+00        -0.49939E+08
 
   -0.49180E+08         0.33113E+06         0.00000E+00
    0.33113E+06        -0.49940E+08         0.00000E+00
    0.00000E+00         0.00000E+00        -0.49939E+08
 
   -0.49195E+08         0.34857E+06         0.00000E+00
    0.34857E+06        -0.49933E+08         0.00000E+00
    0.00000E+00         0.00000E+00        -0.49939E+08
 
   -0.49210E+08         0.36565E+06         0.00000E+00
    0.36565E+06        -0.49926E+08         0.00000E+00
    0.00000E+00         0.00000E+00        -0.49939E+08
 
   -0.49226E+08         0.38235E+06         0.00000E+00
    0.38235E+06        -0.49918E+08         0.00000E+00
    0.00000E+00         0.00000E+00        -0.49939E+08
 
   -0.49243E+08         0.39868E+06         0.00000E+00
    0.39868E+06        -0.49910E+08         0.00000E+00
    0.00000E+00         0.00000E+00        -0.49939E+08
 
   -0.49260E+08         0.41462E+06         0.00000E+00
    0.41462E+06        -0.49902E+08         0.00000E+00
    0.00000E+00         0.00000E+00        -0.49939E+08
 
   -0.49278E+08         0.43016E+06         0.00000E+00
    0.43016E+06        -0.49893E+08         0.00000E+00
    0.00000E+00         0.00000E+00        -0.49939E+08
 
   -0.49297E+08         0.44530E+06         0.00000E+00
    0.44530E+06        -0.49884E+08         0.00000E+00
    0.00000E+00         0.00000E+00        -0.49939E+08
 
   -0.49316E+08         0.46002E+06         0.00000E+00
    0.46002E+06        -0.49875E+08         0.00000E+00
    0.00000E+00         0.00000E+00        -0.49939E+08
 
   -0.49335E+08         0.47433E+06         0.00000E+00
    0.47433E+06        -0.49865E+08         0.00000E+00
    0.00000E+00         0.00000E+00        -0.49939E+08
 
   -0.49355E+08         0.48822E+06         0.00000E+00
    0.48822E+06        -0.49855E+08         0.00000E+00
    0.00000E+00         0.00000E+00        -0.49939E+08
 
   -0.49376E+08         0.50168E+06         0.00000E+00
    0.50168E+06        -0.49845E+08         0.00000E+00
    0.00000E+00         0.00000E+00        -0.49939E+08
 
   -0.49397E+08         0.51469E+06         0.00000E+00
    0.51469E+06        -0.49835E+08         0.00000E+00
    0.00000E+00         0.00000E+00        -0.49939E+08
 
   -0.49418E+08         0.52727E+06         0.00000E+00
    0.52727E+06        -0.49824E+08         0.00000E+00
    0.00000E+00         0.00000E+00        -0.49939E+08
 
   -0.49440E+08         0.53940E+06         0.00000E+00
    0.53940E+06        -0.49813E+08         0.00000E+00
    0.00000E+00         0.00000E+00        -0.49939E+08
 
   -0.49463E+08         0.55107E+06         0.00000E+00
    0.55107E+06        -0.49802E+08         0.00000E+00
    0.00000E+00         0.00000E+00        -0.49939E+08
 
   -0.49486E+08         0.56229E+06         0.00000E+00
    0.56229E+06        -0.49791E+08         0.00000E+00
    0.00000E+00         0.00000E+00        -0.49939E+08
 
   -0.49509E+08         0.57304E+06         0.00000E+00
    0.57304E+06        -0.49779E+08         0.00000E+00
    0.00000E+00         0.00000E+00        -0.49939E+08
 
   -0.49532E+08         0.58333E+06         0.00000E+00
    0.58333E+06        -0.49768E+08         0.00000E+00
    0.00000E+00         0.00000E+00        -0.49939E+08
 
   -0.49556E+08         0.59314E+06         0.00000E+00
    0.59314E+06        -0.49756E+08         0.00000E+00
    0.00000E+00         0.00000E+00        -0.49939E+08
 
   -0.49581E+08         0.60247E+06         0.00000E+00
    0.60247E+06        -0.49743E+08         0.00000E+00
    0.00000E+00         0.00000E+00        -0.49939E+08
 
   -0.49605E+08         0.61133E+06         0.00000E+00
    0.61133E+06        -0.49731E+08         0.00000E+00
    0.00000E+00         0.00000E+00        -0.49939E+08
 
   -0.49630E+08         0.61969E+06         0.00000E+00
    0.61969E+06        -0.49718E+08         0.00000E+00
    0.00000E+00         0.00000E+00        -0.49939E+08
 
   -0.49656E+08         0.62757E+06         0.00000E+00
    0.62757E+06        -0.49706E+08         0.00000E+00
    0.00000E+00         0.00000E+00        -0.49939E+08
 
   -0.49681E+08         0.63495E+06         0.00000E+00
    0.63495E+06        -0.49693E+08         0.00000E+00
    0.00000E+00         0.00000E+00        -0.49939E+08
 
   -0.49707E+08         0.64184E+06         0.00000E+00
    0.64184E+06        -0.49680E+08         0.00000E+00
    0.00000E+00         0.00000E+00        -0.49939E+08
 
   -0.49734E+08         0.64822E+06         0.00000E+00
    0.64822E+06        -0.49667E+08         0.00000E+00
    0.00000E+00         0.00000E+00        -0.49939E+08
 
   -0.49760E+08         0.65410E+06         0.00000E+00
    0.65410E+06        -0.49653E+08         0.00000E+00
    0.00000E+00         0.00000E+00        -0.49939E+08
 
   -0.49787E+08         0.65947E+06         0.00000E+00
    0.65947E+06        -0.49640E+08         0.00000E+00
    0.00000E+00         0.00000E+00        -0.49939E+08
 
   -0.49814E+08         0.66433E+06         0.00000E+00
    0.66433E+06        -0.49626E+08         0.00000E+00
    0.00000E+00         0.00000E+00        -0.49939E+08
 
   -0.49841E+08         0.66868E+06         0.00000E+00
    0.66868E+06        -0.49613E+08         0.00000E+00
    0.00000E+00         0.00000E+00        -0.49939E+08
 
   -0.49869E+08         0.67251E+06         0.00000E+00
    0.67251E+06        -0.49599E+08         0.00000E+00
    0.00000E+00         0.00000E+00        -0.49939E+08
 
   -0.49897E+08         0.67582E+06         0.00000E+00
    0.67582E+06        -0.49585E+08         0.00000E+00
    0.00000E+00         0.00000E+00        -0.49939E+08
 
   -0.49925E+08         0.67860E+06         0.00000E+00
    0.67860E+06        -0.49571E+08         0.00000E+00
    0.00000E+00         0.00000E+00        -0.49939E+08
 
   -0.48921E+08         0.12385E+05         0.00000E+00
    0.12385E+05        -0.50000E+08         0.00000E+00
    0.00000E+00         0.00000E+00        -0.49926E+08
 
   -0.48925E+08         0.36636E+05         0.00000E+00
    0.36636E+05        -0.49999E+08         0.00000E+00
    0.00000E+00         0.00000E+00        -0.49926E+08
 
   -0.48930E+08         0.60677E+05         0.00000E+00
    0.60677E+05        -0.49998E+08         0.00000E+00
    0.00000E+00         0.00000E+00        -0.49926E+08
 
   -0.48936E+08         0.84490E+05         0.00000E+00
    0.84490E+05        -0.49997E+08         0.00000E+00
    0.00000E+00         0.00000E+00        -0.49926E+08
 
   -0.48942E+08         0.10806E+06         0.00000E+00
    0.10806E+06        -0.49995E+08         0.00000E+00
    0.00000E+00         0.00000E+00        -0.49926E+08
 
   -0.48950E+08         0.13138E+06         0.00000E+00
    0.13138E+06        -0.49992E+08         0.00000E+00
    0.00000E+00         0.00000E+00        -0.49926E+08
 
   -0.48958E+08         0.15442E+06         0.00000E+00
    0.15442E+06        -0.49989E+08         0.00000E+00
    0.00000E+00         0.00000E+00        -0.49926E+08
 
   -0.48968E+08         0.17718E+06         0.00000E+00
    0.17718E+06        -0.49986E+08         0.00000E+00
    0.00000E+00         0.00000E+00        -0.49926E+08
 
   -0.48978E+08         0.19964E+06         0.00000E+00
    0.19964E+06        -0.49982E+08         0.00000E+00
    0.00000E+00         0.00000E+00        -0.49926E+08
 
   -0.48989E+08         0.22178E+06         0.00000E+00
    0.22178E+06        -0.49977E+08         0.00000E+00
    0.00000E+00         0.00000E+00        -0.49926E+08
 
   -0.49001E+08         0.24361E+06         0.00000E+00
    0.24361E+06        -0.49972E+08         0.00000E+00
    0.00000E+00         0.00000E+00        -0.49926E+08
 
   -0.49013E+08         0.26510E+06         0.00000E+00
    0.26510E+06        -0.49967E+08         0.00000E+00
    0.00000E+00         0.00000E+00        -0.49926E+08
 
   -0.49026E+08         0.28624E+06         0.00000E+00
    0.28624E+06        -0.49961E+08         0.00000E+00
    0.00000E+00         0.00000E+00        -0.49926E+08
 
   -0.49040E+08         0.30703E+06         0.00000E+00
    0.30703E+06        -0.49955E+08         0.00000E+00
    0.00000E+00         0.00000E+00        -0.49926E+08
 
   -0.49055E+08         0.32745E+06         0.00000E+00
    0.32745E+06        -0.49949E+08         0.00000E+00
    0.00000E+00         0.00000E+00        -0.49926E+08
 
   -0.49071E+08         0.34749E+06         0.00000E+00
    0.34749E+06        -0.49942E+08         0.00000E+00
    0.00000E+00         0.00000E+00        -0.49926E+08
 
   -0.49087E+08         0.36714E+06         0.00000E+00
    0.36714E+06        -0.49934E+08         0.00000E+00
    0.00000E+00         0.00000E+00        -0.49926E+08
 
   -0.49104E+08         0.38639E+06         0.00000E+00
    0.38639E+06        -0.49927E+08         0.00000E+00
    0.00000E+00         0.00000E+00        -0.49926E+08
 
   -0.49121E+08         0.40524E+06         0.00000E+00
    0.40524E+06        -0.49919E+08         0.00000E+00
    0.00000E+00         0.00000E+00        -0.49926E+08
 
   -0.49140E+08         0.42367E+06         0.00000E+00
    0.42367E+06        -0.49910E+08         0.00000E+00
    0.00000E+00         0.00000E+00        -0.49926E+08
 
   -0.49158E+08         0.44168E+06         0.00000E+00
    0.44168E+06        -0.49901E+08         0.00000E+00
    0.00000E+00         0.00000E+00        -0.49926E+08
 
   -0.49178E+08         0.45925E+06         0.00000E+00
    0.45925E+06        -0.49892E+08         0.00000E+00
    0.00000E+00         0.00000E+00        -0.49926E+08
 
   -0.49198E+08         0.47639E+06         0.00000E+00
    0.47639E+06        -0.49883E+08         0.00000E+00
    0.00000E+00         0.00000E+00        -0.49926E+08
 
   -0.49218E+08         0.49308E+06         0.00000E+00
    0.49308E+06        -0.49873E+08         0.00000E+00
    0.00000E+00         0.00000E+00        -0.49926E+08
 
   -0.49240E+08         0.50932E+06         0.00000E+00
    0.50932E+06        -0.49863E+08         0.00000E+00
    0.00000E+00         0.00000E+00        -0.49926E+08
 
   -0.49261E+08         0.52510E+06         0.00000E+00
    0.52510E+06        -0.49852E+08         0.00000E+00
    0.00000E+00         0.00000E+00        -0.49926E+08
 
   -0.49284E+08         0.54041E+06         0.00000E+00
    0.54041E+06        -0.49842E+08         0.00000E+00
    0.00000E+00         0.00000E+00        -0.49926E+08
 
   -0.49306E+08         0.55525E+06         0.00000E+00
    0.55525E+06        -0.49831E+08         0.00000E+00
    0.00000E+00         0.00000E+00        -0.49926E+08
 
   -0.49330E+08         0.56961E+06         0.00000E+00
    0.56961E+06        -0.49819E+08         0.00000E+00
    0.00000E+00         0.00000E+00        -0.49926E+08
 
   -0.49354E+08         0.58349E+06         0.00000E+00
    0.58349E+06        -0.49808E+08         0.00000E+00
    0.00000E+00         0.00000E+00        -0.49926E+08
 
   -0.49378E+08         0.59687E+06         0.00000E+00
    0.59687E+06        -0.49796E+08         0.00000E+00
    0.00000E+00         0.00000E+00        -0.49926E+08
 
   -0.49403E+08         0.60976E+06         0.00000E+00
    0.60976E+06        -0.49784E+08         0.00000E+00
    0.00000E+00         0.00000E+00        -0.49926E+08
 
   -0.49428E+08         0.62215E+06         0.00000E+00
    0.62215E+06        -0.49771E+08         0.00000E+00
    0.00000E+00         0.00000E+00        -0.49926E+08
 
   -0.49453E+08         0.63404E+06         0.00000E+00
    0.63404E+06        -0.49759E+08         0.00000E+00
    0.00000E+00         0.00000E+00        -0.49926E+08
 
   -0.49479E+08         0.64541E+06         0.00000E+00
    0.64541E+06        -0.49746E+08         0.00000E+00
    0.00000E+00         0.00000E+00        -0.49926E+08
 
   -0.49506E+08         0.65628E+06         0.00000E+00
    0.65628E+06        -0.49733E+08         0.00000E+00
    0.00000E+00         0.00000E+00        -0.49926E+08
 
   -0.49533E+08         0.66662E+06         0.00000E+00
    0.66662E+06        -0.49719E+08         0.00000E+00
    0.00000E+00         0.00000E+00        -0.49926E+08
 
   -0.49560E+08         0.67644E+06         0.00000E+00
    0.67644E+06        -0.49706E+08         0.00000E+00
    0.00000E+00         0.00000E+00        -0.49926E+08
 
   -0.49588E+08         0.68573E+06         0.00000E+00
    0.68573E+06        -0.49692E+08         0.00000E+00
    0.00000E+00         0.00000E+00        -0.49926E+08
 
   -0.49615E+08         0.69450E+06         0.00000E+00
    0.69450E+06        -0.49678E+08         0.00000E+00
    0.00000E+00         0.00000E+00        -0.49926E+08
 
   -0.49644E+08         0.70273E+06         0.00000E+00
    0.70273E+06        -0.49664E+08         0.00000E+00
    0.00000E+00         0.00000E+00        -0.49926E+08
 
   -0.49672E+08         0.71042E+06         0.00000E+00
    0.71042E+06        -0.49650E+08         0.00000E+00
    0.00000E+00         0.00000E+00        -0.49926E+08
 
   -0.49701E+08         0.71757E+06         0.00000E+00
    0.71757E+06        -0.49635E+08         0.00000E+00
    0.00000E+00         0.00000E+00        -0.49926E+08
 
   -0.49730E+08         0.72417E+06         0.00000E+00
    0.72417E+06        -0.49621E+08         0.00000E+00
    0.00000E+00         0.00000E+00        -0.49926E+08
 
   -0.49760E+08         0.73023E+06         0.00000E+00
    0.73023E+06        -0.49606E+08         0.00000E+00
    0.00000E+00         0.00000E+00        -0.49926E+08
 
   -0.49790E+08         0.73574E+06         0.00000E+00
    0.73574E+06        -0.49591E+08         0.00000E+00
    0.00000E+00         0.00000E+00        -0.49926E+08
 
   -0.49820E+08         0.74069E+06         0.00000E+00
    0.74069E+06        -0.49576E+08         0.00000E+00
    0.00000E+00         0.00000E+00        -0.49926E+08
 
   -0.49850E+08         0.74509E+06         0.00000E+00
    0.74509E+06        -0.49561E+08         0.00000E+00
    0.00000E+00         0.00000E+00        -0.49926E+08
 
   -0.49880E+08         0.74892E+06         0.00000E+00
    0.74892E+06        -0.49546E+08         0.00000E+00
    0.00000E+00         0.00000E+00        -0.49926E+08
 
   -0.49911E+08         0.75219E+06         0.00000E+00
    0.75219E+06        -0.49531E+08         0.00000E+00
    0.00000E+00         0.00000E+00        -0.49926E+08
 
   -0.48793E+08         0.13804E+05         0.00000E+00
    0.13804E+05        -0.50000E+08         0.00000E+00
    0.00000E+00         0.00000E+00        -0.49911E+08
 
   -0.48798E+08         0.40774E+05         0.00000E+00
    0.40774E+05        -0.49999E+08         0.00000E+00
    0.00000E+00         0.00000E+00        -0.49911E+08
 
   -0.48804E+08         0.67489E+05         0.00000E+00
    0.67489E+05        -0.49998E+08         0.00000E+00
    0.00000E+00         0.00000E+00        -0.49911E+08
 
   -0.48811E+08         0.93931E+05         0.00000E+00
    0.93931E+05        -0.49996E+08         0.00000E+00
    0.00000E+00         0.00000E+00        -0.49911E+08
 
   -0.48819E+08         0.12009E+06         0.00000E+00
    0.12009E+06        -0.49994E+08         0.00000E+00
    0.00000E+00         0.00000E+00        -0.49911E+08
 
   -0.48828E+08         0.14594E+06         0.00000E+00
    0.14594E+06        -0.49991E+08         0.00000E+00
    0.00000E+00         0.00000E+00        -0.49911E+08
 
   -0.48838E+08         0.17147E+06         0.00000E+00
    0.17147E+06        -0.49988E+08         0.00000E+00
    0.00000E+00         0.00000E+00        -0.49911E+08
 
   -0.48849E+08         0.19668E+06         0.00000E+00
    0.19668E+06        -0.49984E+08         0.00000E+00
    0.00000E+00         0.00000E+00        -0.49911E+08
 
   -0.48861E+08         0.22153E+06         0.00000E+00
    0.22153E+06        -0.49980E+08         0.00000E+00
    0.00000E+00         0.00000E+00        -0.49911E+08
 
   -0.48873E+08         0.24603E+06         0.00000E+00
    0.24603E+06        -0.49975E+08         0.00000E+00
    0.00000E+00         0.00000E+00        -0.49911E+08
 
   -0.48887E+08         0.27016E+06         0.00000E+00
    0.27016E+06        -0.49970E+08         0.00000E+00
    0.00000E+00         0.00000E+00        -0.49911E+08
 
   -0.48901E+08         0.29390E+06         0.00000E+00
    0.29390E+06        -0.49964E+08         0.00000E+00
    0.00000E+00         0.00000E+00        -0.49911E+08
 
   -0.48916E+08         0.31725E+06         0.00000E+00
    0.31725E+06        -0.49958E+08         0.00000E+00
    0.00000E+00         0.00000E+00        -0.49911E+08
 
   -0.48932E+08         0.34020E+06         0.00000E+00
    0.34020E+06        -0.49951E+08         0.00000E+00
    0.00000E+00         0.00000E+00        -0.49911E+08
 
   -0.48949E+08         0.36273E+06         0.00000E+00
    0.36273E+06        -0.49944E+08         0.00000E+00
    0.00000E+00         0.00000E+00        -0.49911E+08
 
   -0.48966E+08         0.38483E+06         0.00000E+00
    0.38483E+06        -0.49936E+08         0.00000E+00
    0.00000E+00         0.00000E+00        -0.49911E+08
 
   -0.48985E+08         0.40650E+06         0.00000E+00
    0.40650E+06        -0.49928E+08         0.00000E+00
    0.00000E+00         0.00000E+00        -0.49911E+08
 
   -0.49004E+08         0.42772E+06         0.00000E+00
    0.42772E+06        -0.49920E+08         0.00000E+00
    0.00000E+00         0.00000E+00        -0.49911E+08
 
   -0.49023E+08         0.44849E+06         0.00000E+00
    0.44849E+06        -0.49911E+08         0.00000E+00
    0.00000E+00         0.00000E+00        -0.49911E+08
 
   -0.49044E+08         0.46879E+06         0.00000E+00
    0.46879E+06        -0.49902E+08         0.00000E+00
    0.00000E+00         0.00000E+00        -0.49911E+08
 
   -0.49065E+08         0.48863E+06         0.00000E+00
    0.48863E+06        -0.49892E+08         0.00000E+00
    0.00000E+00         0.00000E+00        -0.49911E+08
 
   -0.49087E+08         0.50799E+06         0.00000E+00
    0.50799E+06        -0.49882E+08         0.00000E+00
    0.00000E+00         0.00000E+00        -0.49911E+08
 
   -0.49109E+08         0.52686E+06         0.00000E+00
    0.52686E+06        -0.49872E+08         0.00000E+00
    0.00000E+00         0.00000E+00        -0.49911E+08
 
   -0.49132E+08         0.54524E+06         0.00000E+00
    0.54524E+06        -0.49861E+08         0.00000E+00
    0.00000E+00         0.00000E+00        -0.49911E+08
 
   -0.49156E+08         0.56311E+06         0.00000E+00
    0.56311E+06        -0.49850E+08         0.00000E+00
    0.00000E+00         0.00000E+00        -0.49911E+08
 
   -0.49180E+08         0.58049E+06         0.00000E+00
    0.58049E+06        -0.49839E+08         0.00000E+00
    0.00000E+00         0.00000E+00        -0.49911E+08
 
   -0.49204E+08         0.59735E+06         0.00000E+00
    0.59735E+06        -0.49827E+08         0.00000E+00
    0.00000E+00         0.00000E+00        -0.49911E+08
 
   -0.49230E+08         0.61369E+06         0.00000E+00
    0.61369E+06        -0.49815E+08         0.00000E+00
    0.00000E+00         0.00000E+00        -0.49911E+08
 
   -0.49256E+08         0.62951E+06         0.00000E+00
    0.62951E+06        -0.49803E+08         0.00000E+00
    0.00000E+00         0.00000E+00        -0.49911E+08
 
   -0.49282E+08         0.64480E+06         0.00000E+00
    0.64480E+06        -0.49790E+08         0.00000E+00
    0.00000E+00         0.00000E+00        -0.49911E+08
 
   -0.49309E+08         0.65956E+06         0.00000E+00
    0.65956E+06        -0.49777E+08         0.00000E+00
    0.00000E+00         0.00000E+00        -0.49911E+08
 
   -0.49336E+08         0.67378E+06         0.00000E+00
    0.67378E+06        -0.49764E+08         0.00000E+00
    0.00000E+00         0.00000E+00        -0.49911E+08
 
   -0.49364E+08         0.68745E+06         0.00000E+00
    0.68745E+06        -0.49750E+08         0.00000E+00
    0.00000E+00         0.00000E+00        -0.49911E+08
 
   -0.49392E+08         0.70058E+06         0.00000E+00
    0.70058E+06        -0.49737E+08         0.00000E+00
    0.00000E+00         0.00000E+00        -0.49911E+08
 
   -0.49421E+08         0.71315E+06         0.00000E+00
    0.71315E+06        -0.49723E+08         0.00000E+00
    0.00000E+00         0.00000E+00        -0.49911E+08
 
   -0.49450E+08         0.72516E+06         0.00000E+00
    0.72516E+06        -0.49708E+08         0.00000E+00
    0.00000E+00         0.00000E+00        -0.49911E+08
 
   -0.49480E+08         0.73662E+06         0.00000E+00
    0.73662E+06        -0.49694E+08         0.00000E+00
    0.00000E+00         0.00000E+00        -0.49911E+08
 
   -0.49510E+08         0.74751E+06         0.00000E+00
    0.74751E+06        -0.49679E+08         0.00000E+00
    0.00000E+00         0.00000E+00        -0.49911E+08
 
   -0.49540E+08         0.75783E+06         0.00000E+00
    0.75783E+06        -0.49664E+08         0.00000E+00
    0.00000E+00         0.00000E+00        -0.49911E+08
 
   -0.49571E+08         0.76757E+06         0.00000E+00
    0.76757E+06        -0.49649E+08         0.00000E+00
    0.00000E+00         0.00000E+00        -0.49911E+08
 
   -0.49602E+08         0.77675E+06         0.00000E+00
    0.77675E+06        -0.49634E+08         0.00000E+00
    0.00000E+00         0.00000E+00        -0.49911E+08
 
   -0.49633E+08         0.78534E+06         0.00000E+00
    0.78534E+06        -0.49618E+08         0.00000E+00
    0.00000E+00         0.00000E+00        -0.49911E+08
 
   -0.49665E+08         0.79335E+06         0.00000E+00
    0.79335E+06        -0.49602E+08         0.00000E+00
    0.00000E+00         0.00000E+00        -0.49911E+08
 
   -0.49697E+08         0.80077E+06         0.00000E+00
    0.80077E+06        -0.49586E+08         0.00000E+00
    0.00000E+00         0.00000E+00        -0.49911E+08
 
   -0.49729E+08         0.80761E+06         0.00000E+00
    0.80761E+06        -0.49570E+08         0.00000E+00
    0.00000E+00         0.00000E+00        -0.49911E+08
 
   -0.49762E+08         0.81385E+06         0.00000E+00
    0.81385E+06        -0.49554E+08         0.00000E+00
    0.00000E+00         0.00000E+00        -0.49911E+08
 
   -0.49794E+08         0.81949E+06         0.00000E+00
    0.81949E+06        -0.49538E+08         0.00000E+00
    0.00000E+00         0.00000E+00        -0.49911E+08
 
   -0.49828E+08         0.82454E+06         0.00000E+00
    0.82454E+06        -0.49521E+08         0.00000E+00
    0.00000E+00         0.00000E+00        -0.49911E+08
 
   -0.49861E+08         0.82899E+06         0.00000E+00
    0.82899E+06        -0.49505E+08         0.00000E+00
    0.00000E+00         0.00000E+00        -0.49911E+08
 
   -0.49895E+08         0.83283E+06         0.00000E+00
    0.83283E+06        -0.49488E+08         0.00000E+00
    0.00000E+00         0.00000E+00        -0.49911E+08
 
   -0.48650E+08         0.15366E+05         0.00000E+00
    0.15366E+05        -0.50000E+08         0.00000E+00
    0.00000E+00         0.00000E+00        -0.49894E+08
 
   -0.48656E+08         0.45319E+05         0.00000E+00
    0.45319E+05        -0.49999E+08         0.00000E+00
    0.00000E+00         0.00000E+00        -0.49894E+08
 
   -0.48664E+08         0.74964E+05         0.00000E+00
    0.74964E+05        -0.49998E+08         0.00000E+00
    0.00000E+00         0.00000E+00        -0.49894E+08
 
   -0.48672E+08         0.10428E+06         0.00000E+00
    0.10428E+06        -0.49996E+08         0.00000E+00
    0.00000E+00         0.00000E+00        -0.49894E+08
 
   -0.48682E+08         0.13326E+06         0.00000E+00
    0.13326E+06        -0.49994E+08         0.00000E+00
    0.00000E+00         0.00000E+00        -0.49894E+08
 
   -0.48693E+08         0.16189E+06         0.00000E+00
    0.16189E+06        -0.49991E+08         0.00000E+00
    0.00000E+00         0.00000E+00        -0.49894E+08
 
   -0.48704E+08         0.19014E+06         0.00000E+00
    0.19014E+06        -0.49987E+08         0.00000E+00
    0.00000E+00         0.00000E+00        -0.49894E+08
 
   -0.48717E+08         0.21801E+06         0.00000E+00
    0.21801E+06        -0.49983E+08         0.00000E+00
    0.00000E+00         0.00000E+00        -0.49894E+08
 
   -0.48731E+08         0.24547E+06         0.00000E+00
    0.24547E+06        -0.49978E+08         0.00000E+00
    0.00000E+00         0.00000E+00        -0.49894E+08
 
   -0.48745E+08         0.27253E+06         0.00000E+00
    0.27253E+06        -0.49973E+08         0.00000E+00
    0.00000E+00         0.00000E+00        -0.49894E+08
 
   -0.48761E+08         0.29916E+06         0.00000E+00
    0.29916E+06        -0.49967E+08         0.00000E+00
    0.00000E+00         0.00000E+00        -0.49894E+08
 
   -0.48777E+08         0.32536E+06         0.00000E+00
    0.32536E+06        -0.49961E+08         0.00000E+00
    0.00000E+00         0.00000E+00        -0.49894E+08
 
   -0.48795E+08         0.35110E+06         0.00000E+00
    0.35110E+06        -0.49954E+08         0.00000E+00
    0.00000E+00         0.00000E+00        -0.49894E+08
 
   -0.48813E+08         0.37639E+06         0.00000E+00
    0.37639E+06        -0.49947E+08         0.00000E+00
    0.00000E+00         0.00000E+00        -0.49894E+08
 
   -0.48832E+08         0.40121E+06         0.00000E+00
    0.40121E+06        -0.49939E+08         0.00000E+00
    0.00000E+00         0.00000E+00        -0.49894E+08
 
   -0.48852E+08         0.42555E+06         0.00000E+00
    0.42555E+06        -0.49931E+08         0.00000E+00
    0.00000E+00         0.00000E+00        -0.49894E+08
 
   -0.48872E+08         0.44940E+06         0.00000E+00
    0.44940E+06        -0.49922E+08         0.00000E+00
    0.00000E+00         0.00000E+00        -0.49894E+08
 
   -0.48894E+08         0.47275E+06         0.00000E+00
    0.47275E+06        -0.49913E+08         0.00000E+00
    0.00000E+00         0.00000E+00        -0.49894E+08
 
   -0.48916E+08         0.49560E+06         0.00000E+00
    0.49560E+06        -0.49903E+08         0.00000E+00
    0.00000E+00         0.00000E+00        -0.49894E+08
 
   -0.48938E+08         0.51794E+06         0.00000E+00
    0.51794E+06        -0.49893E+08         0.00000E+00
    0.00000E+00         0.00000E+00        -0.49894E+08
 
   -0.48962E+08         0.53975E+06         0.00000E+00
    0.53975E+06        -0.49883E+08         0.00000E+00
    0.00000E+00         0.00000E+00        -0.49894E+08
 
   -0.48986E+08         0.56103E+06         0.00000E+00
    0.56103E+06        -0.49872E+08         0.00000E+00
    0.00000E+00         0.00000E+00        -0.49894E+08
 
   -0.49011E+08         0.58178E+06         0.00000E+00
    0.58178E+06        -0.49860E+08         0.00000E+00
    0.00000E+00         0.00000E+00        -0.49894E+08
 
   -0.49037E+08         0.60199E+06         0.00000E+00
    0.60199E+06        -0.49849E+08         0.00000E+00
    0.00000E+00         0.00000E+00        -0.49894E+08
 
   -0.49063E+08         0.62165E+06         0.00000E+00
    0.62165E+06        -0.49837E+08         0.00000E+00
    0.00000E+00         0.00000E+00        -0.49894E+08
 
   -0.49090E+08         0.64075E+06         0.00000E+00
    0.64075E+06        -0.49824E+08         0.00000E+00
    0.00000E+00         0.00000E+00        -0.49894E+08
 
   -0.49117E+08         0.65929E+06         0.00000E+00
    0.65929E+06        -0.49812E+08         0.00000E+00
    0.00000E+00         0.00000E+00        -0.49894E+08
 
   -0.49145E+08         0.67727E+06         0.00000E+00
    0.67727E+06        -0.49799E+08         0.00000E+00
    0.00000E+00         0.00000E+00        -0.49894E+08
 
   -0.49174E+08         0.69467E+06         0.00000E+00
    0.69467E+06        -0.49785E+08         0.00000E+00
    0.00000E+00         0.00000E+00        -0.49894E+08
 
   -0.49203E+08         0.71150E+06         0.00000E+00
    0.71150E+06        -0.49771E+08         0.00000E+00
    0.00000E+00         0.00000E+00        -0.49894E+08
 
   -0.49233E+08         0.72775E+06         0.00000E+00
    0.72775E+06        -0.49757E+08         0.00000E+00
    0.00000E+00         0.00000E+00        -0.49894E+08
 
   -0.49263E+08         0.74342E+06         0.00000E+00
    0.74342E+06        -0.49743E+08         0.00000E+00
    0.00000E+00         0.00000E+00        -0.49894E+08
 
   -0.49294E+08         0.75849E+06         0.00000E+00
    0.75849E+06        -0.49728E+08         0.00000E+00
    0.00000E+00         0.00000E+00        -0.49894E+08
 
   -0.49325E+08         0.77297E+06         0.00000E+00
    0.77297E+06        -0.49713E+08         0.00000E+00
    0.00000E+00         0.00000E+00        -0.49894E+08
 
   -0.49356E+08         0.78685E+06         0.00000E+00
    0.78685E+06        -0.49698E+08         0.00000E+00
    0.00000E+00         0.00000E+00        -0.49894E+08
 
   -0.49388E+08         0.80013E+06         0.00000E+00
    0.80013E+06        -0.49683E+08         0.00000E+00
    0.00000E+00         0.00000E+00        -0.49894E+08
 
   -0.49421E+08         0.81281E+06         0.00000E+00
    0.81281E+06        -0.49667E+08         0.00000E+00
    0.00000E+00         0.00000E+00        -0.49894E+08
 
   -0.49454E+08         0.82488E+06         0.00000E+00
    0.82488E+06        -0.49651E+08         0.00000E+00
    0.00000E+00         0.00000E+00        -0.49894E+08
 
   -0.49487E+08         0.83633E+06         0.00000E+00
    0.83633E+06        -0.49635E+08         0.00000E+00
    0.00000E+00         0.00000E+00        -0.49894E+08
 
   -0.49521E+08         0.84717E+06         0.00000E+00
    0.84717E+06        -0.49618E+08         0.00000E+00
    0.00000E+00         0.00000E+00        -0.49894E+08
 
   -0.49555E+08         0.85739E+06         0.00000E+00
    0.85739E+06        -0.49602E+08         0.00000E+00
    0.00000E+00         0.00000E+00        -0.49894E+08
 
   -0.49589E+08         0.86699E+06         0.00000E+00
    0.86699E+06        -0.49585E+08         0.00000E+00
    0.00000E+00         0.00000E+00        -0.49894E+08
 
   -0.49624E+08         0.87596E+06         0.00000E+00
    0.87596E+06        -0.49567E+08         0.00000E+00
    0.00000E+00         0.00000E+00        -0.49894E+08
 
   -0.49659E+08         0.88431E+06         0.00000E+00
    0.88431E+06        -0.49550E+08         0.00000E+00
    0.00000E+00         0.00000E+00        -0.49894E+08
 
   -0.49694E+08         0.89202E+06         0.00000E+00
    0.89202E+06        -0.49533E+08         0.00000E+00
    0.00000E+00         0.00000E+00        -0.49894E+08
 
   -0.49730E+08         0.89910E+06         0.00000E+00
    0.89910E+06        -0.49515E+08         0.00000E+00
    0.00000E+00         0.00000E+00        -0.49894E+08
 
   -0.49766E+08         0.90555E+06         0.00000E+00
    0.90555E+06        -0.49497E+08         0.00000E+00
    0.00000E+00         0.00000E+00        -0.49894E+08
 
   -0.49802E+08         0.91135E+06         0.00000E+00
    0.91135E+06        -0.49479E+08         0.00000E+00
    0.00000E+00         0.00000E+00        -0.49894E+08
 
   -0.49839E+08         0.91651E+06         0.00000E+00
    0.91651E+06        -0.49461E+08         0.00000E+00
    0.00000E+00         0.00000E+00        -0.49894E+08
 
   -0.49875E+08         0.92103E+06         0.00000E+00
    0.92103E+06        -0.49442E+08         0.00000E+00
    0.00000E+00         0.00000E+00        -0.49894E+08
 
   -0.48491E+08         0.17081E+05         0.00000E+00
    0.17081E+05        -0.50000E+08         0.00000E+00
    0.00000E+00         0.00000E+00        -0.49873E+08
 
   -0.48499E+08         0.50295E+05         0.00000E+00
    0.50295E+05        -0.49999E+08         0.00000E+00
    0.00000E+00         0.00000E+00        -0.49873E+08
 
   -0.48508E+08         0.83141E+05         0.00000E+00
    0.83141E+05        -0.49998E+08         0.00000E+00
    0.00000E+00         0.00000E+00        -0.49873E+08
 
   -0.48519E+08         0.11560E+06         0.00000E+00
    0.11560E+06        -0.49996E+08         0.00000E+00
    0.00000E+00         0.00000E+00        -0.49873E+08
 
   -0.48530E+08         0.14766E+06         0.00000E+00
    0.14766E+06        -0.49993E+08         0.00000E+00
    0.00000E+00         0.00000E+00        -0.49873E+08
 
   -0.48543E+08         0.17930E+06         0.00000E+00
    0.17930E+06        -0.49990E+08         0.00000E+00
    0.00000E+00         0.00000E+00        -0.49873E+08
 
   -0.48557E+08         0.21051E+06         0.00000E+00
    0.21051E+06        -0.49986E+08         0.00000E+00
    0.00000E+00         0.00000E+00        -0.49873E+08
 
   -0.48572E+08         0.24127E+06         0.00000E+00
    0.24127E+06        -0.49981E+08         0.00000E+00
    0.00000E+00         0.00000E+00        -0.49873E+08
 
   -0.48587E+08         0.27157E+06         0.00000E+00
    0.27157E+06        -0.49976E+08         0.00000E+00
    0.00000E+00         0.00000E+00        -0.49873E+08
 
   -0.48604E+08         0.30140E+06         0.00000E+00
    0.30140E+06        -0.49970E+08         0.00000E+00
    0.00000E+00         0.00000E+00        -0.49873E+08
 
   -0.48622E+08         0.33074E+06         0.00000E+00
    0.33074E+06        -0.49964E+08         0.00000E+00
    0.00000E+00         0.00000E+00        -0.49873E+08
 
   -0.48641E+08         0.35959E+06         0.00000E+00
    0.35959E+06        -0.49957E+08         0.00000E+00
    0.00000E+00         0.00000E+00        -0.49873E+08
 
   -0.48661E+08         0.38793E+06         0.00000E+00
    0.38793E+06        -0.49950E+08         0.00000E+00
    0.00000E+00         0.00000E+00        -0.49873E+08
 
   -0.48681E+08         0.41575E+06         0.00000E+00
    0.41575E+06        -0.49942E+08         0.00000E+00
    0.00000E+00         0.00000E+00        -0.49873E+08
 
   -0.48703E+08         0.44304E+06         0.00000E+00
    0.44304E+06        -0.49933E+08         0.00000E+00
    0.00000E+00         0.00000E+00        -0.49873E+08
 
   -0.48725E+08         0.46980E+06         0.00000E+00
    0.46980E+06        -0.49924E+08         0.00000E+00
    0.00000E+00         0.00000E+00        -0.49873E+08
 
   -0.48748E+08         0.49601E+06         0.00000E+00
    0.49601E+06        -0.49915E+08         0.00000E+00
    0.00000E+00         0.00000E+00        -0.49873E+08
 
   -0.48772E+08         0.52167E+06         0.00000E+00
    0.52167E+06        -0.49905E+08         0.00000E+00
    0.00000E+00         0.00000E+00        -0.49873E+08
 
   -0.48797E+08         0.54676E+06         0.00000E+00
    0.54676E+06        -0.49895E+08         0.00000E+00
    0.00000E+00         0.00000E+00        -0.49873E+08
 
   -0.48823E+08         0.57129E+06         0.00000E+00
    0.57129E+06        -0.49884E+08         0.00000E+00
    0.00000E+00         0.00000E+00        -0.49873E+08
 
   -0.48849E+08         0.59524E+06         0.00000E+00
    0.59524E+06        -0.49872E+08         0.00000E+00
    0.00000E+00         0.00000E+00        -0.49873E+08
 
   -0.48876E+08         0.61860E+06         0.00000E+00
    0.61860E+06        -0.49861E+08         0.00000E+00
    0.00000E+00         0.00000E+00        -0.49873E+08
 
   -0.48904E+08         0.64138E+06         0.00000E+00
    0.64138E+06        -0.49848E+08         0.00000E+00
    0.00000E+00         0.00000E+00        -0.49873E+08
 
   -0.48932E+08         0.66356E+06         0.00000E+00
    0.66356E+06        -0.49836E+08         0.00000E+00
    0.00000E+00         0.00000E+00        -0.49873E+08
 
   -0.48961E+08         0.68514E+06         0.00000E+00
    0.68514E+06        -0.49823E+08         0.00000E+00
    0.00000E+00         0.00000E+00        -0.49873E+08
 
   -0.48991E+08         0.70611E+06         0.00000E+00
    0.70611E+06        -0.49809E+08         0.00000E+00
    0.00000E+00         0.00000E+00        -0.49873E+08
 
   -0.49022E+08         0.72647E+06         0.00000E+00
    0.72647E+06        -0.49796E+08         0.00000E+00
    0.00000E+00         0.00000E+00        -0.49873E+08
 
   -0.49053E+08         0.74622E+06         0.00000E+00
    0.74622E+06        -0.49782E+08         0.00000E+00
    0.00000E+00         0.00000E+00        -0.49873E+08
 
   -0.49084E+08         0.76534E+06         0.00000E+00
    0.76534E+06        -0.49767E+08         0.00000E+00
    0.00000E+00         0.00000E+00        -0.49873E+08
 
   -0.49116E+08         0.78384E+06         0.00000E+00
    0.78384E+06        -0.49752E+08         0.00000E+00
    0.00000E+00         0.00000E+00        -0.49873E+08
 
   -0.49149E+08         0.80171E+06         0.00000E+00
    0.80171E+06        -0.49737E+08         0.00000E+00
    0.00000E+00         0.00000E+00        -0.49873E+08
 
   -0.49182E+08         0.81895E+06         0.00000E+00
    0.81895E+06        -0.49721E+08         0.00000E+00
    0.00000E+00         0.00000E+00        -0.49873E+08
 
   -0.49216E+08         0.83555E+06         0.00000E+00
    0.83555E+06        -0.49705E+08         0.00000E+00
    0.00000E+00         0.00000E+00        -0.49873E+08
 
   -0.49250E+08         0.85151E+06         0.00000E+00
    0.85151E+06        -0.49689E+08         0.00000E+00
    0.00000E+00         0.00000E+00        -0.49873E+08
 
   -0.49285E+08         0.86683E+06         0.00000E+00
    0.86683E+06        -0.49673E+08         0.00000E+00
    0.00000E+00         0.00000E+00        -0.49873E+08
 
   -0.49320E+08         0.88150E+06         0.00000E+00
    0.88150E+06        -0.49656E+08         0.00000E+00
    0.00000E+00         0.00000E+00        -0.49873E+08
 
   -0.49356E+08         0.89552E+06         0.00000E+00
    0.89552E+06        -0.49639E+08         0.00000E+00
    0.00000E+00         0.00000E+00        -0.49873E+08
 
   -0.49392E+08         0.90888E+06         0.00000E+00
    0.90888E+06        -0.49622E+08         0.00000E+00
    0.00000E+00         0.00000E+00        -0.49873E+08
 
   -0.49428E+08         0.92159E+06         0.00000E+00
    0.92159E+06        -0.49604E+08         0.00000E+00
    0.00000E+00         0.00000E+00        -0.49873E+08
 
   -0.49465E+08         0.93364E+06         0.00000E+00
    0.93364E+06        -0.49586E+08         0.00000E+00
    0.00000E+00         0.00000E+00        -0.49873E+08
 
   -0.49502E+08         0.94503E+06         0.00000E+00
    0.94503E+06        -0.49568E+08         0.00000E+00
    0.00000E+00         0.00000E+00        -0.49873E+08
 
   -0.49540E+08         0.95576E+06         0.00000E+00
    0.95576E+06        -0.49550E+08         0.00000E+00
    0.00000E+00         0.00000E+00        -0.49873E+08
 
   -0.49578E+08         0.96581E+06         0.00000E+00
    0.96581E+06        -0.49531E+08         0.00000E+00
    0.00000E+00         0.00000E+00        -0.49873E+08
 
   -0.49616E+08         0.97520E+06         0.00000E+00
    0.97520E+06        -0.49512E+08         0.00000E+00
    0.00000E+00         0.00000E+00        -0.49873E+08
 
   -0.49655E+08         0.98391E+06         0.00000E+00
    0.98391E+06        -0.49493E+08         0.00000E+00
    0.00000E+00         0.00000E+00        -0.49873E+08
 
   -0.49694E+08         0.99195E+06         0.00000E+00
    0.99195E+06        -0.49474E+08         0.00000E+00
    0.00000E+00         0.00000E+00        -0.49873E+08
 
   -0.49733E+08         0.99931E+06         0.00000E+00
    0.99931E+06        -0.49454E+08         0.00000E+00
    0.00000E+00         0.00000E+00        -0.49873E+08
 
   -0.49773E+08         0.10060E+07         0.00000E+00
    0.10060E+07        -0.49435E+08         0.00000E+00
    0.00000E+00         0.00000E+00        -0.49873E+08
 
   -0.49812E+08         0.10120E+07         0.00000E+00
    0.10120E+07        -0.49415E+08         0.00000E+00
    0.00000E+00         0.00000E+00        -0.49873E+08
 
   -0.49852E+08         0.10173E+07         0.00000E+00
    0.10173E+07        -0.49395E+08         0.00000E+00
    0.00000E+00         0.00000E+00        -0.49873E+08
 
   -0.48315E+08         0.18956E+05         0.00000E+00
    0.18956E+05        -0.50000E+08         0.00000E+00
    0.00000E+00         0.00000E+00        -0.49847E+08
 
   -0.48325E+08         0.55726E+05         0.00000E+00
    0.55726E+05        -0.49999E+08         0.00000E+00
    0.00000E+00         0.00000E+00        -0.49847E+08
 
   -0.48337E+08         0.92057E+05         0.00000E+00
    0.92057E+05        -0.49998E+08         0.00000E+00
    0.00000E+00         0.00000E+00        -0.49847E+08
 
   -0.48349E+08         0.12793E+06         0.00000E+00
    0.12793E+06        -0.49995E+08         0.00000E+00
    0.00000E+00         0.00000E+00        -0.49847E+08
 
   -0.48363E+08         0.16333E+06         0.00000E+00
    0.16333E+06        -0.49992E+08         0.00000E+00
    0.00000E+00         0.00000E+00        -0.49847E+08
 
   -0.48378E+08         0.19824E+06         0.00000E+00
    0.19824E+06        -0.49989E+08         0.00000E+00
    0.00000E+00         0.00000E+00        -0.49847E+08
 
   -0.48394E+08         0.23266E+06         0.00000E+00
    0.23266E+06        -0.49985E+08         0.00000E+00
    0.00000E+00         0.00000E+00        -0.49847E+08
 
   -0.48411E+08         0.26655E+06         0.00000E+00
    0.26655E+06        -0.49980E+08         0.00000E+00
    0.00000E+00         0.00000E+00        -0.49847E+08
 
   -0.48430E+08         0.29992E+06         0.00000E+00
    0.29992E+06        -0.49974E+08         0.00000E+00
    0.00000E+00         0.00000E+00        -0.49847E+08
 
   -0.48449E+08         0.33274E+06         0.00000E+00
    0.33274E+06        -0.49968E+08         0.00000E+00
    0.00000E+00         0.00000E+00        -0.49847E+08
 
   -0.48469E+08         0.36501E+06         0.00000E+00
    0.36501E+06        -0.49961E+08         0.00000E+00
    0.00000E+00         0.00000E+00        -0.49847E+08
 
   -0.48491E+08         0.39672E+06         0.00000E+00
    0.39672E+06        -0.49954E+08         0.00000E+00
    0.00000E+00         0.00000E+00        -0.49847E+08
 
   -0.48513E+08         0.42785E+06         0.00000E+00
    0.42785E+06        -0.49946E+08         0.00000E+00
    0.00000E+00         0.00000E+00        -0.49847E+08
 
   -0.48537E+08         0.45841E+06         0.00000E+00
    0.45841E+06        -0.49937E+08         0.00000E+00
    0.00000E+00         0.00000E+00        -0.49847E+08
 
   -0.48561E+08         0.48837E+06         0.00000E+00
    0.48837E+06        -0.49928E+08         0.00000E+00
    0.00000E+00         0.00000E+00        -0.49847E+08
 
   -0.48586E+08         0.51772E+06         0.00000E+00
    0.51772E+06        -0.49918E+08         0.00000E+00
    0.00000E+00         0.00000E+00        -0.49847E+08
 
   -0.48612E+08         0.54647E+06         0.00000E+00
    0.54647E+06        -0.49908E+08         0.00000E+00
    0.00000E+00         0.00000E+00        -0.49847E+08
 
   -0.48639E+08         0.57461E+06         0.00000E+00
    0.57461E+06        -0.49897E+08         0.00000E+00
    0.00000E+00         0.00000E+00        -0.49847E+08
 
   -0.48667E+08         0.60212E+06         0.00000E+00
    0.60212E+06        -0.49886E+08         0.00000E+00
    0.00000E+00         0.00000E+00        -0.49847E+08
 
   -0.48696E+08         0.62900E+06         0.00000E+00
    0.62900E+06        -0.49874E+08         0.00000E+00
    0.00000E+00         0.00000E+00        -0.49847E+08
 
   -0.48725E+08         0.65525E+06         0.00000E+00
    0.65525E+06        -0.49862E+08         0.00000E+00
    0.00000E+00         0.00000E+00        -0.49847E+08
 
   -0.48755E+08         0.68085E+06         0.00000E+00
    0.68085E+06        -0.49849E+08         0.00000E+00
    0.00000E+00         0.00000E+00        -0.49847E+08
 
   -0.48786E+08         0.70581E+06         0.00000E+00
    0.70581E+06        -0.49836E+08         0.00000E+00
    0.00000E+00         0.00000E+00        -0.49847E+08
 
   -0.48818E+08         0.73012E+06         0.00000E+00
    0.73012E+06        -0.49823E+08         0.00000E+00
    0.00000E+00         0.00000E+00        -0.49847E+08
 
   -0.48850E+08         0.75377E+06         0.00000E+00
    0.75377E+06        -0.49808E+08         0.00000E+00
    0.00000E+00         0.00000E+00        -0.49847E+08
 
   -0.48883E+08         0.77676E+06         0.00000E+00
    0.77676E+06        -0.49794E+08         0.00000E+00
    0.00000E+00         0.00000E+00        -0.49847E+08
 
   -0.48916E+08         0.79908E+06         0.00000E+00
    0.79908E+06        -0.49779E+08         0.00000E+00
    0.00000E+00         0.00000E+00        -0.49847E+08
 
   -0.48951E+08         0.82074E+06         0.00000E+00
    0.82074E+06        -0.49764E+08         0.00000E+00
    0.00000E+00         0.00000E+00        -0.49847E+08
 
   -0.48986E+08         0.84173E+06         0.00000E+00
    0.84173E+06        -0.49748E+08         0.00000E+00
    0.00000E+00         0.00000E+00        -0.49847E+08
 
   -0.49021E+08         0.86204E+06         0.00000E+00
    0.86204E+06        -0.49732E+08         0.00000E+00
    0.00000E+00         0.00000E+00        -0.49847E+08
 
   -0.49057E+08         0.88167E+06         0.00000E+00
    0.88167E+06        -0.49716E+08         0.00000E+00
    0.00000E+00         0.00000E+00        -0.49847E+08
 
   -0.49093E+08         0.90061E+06         0.00000E+00
    0.90061E+06        -0.49699E+08         0.00000E+00
    0.00000E+00         0.00000E+00        -0.49847E+08
 
   -0.49130E+08         0.91888E+06         0.00000E+00
    0.91888E+06        -0.49682E+08         0.00000E+00
    0.00000E+00         0.00000E+00        -0.49847E+08
 
   -0.49168E+08         0.93645E+06         0.00000E+00
    0.93645E+06        -0.49664E+08         0.00000E+00
    0.00000E+00         0.00000E+00        -0.49847E+08
 
   -0.49206E+08         0.95334E+06         0.00000E+00
    0.95334E+06        -0.49647E+08         0.00000E+00
    0.00000E+00         0.00000E+00        -0.49847E+08
 
   -0.49245E+08         0.96953E+06         0.00000E+00
    0.96953E+06        -0.49628E+08         0.00000E+00
    0.00000E+00         0.00000E+00        -0.49847E+08
 
   -0.49284E+08         0.98503E+06         0.00000E+00
    0.98503E+06        -0.49610E+08         0.00000E+00
    0.00000E+00         0.00000E+00        -0.49847E+08
 
   -0.49323E+08         0.99982E+06         0.00000E+00
    0.99982E+06        -0.49591E+08         0.00000E+00
    0.00000E+00         0.00000E+00        -0.49847E+08
 
   -0.49363E+08         0.10139E+07         0.00000E+00
    0.10139E+07        -0.49572E+08         0.00000E+00
    0.00000E+00         0.00000E+00        -0.49847E+08
 
   -0.49403E+08         0.10273E+07         0.00000E+00
    0.10273E+07        -0.49553E+08         0.00000E+00
    0.00000E+00         0.00000E+00        -0.49847E+08
 
   -0.49444E+08         0.10400E+07         0.00000E+00
    0.10400E+07        -0.49533E+08         0.00000E+00
    0.00000E+00         0.00000E+00        -0.49847E+08
 
   -0.49485E+08         0.10520E+07         0.00000E+00
    0.10520E+07        -0.49513E+08         0.00000E+00
    0.00000E+00         0.00000E+00        -0.49847E+08
 
   -0.49526E+08         0.10633E+07         0.00000E+00
    0.10633E+07        -0.49493E+08         0.00000E+00
    0.00000E+00         0.00000E+00        -0.49847E+08
 
   -0.49568E+08         0.10738E+07         0.00000E+00
    0.10738E+07        -0.49473E+08         0.00000E+00
    0.00000E+00         0.00000E+00        -0.49847E+08
 
   -0.49610E+08         0.10837E+07         0.00000E+00
    0.10837E+07        -0.49452E+08         0.00000E+00
    0.00000E+00         0.00000E+00        -0.49847E+08
 
   -0.49653E+08         0.10928E+07         0.00000E+00
    0.10928E+07        -0.49431E+08         0.00000E+00
    0.00000E+00         0.00000E+00        -0.49847E+08
 
   -0.49695E+08         0.11012E+07         0.00000E+00
    0.11012E+07        -0.49410E+08         0.00000E+00
    0.00000E+00         0.00000E+00        -0.49847E+08
 
   -0.49738E+08         0.11089E+07         0.00000E+00
    0.11089E+07        -0.49389E+08         0.00000E+00
    0.00000E+00         0.00000E+00        -0.49847E+08
 
   -0.49782E+08         0.11159E+07         0.00000E+00
    0.11159E+07        -0.49367E+08         0.00000E+00
    0.00000E+00         0.00000E+00        -0.49847E+08
 
   -0.49825E+08         0.11221E+07         0.00000E+00
    0.11221E+07        -0.49346E+08         0.00000E+00
    0.00000E+00         0.00000E+00        -0.49847E+08
 
   -0.48121E+08         0.21000E+05         0.00000E+00
    0.21000E+05        -0.50000E+08         0.00000E+00
    0.00000E+00         0.00000E+00        -0.49817E+08
 
   -0.48133E+08         0.61631E+05         0.00000E+00
    0.61631E+05        -0.49999E+08         0.00000E+00
    0.00000E+00         0.00000E+00        -0.49817E+08
 
   -0.48147E+08         0.10174E+06         0.00000E+00
    0.10174E+06        -0.49997E+08         0.00000E+00
    0.00000E+00         0.00000E+00        -0.49817E+08
 
   -0.48162E+08         0.14131E+06         0.00000E+00
    0.14131E+06        -0.49995E+08         0.00000E+00
    0.00000E+00         0.00000E+00        -0.49817E+08
 
   -0.48178E+08         0.18033E+06         0.00000E+00
    0.18033E+06        -0.49992E+08         0.00000E+00
    0.00000E+00         0.00000E+00        -0.49817E+08
 
   -0.48196E+08         0.21877E+06         0.00000E+00
    0.21877E+06        -0.49988E+08         0.00000E+00
    0.00000E+00         0.00000E+00        -0.49817E+08
 
   -0.48215E+08         0.25664E+06         0.00000E+00
    0.25664E+06        -0.49983E+08         0.00000E+00
    0.00000E+00         0.00000E+00        -0.49817E+08
 
   -0.48235E+08         0.29391E+06         0.00000E+00
    0.29391E+06        -0.49978E+08         0.00000E+00
    0.00000E+00         0.00000E+00        -0.49817E+08
 
   -0.48256E+08         0.33058E+06         0.00000E+00
    0.33058E+06        -0.49972E+08         0.00000E+00
    0.00000E+00         0.00000E+00        -0.49817E+08
 
   -0.48278E+08         0.36663E+06         0.00000E+00
    0.36663E+06        -0.49965E+08         0.00000E+00
    0.00000E+00         0.00000E+00        -0.49817E+08
 
   -0.48302E+08         0.40205E+06         0.00000E+00
    0.40205E+06        -0.49958E+08         0.00000E+00
    0.00000E+00         0.00000E+00        -0.49817E+08
 
   -0.48326E+08         0.43683E+06         0.00000E+00
    0.43683E+06        -0.49950E+08         0.00000E+00
    0.00000E+00         0.00000E+00        -0.49817E+08
 
   -0.48352E+08         0.47097E+06         0.00000E+00
    0.47097E+06        -0.49941E+08         0.00000E+00
    0.00000E+00         0.00000E+00        -0.49817E+08
 
   -0.48378E+08         0.50445E+06         0.00000E+00
    0.50445E+06        -0.49932E+08         0.00000E+00
    0.00000E+00         0.00000E+00        -0.49817E+08
 
   -0.48406E+08         0.53727E+06         0.00000E+00
    0.53727E+06        -0.49922E+08         0.00000E+00
    0.00000E+00         0.00000E+00        -0.49817E+08
 
   -0.48434E+08         0.56941E+06         0.00000E+00
    0.56941E+06        -0.49912E+08         0.00000E+00
    0.00000E+00         0.00000E+00        -0.49817E+08
 
   -0.48464E+08         0.60089E+06         0.00000E+00
    0.60089E+06        -0.49901E+08         0.00000E+00
    0.00000E+00         0.00000E+00        -0.49817E+08
 
   -0.48494E+08         0.63168E+06         0.00000E+00
    0.63168E+06        -0.49889E+08         0.00000E+00
    0.00000E+00         0.00000E+00        -0.49817E+08
 
   -0.48525E+08         0.66178E+06         0.00000E+00
    0.66178E+06        -0.49877E+08         0.00000E+00
    0.00000E+00         0.00000E+00        -0.49817E+08
 
   -0.48557E+08         0.69119E+06         0.00000E+00
    0.69119E+06        -0.49864E+08         0.00000E+00
    0.00000E+00         0.00000E+00        -0.49817E+08
 
   -0.48589E+08         0.71990E+06         0.00000E+00
    0.71990E+06        -0.49851E+08         0.00000E+00
    0.00000E+00         0.00000E+00        -0.49817E+08
 
   -0.48623E+08         0.74790E+06         0.00000E+00
    0.74790E+06        -0.49838E+08         0.00000E+00
    0.00000E+00         0.00000E+00        -0.49817E+08
 
   -0.48657E+08         0.77521E+06         0.00000E+00
    0.77521E+06        -0.49823E+08         0.00000E+00
    0.00000E+00         0.00000E+00        -0.49817E+08
 
   -0.48692E+08         0.80180E+06         0.00000E+00
    0.80180E+06        -0.49809E+08         0.00000E+00
    0.00000E+00         0.00000E+00        -0.49817E+08
 
   -0.48728E+08         0.82767E+06         0.00000E+00
    0.82767E+06        -0.49794E+08         0.00000E+00
    0.00000E+00         0.00000E+00        -0.49817E+08
 
   -0.48764E+08         0.85283E+06         0.00000E+00
    0.85283E+06        -0.49778E+08         0.00000E+00
    0.00000E+00         0.00000E+00        -0.49817E+08
 
   -0.48801E+08         0.87727E+06         0.00000E+00
    0.87727E+06        -0.49762E+08         0.00000E+00
    0.00000E+00         0.00000E+00        -0.49817E+08
 
   -0.48839E+08         0.90099E+06         0.00000E+00
    0.90099E+06        -0.49746E+08         0.00000E+00
    0.00000E+00         0.00000E+00        -0.49817E+08
 
   -0.48877E+08         0.92399E+06         0.00000E+00
    0.92399E+06        -0.49729E+08         0.00000E+00
    0.00000E+00         0.00000E+00        -0.49817E+08
 
   -0.48916E+08         0.94625E+06         0.00000E+00
    0.94625E+06        -0.49712E+08         0.00000E+00
    0.00000E+00         0.00000E+00        -0.49817E+08
 
   -0.48956E+08         0.96779E+06         0.00000E+00
    0.96779E+06        -0.49694E+08         0.00000E+00
    0.00000E+00         0.00000E+00        -0.49817E+08
 
   -0.48996E+08         0.98859E+06         0.00000E+00
    0.98859E+06        -0.49676E+08         0.00000E+00
    0.00000E+00         0.00000E+00        -0.49817E+08
 
   -0.49036E+08         0.10087E+07         0.00000E+00
    0.10087E+07        -0.49658E+08         0.00000E+00
    0.00000E+00         0.00000E+00        -0.49817E+08
 
   -0.49077E+08         0.10280E+07         0.00000E+00
    0.10280E+07        -0.49639E+08         0.00000E+00
    0.00000E+00         0.00000E+00        -0.49817E+08
 
   -0.49119E+08         0.10466E+07         0.00000E+00
    0.10466E+07        -0.49620E+08         0.00000E+00
    0.00000E+00         0.00000E+00        -0.49817E+08
 
   -0.49161E+08         0.10645E+07         0.00000E+00
    0.10645E+07        -0.49600E+08         0.00000E+00
    0.00000E+00         0.00000E+00        -0.49817E+08
 
   -0.49204E+08         0.10816E+07         0.00000E+00
    0.10816E+07        -0.49580E+08         0.00000E+00
    0.00000E+00         0.00000E+00        -0.49817E+08
 
   -0.49247E+08         0.10980E+07         0.00000E+00
    0.10980E+07        -0.49560E+08         0.00000E+00
    0.00000E+00         0.00000E+00        -0.49817E+08
 
   -0.49290E+08         0.11136E+07         0.00000E+00
    0.11136E+07        -0.49540E+08         0.00000E+00
    0.00000E+00         0.00000E+00        -0.49817E+08
 
   -0.49334E+08         0.11285E+07         0.00000E+00
    0.11285E+07        -0.49519E+08         0.00000E+00
    0.00000E+00         0.00000E+00        -0.49817E+08
 
   -0.49378E+08         0.11426E+07         0.00000E+00
    0.11426E+07        -0.49498E+08         0.00000E+00
    0.00000E+00         0.00000E+00        -0.49817E+08
 
   -0.49423E+08         0.11560E+07         0.00000E+00
    0.11560E+07        -0.49476E+08         0.00000E+00
    0.00000E+00         0.00000E+00        -0.49817E+08
 
   -0.49468E+08         0.11687E+07         0.00000E+00
    0.11687E+07        -0.49454E+08         0.00000E+00
    0.00000E+00         0.00000E+00        -0.49817E+08
 
   -0.49514E+08         0.11806E+07         0.00000E+00
    0.11806E+07        -0.49432E+08         0.00000E+00
    0.00000E+00         0.00000E+00        -0.49817E+08
 
   -0.49559E+08         0.11917E+07         0.00000E+00
    0.11917E+07        -0.49410E+08         0.00000E+00
    0.00000E+00         0.00000E+00        -0.49817E+08
 
   -0.49606E+08         0.12021E+07         0.00000E+00
    0.12021E+07        -0.49387E+08         0.00000E+00
    0.00000E+00         0.00000E+00        -0.49817E+08
 
   -0.49652E+08         0.12117E+07         0.00000E+00
    0.12117E+07        -0.49365E+08         0.00000E+00
    0.00000E+00         0.00000E+00        -0.49817E+08
 
   -0.49699E+08         0.12206E+07         0.00000E+00
    0.12206E+07        -0.49341E+08         0.00000E+00
    0.00000E+00         0.00000E+00        -0.49817E+08
 
   -0.49746E+08         0.12287E+07         0.00000E+00
    0.12287E+07        -0.49318E+08         0.00000E+00
    0.00000E+00         0.00000E+00        -0.49817E+08
 
   -0.49793E+08         0.12360E+07         0.00000E+00
    0.12360E+07        -0.49295E+08         0.00000E+00
    0.00000E+00         0.00000E+00        -0.49817E+08
 
   -0.47906E+08         0.23219E+05         0.00000E+00
    0.23219E+05        -0.50000E+08         0.00000E+00
    0.00000E+00         0.00000E+00        -0.49781E+08
 
   -0.47921E+08         0.68023E+05         0.00000E+00
    0.68023E+05        -0.49999E+08         0.00000E+00
    0.00000E+00         0.00000E+00        -0.49781E+08
 
   -0.47938E+08         0.11221E+06         0.00000E+00
    0.11221E+06        -0.49997E+08         0.00000E+00
    0.00000E+00         0.00000E+00        -0.49781E+08
 
   -0.47956E+08         0.15576E+06         0.00000E+00
    0.15576E+06        -0.49995E+08         0.00000E+00
    0.00000E+00         0.00000E+00        -0.49781E+08
 
   -0.47975E+08         0.19867E+06         0.00000E+00
    0.19867E+06        -0.49991E+08         0.00000E+00
    0.00000E+00         0.00000E+00        -0.49781E+08
 
   -0.47996E+08         0.24092E+06         0.00000E+00
    0.24092E+06        -0.49987E+08         0.00000E+00
    0.00000E+00         0.00000E+00        -0.49781E+08
 
   -0.48018E+08         0.28250E+06         0.00000E+00
    0.28250E+06        -0.49982E+08         0.00000E+00
    0.00000E+00         0.00000E+00        -0.49781E+08
 
   -0.48041E+08         0.32340E+06         0.00000E+00
    0.32340E+06        -0.49976E+08         0.00000E+00
    0.00000E+00         0.00000E+00        -0.49781E+08
 
   -0.48066E+08         0.36360E+06         0.00000E+00
    0.36360E+06        -0.49970E+08         0.00000E+00
    0.00000E+00         0.00000E+00        -0.49781E+08
 
   -0.48091E+08         0.40310E+06         0.00000E+00
    0.40310E+06        -0.49963E+08         0.00000E+00
    0.00000E+00         0.00000E+00        -0.49781E+08
 
   -0.48118E+08         0.44189E+06         0.00000E+00
    0.44189E+06        -0.49955E+08         0.00000E+00
    0.00000E+00         0.00000E+00        -0.49781E+08
 
   -0.48146E+08         0.47996E+06         0.00000E+00
    0.47996E+06        -0.49946E+08         0.00000E+00
    0.00000E+00         0.00000E+00        -0.49781E+08
 
   -0.48175E+08         0.51730E+06         0.00000E+00
    0.51730E+06        -0.49937E+08         0.00000E+00
    0.00000E+00         0.00000E+00        -0.49781E+08
 
   -0.48205E+08         0.55391E+06         0.00000E+00
    0.55391E+06        -0.49927E+08         0.00000E+00
    0.00000E+00         0.00000E+00        -0.49781E+08
 
   -0.48236E+08         0.58979E+06         0.00000E+00
    0.58979E+06        -0.49916E+08         0.00000E+00
    0.00000E+00         0.00000E+00        -0.49781E+08
 
   -0.48268E+08         0.62491E+06         0.00000E+00
    0.62491E+06        -0.49905E+08         0.00000E+00
    0.00000E+00         0.00000E+00        -0.49781E+08
 
   -0.48301E+08         0.65929E+06         0.00000E+00
    0.65929E+06        -0.49893E+08         0.00000E+00
    0.00000E+00         0.00000E+00        -0.49781E+08
 
   -0.48335E+08         0.69292E+06         0.00000E+00
    0.69292E+06        -0.49881E+08         0.00000E+00
    0.00000E+00         0.00000E+00        -0.49781E+08
 
   -0.48369E+08         0.72578E+06         0.00000E+00
    0.72578E+06        -0.49868E+08         0.00000E+00
    0.00000E+00         0.00000E+00        -0.49781E+08
 
   -0.48405E+08         0.75789E+06         0.00000E+00
    0.75789E+06        -0.49855E+08         0.00000E+00
    0.00000E+00         0.00000E+00        -0.49781E+08
 
   -0.48441E+08         0.78923E+06         0.00000E+00
    0.78923E+06        -0.49840E+08         0.00000E+00
    0.00000E+00         0.00000E+00        -0.49781E+08
 
   -0.48478E+08         0.81981E+06         0.00000E+00
    0.81981E+06        -0.49826E+08         0.00000E+00
    0.00000E+00         0.00000E+00        -0.49781E+08
 
   -0.48516E+08         0.84962E+06         0.00000E+00
    0.84962E+06        -0.49811E+08         0.00000E+00
    0.00000E+00         0.00000E+00        -0.49781E+08
 
   -0.48555E+08         0.87865E+06         0.00000E+00
    0.87865E+06        -0.49795E+08         0.00000E+00
    0.00000E+00         0.00000E+00        -0.49781E+08
 
   -0.48594E+08         0.90692E+06         0.00000E+00
    0.90692E+06        -0.49779E+08         0.00000E+00
    0.00000E+00         0.00000E+00        -0.49781E+08
 
   -0.48635E+08         0.93441E+06         0.00000E+00
    0.93441E+06        -0.49762E+08         0.00000E+00
    0.00000E+00         0.00000E+00        -0.49781E+08
 
   -0.48675E+08         0.96112E+06         0.00000E+00
    0.96112E+06        -0.49745E+08         0.00000E+00
    0.00000E+00         0.00000E+00        -0.49781E+08
 
   -0.48717E+08         0.98705E+06         0.00000E+00
    0.98705E+06        -0.49728E+08         0.00000E+00
    0.00000E+00         0.00000E+00        -0.49781E+08
 
   -0.48759E+08         0.10122E+07         0.00000E+00
    0.10122E+07        -0.49710E+08         0.00000E+00
    0.00000E+00         0.00000E+00        -0.49781E+08
 
   -0.48802E+08         0.10366E+07         0.00000E+00
    0.10366E+07        -0.49691E+08         0.00000E+00
    0.00000E+00         0.00000E+00        -0.49781E+08
 
   -0.48845E+08         0.10602E+07         0.00000E+00
    0.10602E+07        -0.49672E+08         0.00000E+00
    0.00000E+00         0.00000E+00        -0.49781E+08
 
   -0.48889E+08         0.10830E+07         0.00000E+00
    0.10830E+07        -0.49653E+08         0.00000E+00
    0.00000E+00         0.00000E+00        -0.49781E+08
 
   -0.48933E+08         0.11050E+07         0.00000E+00
    0.11050E+07        -0.49633E+08         0.00000E+00
    0.00000E+00         0.00000E+00        -0.49781E+08
 
   -0.48978E+08         0.11263E+07         0.00000E+00
    0.11263E+07        -0.49613E+08         0.00000E+00
    0.00000E+00         0.00000E+00        -0.49781E+08
 
   -0.49023E+08         0.11468E+07         0.00000E+00
    0.11468E+07        -0.49593E+08         0.00000E+00
    0.00000E+00         0.00000E+00        -0.49781E+08
 
   -0.49069E+08         0.11665E+07         0.00000E+00
    0.11665E+07        -0.49572E+08         0.00000E+00
    0.00000E+00         0.00000E+00        -0.49781E+08
 
   -0.49116E+08         0.11854E+07         0.00000E+00
    0.11854E+07        -0.49550E+08         0.00000E+00
    0.00000E+00         0.00000E+00        -0.49781E+08
 
   -0.49162E+08         0.12035E+07         0.00000E+00
    0.12035E+07        -0.49529E+08         0.00000E+00
    0.00000E+00         0.00000E+00        -0.49781E+08
 
   -0.49210E+08         0.12208E+07         0.00000E+00
    0.12208E+07        -0.49507E+08         0.00000E+00
    0.00000E+00         0.00000E+00        -0.49781E+08
 
   -0.49258E+08         0.12374E+07         0.00000E+00
    0.12374E+07        -0.49484E+08         0.00000E+00
    0.00000E+00         0.00000E+00        -0.49781E+08
 
   -0.49306E+08         0.12531E+07         0.00000E+00
    0.12531E+07        -0.49462E+08         0.00000E+00
    0.00000E+00         0.00000E+00        -0.49781E+08
 
   -0.49354E+08         0.12681E+07         0.00000E+00
    0.12681E+07        -0.49438E+08         0.00000E+00
    0.00000E+00         0.00000E+00        -0.49781E+08
 
   -0.49403E+08         0.12823E+07         0.00000E+00
    0.12823E+07        -0.49415E+08         0.00000E+00
    0.00000E+00         0.00000E+00        -0.49781E+08
 
   -0.49452E+08         0.12957E+07         0.00000E+00
    0.12957E+07        -0.49391E+08         0.00000E+00
    0.00000E+00         0.00000E+00        -0.49781E+08
 
   -0.49502E+08         0.13083E+07         0.00000E+00
    0.13083E+07        -0.49367E+08         0.00000E+00
    0.00000E+00         0.00000E+00        -0.49781E+08
 
   -0.49552E+08         0.13201E+07         0.00000E+00
    0.13201E+07        -0.49343E+08         0.00000E+00
    0.00000E+00         0.00000E+00        -0.49781E+08
 
   -0.49602E+08         0.13311E+07         0.00000E+00
    0.13311E+07        -0.49318E+08         0.00000E+00
    0.00000E+00         0.00000E+00        -0.49781E+08
 
   -0.49653E+08         0.13414E+07         0.00000E+00
    0.13414E+07        -0.49293E+08         0.00000E+00
    0.00000E+00         0.00000E+00        -0.49781E+08
 
   -0.49704E+08         0.13508E+07         0.00000E+00
    0.13508E+07        -0.49268E+08         0.00000E+00
    0.00000E+00         0.00000E+00        -0.49781E+08
 
   -0.49755E+08         0.13594E+07         0.00000E+00
    0.13594E+07        -0.49243E+08         0.00000E+00
    0.00000E+00         0.00000E+00        -0.49781E+08
 
   -0.47669E+08         0.25616E+05         0.00000E+00
    0.25616E+05        -0.50000E+08         0.00000E+00
    0.00000E+00         0.00000E+00        -0.49738E+08
 
   -0.47687E+08         0.74908E+05         0.00000E+00
    0.74908E+05        -0.49999E+08         0.00000E+00
    0.00000E+00         0.00000E+00        -0.49738E+08
 
   -0.47707E+08         0.12347E+06         0.00000E+00
    0.12347E+06        -0.49997E+08         0.00000E+00
    0.00000E+00         0.00000E+00        -0.49738E+08
 
   -0.47729E+08         0.17130E+06         0.00000E+00
    0.17130E+06        -0.49994E+08         0.00000E+00
    0.00000E+00         0.00000E+00        -0.49738E+08
 
   -0.47752E+08         0.21838E+06         0.00000E+00
    0.21838E+06        -0.49991E+08         0.00000E+00
    0.00000E+00         0.00000E+00        -0.49738E+08
 
   -0.47776E+08         0.26470E+06         0.00000E+00
    0.26470E+06        -0.49986E+08         0.00000E+00
    0.00000E+00         0.00000E+00        -0.49738E+08
 
   -0.47802E+08         0.31024E+06         0.00000E+00
    0.31024E+06        -0.49981E+08         0.00000E+00
    0.00000E+00         0.00000E+00        -0.49738E+08
 
   -0.47829E+08         0.35500E+06         0.00000E+00
    0.35500E+06        -0.49975E+08         0.00000E+00
    0.00000E+00         0.00000E+00        -0.49738E+08
 
   -0.47857E+08         0.39898E+06         0.00000E+00
    0.39898E+06        -0.49968E+08         0.00000E+00
    0.00000E+00         0.00000E+00        -0.49738E+08
 
   -0.47886E+08         0.44216E+06         0.00000E+00
    0.44216E+06        -0.49960E+08         0.00000E+00
    0.00000E+00         0.00000E+00        -0.49738E+08
 
   -0.47917E+08         0.48453E+06         0.00000E+00
    0.48453E+06        -0.49952E+08         0.00000E+00
    0.00000E+00         0.00000E+00        -0.49738E+08
 
   -0.47949E+08         0.52610E+06         0.00000E+00
    0.52610E+06        -0.49942E+08         0.00000E+00
    0.00000E+00         0.00000E+00        -0.49738E+08
 
   -0.47982E+08         0.56685E+06         0.00000E+00
    0.56685E+06        -0.49932E+08         0.00000E+00
    0.00000E+00         0.00000E+00        -0.49738E+08
 
   -0.48015E+08         0.60679E+06         0.00000E+00
    0.60679E+06        -0.49922E+08         0.00000E+00
    0.00000E+00         0.00000E+00        -0.49738E+08
 
   -0.48050E+08         0.64591E+06         0.00000E+00
    0.64591E+06        -0.49911E+08         0.00000E+00
    0.00000E+00         0.00000E+00        -0.49738E+08
 
   -0.48086E+08         0.68420E+06         0.00000E+00
    0.68420E+06        -0.49899E+08         0.00000E+00
    0.00000E+00         0.00000E+00        -0.49738E+08
 
   -0.48123E+08         0.72167E+06         0.00000E+00
    0.72167E+06        -0.49886E+08         0.00000E+00
    0.00000E+00         0.00000E+00        -0.49738E+08
 
   -0.48161E+08         0.75830E+06         0.00000E+00
    0.75830E+06        -0.49873E+08         0.00000E+00
    0.00000E+00         0.00000E+00        -0.49738E+08
 
   -0.48200E+08         0.79411E+06         0.00000E+00
    0.79411E+06        -0.49859E+08         0.00000E+00
    0.00000E+00         0.00000E+00        -0.49738E+08
 
   -0.48239E+08         0.82909E+06         0.00000E+00
    0.82909E+06        -0.49845E+08         0.00000E+00
    0.00000E+00         0.00000E+00        -0.49738E+08
 
   -0.48279E+08         0.86323E+06         0.00000E+00
    0.86323E+06        -0.49830E+08         0.00000E+00
    0.00000E+00         0.00000E+00        -0.49738E+08
 
   -0.48321E+08         0.89654E+06         0.00000E+00
    0.89654E+06        -0.49814E+08         0.00000E+00
    0.00000E+00         0.00000E+00        -0.49738E+08
 
   -0.48363E+08         0.92902E+06         0.00000E+00
    0.92902E+06        -0.49798E+08         0.00000E+00
    0.00000E+00         0.00000E+00        -0.49738E+08
 
   -0.48405E+08         0.96067E+06         0.00000E+00
    0.96067E+06        -0.49782E+08         0.00000E+00
    0.00000E+00         0.00000E+00        -0.49738E+08
 
   -0.48449E+08         0.99148E+06         0.00000E+00
    0.99148E+06        -0.49764E+08         0.00000E+00
    0.00000E+00         0.00000E+00        -0.49738E+08
 
   -0.48493E+08         0.10215E+07         0.00000E+00
    0.10215E+07        -0.49747E+08         0.00000E+00
    0.00000E+00         0.00000E+00        -0.49738E+08
 
   -0.48538E+08         0.10506E+07         0.00000E+00
    0.10506E+07        -0.49729E+08         0.00000E+00
    0.00000E+00         0.00000E+00        -0.49738E+08
 
   -0.48583E+08         0.10789E+07         0.00000E+00
    0.10789E+07        -0.49710E+08         0.00000E+00
    0.00000E+00         0.00000E+00        -0.49738E+08
 
   -0.48629E+08         0.11064E+07         0.00000E+00
    0.11064E+07        -0.49691E+08         0.00000E+00
    0.00000E+00         0.00000E+00        -0.49738E+08
 
   -0.48676E+08         0.11331E+07         0.00000E+00
    0.11331E+07        -0.49671E+08         0.00000E+00
    0.00000E+00         0.00000E+00        -0.49738E+08
 
   -0.48723E+08         0.11589E+07         0.00000E+00
    0.11589E+07        -0.49651E+08         0.00000E+00
    0.00000E+00         0.00000E+00        -0.49738E+08
 
   -0.48771E+08         0.11839E+07         0.00000E+00
    0.11839E+07        -0.49630E+08         0.00000E+00
    0.00000E+00         0.00000E+00        -0.49738E+08
 
   -0.48819E+08         0.12081E+07         0.00000E+00
    0.12081E+07        -0.49609E+08         0.00000E+00
    0.00000E+00         0.00000E+00        -0.49738E+08
 
   -0.48868E+08         0.12314E+07         0.00000E+00
    0.12314E+07        -0.49588E+08         0.00000E+00
    0.00000E+00         0.00000E+00        -0.49738E+08
 
   -0.48918E+08         0.12539E+07         0.00000E+00
    0.12539E+07        -0.49566E+08         0.00000E+00
    0.00000E+00         0.00000E+00        -0.49738E+08
 
   -0.48968E+08         0.12756E+07         0.00000E+00
    0.12756E+07        -0.49543E+08         0.00000E+00
    0.00000E+00         0.00000E+00        -0.49738E+08
 
   -0.49018E+08         0.12965E+07         0.00000E+00
    0.12965E+07        -0.49521E+08         0.00000E+00
    0.00000E+00         0.00000E+00        -0.49738E+08
 
   -0.49069E+08         0.13166E+07         0.00000E+00
    0.13166E+07        -0.49498E+08         0.00000E+00
    0.00000E+00         0.00000E+00        -0.49738E+08
 
   -0.49120E+08         0.13358E+07         0.00000E+00
    0.13358E+07        -0.49474E+08         0.00000E+00
    0.00000E+00         0.00000E+00        -0.49738E+08
 
   -0.49172E+08         0.13542E+07         0.00000E+00
    0.13542E+07        -0.49450E+08         0.00000E+00
    0.00000E+00         0.00000E+00        -0.49738E+08
 
   -0.49224E+08         0.13717E+07         0.00000E+00
    0.13717E+07        -0.49426E+08         0.00000E+00
    0.00000E+00         0.00000E+00        -0.49738E+08
 
   -0.49277E+08         0.13885E+07         0.00000E+00
    0.13885E+07        -0.49401E+08         0.00000E+00
    0.00000E+00         0.00000E+00        -0.49738E+08
 
   -0.49330E+08         0.14044E+07         0.00000E+00
    0.14044E+07        -0.49376E+08         0.00000E+00
    0.00000E+00         0.00000E+00        -0.49738E+08
 
   -0.49383E+08         0.14195E+07         0.00000E+00
    0.14195E+07        -0.49350E+08         0.00000E+00
    0.00000E+00         0.00000E+00        -0.49738E+08
 
   -0.49437E+08         0.14338E+07         0.00000E+00
    0.14338E+07        -0.49325E+08         0.00000E+00
    0.00000E+00         0.00000E+00        -0.49738E+08
 
   -0.49491E+08         0.14473E+07         0.00000E+00
    0.14473E+07        -0.49298E+08         0.00000E+00
    0.00000E+00         0.00000E+00        -0.49738E+08
 
   -0.49545E+08         0.14599E+07         0.00000E+00
    0.14599E+07        -0.49272E+08         0.00000E+00
    0.00000E+00         0.00000E+00        -0.49738E+08
 
   -0.49600E+08         0.14717E+07         0.00000E+00
    0.14717E+07        -0.49245E+08         0.00000E+00
    0.00000E+00         0.00000E+00        -0.49738E+08
 
   -0.49655E+08         0.14826E+07         0.00000E+00
    0.14826E+07        -0.49218E+08         0.00000E+00
    0.00000E+00         0.00000E+00        -0.49738E+08
 
   -0.49711E+08         0.14927E+07         0.00000E+00
    0.14927E+07        -0.49190E+08         0.00000E+00
    0.00000E+00         0.00000E+00        -0.49738E+08
 
   -0.47409E+08         0.28190E+05         0.00000E+00
    0.28190E+05        -0.50000E+08         0.00000E+00
    0.00000E+00         0.00000E+00        -0.49688E+08
 
   -0.47431E+08         0.82282E+05         0.00000E+00
    0.82282E+05        -0.49999E+08         0.00000E+00
    0.00000E+00         0.00000E+00        -0.49688E+08
 
   -0.47455E+08         0.13553E+06         0.00000E+00
    0.13553E+06        -0.49997E+08         0.00000E+00
    0.00000E+00         0.00000E+00        -0.49688E+08
 
   -0.47481E+08         0.18791E+06         0.00000E+00
    0.18791E+06        -0.49994E+08         0.00000E+00
    0.00000E+00         0.00000E+00        -0.49688E+08
 
   -0.47508E+08         0.23943E+06         0.00000E+00
    0.23943E+06        -0.49990E+08         0.00000E+00
    0.00000E+00         0.00000E+00        -0.49688E+08
 
   -0.47536E+08         0.29006E+06         0.00000E+00
    0.29006E+06        -0.49985E+08         0.00000E+00
    0.00000E+00         0.00000E+00        -0.49688E+08
 
   -0.47566E+08         0.33982E+06         0.00000E+00
    0.33982E+06        -0.49979E+08         0.00000E+00
    0.00000E+00         0.00000E+00        -0.49688E+08
 
   -0.47597E+08         0.38869E+06         0.00000E+00
    0.38869E+06        -0.49973E+08         0.00000E+00
    0.00000E+00         0.00000E+00        -0.49688E+08
 
   -0.47629E+08         0.43666E+06         0.00000E+00
    0.43666E+06        -0.49966E+08         0.00000E+00
    0.00000E+00         0.00000E+00        -0.49688E+08
 
   -0.47663E+08         0.48373E+06         0.00000E+00
    0.48373E+06        -0.49957E+08         0.00000E+00
    0.00000E+00         0.00000E+00        -0.49688E+08
 
   -0.47698E+08         0.52990E+06         0.00000E+00
    0.52990E+06        -0.49948E+08         0.00000E+00
    0.00000E+00         0.00000E+00        -0.49688E+08
 
   -0.47734E+08         0.57517E+06         0.00000E+00
    0.57517E+06        -0.49939E+08         0.00000E+00
    0.00000E+00         0.00000E+00        -0.49688E+08
 
   -0.47771E+08         0.61953E+06         0.00000E+00
    0.61953E+06        -0.49928E+08         0.00000E+00
    0.00000E+00         0.00000E+00        -0.49688E+08
 
   -0.47809E+08         0.66298E+06         0.00000E+00
    0.66298E+06        -0.49917E+08         0.00000E+00
    0.00000E+00         0.00000E+00        -0.49688E+08
 
   -0.47848E+08         0.70553E+06         0.00000E+00
    0.70553E+06        -0.49905E+08         0.00000E+00
    0.00000E+00         0.00000E+00        -0.49688E+08
 
   -0.47889E+08         0.74716E+06         0.00000E+00
    0.74716E+06        -0.49893E+08         0.00000E+00
    0.00000E+00         0.00000E+00        -0.49688E+08
 
   -0.47930E+08         0.78789E+06         0.00000E+00
    0.78789E+06        -0.49879E+08         0.00000E+00
    0.00000E+00         0.00000E+00        -0.49688E+08
 
   -0.47972E+08         0.82772E+06         0.00000E+00
    0.82772E+06        -0.49865E+08         0.00000E+00
    0.00000E+00         0.00000E+00        -0.49688E+08
 
   -0.48015E+08         0.86663E+06         0.00000E+00
    0.86663E+06        -0.49851E+08         0.00000E+00
    0.00000E+00         0.00000E+00        -0.49688E+08
 
   -0.48059E+08         0.90465E+06         0.00000E+00
    0.90465E+06        -0.49836E+08         0.00000E+00
    0.00000E+00         0.00000E+00        -0.49688E+08
 
   -0.48103E+08         0.94176E+06         0.00000E+00
    0.94176E+06        -0.49820E+08         0.00000E+00
    0.00000E+00         0.00000E+00        -0.49688E+08
 
   -0.48149E+08         0.97797E+06         0.00000E+00
    0.97797E+06        -0.49803E+08         0.00000E+00
    0.00000E+00         0.00000E+00        -0.49688E+08
 
   -0.48195E+08         0.10133E+07         0.00000E+00
    0.10133E+07        -0.49786E+08         0.00000E+00
    0.00000E+00         0.00000E+00        -0.49688E+08
 
   -0.48242E+08         0.10477E+07         0.00000E+00
    0.10477E+07        -0.49769E+08         0.00000E+00
    0.00000E+00         0.00000E+00        -0.49688E+08
 
   -0.48290E+08         0.10812E+07         0.00000E+00
    0.10812E+07        -0.49750E+08         0.00000E+00
    0.00000E+00         0.00000E+00        -0.49688E+08
 
   -0.48338E+08         0.11139E+07         0.00000E+00
    0.11139E+07        -0.49732E+08         0.00000E+00
    0.00000E+00         0.00000E+00        -0.49688E+08
 
   -0.48388E+08         0.11456E+07         0.00000E+00
    0.11456E+07        -0.49712E+08         0.00000E+00
    0.00000E+00         0.00000E+00        -0.49688E+08
 
   -0.48437E+08         0.11765E+07         0.00000E+00
    0.11765E+07        -0.49693E+08         0.00000E+00
    0.00000E+00         0.00000E+00        -0.49688E+08
 
   -0.48488E+08         0.12065E+07         0.00000E+00
    0.12065E+07        -0.49672E+08         0.00000E+00
    0.00000E+00         0.00000E+00        -0.49688E+08
 
   -0.48539E+08         0.12356E+07         0.00000E+00
    0.12356E+07        -0.49651E+08         0.00000E+00
    0.00000E+00         0.00000E+00        -0.49688E+08
 
   -0.48590E+08         0.12638E+07         0.00000E+00
    0.12638E+07        -0.49630E+08         0.00000E+00
    0.00000E+00         0.00000E+00        -0.49688E+08
 
   -0.48642E+08         0.12912E+07         0.00000E+00
    0.12912E+07        -0.49608E+08         0.00000E+00
    0.00000E+00         0.00000E+00        -0.49688E+08
 
   -0.48695E+08         0.13177E+07         0.00000E+00
    0.13177E+07        -0.49586E+08         0.00000E+00
    0.00000E+00         0.00000E+00        -0.49688E+08
 
   -0.48748E+08         0.13433E+07         0.00000E+00
    0.13433E+07        -0.49563E+08         0.00000E+00
    0.00000E+00         0.00000E+00        -0.49688E+08
 
   -0.48802E+08         0.13680E+07         0.00000E+00
    0.13680E+07        -0.49540E+08         0.00000E+00
    0.00000E+00         0.00000E+00        -0.49688E+08
 
   -0.48856E+08         0.13919E+07         0.00000E+00
    0.13919E+07        -0.49516E+08         0.00000E+00
    0.00000E+00         0.00000E+00        -0.49688E+08
 
   -0.48911E+08         0.14150E+07         0.00000E+00
    0.14150E+07        -0.49492E+08         0.00000E+00
    0.00000E+00         0.00000E+00        -0.49688E+08
 
   -0.48966E+08         0.14372E+07         0.00000E+00
    0.14372E+07        -0.49467E+08         0.00000E+00
    0.00000E+00         0.00000E+00        -0.49688E+08
 
   -0.49021E+08         0.14585E+07         0.00000E+00
    0.14585E+07        -0.49442E+08         0.00000E+00
    0.00000E+00         0.00000E+00        -0.49688E+08
 
   -0.49077E+08         0.14789E+07         0.00000E+00
    0.14789E+07        -0.49417E+08         0.00000E+00
    0.00000E+00         0.00000E+00        -0.49688E+08
 
   -0.49133E+08         0.14985E+07         0.00000E+00
    0.14985E+07        -0.49391E+08         0.00000E+00
    0.00000E+00         0.00000E+00        -0.49688E+08
 
   -0.49190E+08         0.15173E+07         0.00000E+00
    0.15173E+07        -0.49364E+08         0.00000E+00
    0.00000E+00         0.00000E+00        -0.49688E+08
 
   -0.49247E+08         0.15352E+07         0.00000E+00
    0.15352E+07        -0.49338E+08         0.00000E+00
    0.00000E+00         0.00000E+00        -0.49688E+08
 
   -0.49305E+08         0.15522E+07         0.00000E+00
    0.15522E+07        -0.49310E+08         0.00000E+00
    0.00000E+00         0.00000E+00        -0.49688E+08
 
   -0.49363E+08         0.15684E+07         0.00000E+00
    0.15684E+07        -0.49283E+08         0.00000E+00
    0.00000E+00         0.00000E+00        -0.49688E+08
 
   -0.49421E+08         0.15837E+07         0.00000E+00
    0.15837E+07        -0.49255E+08         0.00000E+00
    0.00000E+00         0.00000E+00        -0.49688E+08
 
   -0.49480E+08         0.15982E+07         0.00000E+00
    0.15982E+07        -0.49226E+08         0.00000E+00
    0.00000E+00         0.00000E+00        -0.49688E+08
 
   -0.49539E+08         0.16118E+07         0.00000E+00
    0.16118E+07        -0.49197E+08         0.00000E+00
    0.00000E+00         0.00000E+00        -0.49688E+08
 
   -0.49598E+08         0.16245E+07         0.00000E+00
    0.16245E+07        -0.49168E+08         0.00000E+00
    0.00000E+00         0.00000E+00        -0.49688E+08
 
   -0.49658E+08         0.16364E+07         0.00000E+00
    0.16364E+07        -0.49139E+08         0.00000E+00
    0.00000E+00         0.00000E+00        -0.49688E+08
 
   -0.47123E+08         0.30938E+05         0.00000E+00
    0.30938E+05        -0.50000E+08         0.00000E+00
    0.00000E+00         0.00000E+00        -0.49627E+08
 
   -0.47150E+08         0.90128E+05         0.00000E+00
    0.90128E+05        -0.49999E+08         0.00000E+00
    0.00000E+00         0.00000E+00        -0.49627E+08
 
   -0.47179E+08         0.14833E+06         0.00000E+00
    0.14833E+06        -0.49997E+08         0.00000E+00
    0.00000E+00         0.00000E+00        -0.49627E+08
 
   -0.47209E+08         0.20554E+06         0.00000E+00
    0.20554E+06        -0.49993E+08         0.00000E+00
    0.00000E+00         0.00000E+00        -0.49627E+08
 
   -0.47241E+08         0.26175E+06         0.00000E+00
    0.26175E+06        -0.49989E+08         0.00000E+00
    0.00000E+00         0.00000E+00        -0.49627E+08
 
   -0.47274E+08         0.31695E+06         0.00000E+00
    0.31695E+06        -0.49984E+08         0.00000E+00
    0.00000E+00         0.00000E+00        -0.49627E+08
 
   -0.47308E+08         0.37115E+06         0.00000E+00
    0.37115E+06        -0.49978E+08         0.00000E+00
    0.00000E+00         0.00000E+00        -0.49627E+08
 
   -0.47344E+08         0.42434E+06         0.00000E+00
    0.42434E+06        -0.49971E+08         0.00000E+00
    0.00000E+00         0.00000E+00        -0.49627E+08
 
   -0.47381E+08         0.47652E+06         0.00000E+00
    0.47652E+06        -0.49964E+08         0.00000E+00
    0.00000E+00         0.00000E+00        -0.49627E+08
 
   -0.47420E+08         0.52769E+06         0.00000E+00
    0.52769E+06        -0.49955E+08         0.00000E+00
    0.00000E+00         0.00000E+00        -0.49627E+08
 
   -0.47459E+08         0.57785E+06         0.00000E+00
    0.57785E+06        -0.49946E+08         0.00000E+00
    0.00000E+00         0.00000E+00        -0.49627E+08
 
   -0.47500E+08         0.62700E+06         0.00000E+00
    0.62700E+06        -0.49935E+08         0.00000E+00
    0.00000E+00         0.00000E+00        -0.49627E+08
 
   -0.47542E+08         0.67515E+06         0.00000E+00
    0.67515E+06        -0.49924E+08         0.00000E+00
    0.00000E+00         0.00000E+00        -0.49627E+08
 
   -0.47585E+08         0.72229E+06         0.00000E+00
    0.72229E+06        -0.49913E+08         0.00000E+00
    0.00000E+00         0.00000E+00        -0.49627E+08
 
   -0.47629E+08         0.76844E+06         0.00000E+00
    0.76844E+06        -0.49900E+08         0.00000E+00
    0.00000E+00         0.00000E+00        -0.49627E+08
 
   -0.47674E+08         0.81358E+06         0.00000E+00
    0.81358E+06        -0.49887E+08         0.00000E+00
    0.00000E+00         0.00000E+00        -0.49627E+08
 
   -0.47720E+08         0.85774E+06         0.00000E+00
    0.85774E+06        -0.49873E+08         0.00000E+00
    0.00000E+00         0.00000E+00        -0.49627E+08
 
   -0.47767E+08         0.90091E+06         0.00000E+00
    0.90091E+06        -0.49858E+08         0.00000E+00
    0.00000E+00         0.00000E+00        -0.49627E+08
 
   -0.47814E+08         0.94310E+06         0.00000E+00
    0.94310E+06        -0.49843E+08         0.00000E+00
    0.00000E+00         0.00000E+00        -0.49627E+08
 
   -0.47863E+08         0.98431E+06         0.00000E+00
    0.98431E+06        -0.49827E+08         0.00000E+00
    0.00000E+00         0.00000E+00        -0.49627E+08
 
   -0.47912E+08         0.10246E+07         0.00000E+00
    0.10246E+07        -0.49810E+08         0.00000E+00
    0.00000E+00         0.00000E+00        -0.49627E+08
 
   -0.47963E+08         0.10638E+07         0.00000E+00
    0.10638E+07        -0.49793E+08         0.00000E+00
    0.00000E+00         0.00000E+00        -0.49627E+08
 
   -0.48013E+08         0.11021E+07         0.00000E+00
    0.11021E+07        -0.49775E+08         0.00000E+00
    0.00000E+00         0.00000E+00        -0.49627E+08
 
   -0.48065E+08         0.11395E+07         0.00000E+00
    0.11395E+07        -0.49757E+08         0.00000E+00
    0.00000E+00         0.00000E+00        -0.49627E+08
 
   -0.48117E+08         0.11759E+07         0.00000E+00
    0.11759E+07        -0.49737E+08         0.00000E+00
    0.00000E+00         0.00000E+00        -0.49627E+08
 
   -0.48170E+08         0.12114E+07         0.00000E+00
    0.12114E+07        -0.49718E+08         0.00000E+00
    0.00000E+00         0.00000E+00        -0.49627E+08
 
   -0.48224E+08         0.12459E+07         0.00000E+00
    0.12459E+07        -0.49697E+08         0.00000E+00
    0.00000E+00         0.00000E+00        -0.49627E+08
 
   -0.48278E+08         0.12795E+07         0.00000E+00
    0.12795E+07        -0.49677E+08         0.00000E+00
    0.00000E+00         0.00000E+00        -0.49627E+08
 
   -0.48333E+08         0.13122E+07         0.00000E+00
    0.13122E+07        -0.49655E+08         0.00000E+00
    0.00000E+00         0.00000E+00        -0.49627E+08
 
   -0.48389E+08         0.13439E+07         0.00000E+00
    0.13439E+07        -0.49633E+08         0.00000E+00
    0.00000E+00         0.00000E+00        -0.49627E+08
 
   -0.48445E+08         0.13747E+07         0.00000E+00
    0.13747E+07        -0.49611E+08         0.00000E+00
    0.00000E+00         0.00000E+00        -0.49627E+08
 
   -0.48501E+08         0.14046E+07         0.00000E+00
    0.14046E+07        -0.49588E+08         0.00000E+00
    0.00000E+00         0.00000E+00        -0.49627E+08
 
   -0.48558E+08         0.14337E+07         0.00000E+00
    0.14337E+07        -0.49564E+08         0.00000E+00
    0.00000E+00         0.00000E+00        -0.49627E+08
 
   -0.48616E+08         0.14618E+07         0.00000E+00
    0.14618E+07        -0.49540E+08         0.00000E+00
    0.00000E+00         0.00000E+00        -0.49627E+08
 
   -0.48674E+08         0.14890E+07         0.00000E+00
    0.14890E+07        -0.49516E+08         0.00000E+00
    0.00000E+00         0.00000E+00        -0.49627E+08
 
   -0.48733E+08         0.15153E+07         0.00000E+00
    0.15153E+07        -0.49490E+08         0.00000E+00
    0.00000E+00         0.00000E+00        -0.49627E+08
 
   -0.48792E+08         0.15407E+07         0.00000E+00
    0.15407E+07        -0.49465E+08         0.00000E+00
    0.00000E+00         0.00000E+00        -0.49627E+08
 
   -0.48851E+08         0.15652E+07         0.00000E+00
    0.15652E+07        -0.49439E+08         0.00000E+00
    0.00000E+00         0.00000E+00        -0.49627E+08
 
   -0.48911E+08         0.15888E+07         0.00000E+00
    0.15888E+07        -0.49412E+08         0.00000E+00
    0.00000E+00         0.00000E+00        -0.49627E+08
 
   -0.48971E+08         0.16116E+07         0.00000E+00
    0.16116E+07        -0.49385E+08         0.00000E+00
    0.00000E+00         0.00000E+00        -0.49627E+08
 
   -0.49032E+08         0.16335E+07         0.00000E+00
    0.16335E+07        -0.49358E+08         0.00000E+00
    0.00000E+00         0.00000E+00        -0.49627E+08
 
   -0.49093E+08         0.16545E+07         0.00000E+00
    0.16545E+07        -0.49330E+08         0.00000E+00
    0.00000E+00         0.00000E+00        -0.49627E+08
 
   -0.49155E+08         0.16746E+07         0.00000E+00
    0.16746E+07        -0.49301E+08         0.00000E+00
    0.00000E+00         0.00000E+00        -0.49627E+08
 
   -0.49216E+08         0.16938E+07         0.00000E+00
    0.16938E+07        -0.49272E+08         0.00000E+00
    0.00000E+00         0.00000E+00        -0.49627E+08
 
   -0.49279E+08         0.17122E+07         0.00000E+00
    0.17122E+07        -0.49243E+08         0.00000E+00
    0.00000E+00         0.00000E+00        -0.49627E+08
 
   -0.49341E+08         0.17296E+07         0.00000E+00
    0.17296E+07        -0.49213E+08         0.00000E+00
    0.00000E+00         0.00000E+00        -0.49627E+08
 
   -0.49404E+08         0.17462E+07         0.00000E+00
    0.17462E+07        -0.49182E+08         0.00000E+00
    0.00000E+00         0.00000E+00        -0.49627E+08
 
   -0.49468E+08         0.17620E+07         0.00000E+00
    0.17620E+07        -0.49151E+08         0.00000E+00
    0.00000E+00         0.00000E+00        -0.49627E+08
 
   -0.49531E+08         0.17768E+07         0.00000E+00
    0.17768E+07        -0.49120E+08         0.00000E+00
    0.00000E+00         0.00000E+00        -0.49627E+08
 
   -0.49595E+08         0.17908E+07         0.00000E+00
    0.17908E+07        -0.49088E+08         0.00000E+00
    0.00000E+00         0.00000E+00        -0.49627E+08
 
   -0.46811E+08         0.33848E+05         0.00000E+00
    0.33848E+05        -0.50000E+08         0.00000E+00
    0.00000E+00         0.00000E+00        -0.49556E+08
 
   -0.46843E+08         0.98412E+05         0.00000E+00
    0.98412E+05        -0.49999E+08         0.00000E+00
    0.00000E+00         0.00000E+00        -0.49556E+08
 
   -0.46877E+08         0.16183E+06         0.00000E+00
    0.16183E+06        -0.49996E+08         0.00000E+00
    0.00000E+00         0.00000E+00        -0.49556E+08
 
   -0.46913E+08         0.22411E+06         0.00000E+00
    0.22411E+06        -0.49993E+08         0.00000E+00
    0.00000E+00         0.00000E+00        -0.49556E+08
 
   -0.46950E+08         0.28524E+06         0.00000E+00
    0.28524E+06        -0.49989E+08         0.00000E+00
    0.00000E+00         0.00000E+00        -0.49556E+08
 
   -0.46988E+08         0.34522E+06         0.00000E+00
    0.34522E+06        -0.49983E+08         0.00000E+00
    0.00000E+00         0.00000E+00        -0.49556E+08
 
   -0.47028E+08         0.40407E+06         0.00000E+00
    0.40407E+06        -0.49977E+08         0.00000E+00
    0.00000E+00         0.00000E+00        -0.49556E+08
 
   -0.47070E+08         0.46177E+06         0.00000E+00
    0.46177E+06        -0.49970E+08         0.00000E+00
    0.00000E+00         0.00000E+00        -0.49556E+08
 
   -0.47112E+08         0.51834E+06         0.00000E+00
    0.51834E+06        -0.49962E+08         0.00000E+00
    0.00000E+00         0.00000E+00        -0.49556E+08
 
   -0.47156E+08         0.57379E+06         0.00000E+00
    0.57379E+06        -0.49953E+08         0.00000E+00
    0.00000E+00         0.00000E+00        -0.49556E+08
 
   -0.47201E+08         0.62811E+06         0.00000E+00
    0.62811E+06        -0.49943E+08         0.00000E+00
    0.00000E+00         0.00000E+00        -0.49556E+08
 
   -0.47247E+08         0.68131E+06         0.00000E+00
    0.68131E+06        -0.49932E+08         0.00000E+00
    0.00000E+00         0.00000E+00        -0.49556E+08
 
   -0.47294E+08         0.73341E+06         0.00000E+00
    0.73341E+06        -0.49921E+08         0.00000E+00
    0.00000E+00         0.00000E+00        -0.49556E+08
 
   -0.47342E+08         0.78440E+06         0.00000E+00
    0.78440E+06        -0.49909E+08         0.00000E+00
    0.00000E+00         0.00000E+00        -0.49556E+08
 
   -0.47391E+08         0.83430E+06         0.00000E+00
    0.83430E+06        -0.49896E+08         0.00000E+00
    0.00000E+00         0.00000E+00        -0.49556E+08
 
   -0.47442E+08         0.88311E+06         0.00000E+00
    0.88311E+06        -0.49882E+08         0.00000E+00
    0.00000E+00         0.00000E+00        -0.49556E+08
 
   -0.47493E+08         0.93085E+06         0.00000E+00
    0.93085E+06        -0.49867E+08         0.00000E+00
    0.00000E+00         0.00000E+00        -0.49556E+08
 
   -0.47545E+08         0.97752E+06         0.00000E+00
    0.97752E+06        -0.49852E+08         0.00000E+00
    0.00000E+00         0.00000E+00        -0.49556E+08
 
   -0.47597E+08         0.10231E+07         0.00000E+00
    0.10231E+07        -0.49836E+08         0.00000E+00
    0.00000E+00         0.00000E+00        -0.49556E+08
 
   -0.47651E+08         0.10677E+07         0.00000E+00
    0.10677E+07        -0.49819E+08         0.00000E+00
    0.00000E+00         0.00000E+00        -0.49556E+08
 
   -0.47705E+08         0.11112E+07         0.00000E+00
    0.11112E+07        -0.49802E+08         0.00000E+00
    0.00000E+00         0.00000E+00        -0.49556E+08
 
   -0.47761E+08         0.11537E+07         0.00000E+00
    0.11537E+07        -0.49784E+08         0.00000E+00
    0.00000E+00         0.00000E+00        -0.49556E+08
 
   -0.47816E+08         0.11952E+07         0.00000E+00
    0.11952E+07        -0.49765E+08         0.00000E+00
    0.00000E+00         0.00000E+00        -0.49556E+08
 
   -0.47873E+08         0.12356E+07         0.00000E+00
    0.12356E+07        -0.49746E+08         0.00000E+00
    0.00000E+00         0.00000E+00        -0.49556E+08
 
   -0.47930E+08         0.12751E+07         0.00000E+00
    0.12751E+07        -0.49726E+08         0.00000E+00
    0.00000E+00         0.00000E+00        -0.49556E+08
 
   -0.47988E+08         0.13136E+07         0.00000E+00
    0.13136E+07        -0.49706E+08         0.00000E+00
    0.00000E+00         0.00000E+00        -0.49556E+08
 
   -0.48046E+08         0.13510E+07         0.00000E+00
    0.13510E+07        -0.49684E+08         0.00000E+00
    0.00000E+00         0.00000E+00        -0.49556E+08
 
   -0.48106E+08         0.13875E+07         0.00000E+00
    0.13875E+07        -0.49663E+08         0.00000E+00
    0.00000E+00         0.00000E+00        -0.49556E+08
 
   -0.48165E+08         0.14231E+07         0.00000E+00
    0.14231E+07        -0.49640E+08         0.00000E+00
    0.00000E+00         0.00000E+00        -0.49556E+08
 
   -0.48225E+08         0.14576E+07         0.00000E+00
    0.14576E+07        -0.49617E+08         0.00000E+00
    0.00000E+00         0.00000E+00        -0.49556E+08
 
   -0.48286E+08         0.14913E+07         0.00000E+00
    0.14913E+07        -0.49594E+08         0.00000E+00
    0.00000E+00         0.00000E+00        -0.49556E+08
 
   -0.48347E+08         0.15239E+07         0.00000E+00
    0.15239E+07        -0.49570E+08         0.00000E+00
    0.00000E+00         0.00000E+00        -0.49556E+08
 
   -0.48409E+08         0.15557E+07         0.00000E+00
    0.15557E+07        -0.49545E+08         0.00000E+00
    0.00000E+00         0.00000E+00        -0.49556E+08
 
   -0.48471E+08         0.15865E+07         0.00000E+00
    0.15865E+07        -0.49520E+08         0.00000E+00
    0.00000E+00         0.00000E+00        -0.49556E+08
 
   -0.48534E+08         0.16164E+07         0.00000E+00
    0.16164E+07        -0.49494E+08         0.00000E+00
    0.00000E+00         0.00000E+00        -0.49556E+08
 
   -0.48597E+08         0.16453E+07         0.00000E+00
    0.16453E+07        -0.49467E+08         0.00000E+00
    0.00000E+00         0.00000E+00        -0.49556E+08
 
   -0.48660E+08         0.16734E+07         0.00000E+00
    0.16734E+07        -0.49441E+08         0.00000E+00
    0.00000E+00         0.00000E+00        -0.49556E+08
 
   -0.48724E+08         0.17005E+07         0.00000E+00
    0.17005E+07        -0.49413E+08         0.00000E+00
    0.00000E+00         0.00000E+00        -0.49556E+08
 
   -0.48788E+08         0.17267E+07         0.00000E+00
    0.17267E+07        -0.49385E+08         0.00000E+00
    0.00000E+00         0.00000E+00        -0.49556E+08
 
   -0.48853E+08         0.17520E+07         0.00000E+00
    0.17520E+07        -0.49356E+08         0.00000E+00
    0.00000E+00         0.00000E+00        -0.49556E+08
 
   -0.48918E+08         0.17764E+07         0.00000E+00
    0.17764E+07        -0.49327E+08         0.00000E+00
    0.00000E+00         0.00000E+00        -0.49556E+08
 
   -0.48984E+08         0.18000E+07         0.00000E+00
    0.18000E+07        -0.49298E+08         0.00000E+00
    0.00000E+00         0.00000E+00        -0.49556E+08
 
   -0.49050E+08         0.18226E+07         0.00000E+00
    0.18226E+07        -0.49267E+08         0.00000E+00
    0.00000E+00         0.00000E+00        -0.49556E+08
 
   -0.49116E+08         0.18443E+07         0.00000E+00
    0.18443E+07        -0.49237E+08         0.00000E+00
    0.00000E+00         0.00000E+00        -0.49556E+08
 
   -0.49183E+08         0.18652E+07         0.00000E+00
    0.18652E+07        -0.49206E+08         0.00000E+00
    0.00000E+00         0.00000E+00        -0.49556E+08
 
   -0.49250E+08         0.18851E+07         0.00000E+00
    0.18851E+07        -0.49174E+08         0.00000E+00
    0.00000E+00         0.00000E+00        -0.49556E+08
 
   -0.49317E+08         0.19042E+07         0.00000E+00
    0.19042E+07        -0.49141E+08         0.00000E+00
    0.00000E+00         0.00000E+00        -0.49556E+08
 
   -0.49385E+08         0.19223E+07         0.00000E+00
    0.19223E+07        -0.49109E+08         0.00000E+00
    0.00000E+00         0.00000E+00        -0.49556E+08
 
   -0.49453E+08         0.19396E+07         0.00000E+00
    0.19396E+07        -0.49075E+08         0.00000E+00
    0.00000E+00         0.00000E+00        -0.49556E+08
 
   -0.49522E+08         0.19560E+07         0.00000E+00
    0.19560E+07        -0.49041E+08         0.00000E+00
    0.00000E+00         0.00000E+00        -0.49556E+08
 
   -0.46471E+08         0.36903E+05         0.00000E+00
    0.36903E+05        -0.50000E+08         0.00000E+00
    0.00000E+00         0.00000E+00        -0.49472E+08
 
   -0.46510E+08         0.10708E+06         0.00000E+00
    0.10708E+06        -0.49999E+08         0.00000E+00
    0.00000E+00         0.00000E+00        -0.49472E+08
 
   -0.46550E+08         0.17594E+06         0.00000E+00
    0.17594E+06        -0.49996E+08         0.00000E+00
    0.00000E+00         0.00000E+00        -0.49472E+08
 
   -0.46591E+08         0.24348E+06         0.00000E+00
    0.24348E+06        -0.49993E+08         0.00000E+00
    0.00000E+00         0.00000E+00        -0.49472E+08
 
   -0.46635E+08         0.30973E+06         0.00000E+00
    0.30973E+06        -0.49988E+08         0.00000E+00
    0.00000E+00         0.00000E+00        -0.49472E+08
 
   -0.46679E+08         0.37467E+06         0.00000E+00
    0.37467E+06        -0.49983E+08         0.00000E+00
    0.00000E+00         0.00000E+00        -0.49472E+08
 
   -0.46725E+08         0.43833E+06         0.00000E+00
    0.43833E+06        -0.49976E+08         0.00000E+00
    0.00000E+00         0.00000E+00        -0.49472E+08
 
   -0.46772E+08         0.50072E+06         0.00000E+00
    0.50072E+06        -0.49969E+08         0.00000E+00
    0.00000E+00         0.00000E+00        -0.49472E+08
 
   -0.46821E+08         0.56183E+06         0.00000E+00
    0.56183E+06        -0.49961E+08         0.00000E+00
    0.00000E+00         0.00000E+00        -0.49472E+08
 
   -0.46871E+08         0.62169E+06         0.00000E+00
    0.62169E+06        -0.49951E+08         0.00000E+00
    0.00000E+00         0.00000E+00        -0.49472E+08
 
   -0.46921E+08         0.68031E+06         0.00000E+00
    0.68031E+06        -0.49941E+08         0.00000E+00
    0.00000E+00         0.00000E+00        -0.49472E+08
 
   -0.46973E+08         0.73770E+06         0.00000E+00
    0.73770E+06        -0.49930E+08         0.00000E+00
    0.00000E+00         0.00000E+00        -0.49472E+08
 
   -0.47026E+08         0.79387E+06         0.00000E+00
    0.79387E+06        -0.49918E+08         0.00000E+00
    0.00000E+00         0.00000E+00        -0.49472E+08
 
   -0.47080E+08         0.84884E+06         0.00000E+00
    0.84884E+06        -0.49906E+08         0.00000E+00
    0.00000E+00         0.00000E+00        -0.49472E+08
 
   -0.47135E+08         0.90262E+06         0.00000E+00
    0.90262E+06        -0.49892E+08         0.00000E+00
    0.00000E+00         0.00000E+00        -0.49472E+08
 
   -0.47191E+08         0.95523E+06         0.00000E+00
    0.95523E+06        -0.49878E+08         0.00000E+00
    0.00000E+00         0.00000E+00        -0.49472E+08
 
   -0.47247E+08         0.10067E+07         0.00000E+00
    0.10067E+07        -0.49863E+08         0.00000E+00
    0.00000E+00         0.00000E+00        -0.49472E+08
 
   -0.47305E+08         0.10570E+07         0.00000E+00
    0.10570E+07        -0.49847E+08         0.00000E+00
    0.00000E+00         0.00000E+00        -0.49472E+08
 
   -0.47363E+08         0.11061E+07         0.00000E+00
    0.11061E+07        -0.49831E+08         0.00000E+00
    0.00000E+00         0.00000E+00        -0.49472E+08
 
   -0.47422E+08         0.11542E+07         0.00000E+00
    0.11542E+07        -0.49813E+08         0.00000E+00
    0.00000E+00         0.00000E+00        -0.49472E+08
 
   -0.47482E+08         0.12011E+07         0.00000E+00
    0.12011E+07        -0.49795E+08         0.00000E+00
    0.00000E+00         0.00000E+00        -0.49472E+08
 
   -0.47542E+08         0.12470E+07         0.00000E+00
    0.12470E+07        -0.49777E+08         0.00000E+00
    0.00000E+00         0.00000E+00        -0.49472E+08
 
   -0.47603E+08         0.12918E+07         0.00000E+00
    0.12918E+07        -0.49758E+08         0.00000E+00
    0.00000E+00         0.00000E+00        -0.49472E+08
 
   -0.47665E+08         0.13355E+07         0.00000E+00
    0.13355E+07        -0.49738E+08         0.00000E+00
    0.00000E+00         0.00000E+00        -0.49472E+08
 
   -0.47727E+08         0.13782E+07         0.00000E+00
    0.13782E+07        -0.49717E+08         0.00000E+00
    0.00000E+00         0.00000E+00        -0.49472E+08
 
   -0.47790E+08         0.14198E+07         0.00000E+00
    0.14198E+07        -0.49696E+08         0.00000E+00
    0.00000E+00         0.00000E+00        -0.49472E+08
 
   -0.47854E+08         0.14604E+07         0.00000E+00
    0.14604E+07        -0.49674E+08         0.00000E+00
    0.00000E+00         0.00000E+00        -0.49472E+08
 
   -0.47918E+08         0.15000E+07         0.00000E+00
    0.15000E+07        -0.49651E+08         0.00000E+00
    0.00000E+00         0.00000E+00        -0.49472E+08
 
   -0.47982E+08         0.15386E+07         0.00000E+00
    0.15386E+07        -0.49628E+08         0.00000E+00
    0.00000E+00         0.00000E+00        -0.49472E+08
 
   -0.48047E+08         0.15762E+07         0.00000E+00
    0.15762E+07        -0.49604E+08         0.00000E+00
    0.00000E+00         0.00000E+00        -0.49472E+08
 
   -0.48113E+08         0.16128E+07         0.00000E+00
    0.16128E+07        -0.49580E+08         0.00000E+00
    0.00000E+00         0.00000E+00        -0.49472E+08
 
   -0.48179E+08         0.16485E+07         0.00000E+00
    0.16485E+07        -0.49555E+08         0.00000E+00
    0.00000E+00         0.00000E+00        -0.49472E+08
 
   -0.48245E+08         0.16832E+07         0.00000E+00
    0.16832E+07        -0.49529E+08         0.00000E+00
    0.00000E+00         0.00000E+00        -0.49472E+08
 
   -0.48312E+08         0.17169E+07         0.00000E+00
    0.17169E+07        -0.49503E+08         0.00000E+00
    0.00000E+00         0.00000E+00        -0.49472E+08
 
   -0.48379E+08         0.17497E+07         0.00000E+00
    0.17497E+07        -0.49476E+08         0.00000E+00
    0.00000E+00         0.00000E+00        -0.49472E+08
 
   -0.48447E+08         0.17816E+07         0.00000E+00
    0.17816E+07        -0.49448E+08         0.00000E+00
    0.00000E+00         0.00000E+00        -0.49472E+08
 
   -0.48515E+08         0.18126E+07         0.00000E+00
    0.18126E+07        -0.49420E+08         0.00000E+00
    0.00000E+00         0.00000E+00        -0.49472E+08
 
   -0.48584E+08         0.18426E+07         0.00000E+00
    0.18426E+07        -0.49391E+08         0.00000E+00
    0.00000E+00         0.00000E+00        -0.49472E+08
 
   -0.48652E+08         0.18717E+07         0.00000E+00
    0.18717E+07        -0.49362E+08         0.00000E+00
    0.00000E+00         0.00000E+00        -0.49472E+08
 
   -0.48722E+08         0.18999E+07         0.00000E+00
    0.18999E+07        -0.49332E+08         0.00000E+00
    0.00000E+00         0.00000E+00        -0.49472E+08
 
   -0.48791E+08         0.19272E+07         0.00000E+00
    0.19272E+07        -0.49301E+08         0.00000E+00
    0.00000E+00         0.00000E+00        -0.49472E+08
 
   -0.48861E+08         0.19535E+07         0.00000E+00
    0.19535E+07        -0.49270E+08         0.00000E+00
    0.00000E+00         0.00000E+00        -0.49472E+08
 
   -0.48932E+08         0.19790E+07         0.00000E+00
    0.19790E+07        -0.49238E+08         0.00000E+00
    0.00000E+00         0.00000E+00        -0.49472E+08
 
   -0.49003E+08         0.20036E+07         0.00000E+00
    0.20036E+07        -0.49206E+08         0.00000E+00
    0.00000E+00         0.00000E+00        -0.49472E+08
 
   -0.49074E+08         0.20273E+07         0.00000E+00
    0.20273E+07        -0.49173E+08         0.00000E+00
    0.00000E+00         0.00000E+00        -0.49472E+08
 
   -0.49145E+08         0.20501E+07         0.00000E+00
    0.20501E+07        -0.49139E+08         0.00000E+00
    0.00000E+00         0.00000E+00        -0.49472E+08
 
   -0.49217E+08         0.20720E+07         0.00000E+00
    0.20720E+07        -0.49105E+08         0.00000E+00
    0.00000E+00         0.00000E+00        -0.49472E+08
 
   -0.49290E+08         0.20930E+07         0.00000E+00
    0.20930E+07        -0.49070E+08         0.00000E+00
    0.00000E+00         0.00000E+00        -0.49472E+08
 
   -0.49362E+08         0.21130E+07         0.00000E+00
    0.21130E+07        -0.49035E+08         0.00000E+00
    0.00000E+00         0.00000E+00        -0.49472E+08
 
   -0.49435E+08         0.21322E+07         0.00000E+00
    0.21322E+07        -0.48999E+08         0.00000E+00
    0.00000E+00         0.00000E+00        -0.49472E+08
 
   -0.46102E+08         0.40077E+05         0.00000E+00
    0.40077E+05        -0.50000E+08         0.00000E+00
    0.00000E+00         0.00000E+00        -0.49372E+08
 
   -0.46148E+08         0.11605E+06         0.00000E+00
    0.11605E+06        -0.49998E+08         0.00000E+00
    0.00000E+00         0.00000E+00        -0.49372E+08
 
   -0.46195E+08         0.19051E+06         0.00000E+00
    0.19051E+06        -0.49996E+08         0.00000E+00
    0.00000E+00         0.00000E+00        -0.49372E+08
 
   -0.46244E+08         0.26348E+06         0.00000E+00
    0.26348E+06        -0.49993E+08         0.00000E+00
    0.00000E+00         0.00000E+00        -0.49372E+08
 
   -0.46294E+08         0.33498E+06         0.00000E+00
    0.33498E+06        -0.49988E+08         0.00000E+00
    0.00000E+00         0.00000E+00        -0.49372E+08
 
   -0.46345E+08         0.40501E+06         0.00000E+00
    0.40501E+06        -0.49982E+08         0.00000E+00
    0.00000E+00         0.00000E+00        -0.49372E+08
 
   -0.46398E+08         0.47361E+06         0.00000E+00
    0.47361E+06        -0.49976E+08         0.00000E+00
    0.00000E+00         0.00000E+00        -0.49372E+08
 
   -0.46452E+08         0.54078E+06         0.00000E+00
    0.54078E+06        -0.49968E+08         0.00000E+00
    0.00000E+00         0.00000E+00        -0.49372E+08
 
   -0.46507E+08         0.60654E+06         0.00000E+00
    0.60654E+06        -0.49960E+08         0.00000E+00
    0.00000E+00         0.00000E+00        -0.49372E+08
 
   -0.46563E+08         0.67092E+06         0.00000E+00
    0.67092E+06        -0.49950E+08         0.00000E+00
    0.00000E+00         0.00000E+00        -0.49372E+08
 
   -0.46620E+08         0.73393E+06         0.00000E+00
    0.73393E+06        -0.49940E+08         0.00000E+00
    0.00000E+00         0.00000E+00        -0.49372E+08
 
   -0.46679E+08         0.79560E+06         0.00000E+00
    0.79560E+06        -0.49928E+08         0.00000E+00
    0.00000E+00         0.00000E+00        -0.49372E+08
 
   -0.46738E+08         0.85594E+06         0.00000E+00
    0.85594E+06        -0.49916E+08         0.00000E+00
    0.00000E+00         0.00000E+00        -0.49372E+08
 
   -0.46798E+08         0.91498E+06         0.00000E+00
    0.91498E+06        -0.49903E+08         0.00000E+00
    0.00000E+00         0.00000E+00        -0.49372E+08
 
   -0.46859E+08         0.97274E+06         0.00000E+00
    0.97274E+06        -0.49890E+08         0.00000E+00
    0.00000E+00         0.00000E+00        -0.49372E+08
 
   -0.46921E+08         0.10292E+07         0.00000E+00
    0.10292E+07        -0.49875E+08         0.00000E+00
    0.00000E+00         0.00000E+00        -0.49372E+08
 
   -0.46984E+08         0.10845E+07         0.00000E+00
    0.10845E+07        -0.49860E+08         0.00000E+00
    0.00000E+00         0.00000E+00        -0.49372E+08
 
   -0.47047E+08         0.11385E+07         0.00000E+00
    0.11385E+07        -0.49844E+08         0.00000E+00
    0.00000E+00         0.00000E+00        -0.49372E+08
 
   -0.47111E+08         0.11914E+07         0.00000E+00
    0.11914E+07        -0.49827E+08         0.00000E+00
    0.00000E+00         0.00000E+00        -0.49372E+08
 
   -0.47176E+08         0.12430E+07         0.00000E+00
    0.12430E+07        -0.49809E+08         0.00000E+00
    0.00000E+00         0.00000E+00        -0.49372E+08
 
   -0.47241E+08         0.12935E+07         0.00000E+00
    0.12935E+07        -0.49791E+08         0.00000E+00
    0.00000E+00         0.00000E+00        -0.49372E+08
 
   -0.47307E+08         0.13429E+07         0.00000E+00
    0.13429E+07        -0.49772E+08         0.00000E+00
    0.00000E+00         0.00000E+00        -0.49372E+08
 
   -0.47373E+08         0.13911E+07         0.00000E+00
    0.13911E+07        -0.49752E+08         0.00000E+00
    0.00000E+00         0.00000E+00        -0.49372E+08
 
   -0.47441E+08         0.14382E+07         0.00000E+00
    0.14382E+07        -0.49732E+08         0.00000E+00
    0.00000E+00         0.00000E+00        -0.49372E+08
 
   -0.47508E+08         0.14843E+07         0.00000E+00
    0.14843E+07        -0.49711E+08         0.00000E+00
    0.00000E+00         0.00000E+00        -0.49372E+08
 
   -0.47576E+08         0.15292E+07         0.00000E+00
    0.15292E+07        -0.49689E+08         0.00000E+00
    0.00000E+00         0.00000E+00        -0.49372E+08
 
   -0.47645E+08         0.15732E+07         0.00000E+00
    0.15732E+07        -0.49667E+08         0.00000E+00
    0.00000E+00         0.00000E+00        -0.49372E+08
 
   -0.47714E+08         0.16160E+07         0.00000E+00
    0.16160E+07        -0.49643E+08         0.00000E+00
    0.00000E+00         0.00000E+00        -0.49372E+08
 
   -0.47783E+08         0.16579E+07         0.00000E+00
    0.16579E+07        -0.49620E+08         0.00000E+00
    0.00000E+00         0.00000E+00        -0.49372E+08
 
   -0.47853E+08         0.16988E+07         0.00000E+00
    0.16988E+07        -0.49595E+08         0.00000E+00
    0.00000E+00         0.00000E+00        -0.49372E+08
 
   -0.47924E+08         0.17386E+07         0.00000E+00
    0.17386E+07        -0.49570E+08         0.00000E+00
    0.00000E+00         0.00000E+00        -0.49372E+08
 
   -0.47995E+08         0.17775E+07         0.00000E+00
    0.17775E+07        -0.49544E+08         0.00000E+00
    0.00000E+00         0.00000E+00        -0.49372E+08
 
   -0.48066E+08         0.18154E+07         0.00000E+00
    0.18154E+07        -0.49517E+08         0.00000E+00
    0.00000E+00         0.00000E+00        -0.49372E+08
 
   -0.48137E+08         0.18524E+07         0.00000E+00
    0.18524E+07        -0.49490E+08         0.00000E+00
    0.00000E+00         0.00000E+00        -0.49372E+08
 
   -0.48209E+08         0.18884E+07         0.00000E+00
    0.18884E+07        -0.49462E+08         0.00000E+00
    0.00000E+00         0.00000E+00        -0.49372E+08
 
   -0.48282E+08         0.19235E+07         0.00000E+00
    0.19235E+07        -0.49434E+08         0.00000E+00
    0.00000E+00         0.00000E+00        -0.49372E+08
 
   -0.48355E+08         0.19576E+07         0.00000E+00
    0.19576E+07        -0.49405E+08         0.00000E+00
    0.00000E+00         0.00000E+00        -0.49372E+08
 
   -0.48428E+08         0.19909E+07         0.00000E+00
    0.19909E+07        -0.49375E+08         0.00000E+00
    0.00000E+00         0.00000E+00        -0.49372E+08
 
   -0.48501E+08         0.20232E+07         0.00000E+00
    0.20232E+07        -0.49344E+08         0.00000E+00
    0.00000E+00         0.00000E+00        -0.49372E+08
 
   -0.48575E+08         0.20546E+07         0.00000E+00
    0.20546E+07        -0.49313E+08         0.00000E+00
    0.00000E+00         0.00000E+00        -0.49372E+08
 
   -0.48649E+08         0.20851E+07         0.00000E+00
    0.20851E+07        -0.49281E+08         0.00000E+00
    0.00000E+00         0.00000E+00        -0.49372E+08
 
   -0.48724E+08         0.21147E+07         0.00000E+00
    0.21147E+07        -0.49248E+08         0.00000E+00
    0.00000E+00         0.00000E+00        -0.49372E+08
 
   -0.48799E+08         0.21434E+07         0.00000E+00
    0.21434E+07        -0.49215E+08         0.00000E+00
    0.00000E+00         0.00000E+00        -0.49372E+08
 
   -0.48874E+08         0.21713E+07         0.00000E+00
    0.21713E+07        -0.49181E+08         0.00000E+00
    0.00000E+00         0.00000E+00        -0.49372E+08
 
   -0.48950E+08         0.21982E+07         0.00000E+00
    0.21982E+07        -0.49146E+08         0.00000E+00
    0.00000E+00         0.00000E+00        -0.49372E+08
 
   -0.49026E+08         0.22242E+07         0.00000E+00
    0.22242E+07        -0.49111E+08         0.00000E+00
    0.00000E+00         0.00000E+00        -0.49372E+08
 
   -0.49102E+08         0.22494E+07         0.00000E+00
    0.22494E+07        -0.49075E+08         0.00000E+00
    0.00000E+00         0.00000E+00        -0.49372E+08
 
   -0.49179E+08         0.22737E+07         0.00000E+00
    0.22737E+07        -0.49038E+08         0.00000E+00
    0.00000E+00         0.00000E+00        -0.49372E+08
 
   -0.49256E+08         0.22970E+07         0.00000E+00
    0.22970E+07        -0.49001E+08         0.00000E+00
    0.00000E+00         0.00000E+00        -0.49372E+08
 
   -0.49333E+08         0.23195E+07         0.00000E+00
    0.23195E+07        -0.48962E+08         0.00000E+00
    0.00000E+00         0.00000E+00        -0.49372E+08
 
   -0.45704E+08         0.43332E+05         0.00000E+00
    0.43332E+05        -0.50000E+08         0.00000E+00
    0.00000E+00         0.00000E+00        -0.49254E+08
 
   -0.45757E+08         0.12521E+06         0.00000E+00
    0.12521E+06        -0.49998E+08         0.00000E+00
    0.00000E+00         0.00000E+00        -0.49254E+08
 
   -0.45812E+08         0.20537E+06         0.00000E+00
    0.20537E+06        -0.49996E+08         0.00000E+00
    0.00000E+00         0.00000E+00        -0.49254E+08
 
   -0.45869E+08         0.28384E+06         0.00000E+00
    0.28384E+06        -0.49993E+08         0.00000E+00
    0.00000E+00         0.00000E+00        -0.49254E+08
 
   -0.45927E+08         0.36066E+06         0.00000E+00
    0.36066E+06        -0.49988E+08         0.00000E+00
    0.00000E+00         0.00000E+00        -0.49254E+08
 
   -0.45986E+08         0.43584E+06         0.00000E+00
    0.43584E+06        -0.49982E+08         0.00000E+00
    0.00000E+00         0.00000E+00        -0.49254E+08
 
   -0.46046E+08         0.50942E+06         0.00000E+00
    0.50942E+06        -0.49976E+08         0.00000E+00
    0.00000E+00         0.00000E+00        -0.49254E+08
 
   -0.46107E+08         0.58143E+06         0.00000E+00
    0.58143E+06        -0.49968E+08         0.00000E+00
    0.00000E+00         0.00000E+00        -0.49254E+08
 
   -0.46170E+08         0.65188E+06         0.00000E+00
    0.65188E+06        -0.49959E+08         0.00000E+00
    0.00000E+00         0.00000E+00        -0.49254E+08
 
   -0.46233E+08         0.72082E+06         0.00000E+00
    0.72082E+06        -0.49950E+08         0.00000E+00
    0.00000E+00         0.00000E+00        -0.49254E+08
 
   -0.46298E+08         0.78826E+06         0.00000E+00
    0.78826E+06        -0.49939E+08         0.00000E+00
    0.00000E+00         0.00000E+00        -0.49254E+08
 
   -0.46363E+08         0.85425E+06         0.00000E+00
    0.85425E+06        -0.49928E+08         0.00000E+00
    0.00000E+00         0.00000E+00        -0.49254E+08
 
   -0.46429E+08         0.91881E+06         0.00000E+00
    0.91881E+06        -0.49916E+08         0.00000E+00
    0.00000E+00         0.00000E+00        -0.49254E+08
 
   -0.46496E+08         0.98197E+06         0.00000E+00
    0.98197E+06        -0.49903E+08         0.00000E+00
    0.00000E+00         0.00000E+00        -0.49254E+08
 
   -0.46563E+08         0.10438E+07         0.00000E+00
    0.10438E+07        -0.49889E+08         0.00000E+00
    0.00000E+00         0.00000E+00        -0.49254E+08
 
   -0.46632E+08         0.11042E+07         0.00000E+00
    0.11042E+07        -0.49874E+08         0.00000E+00
    0.00000E+00         0.00000E+00        -0.49254E+08
 
   -0.46701E+08         0.11633E+07         0.00000E+00
    0.11633E+07        -0.49859E+08         0.00000E+00
    0.00000E+00         0.00000E+00        -0.49254E+08
 
   -0.46770E+08         0.12212E+07         0.00000E+00
    0.12212E+07        -0.49843E+08         0.00000E+00
    0.00000E+00         0.00000E+00        -0.49254E+08
 
   -0.46840E+08         0.12778E+07         0.00000E+00
    0.12778E+07        -0.49826E+08         0.00000E+00
    0.00000E+00         0.00000E+00        -0.49254E+08
 
   -0.46911E+08         0.13331E+07         0.00000E+00
    0.13331E+07        -0.49808E+08         0.00000E+00
    0.00000E+00         0.00000E+00        -0.49254E+08
 
   -0.46982E+08         0.13873E+07         0.00000E+00
    0.13873E+07        -0.49790E+08         0.00000E+00
    0.00000E+00         0.00000E+00        -0.49254E+08
 
   -0.47054E+08         0.14402E+07         0.00000E+00
    0.14402E+07        -0.49771E+08         0.00000E+00
    0.00000E+00         0.00000E+00        -0.49254E+08
 
   -0.47126E+08         0.14920E+07         0.00000E+00
    0.14920E+07        -0.49751E+08         0.00000E+00
    0.00000E+00         0.00000E+00        -0.49254E+08
 
   -0.47199E+08         0.15427E+07         0.00000E+00
    0.15427E+07        -0.49730E+08         0.00000E+00
    0.00000E+00         0.00000E+00        -0.49254E+08
 
   -0.47272E+08         0.15923E+07         0.00000E+00
    0.15923E+07        -0.49709E+08         0.00000E+00
    0.00000E+00         0.00000E+00        -0.49254E+08
 
   -0.47345E+08         0.16408E+07         0.00000E+00
    0.16408E+07        -0.49687E+08         0.00000E+00
    0.00000E+00         0.00000E+00        -0.49254E+08
 
   -0.47419E+08         0.16882E+07         0.00000E+00
    0.16882E+07        -0.49664E+08         0.00000E+00
    0.00000E+00         0.00000E+00        -0.49254E+08
 
   -0.47493E+08         0.17346E+07         0.00000E+00
    0.17346E+07        -0.49640E+08         0.00000E+00
    0.00000E+00         0.00000E+00        -0.49254E+08
 
   -0.47568E+08         0.17799E+07         0.00000E+00
    0.17799E+07        -0.49616E+08         0.00000E+00
    0.00000E+00         0.00000E+00        -0.49254E+08
 
   -0.47643E+08         0.18243E+07         0.00000E+00
    0.18243E+07        -0.49591E+08         0.00000E+00
    0.00000E+00         0.00000E+00        -0.49254E+08
 
   -0.47718E+08         0.18676E+07         0.00000E+00
    0.18676E+07        -0.49565E+08         0.00000E+00
    0.00000E+00         0.00000E+00        -0.49254E+08
 
   -0.47794E+08         0.19100E+07         0.00000E+00
    0.19100E+07        -0.49539E+08         0.00000E+00
    0.00000E+00         0.00000E+00        -0.49254E+08
 
   -0.47870E+08         0.19514E+07         0.00000E+00
    0.19514E+07        -0.49512E+08         0.00000E+00
    0.00000E+00         0.00000E+00        -0.49254E+08
 
   -0.47946E+08         0.19919E+07         0.00000E+00
    0.19919E+07        -0.49484E+08         0.00000E+00
    0.00000E+00         0.00000E+00        -0.49254E+08
 
   -0.48023E+08         0.20314E+07         0.00000E+00
    0.20314E+07        -0.49456E+08         0.00000E+00
    0.00000E+00         0.00000E+00        -0.49254E+08
 
   -0.48100E+08         0.20700E+07         0.00000E+00
    0.20700E+07        -0.49426E+08         0.00000E+00
    0.00000E+00         0.00000E+00        -0.49254E+08
 
   -0.48177E+08         0.21077E+07         0.00000E+00
    0.21077E+07        -0.49396E+08         0.00000E+00
    0.00000E+00         0.00000E+00        -0.49254E+08
 
   -0.48255E+08         0.21445E+07         0.00000E+00
    0.21445E+07        -0.49365E+08         0.00000E+00
    0.00000E+00         0.00000E+00        -0.49254E+08
 
   -0.48333E+08         0.21804E+07         0.00000E+00
    0.21804E+07        -0.49334E+08         0.00000E+00
    0.00000E+00         0.00000E+00        -0.49254E+08
 
   -0.48411E+08         0.22155E+07         0.00000E+00
    0.22155E+07        -0.49301E+08         0.00000E+00
    0.00000E+00         0.00000E+00        -0.49254E+08
 
   -0.48490E+08         0.22496E+07         0.00000E+00
    0.22496E+07        -0.49268E+08         0.00000E+00
    0.00000E+00         0.00000E+00        -0.49254E+08
 
   -0.48569E+08         0.22829E+07         0.00000E+00
    0.22829E+07        -0.49234E+08         0.00000E+00
    0.00000E+00         0.00000E+00        -0.49254E+08
 
   -0.48648E+08         0.23153E+07         0.00000E+00
    0.23153E+07        -0.49200E+08         0.00000E+00
    0.00000E+00         0.00000E+00        -0.49254E+08
 
   -0.48728E+08         0.23468E+07         0.00000E+00
    0.23468E+07        -0.49164E+08         0.00000E+00
    0.00000E+00         0.00000E+00        -0.49254E+08
 
   -0.48808E+08         0.23774E+07         0.00000E+00
    0.23774E+07        -0.49128E+08         0.00000E+00
    0.00000E+00         0.00000E+00        -0.49254E+08
 
   -0.48888E+08         0.24072E+07         0.00000E+00
    0.24072E+07        -0.49091E+08         0.00000E+00
    0.00000E+00         0.00000E+00        -0.49254E+08
 
   -0.48969E+08         0.24362E+07         0.00000E+00
    0.24362E+07        -0.49053E+08         0.00000E+00
    0.00000E+00         0.00000E+00        -0.49254E+08
 
   -0.49050E+08         0.24642E+07         0.00000E+00
    0.24642E+07        -0.49014E+08         0.00000E+00
    0.00000E+00         0.00000E+00        -0.49254E+08
 
   -0.49131E+08         0.24914E+07         0.00000E+00
    0.24914E+07        -0.48975E+08         0.00000E+00
    0.00000E+00         0.00000E+00        -0.49254E+08
 
   -0.49213E+08         0.25177E+07         0.00000E+00
    0.25177E+07        -0.48935E+08         0.00000E+00
    0.00000E+00         0.00000E+00        -0.49254E+08
 
   -0.45275E+08         0.46616E+05         0.00000E+00
    0.46616E+05        -0.50000E+08         0.00000E+00
    0.00000E+00         0.00000E+00        -0.49116E+08
 
   -0.45337E+08         0.13440E+06         0.00000E+00
    0.13440E+06        -0.49998E+08         0.00000E+00
    0.00000E+00         0.00000E+00        -0.49116E+08
 
   -0.45402E+08         0.22026E+06         0.00000E+00
    0.22026E+06        -0.49996E+08         0.00000E+00
    0.00000E+00         0.00000E+00        -0.49116E+08
 
   -0.45467E+08         0.30423E+06         0.00000E+00
    0.30423E+06        -0.49993E+08         0.00000E+00
    0.00000E+00         0.00000E+00        -0.49116E+08
 
   -0.45533E+08         0.38635E+06         0.00000E+00
    0.38635E+06        -0.49988E+08         0.00000E+00
    0.00000E+00         0.00000E+00        -0.49116E+08
 
   -0.45601E+08         0.46665E+06         0.00000E+00
    0.46665E+06        -0.49982E+08         0.00000E+00
    0.00000E+00         0.00000E+00        -0.49116E+08
 
   -0.45670E+08         0.54518E+06         0.00000E+00
    0.54518E+06        -0.49976E+08         0.00000E+00
    0.00000E+00         0.00000E+00        -0.49116E+08
 
   -0.45739E+08         0.62198E+06         0.00000E+00
    0.62198E+06        -0.49968E+08         0.00000E+00
    0.00000E+00         0.00000E+00        -0.49116E+08
 
   -0.45810E+08         0.69709E+06         0.00000E+00
    0.69709E+06        -0.49960E+08         0.00000E+00
    0.00000E+00         0.00000E+00        -0.49116E+08
 
   -0.45881E+08         0.77055E+06         0.00000E+00
    0.77055E+06        -0.49950E+08         0.00000E+00
    0.00000E+00         0.00000E+00        -0.49116E+08
 
   -0.45953E+08         0.84240E+06         0.00000E+00
    0.84240E+06        -0.49940E+08         0.00000E+00
    0.00000E+00         0.00000E+00        -0.49116E+08
 
   -0.46026E+08         0.91269E+06         0.00000E+00
    0.91269E+06        -0.49929E+08         0.00000E+00
    0.00000E+00         0.00000E+00        -0.49116E+08
 
   -0.46099E+08         0.98144E+06         0.00000E+00
    0.98144E+06        -0.49917E+08         0.00000E+00
    0.00000E+00         0.00000E+00        -0.49116E+08
 
   -0.46173E+08         0.10487E+07         0.00000E+00
    0.10487E+07        -0.49904E+08         0.00000E+00
    0.00000E+00         0.00000E+00        -0.49116E+08
 
   -0.46248E+08         0.11145E+07         0.00000E+00
    0.11145E+07        -0.49890E+08         0.00000E+00
    0.00000E+00         0.00000E+00        -0.49116E+08
 
   -0.46323E+08         0.11789E+07         0.00000E+00
    0.11789E+07        -0.49876E+08         0.00000E+00
    0.00000E+00         0.00000E+00        -0.49116E+08
 
   -0.46398E+08         0.12420E+07         0.00000E+00
    0.12420E+07        -0.49861E+08         0.00000E+00
    0.00000E+00         0.00000E+00        -0.49116E+08
 
   -0.46474E+08         0.13036E+07         0.00000E+00
    0.13036E+07        -0.49845E+08         0.00000E+00
    0.00000E+00         0.00000E+00        -0.49116E+08
 
   -0.46551E+08         0.13640E+07         0.00000E+00
    0.13640E+07        -0.49828E+08         0.00000E+00
    0.00000E+00         0.00000E+00        -0.49116E+08
 
   -0.46628E+08         0.14231E+07         0.00000E+00
    0.14231E+07        -0.49810E+08         0.00000E+00
    0.00000E+00         0.00000E+00        -0.49116E+08
 
   -0.46705E+08         0.14810E+07         0.00000E+00
    0.14810E+07        -0.49792E+08         0.00000E+00
    0.00000E+00         0.00000E+00        -0.49116E+08
 
   -0.46783E+08         0.15377E+07         0.00000E+00
    0.15377E+07        -0.49773E+08         0.00000E+00
    0.00000E+00         0.00000E+00        -0.49116E+08
 
   -0.46860E+08         0.15932E+07         0.00000E+00
    0.15932E+07        -0.49753E+08         0.00000E+00
    0.00000E+00         0.00000E+00        -0.49116E+08
 
   -0.46939E+08         0.16476E+07         0.00000E+00
    0.16476E+07        -0.49733E+08         0.00000E+00
    0.00000E+00         0.00000E+00        -0.49116E+08
 
   -0.47017E+08         0.17008E+07         0.00000E+00
    0.17008E+07        -0.49712E+08         0.00000E+00
    0.00000E+00         0.00000E+00        -0.49116E+08
 
   -0.47096E+08         0.17530E+07         0.00000E+00
    0.17530E+07        -0.49690E+08         0.00000E+00
    0.00000E+00         0.00000E+00        -0.49116E+08
 
   -0.47175E+08         0.18041E+07         0.00000E+00
    0.18041E+07        -0.49667E+08         0.00000E+00
    0.00000E+00         0.00000E+00        -0.49116E+08
 
   -0.47255E+08         0.18542E+07         0.00000E+00
    0.18542E+07        -0.49643E+08         0.00000E+00
    0.00000E+00         0.00000E+00        -0.49116E+08
 
   -0.47334E+08         0.19033E+07         0.00000E+00
    0.19033E+07        -0.49619E+08         0.00000E+00
    0.00000E+00         0.00000E+00        -0.49116E+08
 
   -0.47414E+08         0.19513E+07         0.00000E+00
    0.19513E+07        -0.49594E+08         0.00000E+00
    0.00000E+00         0.00000E+00        -0.49116E+08
 
   -0.47494E+08         0.19984E+07         0.00000E+00
    0.19984E+07        -0.49568E+08         0.00000E+00
    0.00000E+00         0.00000E+00        -0.49116E+08
 
   -0.47575E+08         0.20446E+07         0.00000E+00
    0.20446E+07        -0.49541E+08         0.00000E+00
    0.00000E+00         0.00000E+00        -0.49116E+08
 
   -0.47655E+08         0.20898E+07         0.00000E+00
    0.20898E+07        -0.49514E+08         0.00000E+00
    0.00000E+00         0.00000E+00        -0.49116E+08
 
   -0.47736E+08         0.21341E+07         0.00000E+00
    0.21341E+07        -0.49486E+08         0.00000E+00
    0.00000E+00         0.00000E+00        -0.49116E+08
 
   -0.47818E+08         0.21775E+07         0.00000E+00
    0.21775E+07        -0.49457E+08         0.00000E+00
    0.00000E+00         0.00000E+00        -0.49116E+08
 
   -0.47899E+08         0.22201E+07         0.00000E+00
    0.22201E+07        -0.49427E+08         0.00000E+00
    0.00000E+00         0.00000E+00        -0.49116E+08
 
   -0.47981E+08         0.22617E+07         0.00000E+00
    0.22617E+07        -0.49396E+08         0.00000E+00
    0.00000E+00         0.00000E+00        -0.49116E+08
 
   -0.48063E+08         0.23025E+07         0.00000E+00
    0.23025E+07        -0.49365E+08         0.00000E+00
    0.00000E+00         0.00000E+00        -0.49116E+08
 
   -0.48145E+08         0.23424E+07         0.00000E+00
    0.23424E+07        -0.49332E+08         0.00000E+00
    0.00000E+00         0.00000E+00        -0.49116E+08
 
   -0.48228E+08         0.23815E+07         0.00000E+00
    0.23815E+07        -0.49299E+08         0.00000E+00
    0.00000E+00         0.00000E+00        -0.49116E+08
 
   -0.48311E+08         0.24197E+07         0.00000E+00
    0.24197E+07        -0.49265E+08         0.00000E+00
    0.00000E+00         0.00000E+00        -0.49116E+08
 
   -0.48394E+08         0.24571E+07         0.00000E+00
    0.24571E+07        -0.49230E+08         0.00000E+00
    0.00000E+00         0.00000E+00        -0.49116E+08
 
   -0.48478E+08         0.24937E+07         0.00000E+00
    0.24937E+07        -0.49194E+08         0.00000E+00
    0.00000E+00         0.00000E+00        -0.49116E+08
 
   -0.48562E+08         0.25295E+07         0.00000E+00
    0.25295E+07        -0.49158E+08         0.00000E+00
    0.00000E+00         0.00000E+00        -0.49116E+08
 
   -0.48646E+08         0.25644E+07         0.00000E+00
    0.25644E+07        -0.49120E+08         0.00000E+00
    0.00000E+00         0.00000E+00        -0.49116E+08
 
   -0.48731E+08         0.25985E+07         0.00000E+00
    0.25985E+07        -0.49081E+08         0.00000E+00
    0.00000E+00         0.00000E+00        -0.49116E+08
 
   -0.48816E+08         0.26317E+07         0.00000E+00
    0.26317E+07        -0.49042E+08         0.00000E+00
    0.00000E+00         0.00000E+00        -0.49116E+08
 
   -0.48901E+08         0.26642E+07         0.00000E+00
    0.26642E+07        -0.49001E+08         0.00000E+00
    0.00000E+00         0.00000E+00        -0.49116E+08
 
   -0.48987E+08         0.26958E+07         0.00000E+00
    0.26958E+07        -0.48960E+08         0.00000E+00
    0.00000E+00         0.00000E+00        -0.49116E+08
 
   -0.49073E+08         0.27266E+07         0.00000E+00
    0.27266E+07        -0.48918E+08         0.00000E+00
    0.00000E+00         0.00000E+00        -0.49116E+08
 
   -0.44816E+08         0.49862E+05         0.00000E+00
    0.49862E+05        -0.50000E+08         0.00000E+00
    0.00000E+00         0.00000E+00        -0.48953E+08
 
   -0.44889E+08         0.14345E+06         0.00000E+00
    0.14345E+06        -0.49999E+08         0.00000E+00
    0.00000E+00         0.00000E+00        -0.48953E+08
 
   -0.44963E+08         0.23488E+06         0.00000E+00
    0.23488E+06        -0.49996E+08         0.00000E+00
    0.00000E+00         0.00000E+00        -0.48953E+08
 
   -0.45038E+08         0.32421E+06         0.00000E+00
    0.32421E+06        -0.49993E+08         0.00000E+00
    0.00000E+00         0.00000E+00        -0.48953E+08
 
   -0.45114E+08         0.41148E+06         0.00000E+00
    0.41148E+06        -0.49988E+08         0.00000E+00
    0.00000E+00         0.00000E+00        -0.48953E+08
 
   -0.45191E+08         0.49676E+06         0.00000E+00
    0.49676E+06        -0.49983E+08         0.00000E+00
    0.00000E+00         0.00000E+00        -0.48953E+08
 
   -0.45269E+08         0.58011E+06         0.00000E+00
    0.58011E+06        -0.49977E+08         0.00000E+00
    0.00000E+00         0.00000E+00        -0.48953E+08
 
   -0.45348E+08         0.66157E+06         0.00000E+00
    0.66157E+06        -0.49969E+08         0.00000E+00
    0.00000E+00         0.00000E+00        -0.48953E+08
 
   -0.45427E+08         0.74120E+06         0.00000E+00
    0.74120E+06        -0.49961E+08         0.00000E+00
    0.00000E+00         0.00000E+00        -0.48953E+08
 
   -0.45507E+08         0.81906E+06         0.00000E+00
    0.81906E+06        -0.49952E+08         0.00000E+00
    0.00000E+00         0.00000E+00        -0.48953E+08
 
   -0.45587E+08         0.89520E+06         0.00000E+00
    0.89520E+06        -0.49942E+08         0.00000E+00
    0.00000E+00         0.00000E+00        -0.48953E+08
 
   -0.45668E+08         0.96967E+06         0.00000E+00
    0.96967E+06        -0.49931E+08         0.00000E+00
    0.00000E+00         0.00000E+00        -0.48953E+08
 
   -0.45749E+08         0.10425E+07         0.00000E+00
    0.10425E+07        -0.49920E+08         0.00000E+00
    0.00000E+00         0.00000E+00        -0.48953E+08
 
   -0.45830E+08         0.11138E+07         0.00000E+00
    0.11138E+07        -0.49907E+08         0.00000E+00
    0.00000E+00         0.00000E+00        -0.48953E+08
 
   -0.45912E+08         0.11836E+07         0.00000E+00
    0.11836E+07        -0.49894E+08         0.00000E+00
    0.00000E+00         0.00000E+00        -0.48953E+08
 
   -0.45994E+08         0.12519E+07         0.00000E+00
    0.12519E+07        -0.49880E+08         0.00000E+00
    0.00000E+00         0.00000E+00        -0.48953E+08
 
   -0.46077E+08         0.13188E+07         0.00000E+00
    0.13188E+07        -0.49866E+08         0.00000E+00
    0.00000E+00         0.00000E+00        -0.48953E+08
 
   -0.46160E+08         0.13843E+07         0.00000E+00
    0.13843E+07        -0.49850E+08         0.00000E+00
    0.00000E+00         0.00000E+00        -0.48953E+08
 
   -0.46242E+08         0.14485E+07         0.00000E+00
    0.14485E+07        -0.49834E+08         0.00000E+00
    0.00000E+00         0.00000E+00        -0.48953E+08
 
   -0.46326E+08         0.15114E+07         0.00000E+00
    0.15114E+07        -0.49817E+08         0.00000E+00
    0.00000E+00         0.00000E+00        -0.48953E+08
 
   -0.46409E+08         0.15731E+07         0.00000E+00
    0.15731E+07        -0.49799E+08         0.00000E+00
    0.00000E+00         0.00000E+00        -0.48953E+08
 
   -0.46492E+08         0.16336E+07         0.00000E+00
    0.16336E+07        -0.49781E+08         0.00000E+00
    0.00000E+00         0.00000E+00        -0.48953E+08
 
   -0.46576E+08         0.16929E+07         0.00000E+00
    0.16929E+07        -0.49762E+08         0.00000E+00
    0.00000E+00         0.00000E+00        -0.48953E+08
 
   -0.46660E+08         0.17511E+07         0.00000E+00
    0.17511E+07        -0.49741E+08         0.00000E+00
    0.00000E+00         0.00000E+00        -0.48953E+08
 
   -0.46744E+08         0.18081E+07         0.00000E+00
    0.18081E+07        -0.49721E+08         0.00000E+00
    0.00000E+00         0.00000E+00        -0.48953E+08
 
   -0.46828E+08         0.18642E+07         0.00000E+00
    0.18642E+07        -0.49699E+08         0.00000E+00
    0.00000E+00         0.00000E+00        -0.48953E+08
 
   -0.46912E+08         0.19192E+07         0.00000E+00
    0.19192E+07        -0.49677E+08         0.00000E+00
    0.00000E+00         0.00000E+00        -0.48953E+08
 
   -0.46997E+08         0.19732E+07         0.00000E+00
    0.19732E+07        -0.49654E+08         0.00000E+00
    0.00000E+00         0.00000E+00        -0.48953E+08
 
   -0.47081E+08         0.20262E+07         0.00000E+00
    0.20262E+07        -0.49630E+08         0.00000E+00
    0.00000E+00         0.00000E+00        -0.48953E+08
 
   -0.47166E+08         0.20783E+07         0.00000E+00
    0.20783E+07        -0.49605E+08         0.00000E+00
    0.00000E+00         0.00000E+00        -0.48953E+08
 
   -0.47251E+08         0.21294E+07         0.00000E+00
    0.21294E+07        -0.49579E+08         0.00000E+00
    0.00000E+00         0.00000E+00        -0.48953E+08
 
   -0.47336E+08         0.21797E+07         0.00000E+00
    0.21797E+07        -0.49553E+08         0.00000E+00
    0.00000E+00         0.00000E+00        -0.48953E+08
 
   -0.47421E+08         0.22290E+07         0.00000E+00
    0.22290E+07        -0.49525E+08         0.00000E+00
    0.00000E+00         0.00000E+00        -0.48953E+08
 
   -0.47507E+08         0.22776E+07         0.00000E+00
    0.22776E+07        -0.49497E+08         0.00000E+00
    0.00000E+00         0.00000E+00        -0.48953E+08
 
   -0.47592E+08         0.23252E+07         0.00000E+00
    0.23252E+07        -0.49468E+08         0.00000E+00
    0.00000E+00         0.00000E+00        -0.48953E+08
 
   -0.47678E+08         0.23721E+07         0.00000E+00
    0.23721E+07        -0.49438E+08         0.00000E+00
    0.00000E+00         0.00000E+00        -0.48953E+08
 
   -0.47764E+08         0.24181E+07         0.00000E+00
    0.24181E+07        -0.49407E+08         0.00000E+00
    0.00000E+00         0.00000E+00        -0.48953E+08
 
   -0.47850E+08         0.24633E+07         0.00000E+00
    0.24633E+07        -0.49375E+08         0.00000E+00
    0.00000E+00         0.00000E+00        -0.48953E+08
 
   -0.47936E+08         0.25078E+07         0.00000E+00
    0.25078E+07        -0.49342E+08         0.00000E+00
    0.00000E+00         0.00000E+00        -0.48953E+08
 
   -0.48023E+08         0.25514E+07         0.00000E+00
    0.25514E+07        -0.49308E+08         0.00000E+00
    0.00000E+00         0.00000E+00        -0.48953E+08
 
   -0.48110E+08         0.25943E+07         0.00000E+00
    0.25943E+07        -0.49274E+08         0.00000E+00
    0.00000E+00         0.00000E+00        -0.48953E+08
 
   -0.48197E+08         0.26364E+07         0.00000E+00
    0.26364E+07        -0.49238E+08         0.00000E+00
    0.00000E+00         0.00000E+00        -0.48953E+08
 
   -0.48285E+08         0.26777E+07         0.00000E+00
    0.26777E+07        -0.49201E+08         0.00000E+00
    0.00000E+00         0.00000E+00        -0.48953E+08
 
   -0.48373E+08         0.27183E+07         0.00000E+00
    0.27183E+07        -0.49163E+08         0.00000E+00
    0.00000E+00         0.00000E+00        -0.48953E+08
 
   -0.48461E+08         0.27581E+07         0.00000E+00
    0.27581E+07        -0.49124E+08         0.00000E+00
    0.00000E+00         0.00000E+00        -0.48953E+08
 
   -0.48550E+08         0.27971E+07         0.00000E+00
    0.27971E+07        -0.49085E+08         0.00000E+00
    0.00000E+00         0.00000E+00        -0.48953E+08
 
   -0.48639E+08         0.28354E+07         0.00000E+00
    0.28354E+07        -0.49044E+08         0.00000E+00
    0.00000E+00         0.00000E+00        -0.48953E+08
 
   -0.48728E+08         0.28728E+07         0.00000E+00
    0.28728E+07        -0.49002E+08         0.00000E+00
    0.00000E+00         0.00000E+00        -0.48953E+08
 
   -0.48818E+08         0.29096E+07         0.00000E+00
    0.29096E+07        -0.48959E+08         0.00000E+00
    0.00000E+00         0.00000E+00        -0.48953E+08
 
   -0.48908E+08         0.29455E+07         0.00000E+00
    0.29455E+07        -0.48914E+08         0.00000E+00
    0.00000E+00         0.00000E+00        -0.48953E+08
 
   -0.44328E+08         0.52984E+05         0.00000E+00
    0.52984E+05        -0.50000E+08         0.00000E+00
    0.00000E+00         0.00000E+00        -0.48762E+08
 
   -0.44413E+08         0.15210E+06         0.00000E+00
    0.15210E+06        -0.49999E+08         0.00000E+00
    0.00000E+00         0.00000E+00        -0.48762E+08
 
   -0.44498E+08         0.24882E+06         0.00000E+00
    0.24882E+06        -0.49996E+08         0.00000E+00
    0.00000E+00         0.00000E+00        -0.48762E+08
 
   -0.44584E+08         0.34322E+06         0.00000E+00
    0.34322E+06        -0.49993E+08         0.00000E+00
    0.00000E+00         0.00000E+00        -0.48762E+08
 
   -0.44671E+08         0.43538E+06         0.00000E+00
    0.43538E+06        -0.49989E+08         0.00000E+00
    0.00000E+00         0.00000E+00        -0.48762E+08
 
   -0.44758E+08         0.52536E+06         0.00000E+00
    0.52536E+06        -0.49984E+08         0.00000E+00
    0.00000E+00         0.00000E+00        -0.48762E+08
 
   -0.44846E+08         0.61325E+06         0.00000E+00
    0.61325E+06        -0.49978E+08         0.00000E+00
    0.00000E+00         0.00000E+00        -0.48762E+08
 
   -0.44934E+08         0.69911E+06         0.00000E+00
    0.69911E+06        -0.49971E+08         0.00000E+00
    0.00000E+00         0.00000E+00        -0.48762E+08
 
   -0.45022E+08         0.78302E+06         0.00000E+00
    0.78302E+06        -0.49964E+08         0.00000E+00
    0.00000E+00         0.00000E+00        -0.48762E+08
 
   -0.45111E+08         0.86504E+06         0.00000E+00
    0.86504E+06        -0.49955E+08         0.00000E+00
    0.00000E+00         0.00000E+00        -0.48762E+08
 
   -0.45200E+08         0.94525E+06         0.00000E+00
    0.94525E+06        -0.49946E+08         0.00000E+00
    0.00000E+00         0.00000E+00        -0.48762E+08
 
   -0.45289E+08         0.10237E+07         0.00000E+00
    0.10237E+07        -0.49936E+08         0.00000E+00
    0.00000E+00         0.00000E+00        -0.48762E+08
 
   -0.45378E+08         0.11005E+07         0.00000E+00
    0.11005E+07        -0.49925E+08         0.00000E+00
    0.00000E+00         0.00000E+00        -0.48762E+08
 
   -0.45468E+08         0.11756E+07         0.00000E+00
    0.11756E+07        -0.49914E+08         0.00000E+00
    0.00000E+00         0.00000E+00        -0.48762E+08
 
   -0.45557E+08         0.12492E+07         0.00000E+00
    0.12492E+07        -0.49901E+08         0.00000E+00
    0.00000E+00         0.00000E+00        -0.48762E+08
 
   -0.45647E+08         0.13214E+07         0.00000E+00
    0.13214E+07        -0.49888E+08         0.00000E+00
    0.00000E+00         0.00000E+00        -0.48762E+08
 
   -0.45736E+08         0.13920E+07         0.00000E+00
    0.13920E+07        -0.49875E+08         0.00000E+00
    0.00000E+00         0.00000E+00        -0.48762E+08
 
   -0.45826E+08         0.14613E+07         0.00000E+00
    0.14613E+07        -0.49860E+08         0.00000E+00
    0.00000E+00         0.00000E+00        -0.48762E+08
 
   -0.45915E+08         0.15293E+07         0.00000E+00
    0.15293E+07        -0.49845E+08         0.00000E+00
    0.00000E+00         0.00000E+00        -0.48762E+08
 
   -0.46004E+08         0.15960E+07         0.00000E+00
    0.15960E+07        -0.49829E+08         0.00000E+00
    0.00000E+00         0.00000E+00        -0.48762E+08
 
   -0.46094E+08         0.16615E+07         0.00000E+00
    0.16615E+07        -0.49812E+08         0.00000E+00
    0.00000E+00         0.00000E+00        -0.48762E+08
 
   -0.46183E+08         0.17258E+07         0.00000E+00
    0.17258E+07        -0.49795E+08         0.00000E+00
    0.00000E+00         0.00000E+00        -0.48762E+08
 
   -0.46273E+08         0.17889E+07         0.00000E+00
    0.17889E+07        -0.49776E+08         0.00000E+00
    0.00000E+00         0.00000E+00        -0.48762E+08
 
   -0.46362E+08         0.18510E+07         0.00000E+00
    0.18510E+07        -0.49757E+08         0.00000E+00
    0.00000E+00         0.00000E+00        -0.48762E+08
 
   -0.46451E+08         0.19121E+07         0.00000E+00
    0.19121E+07        -0.49737E+08         0.00000E+00
    0.00000E+00         0.00000E+00        -0.48762E+08
 
   -0.46540E+08         0.19721E+07         0.00000E+00
    0.19721E+07        -0.49717E+08         0.00000E+00
    0.00000E+00         0.00000E+00        -0.48762E+08
 
   -0.46629E+08         0.20312E+07         0.00000E+00
    0.20312E+07        -0.49695E+08         0.00000E+00
    0.00000E+00         0.00000E+00        -0.48762E+08
 
   -0.46719E+08         0.20893E+07         0.00000E+00
    0.20893E+07        -0.49673E+08         0.00000E+00
    0.00000E+00         0.00000E+00        -0.48762E+08
 
   -0.46808E+08         0.21466E+07         0.00000E+00
    0.21466E+07        -0.49650E+08         0.00000E+00
    0.00000E+00         0.00000E+00        -0.48762E+08
 
   -0.46897E+08         0.22029E+07         0.00000E+00
    0.22029E+07        -0.49625E+08         0.00000E+00
    0.00000E+00         0.00000E+00        -0.48762E+08
 
   -0.46986E+08         0.22585E+07         0.00000E+00
    0.22585E+07        -0.49600E+08         0.00000E+00
    0.00000E+00         0.00000E+00        -0.48762E+08
 
   -0.47076E+08         0.23132E+07         0.00000E+00
    0.23132E+07        -0.49575E+08         0.00000E+00
    0.00000E+00         0.00000E+00        -0.48762E+08
 
   -0.47165E+08         0.23671E+07         0.00000E+00
    0.23671E+07        -0.49548E+08         0.00000E+00
    0.00000E+00         0.00000E+00        -0.48762E+08
 
   -0.47254E+08         0.24202E+07         0.00000E+00
    0.24202E+07        -0.49520E+08         0.00000E+00
    0.00000E+00         0.00000E+00        -0.48762E+08
 
   -0.47344E+08         0.24726E+07         0.00000E+00
    0.24726E+07        -0.49491E+08         0.00000E+00
    0.00000E+00         0.00000E+00        -0.48762E+08
 
   -0.47433E+08         0.25242E+07         0.00000E+00
    0.25242E+07        -0.49461E+08         0.00000E+00
    0.00000E+00         0.00000E+00        -0.48762E+08
 
   -0.47523E+08         0.25751E+07         0.00000E+00
    0.25751E+07        -0.49430E+08         0.00000E+00
    0.00000E+00         0.00000E+00        -0.48762E+08
 
   -0.47613E+08         0.26253E+07         0.00000E+00
    0.26253E+07        -0.49399E+08         0.00000E+00
    0.00000E+00         0.00000E+00        -0.48762E+08
 
   -0.47703E+08         0.26748E+07         0.00000E+00
    0.26748E+07        -0.49366E+08         0.00000E+00
    0.00000E+00         0.00000E+00        -0.48762E+08
 
   -0.47794E+08         0.27236E+07         0.00000E+00
    0.27236E+07        -0.49332E+08         0.00000E+00
    0.00000E+00         0.00000E+00        -0.48762E+08
 
   -0.47884E+08         0.27717E+07         0.00000E+00
    0.27717E+07        -0.49297E+08         0.00000E+00
    0.00000E+00         0.00000E+00        -0.48762E+08
 
   -0.47975E+08         0.28191E+07         0.00000E+00
    0.28191E+07        -0.49260E+08         0.00000E+00
    0.00000E+00         0.00000E+00        -0.48762E+08
 
   -0.48067E+08         0.28659E+07         0.00000E+00
    0.28659E+07        -0.49223E+08         0.00000E+00
    0.00000E+00         0.00000E+00        -0.48762E+08
 
   -0.48158E+08         0.29120E+07         0.00000E+00
    0.29120E+07        -0.49184E+08         0.00000E+00
    0.00000E+00         0.00000E+00        -0.48762E+08
 
   -0.48250E+08         0.29573E+07         0.00000E+00
    0.29573E+07        -0.49145E+08         0.00000E+00
    0.00000E+00         0.00000E+00        -0.48762E+08
 
   -0.48342E+08         0.30020E+07         0.00000E+00
    0.30020E+07        -0.49104E+08         0.00000E+00
    0.00000E+00         0.00000E+00        -0.48762E+08
 
   -0.48435E+08         0.30460E+07         0.00000E+00
    0.30460E+07        -0.49062E+08         0.00000E+00
    0.00000E+00         0.00000E+00        -0.48762E+08
 
   -0.48528E+08         0.30894E+07         0.00000E+00
    0.30894E+07        -0.49018E+08         0.00000E+00
    0.00000E+00         0.00000E+00        -0.48762E+08
 
   -0.48621E+08         0.31320E+07         0.00000E+00
    0.31320E+07        -0.48974E+08         0.00000E+00
    0.00000E+00         0.00000E+00        -0.48762E+08
 
   -0.48715E+08         0.31739E+07         0.00000E+00
    0.31739E+07        -0.48928E+08         0.00000E+00
    0.00000E+00         0.00000E+00        -0.48762E+08
 
   -0.43813E+08         0.55874E+05         0.00000E+00
    0.55874E+05        -0.50000E+08         0.00000E+00
    0.00000E+00         0.00000E+00        -0.48539E+08
 
   -0.43910E+08         0.16004E+06         0.00000E+00
    0.16004E+06        -0.49999E+08         0.00000E+00
    0.00000E+00         0.00000E+00        -0.48539E+08
 
   -0.44008E+08         0.26159E+06         0.00000E+00
    0.26159E+06        -0.49997E+08         0.00000E+00
    0.00000E+00         0.00000E+00        -0.48539E+08
 
   -0.44106E+08         0.36060E+06         0.00000E+00
    0.36060E+06        -0.49994E+08         0.00000E+00
    0.00000E+00         0.00000E+00        -0.48539E+08
 
   -0.44204E+08         0.45719E+06         0.00000E+00
    0.45719E+06        -0.49990E+08         0.00000E+00
    0.00000E+00         0.00000E+00        -0.48539E+08
 
   -0.44303E+08         0.55143E+06         0.00000E+00
    0.55143E+06        -0.49986E+08         0.00000E+00
    0.00000E+00         0.00000E+00        -0.48539E+08
 
   -0.44401E+08         0.64344E+06         0.00000E+00
    0.64344E+06        -0.49981E+08         0.00000E+00
    0.00000E+00         0.00000E+00        -0.48539E+08
 
   -0.44499E+08         0.73329E+06         0.00000E+00
    0.73329E+06        -0.49975E+08         0.00000E+00
    0.00000E+00         0.00000E+00        -0.48539E+08
 
   -0.44598E+08         0.82108E+06         0.00000E+00
    0.82108E+06        -0.49968E+08         0.00000E+00
    0.00000E+00         0.00000E+00        -0.48539E+08
 
   -0.44696E+08         0.90690E+06         0.00000E+00
    0.90690E+06        -0.49960E+08         0.00000E+00
    0.00000E+00         0.00000E+00        -0.48539E+08
 
   -0.44794E+08         0.99083E+06         0.00000E+00
    0.99083E+06        -0.49952E+08         0.00000E+00
    0.00000E+00         0.00000E+00        -0.48539E+08
 
   -0.44892E+08         0.10730E+07         0.00000E+00
    0.10730E+07        -0.49943E+08         0.00000E+00
    0.00000E+00         0.00000E+00        -0.48539E+08
 
   -0.44989E+08         0.11534E+07         0.00000E+00
    0.11534E+07        -0.49934E+08         0.00000E+00
    0.00000E+00         0.00000E+00        -0.48539E+08
 
   -0.45087E+08         0.12321E+07         0.00000E+00
    0.12321E+07        -0.49923E+08         0.00000E+00
    0.00000E+00         0.00000E+00        -0.48539E+08
 
   -0.45184E+08         0.13093E+07         0.00000E+00
    0.13093E+07        -0.49912E+08         0.00000E+00
    0.00000E+00         0.00000E+00        -0.48539E+08
 
   -0.45280E+08         0.13850E+07         0.00000E+00
    0.13850E+07        -0.49901E+08         0.00000E+00
    0.00000E+00         0.00000E+00        -0.48539E+08
 
   -0.45377E+08         0.14593E+07         0.00000E+00
    0.14593E+07        -0.49888E+08         0.00000E+00
    0.00000E+00         0.00000E+00        -0.48539E+08
 
   -0.45473E+08         0.15323E+07         0.00000E+00
    0.15323E+07        -0.49875E+08         0.00000E+00
    0.00000E+00         0.00000E+00        -0.48539E+08
 
   -0.45569E+08         0.16039E+07         0.00000E+00
    0.16039E+07        -0.49862E+08         0.00000E+00
    0.00000E+00         0.00000E+00        -0.48539E+08
 
   -0.45664E+08         0.16743E+07         0.00000E+00
    0.16743E+07        -0.49847E+08         0.00000E+00
    0.00000E+00         0.00000E+00        -0.48539E+08
 
   -0.45760E+08         0.17436E+07         0.00000E+00
    0.17436E+07        -0.49832E+08         0.00000E+00
    0.00000E+00         0.00000E+00        -0.48539E+08
 
   -0.45855E+08         0.18117E+07         0.00000E+00
    0.18117E+07        -0.49816E+08         0.00000E+00
    0.00000E+00         0.00000E+00        -0.48539E+08
 
   -0.45949E+08         0.18788E+07         0.00000E+00
    0.18788E+07        -0.49799E+08         0.00000E+00
    0.00000E+00         0.00000E+00        -0.48539E+08
 
   -0.46044E+08         0.19449E+07         0.00000E+00
    0.19449E+07        -0.49782E+08         0.00000E+00
    0.00000E+00         0.00000E+00        -0.48539E+08
 
   -0.46138E+08         0.20101E+07         0.00000E+00
    0.20101E+07        -0.49763E+08         0.00000E+00
    0.00000E+00         0.00000E+00        -0.48539E+08
 
   -0.46232E+08         0.20743E+07         0.00000E+00
    0.20743E+07        -0.49744E+08         0.00000E+00
    0.00000E+00         0.00000E+00        -0.48539E+08
 
   -0.46325E+08         0.21377E+07         0.00000E+00
    0.21377E+07        -0.49724E+08         0.00000E+00
    0.00000E+00         0.00000E+00        -0.48539E+08
 
   -0.46419E+08         0.22002E+07         0.00000E+00
    0.22002E+07        -0.49703E+08         0.00000E+00
    0.00000E+00         0.00000E+00        -0.48539E+08
 
   -0.46512E+08         0.22619E+07         0.00000E+00
    0.22619E+07        -0.49681E+08         0.00000E+00
    0.00000E+00         0.00000E+00        -0.48539E+08
 
   -0.46606E+08         0.23229E+07         0.00000E+00
    0.23229E+07        -0.49658E+08         0.00000E+00
    0.00000E+00         0.00000E+00        -0.48539E+08
 
   -0.46699E+08         0.23832E+07         0.00000E+00
    0.23832E+07        -0.49634E+08         0.00000E+00
    0.00000E+00         0.00000E+00        -0.48539E+08
 
   -0.46792E+08         0.24427E+07         0.00000E+00
    0.24427E+07        -0.49609E+08         0.00000E+00
    0.00000E+00         0.00000E+00        -0.48539E+08
 
   -0.46885E+08         0.25016E+07         0.00000E+00
    0.25016E+07        -0.49583E+08         0.00000E+00
    0.00000E+00         0.00000E+00        -0.48539E+08
 
   -0.46978E+08         0.25598E+07         0.00000E+00
    0.25598E+07        -0.49557E+08         0.00000E+00
    0.00000E+00         0.00000E+00        -0.48539E+08
 
   -0.47071E+08         0.26174E+07         0.00000E+00
    0.26174E+07        -0.49529E+08         0.00000E+00
    0.00000E+00         0.00000E+00        -0.48539E+08
 
   -0.47164E+08         0.26743E+07         0.00000E+00
    0.26743E+07        -0.49499E+08         0.00000E+00
    0.00000E+00         0.00000E+00        -0.48539E+08
 
   -0.47257E+08         0.27307E+07         0.00000E+00
    0.27307E+07        -0.49469E+08         0.00000E+00
    0.00000E+00         0.00000E+00        -0.48539E+08
 
   -0.47350E+08         0.27864E+07         0.00000E+00
    0.27864E+07        -0.49438E+08         0.00000E+00
    0.00000E+00         0.00000E+00        -0.48539E+08
 
   -0.47443E+08         0.28416E+07         0.00000E+00
    0.28416E+07        -0.49405E+08         0.00000E+00
    0.00000E+00         0.00000E+00        -0.48539E+08
 
   -0.47537E+08         0.28962E+07         0.00000E+00
    0.28962E+07        -0.49371E+08         0.00000E+00
    0.00000E+00         0.00000E+00        -0.48539E+08
 
   -0.47631E+08         0.29503E+07         0.00000E+00
    0.29503E+07        -0.49336E+08         0.00000E+00
    0.00000E+00         0.00000E+00        -0.48539E+08
 
   -0.47725E+08         0.30037E+07         0.00000E+00
    0.30037E+07        -0.49300E+08         0.00000E+00
    0.00000E+00         0.00000E+00        -0.48539E+08
 
   -0.47819E+08         0.30566E+07         0.00000E+00
    0.30566E+07        -0.49262E+08         0.00000E+00
    0.00000E+00         0.00000E+00        -0.48539E+08
 
   -0.47914E+08         0.31090E+07         0.00000E+00
    0.31090E+07        -0.49224E+08         0.00000E+00
    0.00000E+00         0.00000E+00        -0.48539E+08
 
   -0.48009E+08         0.31608E+07         0.00000E+00
    0.31608E+07        -0.49183E+08         0.00000E+00
    0.00000E+00         0.00000E+00        -0.48539E+08
 
   -0.48104E+08         0.32119E+07         0.00000E+00
    0.32119E+07        -0.49142E+08         0.00000E+00
    0.00000E+00         0.00000E+00        -0.48539E+08
 
   -0.48200E+08         0.32625E+07         0.00000E+00
    0.32625E+07        -0.49098E+08         0.00000E+00
    0.00000E+00         0.00000E+00        -0.48539E+08
 
   -0.48296E+08         0.33126E+07         0.00000E+00
    0.33126E+07        -0.49054E+08         0.00000E+00
    0.00000E+00         0.00000E+00        -0.48539E+08
 
   -0.48393E+08         0.33620E+07         0.00000E+00
    0.33620E+07        -0.49008E+08         0.00000E+00
    0.00000E+00         0.00000E+00        -0.48539E+08
 
   -0.48490E+08         0.34108E+07         0.00000E+00
    0.34108E+07        -0.48961E+08         0.00000E+00
    0.00000E+00         0.00000E+00        -0.48539E+08
 
   -0.43273E+08         0.58401E+05         0.00000E+00
    0.58401E+05        -0.50000E+08         0.00000E+00
    0.00000E+00         0.00000E+00        -0.48278E+08
 
   -0.43385E+08         0.16692E+06         0.00000E+00
    0.16692E+06        -0.49999E+08         0.00000E+00
    0.00000E+00         0.00000E+00        -0.48278E+08
 
   -0.43496E+08         0.27259E+06         0.00000E+00
    0.27259E+06        -0.49997E+08         0.00000E+00
    0.00000E+00         0.00000E+00        -0.48278E+08
 
   -0.43607E+08         0.37554E+06         0.00000E+00
    0.37554E+06        -0.49995E+08         0.00000E+00
    0.00000E+00         0.00000E+00        -0.48278E+08
 
   -0.43717E+08         0.47589E+06         0.00000E+00
    0.47589E+06        -0.49992E+08         0.00000E+00
    0.00000E+00         0.00000E+00        -0.48278E+08
 
   -0.43828E+08         0.57376E+06         0.00000E+00
    0.57376E+06        -0.49988E+08         0.00000E+00
    0.00000E+00         0.00000E+00        -0.48278E+08
 
   -0.43937E+08         0.66926E+06         0.00000E+00
    0.66926E+06        -0.49984E+08         0.00000E+00
    0.00000E+00         0.00000E+00        -0.48278E+08
 
   -0.44046E+08         0.76252E+06         0.00000E+00
    0.76252E+06        -0.49979E+08         0.00000E+00
    0.00000E+00         0.00000E+00        -0.48278E+08
 
   -0.44155E+08         0.85364E+06         0.00000E+00
    0.85364E+06        -0.49974E+08         0.00000E+00
    0.00000E+00         0.00000E+00        -0.48278E+08
 
   -0.44263E+08         0.94274E+06         0.00000E+00
    0.94274E+06        -0.49967E+08         0.00000E+00
    0.00000E+00         0.00000E+00        -0.48278E+08
 
   -0.44370E+08         0.10299E+07         0.00000E+00
    0.10299E+07        -0.49961E+08         0.00000E+00
    0.00000E+00         0.00000E+00        -0.48278E+08
 
   -0.44477E+08         0.11153E+07         0.00000E+00
    0.11153E+07        -0.49953E+08         0.00000E+00
    0.00000E+00         0.00000E+00        -0.48278E+08
 
   -0.44583E+08         0.11989E+07         0.00000E+00
    0.11989E+07        -0.49946E+08         0.00000E+00
    0.00000E+00         0.00000E+00        -0.48278E+08
 
   -0.44688E+08         0.12809E+07         0.00000E+00
    0.12809E+07        -0.49937E+08         0.00000E+00
    0.00000E+00         0.00000E+00        -0.48278E+08
 
   -0.44793E+08         0.13614E+07         0.00000E+00
    0.13614E+07        -0.49928E+08         0.00000E+00
    0.00000E+00         0.00000E+00        -0.48278E+08
 
   -0.44897E+08         0.14404E+07         0.00000E+00
    0.14404E+07        -0.49918E+08         0.00000E+00
    0.00000E+00         0.00000E+00        -0.48278E+08
 
   -0.45000E+08         0.15180E+07         0.00000E+00
    0.15180E+07        -0.49908E+08         0.00000E+00
    0.00000E+00         0.00000E+00        -0.48278E+08
 
   -0.45103E+08         0.15944E+07         0.00000E+00
    0.15944E+07        -0.49897E+08         0.00000E+00
    0.00000E+00         0.00000E+00        -0.48278E+08
 
   -0.45204E+08         0.16696E+07         0.00000E+00
    0.16696E+07        -0.49885E+08         0.00000E+00
    0.00000E+00         0.00000E+00        -0.48278E+08
 
   -0.45306E+08         0.17436E+07         0.00000E+00
    0.17436E+07        -0.49873E+08         0.00000E+00
    0.00000E+00         0.00000E+00        -0.48278E+08
 
   -0.45406E+08         0.18166E+07         0.00000E+00
    0.18166E+07        -0.49860E+08         0.00000E+00
    0.00000E+00         0.00000E+00        -0.48278E+08
 
   -0.45507E+08         0.18886E+07         0.00000E+00
    0.18886E+07        -0.49846E+08         0.00000E+00
    0.00000E+00         0.00000E+00        -0.48278E+08
 
   -0.45606E+08         0.19597E+07         0.00000E+00
    0.19597E+07        -0.49831E+08         0.00000E+00
    0.00000E+00         0.00000E+00        -0.48278E+08
 
   -0.45705E+08         0.20298E+07         0.00000E+00
    0.20298E+07        -0.49816E+08         0.00000E+00
    0.00000E+00         0.00000E+00        -0.48278E+08
 
   -0.45804E+08         0.20992E+07         0.00000E+00
    0.20992E+07        -0.49799E+08         0.00000E+00
    0.00000E+00         0.00000E+00        -0.48278E+08
 
   -0.45902E+08         0.21678E+07         0.00000E+00
    0.21678E+07        -0.49782E+08         0.00000E+00
    0.00000E+00         0.00000E+00        -0.48278E+08
 
   -0.45999E+08         0.22356E+07         0.00000E+00
    0.22356E+07        -0.49764E+08         0.00000E+00
    0.00000E+00         0.00000E+00        -0.48278E+08
 
   -0.46096E+08         0.23028E+07         0.00000E+00
    0.23028E+07        -0.49745E+08         0.00000E+00
    0.00000E+00         0.00000E+00        -0.48278E+08
 
   -0.46193E+08         0.23694E+07         0.00000E+00
    0.23694E+07        -0.49725E+08         0.00000E+00
    0.00000E+00         0.00000E+00        -0.48278E+08
 
   -0.46290E+08         0.24353E+07         0.00000E+00
    0.24353E+07        -0.49704E+08         0.00000E+00
    0.00000E+00         0.00000E+00        -0.48278E+08
 
   -0.46386E+08         0.25007E+07         0.00000E+00
    0.25007E+07        -0.49682E+08         0.00000E+00
    0.00000E+00         0.00000E+00        -0.48278E+08
 
   -0.46482E+08         0.25655E+07         0.00000E+00
    0.25655E+07        -0.49659E+08         0.00000E+00
    0.00000E+00         0.00000E+00        -0.48278E+08
 
   -0.46578E+08         0.26298E+07         0.00000E+00
    0.26298E+07        -0.49635E+08         0.00000E+00
    0.00000E+00         0.00000E+00        -0.48278E+08
 
   -0.46674E+08         0.26936E+07         0.00000E+00
    0.26936E+07        -0.49609E+08         0.00000E+00
    0.00000E+00         0.00000E+00        -0.48278E+08
 
   -0.46770E+08         0.27569E+07         0.00000E+00
    0.27569E+07        -0.49583E+08         0.00000E+00
    0.00000E+00         0.00000E+00        -0.48278E+08
 
   -0.46865E+08         0.28198E+07         0.00000E+00
    0.28198E+07        -0.49555E+08         0.00000E+00
    0.00000E+00         0.00000E+00        -0.48278E+08
 
   -0.46961E+08         0.28823E+07         0.00000E+00
    0.28823E+07        -0.49526E+08         0.00000E+00
    0.00000E+00         0.00000E+00        -0.48278E+08
 
   -0.47057E+08         0.29443E+07         0.00000E+00
    0.29443E+07        -0.49496E+08         0.00000E+00
    0.00000E+00         0.00000E+00        -0.48278E+08
 
   -0.47153E+08         0.30059E+07         0.00000E+00
    0.30059E+07        -0.49464E+08         0.00000E+00
    0.00000E+00         0.00000E+00        -0.48278E+08
 
   -0.47249E+08         0.30670E+07         0.00000E+00
    0.30670E+07        -0.49431E+08         0.00000E+00
    0.00000E+00         0.00000E+00        -0.48278E+08
 
   -0.47345E+08         0.31278E+07         0.00000E+00
    0.31278E+07        -0.49396E+08         0.00000E+00
    0.00000E+00         0.00000E+00        -0.48278E+08
 
   -0.47441E+08         0.31881E+07         0.00000E+00
    0.31881E+07        -0.49360E+08         0.00000E+00
    0.00000E+00         0.00000E+00        -0.48278E+08
 
   -0.47538E+08         0.32480E+07         0.00000E+00
    0.32480E+07        -0.49323E+08         0.00000E+00
    0.00000E+00         0.00000E+00        -0.48278E+08
 
   -0.47635E+08         0.33075E+07         0.00000E+00
    0.33075E+07        -0.49284E+08         0.00000E+00
    0.00000E+00         0.00000E+00        -0.48278E+08
 
   -0.47733E+08         0.33666E+07         0.00000E+00
    0.33666E+07        -0.49243E+08         0.00000E+00
    0.00000E+00         0.00000E+00        -0.48278E+08
 
   -0.47831E+08         0.34252E+07         0.00000E+00
    0.34252E+07        -0.49201E+08         0.00000E+00
    0.00000E+00         0.00000E+00        -0.48278E+08
 
   -0.47929E+08         0.34833E+07         0.00000E+00
    0.34833E+07        -0.49158E+08         0.00000E+00
    0.00000E+00         0.00000E+00        -0.48278E+08
 
   -0.48028E+08         0.35410E+07         0.00000E+00
    0.35410E+07        -0.49112E+08         0.00000E+00
    0.00000E+00         0.00000E+00        -0.48278E+08
 
   -0.48128E+08         0.35983E+07         0.00000E+00
    0.35983E+07        -0.49065E+08         0.00000E+00
    0.00000E+00         0.00000E+00        -0.48278E+08
 
   -0.48228E+08         0.36550E+07         0.00000E+00
    0.36550E+07        -0.49017E+08         0.00000E+00
    0.00000E+00         0.00000E+00        -0.48278E+08
 
   -0.42714E+08         0.60404E+05         0.00000E+00
    0.60404E+05        -0.50000E+08         0.00000E+00
    0.00000E+00         0.00000E+00        -0.47974E+08
 
   -0.42841E+08         0.17228E+06         0.00000E+00
    0.17228E+06        -0.49999E+08         0.00000E+00
    0.00000E+00         0.00000E+00        -0.47974E+08
 
   -0.42966E+08         0.28111E+06         0.00000E+00
    0.28111E+06        -0.49998E+08         0.00000E+00
    0.00000E+00         0.00000E+00        -0.47974E+08
 
   -0.43091E+08         0.38705E+06         0.00000E+00
    0.38705E+06        -0.49997E+08         0.00000E+00
    0.00000E+00         0.00000E+00        -0.47974E+08
 
   -0.43214E+08         0.49027E+06         0.00000E+00
    0.49027E+06        -0.49994E+08         0.00000E+00
    0.00000E+00         0.00000E+00        -0.47974E+08
 
   -0.43337E+08         0.59089E+06         0.00000E+00
    0.59089E+06        -0.49992E+08         0.00000E+00
    0.00000E+00         0.00000E+00        -0.47974E+08
 
   -0.43458E+08         0.68907E+06         0.00000E+00
    0.68907E+06        -0.49989E+08         0.00000E+00
    0.00000E+00         0.00000E+00        -0.47974E+08
 
   -0.43578E+08         0.78495E+06         0.00000E+00
    0.78495E+06        -0.49985E+08         0.00000E+00
    0.00000E+00         0.00000E+00        -0.47974E+08
 
   -0.43697E+08         0.87867E+06         0.00000E+00
    0.87867E+06        -0.49981E+08         0.00000E+00
    0.00000E+00         0.00000E+00        -0.47974E+08
 
   -0.43815E+08         0.97034E+06         0.00000E+00
    0.97034E+06        -0.49977E+08         0.00000E+00
    0.00000E+00         0.00000E+00        -0.47974E+08
 
   -0.43932E+08         0.10601E+07         0.00000E+00
    0.10601E+07        -0.49972E+08         0.00000E+00
    0.00000E+00         0.00000E+00        -0.47974E+08
 
   -0.44047E+08         0.11481E+07         0.00000E+00
    0.11481E+07        -0.49967E+08         0.00000E+00
    0.00000E+00         0.00000E+00        -0.47974E+08
 
   -0.44162E+08         0.12344E+07         0.00000E+00
    0.12344E+07        -0.49962E+08         0.00000E+00
    0.00000E+00         0.00000E+00        -0.47974E+08
 
   -0.44275E+08         0.13191E+07         0.00000E+00
    0.13191E+07        -0.49955E+08         0.00000E+00
    0.00000E+00         0.00000E+00        -0.47974E+08
 
   -0.44386E+08         0.14024E+07         0.00000E+00
    0.14024E+07        -0.49949E+08         0.00000E+00
    0.00000E+00         0.00000E+00        -0.47974E+08
 
   -0.44497E+08         0.14844E+07         0.00000E+00
    0.14844E+07        -0.49942E+08         0.00000E+00
    0.00000E+00         0.00000E+00        -0.47974E+08
 
   -0.44607E+08         0.15651E+07         0.00000E+00
    0.15651E+07        -0.49934E+08         0.00000E+00
    0.00000E+00         0.00000E+00        -0.47974E+08
 
   -0.44715E+08         0.16446E+07         0.00000E+00
    0.16446E+07        -0.49926E+08         0.00000E+00
    0.00000E+00         0.00000E+00        -0.47974E+08
 
   -0.44823E+08         0.17231E+07         0.00000E+00
    0.17231E+07        -0.49917E+08         0.00000E+00
    0.00000E+00         0.00000E+00        -0.47974E+08
 
   -0.44929E+08         0.18006E+07         0.00000E+00
    0.18006E+07        -0.49907E+08         0.00000E+00
    0.00000E+00         0.00000E+00        -0.47974E+08
 
   -0.45034E+08         0.18772E+07         0.00000E+00
    0.18772E+07        -0.49897E+08         0.00000E+00
    0.00000E+00         0.00000E+00        -0.47974E+08
 
   -0.45139E+08         0.19530E+07         0.00000E+00
    0.19530E+07        -0.49886E+08         0.00000E+00
    0.00000E+00         0.00000E+00        -0.47974E+08
 
   -0.45243E+08         0.20280E+07         0.00000E+00
    0.20280E+07        -0.49874E+08         0.00000E+00
    0.00000E+00         0.00000E+00        -0.47974E+08
 
   -0.45345E+08         0.21023E+07         0.00000E+00
    0.21023E+07        -0.49861E+08         0.00000E+00
    0.00000E+00         0.00000E+00        -0.47974E+08
 
   -0.45447E+08         0.21760E+07         0.00000E+00
    0.21760E+07        -0.49848E+08         0.00000E+00
    0.00000E+00         0.00000E+00        -0.47974E+08
 
   -0.45549E+08         0.22491E+07         0.00000E+00
    0.22491E+07        -0.49834E+08         0.00000E+00
    0.00000E+00         0.00000E+00        -0.47974E+08
 
   -0.45649E+08         0.23217E+07         0.00000E+00
    0.23217E+07        -0.49818E+08         0.00000E+00
    0.00000E+00         0.00000E+00        -0.47974E+08
 
   -0.45749E+08         0.23938E+07         0.00000E+00
    0.23938E+07        -0.49802E+08         0.00000E+00
    0.00000E+00         0.00000E+00        -0.47974E+08
 
   -0.45849E+08         0.24655E+07         0.00000E+00
    0.24655E+07        -0.49785E+08         0.00000E+00
    0.00000E+00         0.00000E+00        -0.47974E+08
 
   -0.45948E+08         0.25368E+07         0.00000E+00
    0.25368E+07        -0.49766E+08         0.00000E+00
    0.00000E+00         0.00000E+00        -0.47974E+08
 
   -0.46046E+08         0.26077E+07         0.00000E+00
    0.26077E+07        -0.49747E+08         0.00000E+00
    0.00000E+00         0.00000E+00        -0.47974E+08
 
   -0.46145E+08         0.26783E+07         0.00000E+00
    0.26783E+07        -0.49726E+08         0.00000E+00
    0.00000E+00         0.00000E+00        -0.47974E+08
 
   -0.46242E+08         0.27485E+07         0.00000E+00
    0.27485E+07        -0.49704E+08         0.00000E+00
    0.00000E+00         0.00000E+00        -0.47974E+08
 
   -0.46340E+08         0.28185E+07         0.00000E+00
    0.28185E+07        -0.49681E+08         0.00000E+00
    0.00000E+00         0.00000E+00        -0.47974E+08
 
   -0.46438E+08         0.28883E+07         0.00000E+00
    0.28883E+07        -0.49656E+08         0.00000E+00
    0.00000E+00         0.00000E+00        -0.47974E+08
 
   -0.46535E+08         0.29578E+07         0.00000E+00
    0.29578E+07        -0.49630E+08         0.00000E+00
    0.00000E+00         0.00000E+00        -0.47974E+08
 
   -0.46633E+08         0.30270E+07         0.00000E+00
    0.30270E+07        -0.49603E+08         0.00000E+00
    0.00000E+00         0.00000E+00        -0.47974E+08
 
   -0.46730E+08         0.30960E+07         0.00000E+00
    0.30960E+07        -0.49574E+08         0.00000E+00
    0.00000E+00         0.00000E+00        -0.47974E+08
 
   -0.46827E+08         0.31648E+07         0.00000E+00
    0.31648E+07        -0.49544E+08         0.00000E+00
    0.00000E+00         0.00000E+00        -0.47974E+08
 
   -0.46925E+08         0.32334E+07         0.00000E+00
    0.32334E+07        -0.49512E+08         0.00000E+00
    0.00000E+00         0.00000E+00        -0.47974E+08
 
   -0.47023E+08         0.33017E+07         0.00000E+00
    0.33017E+07        -0.49479E+08         0.00000E+00
    0.00000E+00         0.00000E+00        -0.47974E+08
 
   -0.47121E+08         0.33698E+07         0.00000E+00
    0.33698E+07        -0.49444E+08         0.00000E+00
    0.00000E+00         0.00000E+00        -0.47974E+08
 
   -0.47220E+08         0.34377E+07         0.00000E+00
    0.34377E+07        -0.49407E+08         0.00000E+00
    0.00000E+00         0.00000E+00        -0.47974E+08
 
   -0.47319E+08         0.35053E+07         0.00000E+00
    0.35053E+07        -0.49368E+08         0.00000E+00
    0.00000E+00         0.00000E+00        -0.47974E+08
 
   -0.47418E+08         0.35727E+07         0.00000E+00
    0.35727E+07        -0.49328E+08         0.00000E+00
    0.00000E+00         0.00000E+00        -0.47974E+08
 
   -0.47518E+08         0.36398E+07         0.00000E+00
    0.36398E+07        -0.49286E+08         0.00000E+00
    0.00000E+00         0.00000E+00        -0.47974E+08
 
   -0.47618E+08         0.37066E+07         0.00000E+00
    0.37066E+07        -0.49242E+08         0.00000E+00
    0.00000E+00         0.00000E+00        -0.47974E+08
 
   -0.47719E+08         0.37731E+07         0.00000E+00
    0.37731E+07        -0.49197E+08         0.00000E+00
    0.00000E+00         0.00000E+00        -0.47974E+08
 
   -0.47821E+08         0.38393E+07         0.00000E+00
    0.38393E+07        -0.49149E+08         0.00000E+00
    0.00000E+00         0.00000E+00        -0.47974E+08
 
   -0.47923E+08         0.39051E+07         0.00000E+00
    0.39051E+07        -0.49100E+08         0.00000E+00
    0.00000E+00         0.00000E+00        -0.47974E+08
 
   -0.42141E+08         0.61696E+05         0.00000E+00
    0.61696E+05        -0.50000E+08         0.00000E+00
    0.00000E+00         0.00000E+00        -0.47621E+08
 
   -0.42283E+08         0.17560E+06         0.00000E+00
    0.17560E+06        -0.50000E+08         0.00000E+00
    0.00000E+00         0.00000E+00        -0.47621E+08
 
   -0.42424E+08         0.28632E+06         0.00000E+00
    0.28632E+06        -0.49999E+08         0.00000E+00
    0.00000E+00         0.00000E+00        -0.47621E+08
 
   -0.42563E+08         0.39403E+06         0.00000E+00
    0.39403E+06        -0.49998E+08         0.00000E+00
    0.00000E+00         0.00000E+00        -0.47621E+08
 
   -0.42700E+08         0.49892E+06         0.00000E+00
    0.49892E+06        -0.49997E+08         0.00000E+00
    0.00000E+00         0.00000E+00        -0.47621E+08
 
   -0.42835E+08         0.60117E+06         0.00000E+00
    0.60117E+06        -0.49996E+08         0.00000E+00
    0.00000E+00         0.00000E+00        -0.47621E+08
 
   -0.42968E+08         0.70096E+06         0.00000E+00
    0.70096E+06        -0.49995E+08         0.00000E+00
    0.00000E+00         0.00000E+00        -0.47621E+08
 
   -0.43100E+08         0.79844E+06         0.00000E+00
    0.79844E+06        -0.49993E+08         0.00000E+00
    0.00000E+00         0.00000E+00        -0.47621E+08
 
   -0.43229E+08         0.89379E+06         0.00000E+00
    0.89379E+06        -0.49992E+08         0.00000E+00
    0.00000E+00         0.00000E+00        -0.47621E+08
 
   -0.43357E+08         0.98715E+06         0.00000E+00
    0.98715E+06        -0.49990E+08         0.00000E+00
    0.00000E+00         0.00000E+00        -0.47621E+08
 
   -0.43482E+08         0.10787E+07         0.00000E+00
    0.10787E+07        -0.49987E+08         0.00000E+00
    0.00000E+00         0.00000E+00        -0.47621E+08
 
   -0.43606E+08         0.11685E+07         0.00000E+00
    0.11685E+07        -0.49985E+08         0.00000E+00
    0.00000E+00         0.00000E+00        -0.47621E+08
 
   -0.43728E+08         0.12568E+07         0.00000E+00
    0.12568E+07        -0.49982E+08         0.00000E+00
    0.00000E+00         0.00000E+00        -0.47621E+08
 
   -0.43849E+08         0.13436E+07         0.00000E+00
    0.13436E+07        -0.49979E+08         0.00000E+00
    0.00000E+00         0.00000E+00        -0.47621E+08
 
   -0.43967E+08         0.14292E+07         0.00000E+00
    0.14292E+07        -0.49976E+08         0.00000E+00
    0.00000E+00         0.00000E+00        -0.47621E+08
 
   -0.44084E+08         0.15136E+07         0.00000E+00
    0.15136E+07        -0.49972E+08         0.00000E+00
    0.00000E+00         0.00000E+00        -0.47621E+08
 
   -0.44199E+08         0.15969E+07         0.00000E+00
    0.15969E+07        -0.49967E+08         0.00000E+00
    0.00000E+00         0.00000E+00        -0.47621E+08
 
   -0.44312E+08         0.16793E+07         0.00000E+00
    0.16793E+07        -0.49962E+08         0.00000E+00
    0.00000E+00         0.00000E+00        -0.47621E+08
 
   -0.44425E+08         0.17608E+07         0.00000E+00
    0.17608E+07        -0.49957E+08         0.00000E+00
    0.00000E+00         0.00000E+00        -0.47621E+08
 
   -0.44535E+08         0.18415E+07         0.00000E+00
    0.18415E+07        -0.49951E+08         0.00000E+00
    0.00000E+00         0.00000E+00        -0.47621E+08
 
   -0.44644E+08         0.19216E+07         0.00000E+00
    0.19216E+07        -0.49944E+08         0.00000E+00
    0.00000E+00         0.00000E+00        -0.47621E+08
 
   -0.44752E+08         0.20010E+07         0.00000E+00
    0.20010E+07        -0.49937E+08         0.00000E+00
    0.00000E+00         0.00000E+00        -0.47621E+08
 
   -0.44859E+08         0.20800E+07         0.00000E+00
    0.20800E+07        -0.49929E+08         0.00000E+00
    0.00000E+00         0.00000E+00        -0.47621E+08
 
   -0.44964E+08         0.21585E+07         0.00000E+00
    0.21585E+07        -0.49920E+08         0.00000E+00
    0.00000E+00         0.00000E+00        -0.47621E+08
 
   -0.45069E+08         0.22366E+07         0.00000E+00
    0.22366E+07        -0.49910E+08         0.00000E+00
    0.00000E+00         0.00000E+00        -0.47621E+08
 
   -0.45172E+08         0.23144E+07         0.00000E+00
    0.23144E+07        -0.49900E+08         0.00000E+00
    0.00000E+00         0.00000E+00        -0.47621E+08
 
   -0.45275E+08         0.23920E+07         0.00000E+00
    0.23920E+07        -0.49888E+08         0.00000E+00
    0.00000E+00         0.00000E+00        -0.47621E+08
 
   -0.45376E+08         0.24693E+07         0.00000E+00
    0.24693E+07        -0.49875E+08         0.00000E+00
    0.00000E+00         0.00000E+00        -0.47621E+08
 
   -0.45477E+08         0.25465E+07         0.00000E+00
    0.25465E+07        -0.49861E+08         0.00000E+00
    0.00000E+00         0.00000E+00        -0.47621E+08
 
   -0.45577E+08         0.26236E+07         0.00000E+00
    0.26236E+07        -0.49846E+08         0.00000E+00
    0.00000E+00         0.00000E+00        -0.47621E+08
 
   -0.45677E+08         0.27005E+07         0.00000E+00
    0.27005E+07        -0.49830E+08         0.00000E+00
    0.00000E+00         0.00000E+00        -0.47621E+08
 
   -0.45776E+08         0.27774E+07         0.00000E+00
    0.27774E+07        -0.49812E+08         0.00000E+00
    0.00000E+00         0.00000E+00        -0.47621E+08
 
   -0.45875E+08         0.28543E+07         0.00000E+00
    0.28543E+07        -0.49794E+08         0.00000E+00
    0.00000E+00         0.00000E+00        -0.47621E+08
 
   -0.45973E+08         0.29311E+07         0.00000E+00
    0.29311E+07        -0.49773E+08         0.00000E+00
    0.00000E+00         0.00000E+00        -0.47621E+08
 
   -0.46072E+08         0.30079E+07         0.00000E+00
    0.30079E+07        -0.49751E+08         0.00000E+00
    0.00000E+00         0.00000E+00        -0.47621E+08
 
   -0.46170E+08         0.30848E+07         0.00000E+00
    0.30848E+07        -0.49728E+08         0.00000E+00
    0.00000E+00         0.00000E+00        -0.47621E+08
 
   -0.46268E+08         0.31616E+07         0.00000E+00
    0.31616E+07        -0.49703E+08         0.00000E+00
    0.00000E+00         0.00000E+00        -0.47621E+08
 
   -0.46365E+08         0.32385E+07         0.00000E+00
    0.32385E+07        -0.49677E+08         0.00000E+00
    0.00000E+00         0.00000E+00        -0.47621E+08
 
   -0.46464E+08         0.33154E+07         0.00000E+00
    0.33154E+07        -0.49649E+08         0.00000E+00
    0.00000E+00         0.00000E+00        -0.47621E+08
 
   -0.46562E+08         0.33923E+07         0.00000E+00
    0.33923E+07        -0.49619E+08         0.00000E+00
    0.00000E+00         0.00000E+00        -0.47621E+08
 
   -0.46660E+08         0.34692E+07         0.00000E+00
    0.34692E+07        -0.49587E+08         0.00000E+00
    0.00000E+00         0.00000E+00        -0.47621E+08
 
   -0.46759E+08         0.35462E+07         0.00000E+00
    0.35462E+07        -0.49553E+08         0.00000E+00
    0.00000E+00         0.00000E+00        -0.47621E+08
 
   -0.46858E+08         0.36231E+07         0.00000E+00
    0.36231E+07        -0.49518E+08         0.00000E+00
    0.00000E+00         0.00000E+00        -0.47621E+08
 
   -0.46958E+08         0.36999E+07         0.00000E+00
    0.36999E+07        -0.49480E+08         0.00000E+00
    0.00000E+00         0.00000E+00        -0.47621E+08
 
   -0.47058E+08         0.37768E+07         0.00000E+00
    0.37768E+07        -0.49441E+08         0.00000E+00
    0.00000E+00         0.00000E+00        -0.47621E+08
 
   -0.47159E+08         0.38535E+07         0.00000E+00
    0.38535E+07        -0.49400E+08         0.00000E+00
    0.00000E+00         0.00000E+00        -0.47621E+08
 
   -0.47260E+08         0.39302E+07         0.00000E+00
    0.39302E+07        -0.49356E+08         0.00000E+00
    0.00000E+00         0.00000E+00        -0.47621E+08
 
   -0.47362E+08         0.40067E+07         0.00000E+00
    0.40067E+07        -0.49310E+08         0.00000E+00
    0.00000E+00         0.00000E+00        -0.47621E+08
 
   -0.47465E+08         0.40831E+07         0.00000E+00
    0.40831E+07        -0.49262E+08         0.00000E+00
    0.00000E+00         0.00000E+00        -0.47621E+08
 
   -0.47569E+08         0.41593E+07         0.00000E+00
    0.41593E+07        -0.49212E+08         0.00000E+00
    0.00000E+00         0.00000E+00        -0.47621E+08
 
   -0.41561E+08         0.62057E+05         0.00000E+00
    0.62057E+05        -0.50000E+08         0.00000E+00
    0.00000E+00         0.00000E+00        -0.47211E+08
 
   -0.41720E+08         0.17629E+06         0.00000E+00
    0.17629E+06        -0.50000E+08         0.00000E+00
    0.00000E+00         0.00000E+00        -0.47211E+08
 
   -0.41876E+08         0.28725E+06         0.00000E+00
    0.28725E+06        -0.50000E+08         0.00000E+00
    0.00000E+00         0.00000E+00        -0.47211E+08
 
   -0.42030E+08         0.39516E+06         0.00000E+00
    0.39516E+06        -0.50001E+08         0.00000E+00
    0.00000E+00         0.00000E+00        -0.47211E+08
 
   -0.42181E+08         0.50024E+06         0.00000E+00
    0.50024E+06        -0.50001E+08         0.00000E+00
    0.00000E+00         0.00000E+00        -0.47211E+08
 
   -0.42329E+08         0.60270E+06         0.00000E+00
    0.60270E+06        -0.50002E+08         0.00000E+00
    0.00000E+00         0.00000E+00        -0.47211E+08
 
   -0.42474E+08         0.70274E+06         0.00000E+00
    0.70274E+06        -0.50003E+08         0.00000E+00
    0.00000E+00         0.00000E+00        -0.47211E+08
 
   -0.42616E+08         0.80055E+06         0.00000E+00
    0.80055E+06        -0.50004E+08         0.00000E+00
    0.00000E+00         0.00000E+00        -0.47211E+08
 
   -0.42755E+08         0.89634E+06         0.00000E+00
    0.89634E+06        -0.50005E+08         0.00000E+00
    0.00000E+00         0.00000E+00        -0.47211E+08
 
   -0.42892E+08         0.99028E+06         0.00000E+00
    0.99028E+06        -0.50005E+08         0.00000E+00
    0.00000E+00         0.00000E+00        -0.47211E+08
 
   -0.43026E+08         0.10825E+07         0.00000E+00
    0.10825E+07        -0.50006E+08         0.00000E+00
    0.00000E+00         0.00000E+00        -0.47211E+08
 
   -0.43158E+08         0.11733E+07         0.00000E+00
    0.11733E+07        -0.50007E+08         0.00000E+00
    0.00000E+00         0.00000E+00        -0.47211E+08
 
   -0.43287E+08         0.12627E+07         0.00000E+00
    0.12627E+07        -0.50008E+08         0.00000E+00
    0.00000E+00         0.00000E+00        -0.47211E+08
 
   -0.43413E+08         0.13509E+07         0.00000E+00
    0.13509E+07        -0.50009E+08         0.00000E+00
    0.00000E+00         0.00000E+00        -0.47211E+08
 
   -0.43537E+08         0.14380E+07         0.00000E+00
    0.14380E+07        -0.50009E+08         0.00000E+00
    0.00000E+00         0.00000E+00        -0.47211E+08
 
   -0.43659E+08         0.15242E+07         0.00000E+00
    0.15242E+07        -0.50009E+08         0.00000E+00
    0.00000E+00         0.00000E+00        -0.47211E+08
 
   -0.43779E+08         0.16096E+07         0.00000E+00
    0.16096E+07        -0.50009E+08         0.00000E+00
    0.00000E+00         0.00000E+00        -0.47211E+08
 
   -0.43896E+08         0.16943E+07         0.00000E+00
    0.16943E+07        -0.50009E+08         0.00000E+00
    0.00000E+00         0.00000E+00        -0.47211E+08
 
   -0.44011E+08         0.17785E+07         0.00000E+00
    0.17785E+07        -0.50008E+08         0.00000E+00
    0.00000E+00         0.00000E+00        -0.47211E+08
 
   -0.44125E+08         0.18622E+07         0.00000E+00
    0.18622E+07        -0.50006E+08         0.00000E+00
    0.00000E+00         0.00000E+00        -0.47211E+08
 
   -0.44237E+08         0.19455E+07         0.00000E+00
    0.19455E+07        -0.50004E+08         0.00000E+00
    0.00000E+00         0.00000E+00        -0.47211E+08
 
   -0.44346E+08         0.20286E+07         0.00000E+00
    0.20286E+07        -0.50001E+08         0.00000E+00
    0.00000E+00         0.00000E+00        -0.47211E+08
 
   -0.44455E+08         0.21114E+07         0.00000E+00
    0.21114E+07        -0.49998E+08         0.00000E+00
    0.00000E+00         0.00000E+00        -0.47211E+08
 
   -0.44561E+08         0.21942E+07         0.00000E+00
    0.21942E+07        -0.49993E+08         0.00000E+00
    0.00000E+00         0.00000E+00        -0.47211E+08
 
   -0.44667E+08         0.22768E+07         0.00000E+00
    0.22768E+07        -0.49988E+08         0.00000E+00
    0.00000E+00         0.00000E+00        -0.47211E+08
 
   -0.44771E+08         0.23596E+07         0.00000E+00
    0.23596E+07        -0.49982E+08         0.00000E+00
    0.00000E+00         0.00000E+00        -0.47211E+08
 
   -0.44874E+08         0.24423E+07         0.00000E+00
    0.24423E+07        -0.49974E+08         0.00000E+00
    0.00000E+00         0.00000E+00        -0.47211E+08
 
   -0.44975E+08         0.25253E+07         0.00000E+00
    0.25253E+07        -0.49966E+08         0.00000E+00
    0.00000E+00         0.00000E+00        -0.47211E+08
 
   -0.45076E+08         0.26083E+07         0.00000E+00
    0.26083E+07        -0.49957E+08         0.00000E+00
    0.00000E+00         0.00000E+00        -0.47211E+08
 
   -0.45176E+08         0.26916E+07         0.00000E+00
    0.26916E+07        -0.49946E+08         0.00000E+00
    0.00000E+00         0.00000E+00        -0.47211E+08
 
   -0.45275E+08         0.27751E+07         0.00000E+00
    0.27751E+07        -0.49934E+08         0.00000E+00
    0.00000E+00         0.00000E+00        -0.47211E+08
 
   -0.45374E+08         0.28589E+07         0.00000E+00
    0.28589E+07        -0.49920E+08         0.00000E+00
    0.00000E+00         0.00000E+00        -0.47211E+08
 
   -0.45472E+08         0.29430E+07         0.00000E+00
    0.29430E+07        -0.49905E+08         0.00000E+00
    0.00000E+00         0.00000E+00        -0.47211E+08
 
   -0.45570E+08         0.30274E+07         0.00000E+00
    0.30274E+07        -0.49889E+08         0.00000E+00
    0.00000E+00         0.00000E+00        -0.47211E+08
 
   -0.45667E+08         0.31121E+07         0.00000E+00
    0.31121E+07        -0.49870E+08         0.00000E+00
    0.00000E+00         0.00000E+00        -0.47211E+08
 
   -0.45764E+08         0.31972E+07         0.00000E+00
    0.31972E+07        -0.49850E+08         0.00000E+00
    0.00000E+00         0.00000E+00        -0.47211E+08
 
   -0.45862E+08         0.32825E+07         0.00000E+00
    0.32825E+07        -0.49829E+08         0.00000E+00
    0.00000E+00         0.00000E+00        -0.47211E+08
 
   -0.45959E+08         0.33682E+07         0.00000E+00
    0.33682E+07        -0.49805E+08         0.00000E+00
    0.00000E+00         0.00000E+00        -0.47211E+08
 
   -0.46056E+08         0.34542E+07         0.00000E+00
    0.34542E+07        -0.49780E+08         0.00000E+00
    0.00000E+00         0.00000E+00        -0.47211E+08
 
   -0.46153E+08         0.35406E+07         0.00000E+00
    0.35406E+07        -0.49753E+08         0.00000E+00
    0.00000E+00         0.00000E+00        -0.47211E+08
 
   -0.46251E+08         0.36272E+07         0.00000E+00
    0.36272E+07        -0.49723E+08         0.00000E+00
    0.00000E+00         0.00000E+00        -0.47211E+08
 
   -0.46349E+08         0.37140E+07         0.00000E+00
    0.37140E+07        -0.49692E+08         0.00000E+00
    0.00000E+00         0.00000E+00        -0.47211E+08
 
   -0.46448E+08         0.38012E+07         0.00000E+00
    0.38012E+07        -0.49658E+08         0.00000E+00
    0.00000E+00         0.00000E+00        -0.47211E+08
 
   -0.46547E+08         0.38885E+07         0.00000E+00
    0.38885E+07        -0.49622E+08         0.00000E+00
    0.00000E+00         0.00000E+00        -0.47211E+08
 
   -0.46647E+08         0.39761E+07         0.00000E+00
    0.39761E+07        -0.49584E+08         0.00000E+00
    0.00000E+00         0.00000E+00        -0.47211E+08
 
   -0.46747E+08         0.40638E+07         0.00000E+00
    0.40638E+07        -0.49544E+08         0.00000E+00
    0.00000E+00         0.00000E+00        -0.47211E+08
 
   -0.46849E+08         0.41517E+07         0.00000E+00
    0.41517E+07        -0.49501E+08         0.00000E+00
    0.00000E+00         0.00000E+00        -0.47211E+08
 
   -0.46951E+08         0.42396E+07         0.00000E+00
    0.42396E+07        -0.49456E+08         0.00000E+00
    0.00000E+00         0.00000E+00        -0.47211E+08
 
   -0.47054E+08         0.43276E+07         0.00000E+00
    0.43276E+07        -0.49409E+08         0.00000E+00
    0.00000E+00         0.00000E+00        -0.47211E+08
 
   -0.47159E+08         0.44157E+07         0.00000E+00
    0.44157E+07        -0.49359E+08         0.00000E+00
    0.00000E+00         0.00000E+00        -0.47211E+08
 
   -0.40984E+08         0.61235E+05         0.00000E+00
    0.61235E+05        -0.50000E+08         0.00000E+00
    0.00000E+00         0.00000E+00        -0.46737E+08
 
   -0.41160E+08         0.17368E+06         0.00000E+00
    0.17368E+06        -0.50001E+08         0.00000E+00
    0.00000E+00         0.00000E+00        -0.46737E+08
 
   -0.41333E+08         0.28285E+06         0.00000E+00
    0.28285E+06        -0.50002E+08         0.00000E+00
    0.00000E+00         0.00000E+00        -0.46737E+08
 
   -0.41501E+08         0.38901E+06         0.00000E+00
    0.38901E+06        -0.50004E+08         0.00000E+00
    0.00000E+00         0.00000E+00        -0.46737E+08
 
   -0.41665E+08         0.49243E+06         0.00000E+00
    0.49243E+06        -0.50006E+08         0.00000E+00
    0.00000E+00         0.00000E+00        -0.46737E+08
 
   -0.41825E+08         0.59334E+06         0.00000E+00
    0.59334E+06        -0.50009E+08         0.00000E+00
    0.00000E+00         0.00000E+00        -0.46737E+08
 
   -0.41981E+08         0.69199E+06         0.00000E+00
    0.69199E+06        -0.50012E+08         0.00000E+00
    0.00000E+00         0.00000E+00        -0.46737E+08
 
   -0.42134E+08         0.78860E+06         0.00000E+00
    0.78860E+06        -0.50016E+08         0.00000E+00
    0.00000E+00         0.00000E+00        -0.46737E+08
 
   -0.42282E+08         0.88338E+06         0.00000E+00
    0.88338E+06        -0.50020E+08         0.00000E+00
    0.00000E+00         0.00000E+00        -0.46737E+08
 
   -0.42427E+08         0.97656E+06         0.00000E+00
    0.97656E+06        -0.50025E+08         0.00000E+00
    0.00000E+00         0.00000E+00        -0.46737E+08
 
   -0.42569E+08         0.10683E+07         0.00000E+00
    0.10683E+07        -0.50030E+08         0.00000E+00
    0.00000E+00         0.00000E+00        -0.46737E+08
 
   -0.42707E+08         0.11588E+07         0.00000E+00
    0.11588E+07        -0.50035E+08         0.00000E+00
    0.00000E+00         0.00000E+00        -0.46737E+08
 
   -0.42842E+08         0.12483E+07         0.00000E+00
    0.12483E+07        -0.50040E+08         0.00000E+00
    0.00000E+00         0.00000E+00        -0.46737E+08
 
   -0.42973E+08         0.13369E+07         0.00000E+00
    0.13369E+07        -0.50045E+08         0.00000E+00
    0.00000E+00         0.00000E+00        -0.46737E+08
 
   -0.43101E+08         0.14248E+07         0.00000E+00
    0.14248E+07        -0.50050E+08         0.00000E+00
    0.00000E+00         0.00000E+00        -0.46737E+08
 
   -0.43226E+08         0.15121E+07         0.00000E+00
    0.15121E+07        -0.50055E+08         0.00000E+00
    0.00000E+00         0.00000E+00        -0.46737E+08
 
   -0.43349E+08         0.15990E+07         0.00000E+00
    0.15990E+07        -0.50060E+08         0.00000E+00
    0.00000E+00         0.00000E+00        -0.46737E+08
 
   -0.43468E+08         0.16855E+07         0.00000E+00
    0.16855E+07        -0.50065E+08         0.00000E+00
    0.00000E+00         0.00000E+00        -0.46737E+08
 
   -0.43585E+08         0.17719E+07         0.00000E+00
    0.17719E+07        -0.50069E+08         0.00000E+00
    0.00000E+00         0.00000E+00        -0.46737E+08
 
   -0.43700E+08         0.18582E+07         0.00000E+00
    0.18582E+07        -0.50073E+08         0.00000E+00
    0.00000E+00         0.00000E+00        -0.46737E+08
 
   -0.43812E+08         0.19445E+07         0.00000E+00
    0.19445E+07        -0.50076E+08         0.00000E+00
    0.00000E+00         0.00000E+00        -0.46737E+08
 
   -0.43922E+08         0.20310E+07         0.00000E+00
    0.20310E+07        -0.50079E+08         0.00000E+00
    0.00000E+00         0.00000E+00        -0.46737E+08
 
   -0.44030E+08         0.21177E+07         0.00000E+00
    0.21177E+07        -0.50081E+08         0.00000E+00
    0.00000E+00         0.00000E+00        -0.46737E+08
 
   -0.44136E+08         0.22047E+07         0.00000E+00
    0.22047E+07        -0.50082E+08         0.00000E+00
    0.00000E+00         0.00000E+00        -0.46737E+08
 
   -0.44241E+08         0.22921E+07         0.00000E+00
    0.22921E+07        -0.50082E+08         0.00000E+00
    0.00000E+00         0.00000E+00        -0.46737E+08
 
   -0.44344E+08         0.23799E+07         0.00000E+00
    0.23799E+07        -0.50081E+08         0.00000E+00
    0.00000E+00         0.00000E+00        -0.46737E+08
 
   -0.44445E+08         0.24682E+07         0.00000E+00
    0.24682E+07        -0.50079E+08         0.00000E+00
    0.00000E+00         0.00000E+00        -0.46737E+08
 
   -0.44545E+08         0.25570E+07         0.00000E+00
    0.25570E+07        -0.50076E+08         0.00000E+00
    0.00000E+00         0.00000E+00        -0.46737E+08
 
   -0.44644E+08         0.26464E+07         0.00000E+00
    0.26464E+07        -0.50072E+08         0.00000E+00
    0.00000E+00         0.00000E+00        -0.46737E+08
 
   -0.44742E+08         0.27365E+07         0.00000E+00
    0.27365E+07        -0.50067E+08         0.00000E+00
    0.00000E+00         0.00000E+00        -0.46737E+08
 
   -0.44839E+08         0.28272E+07         0.00000E+00
    0.28272E+07        -0.50059E+08         0.00000E+00
    0.00000E+00         0.00000E+00        -0.46737E+08
 
   -0.44935E+08         0.29185E+07         0.00000E+00
    0.29185E+07        -0.50051E+08         0.00000E+00
    0.00000E+00         0.00000E+00        -0.46737E+08
 
   -0.45030E+08         0.30106E+07         0.00000E+00
    0.30106E+07        -0.50041E+08         0.00000E+00
    0.00000E+00         0.00000E+00        -0.46737E+08
 
   -0.45126E+08         0.31033E+07         0.00000E+00
    0.31033E+07        -0.50029E+08         0.00000E+00
    0.00000E+00         0.00000E+00        -0.46737E+08
 
   -0.45221E+08         0.31968E+07         0.00000E+00
    0.31968E+07        -0.50015E+08         0.00000E+00
    0.00000E+00         0.00000E+00        -0.46737E+08
 
   -0.45315E+08         0.32910E+07         0.00000E+00
    0.32910E+07        -0.49999E+08         0.00000E+00
    0.00000E+00         0.00000E+00        -0.46737E+08
 
   -0.45410E+08         0.33858E+07         0.00000E+00
    0.33858E+07        -0.49982E+08         0.00000E+00
    0.00000E+00         0.00000E+00        -0.46737E+08
 
   -0.45504E+08         0.34814E+07         0.00000E+00
    0.34814E+07        -0.49962E+08         0.00000E+00
    0.00000E+00         0.00000E+00        -0.46737E+08
 
   -0.45599E+08         0.35776E+07         0.00000E+00
    0.35776E+07        -0.49940E+08         0.00000E+00
    0.00000E+00         0.00000E+00        -0.46737E+08
 
   -0.45694E+08         0.36745E+07         0.00000E+00
    0.36745E+07        -0.49916E+08         0.00000E+00
    0.00000E+00         0.00000E+00        -0.46737E+08
 
   -0.45790E+08         0.37720E+07         0.00000E+00
    0.37720E+07        -0.49890E+08         0.00000E+00
    0.00000E+00         0.00000E+00        -0.46737E+08
 
   -0.45886E+08         0.38701E+07         0.00000E+00
    0.38701E+07        -0.49861E+08         0.00000E+00
    0.00000E+00         0.00000E+00        -0.46737E+08
 
   -0.45983E+08         0.39688E+07         0.00000E+00
    0.39688E+07        -0.49830E+08         0.00000E+00
    0.00000E+00         0.00000E+00        -0.46737E+08
 
   -0.46080E+08         0.40680E+07         0.00000E+00
    0.40680E+07        -0.49797E+08         0.00000E+00
    0.00000E+00         0.00000E+00        -0.46737E+08
 
   -0.46178E+08         0.41676E+07         0.00000E+00
    0.41676E+07        -0.49761E+08         0.00000E+00
    0.00000E+00         0.00000E+00        -0.46737E+08
 
   -0.46277E+08         0.42678E+07         0.00000E+00
    0.42678E+07        -0.49722E+08         0.00000E+00
    0.00000E+00         0.00000E+00        -0.46737E+08
 
   -0.46378E+08         0.43683E+07         0.00000E+00
    0.43683E+07        -0.49681E+08         0.00000E+00
    0.00000E+00         0.00000E+00        -0.46737E+08
 
   -0.46479E+08         0.44692E+07         0.00000E+00
    0.44692E+07        -0.49637E+08         0.00000E+00
    0.00000E+00         0.00000E+00        -0.46737E+08
 
   -0.46581E+08         0.45703E+07         0.00000E+00
    0.45703E+07        -0.49590E+08         0.00000E+00
    0.00000E+00         0.00000E+00        -0.46737E+08
 
   -0.46685E+08         0.46718E+07         0.00000E+00
    0.46718E+07        -0.49540E+08         0.00000E+00
    0.00000E+00         0.00000E+00        -0.46737E+08
 
   -0.40423E+08         0.58948E+05         0.00000E+00
    0.58948E+05        -0.50000E+08         0.00000E+00
    0.00000E+00         0.00000E+00        -0.46191E+08
 
   -0.40616E+08         0.16700E+06         0.00000E+00
    0.16700E+06        -0.50002E+08         0.00000E+00
    0.00000E+00         0.00000E+00        -0.46191E+08
 
   -0.40803E+08         0.27191E+06         0.00000E+00
    0.27191E+06        -0.50004E+08         0.00000E+00
    0.00000E+00         0.00000E+00        -0.46191E+08
 
   -0.40986E+08         0.37398E+06         0.00000E+00
    0.37398E+06        -0.50007E+08         0.00000E+00
    0.00000E+00         0.00000E+00        -0.46191E+08
 
   -0.41162E+08         0.47351E+06         0.00000E+00
    0.47351E+06        -0.50012E+08         0.00000E+00
    0.00000E+00         0.00000E+00        -0.46191E+08
 
   -0.41334E+08         0.57079E+06         0.00000E+00
    0.57079E+06        -0.50018E+08         0.00000E+00
    0.00000E+00         0.00000E+00        -0.46191E+08
 
   -0.41500E+08         0.66608E+06         0.00000E+00
    0.66608E+06        -0.50024E+08         0.00000E+00
    0.00000E+00         0.00000E+00        -0.46191E+08
 
   -0.41661E+08         0.75965E+06         0.00000E+00
    0.75965E+06        -0.50031E+08         0.00000E+00
    0.00000E+00         0.00000E+00        -0.46191E+08
 
   -0.41818E+08         0.85173E+06         0.00000E+00
    0.85173E+06        -0.50039E+08         0.00000E+00
    0.00000E+00         0.00000E+00        -0.46191E+08
 
   -0.41970E+08         0.94256E+06         0.00000E+00
    0.94256E+06        -0.50048E+08         0.00000E+00
    0.00000E+00         0.00000E+00        -0.46191E+08
 
   -0.42117E+08         0.10324E+07         0.00000E+00
    0.10324E+07        -0.50057E+08         0.00000E+00
    0.00000E+00         0.00000E+00        -0.46191E+08
 
   -0.42259E+08         0.11213E+07         0.00000E+00
    0.11213E+07        -0.50067E+08         0.00000E+00
    0.00000E+00         0.00000E+00        -0.46191E+08
 
   -0.42398E+08         0.12097E+07         0.00000E+00
    0.12097E+07        -0.50077E+08         0.00000E+00
    0.00000E+00         0.00000E+00        -0.46191E+08
 
   -0.42532E+08         0.12976E+07         0.00000E+00
    0.12976E+07        -0.50088E+08         0.00000E+00
    0.00000E+00         0.00000E+00        -0.46191E+08
 
   -0.42663E+08         0.13853E+07         0.00000E+00
    0.13853E+07        -0.50099E+08         0.00000E+00
    0.00000E+00         0.00000E+00        -0.46191E+08
 
   -0.42789E+08         0.14728E+07         0.00000E+00
    0.14728E+07        -0.50110E+08         0.00000E+00
    0.00000E+00         0.00000E+00        -0.46191E+08
 
   -0.42912E+08         0.15604E+07         0.00000E+00
    0.15604E+07        -0.50120E+08         0.00000E+00
    0.00000E+00         0.00000E+00        -0.46191E+08
 
   -0.43032E+08         0.16482E+07         0.00000E+00
    0.16482E+07        -0.50131E+08         0.00000E+00
    0.00000E+00         0.00000E+00        -0.46191E+08
 
   -0.43148E+08         0.17363E+07         0.00000E+00
    0.17363E+07        -0.50142E+08         0.00000E+00
    0.00000E+00         0.00000E+00        -0.46191E+08
 
   -0.43262E+08         0.18248E+07         0.00000E+00
    0.18248E+07        -0.50152E+08         0.00000E+00
    0.00000E+00         0.00000E+00        -0.46191E+08
 
   -0.43372E+08         0.19139E+07         0.00000E+00
    0.19139E+07        -0.50162E+08         0.00000E+00
    0.00000E+00         0.00000E+00        -0.46191E+08
 
   -0.43480E+08         0.20036E+07         0.00000E+00
    0.20036E+07        -0.50171E+08         0.00000E+00
    0.00000E+00         0.00000E+00        -0.46191E+08
 
   -0.43586E+08         0.20941E+07         0.00000E+00
    0.20941E+07        -0.50179E+08         0.00000E+00
    0.00000E+00         0.00000E+00        -0.46191E+08
 
   -0.43689E+08         0.21853E+07         0.00000E+00
    0.21853E+07        -0.50187E+08         0.00000E+00
    0.00000E+00         0.00000E+00        -0.46191E+08
 
   -0.43790E+08         0.22775E+07         0.00000E+00
    0.22775E+07        -0.50193E+08         0.00000E+00
    0.00000E+00         0.00000E+00        -0.46191E+08
 
   -0.43889E+08         0.23706E+07         0.00000E+00
    0.23706E+07        -0.50199E+08         0.00000E+00
    0.00000E+00         0.00000E+00        -0.46191E+08
 
   -0.43987E+08         0.24647E+07         0.00000E+00
    0.24647E+07        -0.50204E+08         0.00000E+00
    0.00000E+00         0.00000E+00        -0.46191E+08
 
   -0.44083E+08         0.25598E+07         0.00000E+00
    0.25598E+07        -0.50207E+08         0.00000E+00
    0.00000E+00         0.00000E+00        -0.46191E+08
 
   -0.44177E+08         0.26561E+07         0.00000E+00
    0.26561E+07        -0.50209E+08         0.00000E+00
    0.00000E+00         0.00000E+00        -0.46191E+08
 
   -0.44271E+08         0.27535E+07         0.00000E+00
    0.27535E+07        -0.50209E+08         0.00000E+00
    0.00000E+00         0.00000E+00        -0.46191E+08
 
   -0.44363E+08         0.28520E+07         0.00000E+00
    0.28520E+07        -0.50208E+08         0.00000E+00
    0.00000E+00         0.00000E+00        -0.46191E+08
 
   -0.44455E+08         0.29516E+07         0.00000E+00
    0.29516E+07        -0.50205E+08         0.00000E+00
    0.00000E+00         0.00000E+00        -0.46191E+08
 
   -0.44546E+08         0.30524E+07         0.00000E+00
    0.30524E+07        -0.50201E+08         0.00000E+00
    0.00000E+00         0.00000E+00        -0.46191E+08
 
   -0.44636E+08         0.31544E+07         0.00000E+00
    0.31544E+07        -0.50194E+08         0.00000E+00
    0.00000E+00         0.00000E+00        -0.46191E+08
 
   -0.44727E+08         0.32576E+07         0.00000E+00
    0.32576E+07        -0.50186E+08         0.00000E+00
    0.00000E+00         0.00000E+00        -0.46191E+08
 
   -0.44817E+08         0.33619E+07         0.00000E+00
    0.33619E+07        -0.50175E+08         0.00000E+00
    0.00000E+00         0.00000E+00        -0.46191E+08
 
   -0.44907E+08         0.34673E+07         0.00000E+00
    0.34673E+07        -0.50163E+08         0.00000E+00
    0.00000E+00         0.00000E+00        -0.46191E+08
 
   -0.44997E+08         0.35739E+07         0.00000E+00
    0.35739E+07        -0.50148E+08         0.00000E+00
    0.00000E+00         0.00000E+00        -0.46191E+08
 
   -0.45088E+08         0.36815E+07         0.00000E+00
    0.36815E+07        -0.50130E+08         0.00000E+00
    0.00000E+00         0.00000E+00        -0.46191E+08
 
   -0.45178E+08         0.37902E+07         0.00000E+00
    0.37902E+07        -0.50110E+08         0.00000E+00
    0.00000E+00         0.00000E+00        -0.46191E+08
 
   -0.45270E+08         0.39000E+07         0.00000E+00
    0.39000E+07        -0.50088E+08         0.00000E+00
    0.00000E+00         0.00000E+00        -0.46191E+08
 
   -0.45362E+08         0.40106E+07         0.00000E+00
    0.40106E+07        -0.50063E+08         0.00000E+00
    0.00000E+00         0.00000E+00        -0.46191E+08
 
   -0.45455E+08         0.41223E+07         0.00000E+00
    0.41223E+07        -0.50035E+08         0.00000E+00
    0.00000E+00         0.00000E+00        -0.46191E+08
 
   -0.45549E+08         0.42348E+07         0.00000E+00
    0.42348E+07        -0.50005E+08         0.00000E+00
    0.00000E+00         0.00000E+00        -0.46191E+08
 
   -0.45644E+08         0.43481E+07         0.00000E+00
    0.43481E+07        -0.49972E+08         0.00000E+00
    0.00000E+00         0.00000E+00        -0.46191E+08
 
   -0.45741E+08         0.44622E+07         0.00000E+00
    0.44622E+07        -0.49935E+08         0.00000E+00
    0.00000E+00         0.00000E+00        -0.46191E+08
 
   -0.45838E+08         0.45770E+07         0.00000E+00
    0.45770E+07        -0.49896E+08         0.00000E+00
    0.00000E+00         0.00000E+00        -0.46191E+08
 
   -0.45937E+08         0.46924E+07         0.00000E+00
    0.46924E+07        -0.49854E+08         0.00000E+00
    0.00000E+00         0.00000E+00        -0.46191E+08
 
   -0.46038E+08         0.48084E+07         0.00000E+00
    0.48084E+07        -0.49809E+08         0.00000E+00
    0.00000E+00         0.00000E+00        -0.46191E+08
 
   -0.46140E+08         0.49249E+07         0.00000E+00
    0.49249E+07        -0.49760E+08         0.00000E+00
    0.00000E+00         0.00000E+00        -0.46191E+08
 
   -0.39891E+08         0.54891E+05         0.00000E+00
    0.54891E+05        -0.50001E+08         0.00000E+00
    0.00000E+00         0.00000E+00        -0.45564E+08
 
   -0.40100E+08         0.15546E+06         0.00000E+00
    0.15546E+06        -0.50003E+08         0.00000E+00
    0.00000E+00         0.00000E+00        -0.45564E+08
 
   -0.40302E+08         0.25317E+06         0.00000E+00
    0.25317E+06        -0.50006E+08         0.00000E+00
    0.00000E+00         0.00000E+00        -0.45564E+08
 
   -0.40497E+08         0.34838E+06         0.00000E+00
    0.34838E+06        -0.50012E+08         0.00000E+00
    0.00000E+00         0.00000E+00        -0.45564E+08
 
   -0.40685E+08         0.44142E+06         0.00000E+00
    0.44142E+06        -0.50019E+08         0.00000E+00
    0.00000E+00         0.00000E+00        -0.45564E+08
 
   -0.40866E+08         0.53261E+06         0.00000E+00
    0.53261E+06        -0.50027E+08         0.00000E+00
    0.00000E+00         0.00000E+00        -0.45564E+08
 
   -0.41040E+08         0.62226E+06         0.00000E+00
    0.62226E+06        -0.50038E+08         0.00000E+00
    0.00000E+00         0.00000E+00        -0.45564E+08
 
   -0.41209E+08         0.71064E+06         0.00000E+00
    0.71064E+06        -0.50049E+08         0.00000E+00
    0.00000E+00         0.00000E+00        -0.45564E+08
 
   -0.41371E+08         0.79804E+06         0.00000E+00
    0.79804E+06        -0.50062E+08         0.00000E+00
    0.00000E+00         0.00000E+00        -0.45564E+08
 
   -0.41527E+08         0.88471E+06         0.00000E+00
    0.88471E+06        -0.50075E+08         0.00000E+00
    0.00000E+00         0.00000E+00        -0.45564E+08
 
   -0.41677E+08         0.97089E+06         0.00000E+00
    0.97089E+06        -0.50090E+08         0.00000E+00
    0.00000E+00         0.00000E+00        -0.45564E+08
 
   -0.41822E+08         0.10568E+07         0.00000E+00
    0.10568E+07        -0.50105E+08         0.00000E+00
    0.00000E+00         0.00000E+00        -0.45564E+08
 
   -0.41962E+08         0.11427E+07         0.00000E+00
    0.11427E+07        -0.50122E+08         0.00000E+00
    0.00000E+00         0.00000E+00        -0.45564E+08
 
   -0.42096E+08         0.12287E+07         0.00000E+00
    0.12287E+07        -0.50138E+08         0.00000E+00
    0.00000E+00         0.00000E+00        -0.45564E+08
 
   -0.42226E+08         0.13150E+07         0.00000E+00
    0.13150E+07        -0.50156E+08         0.00000E+00
    0.00000E+00         0.00000E+00        -0.45564E+08
 
   -0.42352E+08         0.14019E+07         0.00000E+00
    0.14019E+07        -0.50173E+08         0.00000E+00
    0.00000E+00         0.00000E+00        -0.45564E+08
 
   -0.42473E+08         0.14894E+07         0.00000E+00
    0.14894E+07        -0.50191E+08         0.00000E+00
    0.00000E+00         0.00000E+00        -0.45564E+08
 
   -0.42589E+08         0.15777E+07         0.00000E+00
    0.15777E+07        -0.50209E+08         0.00000E+00
    0.00000E+00         0.00000E+00        -0.45564E+08
 
   -0.42702E+08         0.16669E+07         0.00000E+00
    0.16669E+07        -0.50226E+08         0.00000E+00
    0.00000E+00         0.00000E+00        -0.45564E+08
 
   -0.42812E+08         0.17572E+07         0.00000E+00
    0.17572E+07        -0.50244E+08         0.00000E+00
    0.00000E+00         0.00000E+00        -0.45564E+08
 
   -0.42918E+08         0.18487E+07         0.00000E+00
    0.18487E+07        -0.50261E+08         0.00000E+00
    0.00000E+00         0.00000E+00        -0.45564E+08
 
   -0.43021E+08         0.19415E+07         0.00000E+00
    0.19415E+07        -0.50277E+08         0.00000E+00
    0.00000E+00         0.00000E+00        -0.45564E+08
 
   -0.43121E+08         0.20356E+07         0.00000E+00
    0.20356E+07        -0.50293E+08         0.00000E+00
    0.00000E+00         0.00000E+00        -0.45564E+08
 
   -0.43218E+08         0.21312E+07         0.00000E+00
    0.21312E+07        -0.50308E+08         0.00000E+00
    0.00000E+00         0.00000E+00        -0.45564E+08
 
   -0.43314E+08         0.22282E+07         0.00000E+00
    0.22282E+07        -0.50322E+08         0.00000E+00
    0.00000E+00         0.00000E+00        -0.45564E+08
 
   -0.43406E+08         0.23269E+07         0.00000E+00
    0.23269E+07        -0.50335E+08         0.00000E+00
    0.00000E+00         0.00000E+00        -0.45564E+08
 
   -0.43497E+08         0.24271E+07         0.00000E+00
    0.24271E+07        -0.50347E+08         0.00000E+00
    0.00000E+00         0.00000E+00        -0.45564E+08
 
   -0.43586E+08         0.25290E+07         0.00000E+00
    0.25290E+07        -0.50358E+08         0.00000E+00
    0.00000E+00         0.00000E+00        -0.45564E+08
 
   -0.43674E+08         0.26326E+07         0.00000E+00
    0.26326E+07        -0.50367E+08         0.00000E+00
    0.00000E+00         0.00000E+00        -0.45564E+08
 
   -0.43761E+08         0.27379E+07         0.00000E+00
    0.27379E+07        -0.50374E+08         0.00000E+00
    0.00000E+00         0.00000E+00        -0.45564E+08
 
   -0.43846E+08         0.28449E+07         0.00000E+00
    0.28449E+07        -0.50380E+08         0.00000E+00
    0.00000E+00         0.00000E+00        -0.45564E+08
 
   -0.43930E+08         0.29536E+07         0.00000E+00
    0.29536E+07        -0.50384E+08         0.00000E+00
    0.00000E+00         0.00000E+00        -0.45564E+08
 
   -0.44014E+08         0.30640E+07         0.00000E+00
    0.30640E+07        -0.50386E+08         0.00000E+00
    0.00000E+00         0.00000E+00        -0.45564E+08
 
   -0.44098E+08         0.31762E+07         0.00000E+00
    0.31762E+07        -0.50386E+08         0.00000E+00
    0.00000E+00         0.00000E+00        -0.45564E+08
 
   -0.44181E+08         0.32900E+07         0.00000E+00
    0.32900E+07        -0.50384E+08         0.00000E+00
    0.00000E+00         0.00000E+00        -0.45564E+08
 
   -0.44264E+08         0.34056E+07         0.00000E+00
    0.34056E+07        -0.50379E+08         0.00000E+00
    0.00000E+00         0.00000E+00        -0.45564E+08
 
   -0.44347E+08         0.35227E+07         0.00000E+00
    0.35227E+07        -0.50372E+08         0.00000E+00
    0.00000E+00         0.00000E+00        -0.45564E+08
 
   -0.44431E+08         0.36415E+07         0.00000E+00
    0.36415E+07        -0.50363E+08         0.00000E+00
    0.00000E+00         0.00000E+00        -0.45564E+08
 
   -0.44515E+08         0.37619E+07         0.00000E+00
    0.37619E+07        -0.50351E+08         0.00000E+00
    0.00000E+00         0.00000E+00        -0.45564E+08
 
   -0.44599E+08         0.38837E+07         0.00000E+00
    0.38837E+07        -0.50336E+08         0.00000E+00
    0.00000E+00         0.00000E+00        -0.45564E+08
 
   -0.44685E+08         0.40071E+07         0.00000E+00
    0.40071E+07        -0.50318E+08         0.00000E+00
    0.00000E+00         0.00000E+00        -0.45564E+08
 
   -0.44771E+08         0.41318E+07         0.00000E+00
    0.41318E+07        -0.50298E+08         0.00000E+00
    0.00000E+00         0.00000E+00        -0.45564E+08
 
   -0.44859E+08         0.42579E+07         0.00000E+00
    0.42579E+07        -0.50274E+08         0.00000E+00
    0.00000E+00         0.00000E+00        -0.45564E+08
 
   -0.44947E+08         0.43853E+07         0.00000E+00
    0.43853E+07        -0.50247E+08         0.00000E+00
    0.00000E+00         0.00000E+00        -0.45564E+08
 
   -0.45038E+08         0.45139E+07         0.00000E+00
    0.45139E+07        -0.50218E+08         0.00000E+00
    0.00000E+00         0.00000E+00        -0.45564E+08
 
   -0.45129E+08         0.46436E+07         0.00000E+00
    0.46436E+07        -0.50185E+08         0.00000E+00
    0.00000E+00         0.00000E+00        -0.45564E+08
 
   -0.45223E+08         0.47744E+07         0.00000E+00
    0.47744E+07        -0.50148E+08         0.00000E+00
    0.00000E+00         0.00000E+00        -0.45564E+08
 
   -0.45318E+08         0.49061E+07         0.00000E+00
    0.49061E+07        -0.50108E+08         0.00000E+00
    0.00000E+00         0.00000E+00        -0.45564E+08
 
   -0.45415E+08         0.50387E+07         0.00000E+00
    0.50387E+07        -0.50065E+08         0.00000E+00
    0.00000E+00         0.00000E+00        -0.45564E+08
 
   -0.45514E+08         0.51722E+07         0.00000E+00
    0.51722E+07        -0.50018E+08         0.00000E+00
    0.00000E+00         0.00000E+00        -0.45564E+08
 
   -0.39407E+08         0.48739E+05         0.00000E+00
    0.48739E+05        -0.50001E+08         0.00000E+00
    0.00000E+00         0.00000E+00        -0.44846E+08
 
   -0.39630E+08         0.13820E+06         0.00000E+00
    0.13820E+06        -0.50004E+08         0.00000E+00
    0.00000E+00         0.00000E+00        -0.44846E+08
 
   -0.39844E+08         0.22531E+06         0.00000E+00
    0.22531E+06        -0.50009E+08         0.00000E+00
    0.00000E+00         0.00000E+00        -0.44846E+08
 
   -0.40049E+08         0.31045E+06         0.00000E+00
    0.31045E+06        -0.50017E+08         0.00000E+00
    0.00000E+00         0.00000E+00        -0.44846E+08
 
   -0.40246E+08         0.39400E+06         0.00000E+00
    0.39400E+06        -0.50027E+08         0.00000E+00
    0.00000E+00         0.00000E+00        -0.44846E+08
 
   -0.40434E+08         0.47631E+06         0.00000E+00
    0.47631E+06        -0.50039E+08         0.00000E+00
    0.00000E+00         0.00000E+00        -0.44846E+08
 
   -0.40614E+08         0.55771E+06         0.00000E+00
    0.55771E+06        -0.50053E+08         0.00000E+00
    0.00000E+00         0.00000E+00        -0.44846E+08
 
   -0.40786E+08         0.63851E+06         0.00000E+00
    0.63851E+06        -0.50069E+08         0.00000E+00
    0.00000E+00         0.00000E+00        -0.44846E+08
 
   -0.40951E+08         0.71901E+06         0.00000E+00
    0.71901E+06        -0.50087E+08         0.00000E+00
    0.00000E+00         0.00000E+00        -0.44846E+08
 
   -0.41108E+08         0.79948E+06         0.00000E+00
    0.79948E+06        -0.50106E+08         0.00000E+00
    0.00000E+00         0.00000E+00        -0.44846E+08
 
   -0.41259E+08         0.88017E+06         0.00000E+00
    0.88017E+06        -0.50127E+08         0.00000E+00
    0.00000E+00         0.00000E+00        -0.44846E+08
 
   -0.41403E+08         0.96133E+06         0.00000E+00
    0.96133E+06        -0.50149E+08         0.00000E+00
    0.00000E+00         0.00000E+00        -0.44846E+08
 
   -0.41540E+08         0.10432E+07         0.00000E+00
    0.10432E+07        -0.50172E+08         0.00000E+00
    0.00000E+00         0.00000E+00        -0.44846E+08
 
   -0.41672E+08         0.11259E+07         0.00000E+00
    0.11259E+07        -0.50196E+08         0.00000E+00
    0.00000E+00         0.00000E+00        -0.44846E+08
 
   -0.41798E+08         0.12098E+07         0.00000E+00
    0.12098E+07        -0.50220E+08         0.00000E+00
    0.00000E+00         0.00000E+00        -0.44846E+08
 
   -0.41918E+08         0.12949E+07         0.00000E+00
    0.12949E+07        -0.50245E+08         0.00000E+00
    0.00000E+00         0.00000E+00        -0.44846E+08
 
   -0.42034E+08         0.13814E+07         0.00000E+00
    0.13814E+07        -0.50271E+08         0.00000E+00
    0.00000E+00         0.00000E+00        -0.44846E+08
 
   -0.42145E+08         0.14695E+07         0.00000E+00
    0.14695E+07        -0.50296E+08         0.00000E+00
    0.00000E+00         0.00000E+00        -0.44846E+08
 
   -0.42251E+08         0.15593E+07         0.00000E+00
    0.15593E+07        -0.50322E+08         0.00000E+00
    0.00000E+00         0.00000E+00        -0.44846E+08
 
   -0.42353E+08         0.16509E+07         0.00000E+00
    0.16509E+07        -0.50347E+08         0.00000E+00
    0.00000E+00         0.00000E+00        -0.44846E+08
 
   -0.42451E+08         0.17445E+07         0.00000E+00
    0.17445E+07        -0.50373E+08         0.00000E+00
    0.00000E+00         0.00000E+00        -0.44846E+08
 
   -0.42545E+08         0.18400E+07         0.00000E+00
    0.18400E+07        -0.50397E+08         0.00000E+00
    0.00000E+00         0.00000E+00        -0.44846E+08
 
   -0.42637E+08         0.19377E+07         0.00000E+00
    0.19377E+07        -0.50422E+08         0.00000E+00
    0.00000E+00         0.00000E+00        -0.44846E+08
 
   -0.42725E+08         0.20376E+07         0.00000E+00
    0.20376E+07        -0.50445E+08         0.00000E+00
    0.00000E+00         0.00000E+00        -0.44846E+08
 
   -0.42811E+08         0.21397E+07         0.00000E+00
    0.21397E+07        -0.50467E+08         0.00000E+00
    0.00000E+00         0.00000E+00        -0.44846E+08
 
   -0.42894E+08         0.22441E+07         0.00000E+00
    0.22441E+07        -0.50489E+08         0.00000E+00
    0.00000E+00         0.00000E+00        -0.44846E+08
 
   -0.42975E+08         0.23508E+07         0.00000E+00
    0.23508E+07        -0.50509E+08         0.00000E+00
    0.00000E+00         0.00000E+00        -0.44846E+08
 
   -0.43054E+08         0.24599E+07         0.00000E+00
    0.24599E+07        -0.50527E+08         0.00000E+00
    0.00000E+00         0.00000E+00        -0.44846E+08
 
   -0.43131E+08         0.25713E+07         0.00000E+00
    0.25713E+07        -0.50545E+08         0.00000E+00
    0.00000E+00         0.00000E+00        -0.44846E+08
 
   -0.43208E+08         0.26851E+07         0.00000E+00
    0.26851E+07        -0.50560E+08         0.00000E+00
    0.00000E+00         0.00000E+00        -0.44846E+08
 
   -0.43283E+08         0.28014E+07         0.00000E+00
    0.28014E+07        -0.50574E+08         0.00000E+00
    0.00000E+00         0.00000E+00        -0.44846E+08
 
   -0.43357E+08         0.29199E+07         0.00000E+00
    0.29199E+07        -0.50585E+08         0.00000E+00
    0.00000E+00         0.00000E+00        -0.44846E+08
 
   -0.43431E+08         0.30409E+07         0.00000E+00
    0.30409E+07        -0.50595E+08         0.00000E+00
    0.00000E+00         0.00000E+00        -0.44846E+08
 
   -0.43504E+08         0.31642E+07         0.00000E+00
    0.31642E+07        -0.50602E+08         0.00000E+00
    0.00000E+00         0.00000E+00        -0.44846E+08
 
   -0.43577E+08         0.32898E+07         0.00000E+00
    0.32898E+07        -0.50607E+08         0.00000E+00
    0.00000E+00         0.00000E+00        -0.44846E+08
 
   -0.43651E+08         0.34177E+07         0.00000E+00
    0.34177E+07        -0.50609E+08         0.00000E+00
    0.00000E+00         0.00000E+00        -0.44846E+08
 
   -0.43724E+08         0.35478E+07         0.00000E+00
    0.35478E+07        -0.50609E+08         0.00000E+00
    0.00000E+00         0.00000E+00        -0.44846E+08
 
   -0.43799E+08         0.36800E+07         0.00000E+00
    0.36800E+07        -0.50606E+08         0.00000E+00
    0.00000E+00         0.00000E+00        -0.44846E+08
 
   -0.43873E+08         0.38144E+07         0.00000E+00
    0.38144E+07        -0.50600E+08         0.00000E+00
    0.00000E+00         0.00000E+00        -0.44846E+08
 
   -0.43949E+08         0.39509E+07         0.00000E+00
    0.39509E+07        -0.50591E+08         0.00000E+00
    0.00000E+00         0.00000E+00        -0.44846E+08
 
   -0.44026E+08         0.40893E+07         0.00000E+00
    0.40893E+07        -0.50579E+08         0.00000E+00
    0.00000E+00         0.00000E+00        -0.44846E+08
 
   -0.44105E+08         0.42296E+07         0.00000E+00
    0.42296E+07        -0.50563E+08         0.00000E+00
    0.00000E+00         0.00000E+00        -0.44846E+08
 
   -0.44185E+08         0.43718E+07         0.00000E+00
    0.43718E+07        -0.50545E+08         0.00000E+00
    0.00000E+00         0.00000E+00        -0.44846E+08
 
   -0.44266E+08         0.45156E+07         0.00000E+00
    0.45156E+07        -0.50523E+08         0.00000E+00
    0.00000E+00         0.00000E+00        -0.44846E+08
 
   -0.44349E+08         0.46612E+07         0.00000E+00
    0.46612E+07        -0.50497E+08         0.00000E+00
    0.00000E+00         0.00000E+00        -0.44846E+08
 
   -0.44435E+08         0.48083E+07         0.00000E+00
    0.48083E+07        -0.50468E+08         0.00000E+00
    0.00000E+00         0.00000E+00        -0.44846E+08
 
   -0.44522E+08         0.49568E+07         0.00000E+00
    0.49568E+07        -0.50435E+08         0.00000E+00
    0.00000E+00         0.00000E+00        -0.44846E+08
 
   -0.44611E+08         0.51067E+07         0.00000E+00
    0.51067E+07        -0.50398E+08         0.00000E+00
    0.00000E+00         0.00000E+00        -0.44846E+08
 
   -0.44703E+08         0.52578E+07         0.00000E+00
    0.52578E+07        -0.50358E+08         0.00000E+00
    0.00000E+00         0.00000E+00        -0.44846E+08
 
   -0.44798E+08         0.54101E+07         0.00000E+00
    0.54101E+07        -0.50313E+08         0.00000E+00
    0.00000E+00         0.00000E+00        -0.44846E+08
 
   -0.38990E+08         0.40159E+05         0.00000E+00
    0.40159E+05        -0.50001E+08         0.00000E+00
    0.00000E+00         0.00000E+00        -0.44027E+08
 
   -0.39224E+08         0.11439E+06         0.00000E+00
    0.11439E+06        -0.50005E+08         0.00000E+00
    0.00000E+00         0.00000E+00        -0.44027E+08
 
   -0.39447E+08         0.18703E+06         0.00000E+00
    0.18703E+06        -0.50012E+08         0.00000E+00
    0.00000E+00         0.00000E+00        -0.44027E+08
 
   -0.39659E+08         0.25850E+06         0.00000E+00
    0.25850E+06        -0.50022E+08         0.00000E+00
    0.00000E+00         0.00000E+00        -0.44027E+08
 
   -0.39861E+08         0.32920E+06         0.00000E+00
    0.32920E+06        -0.50036E+08         0.00000E+00
    0.00000E+00         0.00000E+00        -0.44027E+08
 
   -0.40052E+08         0.39951E+06         0.00000E+00
    0.39951E+06        -0.50052E+08         0.00000E+00
    0.00000E+00         0.00000E+00        -0.44027E+08
 
   -0.40234E+08         0.46977E+06         0.00000E+00
    0.46977E+06        -0.50071E+08         0.00000E+00
    0.00000E+00         0.00000E+00        -0.44027E+08
 
   -0.40406E+08         0.54033E+06         0.00000E+00
    0.54033E+06        -0.50092E+08         0.00000E+00
    0.00000E+00         0.00000E+00        -0.44027E+08
 
   -0.40569E+08         0.61148E+06         0.00000E+00
    0.61148E+06        -0.50115E+08         0.00000E+00
    0.00000E+00         0.00000E+00        -0.44027E+08
 
   -0.40724E+08         0.68352E+06         0.00000E+00
    0.68352E+06        -0.50141E+08         0.00000E+00
    0.00000E+00         0.00000E+00        -0.44027E+08
 
   -0.40871E+08         0.75671E+06         0.00000E+00
    0.75671E+06        -0.50168E+08         0.00000E+00
    0.00000E+00         0.00000E+00        -0.44027E+08
 
   -0.41010E+08         0.83129E+06         0.00000E+00
    0.83129E+06        -0.50197E+08         0.00000E+00
    0.00000E+00         0.00000E+00        -0.44027E+08
 
   -0.41141E+08         0.90750E+06         0.00000E+00
    0.90750E+06        -0.50228E+08         0.00000E+00
    0.00000E+00         0.00000E+00        -0.44027E+08
 
   -0.41265E+08         0.98554E+06         0.00000E+00
    0.98554E+06        -0.50259E+08         0.00000E+00
    0.00000E+00         0.00000E+00        -0.44027E+08
 
   -0.41383E+08         0.10656E+07         0.00000E+00
    0.10656E+07        -0.50292E+08         0.00000E+00
    0.00000E+00         0.00000E+00        -0.44027E+08
 
   -0.41495E+08         0.11479E+07         0.00000E+00
    0.11479E+07        -0.50325E+08         0.00000E+00
    0.00000E+00         0.00000E+00        -0.44027E+08
 
   -0.41600E+08         0.12325E+07         0.00000E+00
    0.12325E+07        -0.50359E+08         0.00000E+00
    0.00000E+00         0.00000E+00        -0.44027E+08
 
   -0.41701E+08         0.13196E+07         0.00000E+00
    0.13196E+07        -0.50393E+08         0.00000E+00
    0.00000E+00         0.00000E+00        -0.44027E+08
 
   -0.41796E+08         0.14093E+07         0.00000E+00
    0.14093E+07        -0.50427E+08         0.00000E+00
    0.00000E+00         0.00000E+00        -0.44027E+08
 
   -0.41886E+08         0.15017E+07         0.00000E+00
    0.15017E+07        -0.50462E+08         0.00000E+00
    0.00000E+00         0.00000E+00        -0.44027E+08
 
   -0.41972E+08         0.15970E+07         0.00000E+00
    0.15970E+07        -0.50496E+08         0.00000E+00
    0.00000E+00         0.00000E+00        -0.44027E+08
 
   -0.42054E+08         0.16951E+07         0.00000E+00
    0.16951E+07        -0.50530E+08         0.00000E+00
    0.00000E+00         0.00000E+00        -0.44027E+08
 
   -0.42133E+08         0.17963E+07         0.00000E+00
    0.17963E+07        -0.50563E+08         0.00000E+00
    0.00000E+00         0.00000E+00        -0.44027E+08
 
   -0.42208E+08         0.19005E+07         0.00000E+00
    0.19005E+07        -0.50596E+08         0.00000E+00
    0.00000E+00         0.00000E+00        -0.44027E+08
 
   -0.42280E+08         0.20077E+07         0.00000E+00
    0.20077E+07        -0.50627E+08         0.00000E+00
    0.00000E+00         0.00000E+00        -0.44027E+08
 
   -0.42350E+08         0.21181E+07         0.00000E+00
    0.21181E+07        -0.50657E+08         0.00000E+00
    0.00000E+00         0.00000E+00        -0.44027E+08
 
   -0.42417E+08         0.22316E+07         0.00000E+00
    0.22316E+07        -0.50686E+08         0.00000E+00
    0.00000E+00         0.00000E+00        -0.44027E+08
 
   -0.42483E+08         0.23483E+07         0.00000E+00
    0.23483E+07        -0.50714E+08         0.00000E+00
    0.00000E+00         0.00000E+00        -0.44027E+08
 
   -0.42546E+08         0.24682E+07         0.00000E+00
    0.24682E+07        -0.50740E+08         0.00000E+00
    0.00000E+00         0.00000E+00        -0.44027E+08
 
   -0.42609E+08         0.25912E+07         0.00000E+00
    0.25912E+07        -0.50764E+08         0.00000E+00
    0.00000E+00         0.00000E+00        -0.44027E+08
 
   -0.42670E+08         0.27173E+07         0.00000E+00
    0.27173E+07        -0.50786E+08         0.00000E+00
    0.00000E+00         0.00000E+00        -0.44027E+08
 
   -0.42731E+08         0.28466E+07         0.00000E+00
    0.28466E+07        -0.50806E+08         0.00000E+00
    0.00000E+00         0.00000E+00        -0.44027E+08
 
   -0.42791E+08         0.29789E+07         0.00000E+00
    0.29789E+07        -0.50824E+08         0.00000E+00
    0.00000E+00         0.00000E+00        -0.44027E+08
 
   -0.42851E+08         0.31143E+07         0.00000E+00
    0.31143E+07        -0.50839E+08         0.00000E+00
    0.00000E+00         0.00000E+00        -0.44027E+08
 
   -0.42911E+08         0.32527E+07         0.00000E+00
    0.32527E+07        -0.50852E+08         0.00000E+00
    0.00000E+00         0.00000E+00        -0.44027E+08
 
   -0.42971E+08         0.33940E+07         0.00000E+00
    0.33940E+07        -0.50862E+08         0.00000E+00
    0.00000E+00         0.00000E+00        -0.44027E+08
 
   -0.43033E+08         0.35382E+07         0.00000E+00
    0.35382E+07        -0.50869E+08         0.00000E+00
    0.00000E+00         0.00000E+00        -0.44027E+08
 
   -0.43094E+08         0.36853E+07         0.00000E+00
    0.36853E+07        -0.50873E+08         0.00000E+00
    0.00000E+00         0.00000E+00        -0.44027E+08
 
   -0.43158E+08         0.38350E+07         0.00000E+00
    0.38350E+07        -0.50874E+08         0.00000E+00
    0.00000E+00         0.00000E+00        -0.44027E+08
 
   -0.43222E+08         0.39875E+07         0.00000E+00
    0.39875E+07        -0.50872E+08         0.00000E+00
    0.00000E+00         0.00000E+00        -0.44027E+08
 
   -0.43288E+08         0.41424E+07         0.00000E+00
    0.41424E+07        -0.50866E+08         0.00000E+00
    0.00000E+00         0.00000E+00        -0.44027E+08
 
   -0.43355E+08         0.42999E+07         0.00000E+00
    0.42999E+07        -0.50857E+08         0.00000E+00
    0.00000E+00         0.00000E+00        -0.44027E+08
 
   -0.43425E+08         0.44597E+07         0.00000E+00
    0.44597E+07        -0.50844E+08         0.00000E+00
    0.00000E+00         0.00000E+00        -0.44027E+08
 
   -0.43497E+08         0.46217E+07         0.00000E+00
    0.46217E+07        -0.50827E+08         0.00000E+00
    0.00000E+00         0.00000E+00        -0.44027E+08
 
   -0.43571E+08         0.47860E+07         0.00000E+00
    0.47860E+07        -0.50807E+08         0.00000E+00
    0.00000E+00         0.00000E+00        -0.44027E+08
 
   -0.43648E+08         0.49522E+07         0.00000E+00
    0.49522E+07        -0.50782E+08         0.00000E+00
    0.00000E+00         0.00000E+00        -0.44027E+08
 
   -0.43727E+08         0.51204E+07         0.00000E+00
    0.51204E+07        -0.50754E+08         0.00000E+00
    0.00000E+00         0.00000E+00        -0.44027E+08
 
   -0.43809E+08         0.52903E+07         0.00000E+00
    0.52903E+07        -0.50721E+08         0.00000E+00
    0.00000E+00         0.00000E+00        -0.44027E+08
 
   -0.43894E+08         0.54618E+07         0.00000E+00
    0.54618E+07        -0.50684E+08         0.00000E+00
    0.00000E+00         0.00000E+00        -0.44027E+08
 
   -0.43982E+08         0.56349E+07         0.00000E+00
    0.56349E+07        -0.50643E+08         0.00000E+00
    0.00000E+00         0.00000E+00        -0.44027E+08
 
   -0.38662E+08         0.28834E+05         0.00000E+00
    0.28834E+05        -0.50001E+08         0.00000E+00
    0.00000E+00         0.00000E+00        -0.43097E+08
 
   -0.38903E+08         0.83252E+05         0.00000E+00
    0.83252E+05        -0.50006E+08         0.00000E+00
    0.00000E+00         0.00000E+00        -0.43097E+08
 
   -0.39130E+08         0.13715E+06         0.00000E+00
    0.13715E+06        -0.50015E+08         0.00000E+00
    0.00000E+00         0.00000E+00        -0.43097E+08
 
   -0.39345E+08         0.19098E+06         0.00000E+00
    0.19098E+06        -0.50029E+08         0.00000E+00
    0.00000E+00         0.00000E+00        -0.43097E+08
 
   -0.39546E+08         0.24515E+06         0.00000E+00
    0.24515E+06        -0.50046E+08         0.00000E+00
    0.00000E+00         0.00000E+00        -0.43097E+08
 
   -0.39736E+08         0.30007E+06         0.00000E+00
    0.30007E+06        -0.50066E+08         0.00000E+00
    0.00000E+00         0.00000E+00        -0.43097E+08
 
   -0.39914E+08         0.35609E+06         0.00000E+00
    0.35609E+06        -0.50090E+08         0.00000E+00
    0.00000E+00         0.00000E+00        -0.43097E+08
 
   -0.40082E+08         0.41356E+06         0.00000E+00
    0.41356E+06        -0.50117E+08         0.00000E+00
    0.00000E+00         0.00000E+00        -0.43097E+08
 
   -0.40239E+08         0.47278E+06         0.00000E+00
    0.47278E+06        -0.50147E+08         0.00000E+00
    0.00000E+00         0.00000E+00        -0.43097E+08
 
   -0.40385E+08         0.53405E+06         0.00000E+00
    0.53405E+06        -0.50179E+08         0.00000E+00
    0.00000E+00         0.00000E+00        -0.43097E+08
 
   -0.40523E+08         0.59761E+06         0.00000E+00
    0.59761E+06        -0.50213E+08         0.00000E+00
    0.00000E+00         0.00000E+00        -0.43097E+08
 
   -0.40651E+08         0.66373E+06         0.00000E+00
    0.66373E+06        -0.50250E+08         0.00000E+00
    0.00000E+00         0.00000E+00        -0.43097E+08
 
   -0.40771E+08         0.73261E+06         0.00000E+00
    0.73261E+06        -0.50288E+08         0.00000E+00
    0.00000E+00         0.00000E+00        -0.43097E+08
 
   -0.40883E+08         0.80446E+06         0.00000E+00
    0.80446E+06        -0.50328E+08         0.00000E+00
    0.00000E+00         0.00000E+00        -0.43097E+08
 
   -0.40988E+08         0.87945E+06         0.00000E+00
    0.87945E+06        -0.50369E+08         0.00000E+00
    0.00000E+00         0.00000E+00        -0.43097E+08
 
   -0.41085E+08         0.95774E+06         0.00000E+00
    0.95774E+06        -0.50411E+08         0.00000E+00
    0.00000E+00         0.00000E+00        -0.43097E+08
 
   -0.41176E+08         0.10395E+07         0.00000E+00
    0.10395E+07        -0.50453E+08         0.00000E+00
    0.00000E+00         0.00000E+00        -0.43097E+08
 
   -0.41261E+08         0.11248E+07         0.00000E+00
    0.11248E+07        -0.50497E+08         0.00000E+00
    0.00000E+00         0.00000E+00        -0.43097E+08
 
   -0.41341E+08         0.12138E+07         0.00000E+00
    0.12138E+07        -0.50541E+08         0.00000E+00
    0.00000E+00         0.00000E+00        -0.43097E+08
 
   -0.41415E+08         0.13065E+07         0.00000E+00
    0.13065E+07        -0.50584E+08         0.00000E+00
    0.00000E+00         0.00000E+00        -0.43097E+08
 
   -0.41484E+08         0.14031E+07         0.00000E+00
    0.14031E+07        -0.50628E+08         0.00000E+00
    0.00000E+00         0.00000E+00        -0.43097E+08
 
   -0.41549E+08         0.15037E+07         0.00000E+00
    0.15037E+07        -0.50671E+08         0.00000E+00
    0.00000E+00         0.00000E+00        -0.43097E+08
 
   -0.41610E+08         0.16082E+07         0.00000E+00
    0.16082E+07        -0.50714E+08         0.00000E+00
    0.00000E+00         0.00000E+00        -0.43097E+08
 
   -0.41667E+08         0.17167E+07         0.00000E+00
    0.17167E+07        -0.50756E+08         0.00000E+00
    0.00000E+00         0.00000E+00        -0.43097E+08
 
   -0.41722E+08         0.18292E+07         0.00000E+00
    0.18292E+07        -0.50797E+08         0.00000E+00
    0.00000E+00         0.00000E+00        -0.43097E+08
 
   -0.41773E+08         0.19458E+07         0.00000E+00
    0.19458E+07        -0.50837E+08         0.00000E+00
    0.00000E+00         0.00000E+00        -0.43097E+08
 
   -0.41823E+08         0.20665E+07         0.00000E+00
    0.20665E+07        -0.50875E+08         0.00000E+00
    0.00000E+00         0.00000E+00        -0.43097E+08
 
   -0.41870E+08         0.21912E+07         0.00000E+00
    0.21912E+07        -0.50912E+08         0.00000E+00
    0.00000E+00         0.00000E+00        -0.43097E+08
 
   -0.41916E+08         0.23199E+07         0.00000E+00
    0.23199E+07        -0.50948E+08         0.00000E+00
    0.00000E+00         0.00000E+00        -0.43097E+08
 
   -0.41961E+08         0.24526E+07         0.00000E+00
    0.24526E+07        -0.50981E+08         0.00000E+00
    0.00000E+00         0.00000E+00        -0.43097E+08
 
   -0.42004E+08         0.25894E+07         0.00000E+00
    0.25894E+07        -0.51012E+08         0.00000E+00
    0.00000E+00         0.00000E+00        -0.43097E+08
 
   -0.42047E+08         0.27300E+07         0.00000E+00
    0.27300E+07        -0.51041E+08         0.00000E+00
    0.00000E+00         0.00000E+00        -0.43097E+08
 
   -0.42090E+08         0.28746E+07         0.00000E+00
    0.28746E+07        -0.51068E+08         0.00000E+00
    0.00000E+00         0.00000E+00        -0.43097E+08
 
   -0.42133E+08         0.30230E+07         0.00000E+00
    0.30230E+07        -0.51092E+08         0.00000E+00
    0.00000E+00         0.00000E+00        -0.43097E+08
 
   -0.42177E+08         0.31752E+07         0.00000E+00
    0.31752E+07        -0.51113E+08         0.00000E+00
    0.00000E+00         0.00000E+00        -0.43097E+08
 
   -0.42221E+08         0.33310E+07         0.00000E+00
    0.33310E+07        -0.51131E+08         0.00000E+00
    0.00000E+00         0.00000E+00        -0.43097E+08
 
   -0.42266E+08         0.34905E+07         0.00000E+00
    0.34905E+07        -0.51146E+08         0.00000E+00
    0.00000E+00         0.00000E+00        -0.43097E+08
 
   -0.42312E+08         0.36534E+07         0.00000E+00
    0.36534E+07        -0.51158E+08         0.00000E+00
    0.00000E+00         0.00000E+00        -0.43097E+08
 
   -0.42360E+08         0.38198E+07         0.00000E+00
    0.38198E+07        -0.51167E+08         0.00000E+00
    0.00000E+00         0.00000E+00        -0.43097E+08
 
   -0.42410E+08         0.39896E+07         0.00000E+00
    0.39896E+07        -0.51172E+08         0.00000E+00
    0.00000E+00         0.00000E+00        -0.43097E+08
 
   -0.42462E+08         0.41625E+07         0.00000E+00
    0.41625E+07        -0.51173E+08         0.00000E+00
    0.00000E+00         0.00000E+00        -0.43097E+08
 
   -0.42516E+08         0.43385E+07         0.00000E+00
    0.43385E+07        -0.51171E+08         0.00000E+00
    0.00000E+00         0.00000E+00        -0.43097E+08
 
   -0.42572E+08         0.45175E+07         0.00000E+00
    0.45175E+07        -0.51165E+08         0.00000E+00
    0.00000E+00         0.00000E+00        -0.43097E+08
 
   -0.42631E+08         0.46994E+07         0.00000E+00
    0.46994E+07        -0.51154E+08         0.00000E+00
    0.00000E+00         0.00000E+00        -0.43097E+08
 
   -0.42694E+08         0.48840E+07         0.00000E+00
    0.48840E+07        -0.51140E+08         0.00000E+00
    0.00000E+00         0.00000E+00        -0.43097E+08
 
   -0.42759E+08         0.50711E+07         0.00000E+00
    0.50711E+07        -0.51121E+08         0.00000E+00
    0.00000E+00         0.00000E+00        -0.43097E+08
 
   -0.42828E+08         0.52607E+07         0.00000E+00
    0.52607E+07        -0.51098E+08         0.00000E+00
    0.00000E+00         0.00000E+00        -0.43097E+08
 
   -0.42900E+08         0.54525E+07         0.00000E+00
    0.54525E+07        -0.51070E+08         0.00000E+00
    0.00000E+00         0.00000E+00        -0.43097E+08
 
   -0.42976E+08         0.56465E+07         0.00000E+00
    0.56465E+07        -0.51038E+08         0.00000E+00
    0.00000E+00         0.00000E+00        -0.43097E+08
 
   -0.43056E+08         0.58424E+07         0.00000E+00
    0.58424E+07        -0.51001E+08         0.00000E+00
    0.00000E+00         0.00000E+00        -0.43097E+08
 
   -0.38449E+08         0.14479E+05         0.00000E+00
    0.14479E+05        -0.50002E+08         0.00000E+00
    0.00000E+00         0.00000E+00        -0.42047E+08
 
   -0.38690E+08         0.44114E+05         0.00000E+00
    0.44114E+05        -0.50008E+08         0.00000E+00
    0.00000E+00         0.00000E+00        -0.42047E+08
 
   -0.38916E+08         0.74682E+05         0.00000E+00
    0.74682E+05        -0.50019E+08         0.00000E+00
    0.00000E+00         0.00000E+00        -0.42047E+08
 
   -0.39126E+08         0.10664E+06         0.00000E+00
    0.10664E+06        -0.50035E+08         0.00000E+00
    0.00000E+00         0.00000E+00        -0.42047E+08
 
   -0.39321E+08         0.14042E+06         0.00000E+00
    0.14042E+06        -0.50056E+08         0.00000E+00
    0.00000E+00         0.00000E+00        -0.42047E+08
 
   -0.39503E+08         0.17640E+06         0.00000E+00
    0.17640E+06        -0.50081E+08         0.00000E+00
    0.00000E+00         0.00000E+00        -0.42047E+08
 
   -0.39671E+08         0.21496E+06         0.00000E+00
    0.21496E+06        -0.50110E+08         0.00000E+00
    0.00000E+00         0.00000E+00        -0.42047E+08
 
   -0.39827E+08         0.25641E+06         0.00000E+00
    0.25641E+06        -0.50143E+08         0.00000E+00
    0.00000E+00         0.00000E+00        -0.42047E+08
 
   -0.39971E+08         0.30105E+06         0.00000E+00
    0.30105E+06        -0.50179E+08         0.00000E+00
    0.00000E+00         0.00000E+00        -0.42047E+08
 
   -0.40103E+08         0.34917E+06         0.00000E+00
    0.34917E+06        -0.50218E+08         0.00000E+00
    0.00000E+00         0.00000E+00        -0.42047E+08
 
   -0.40225E+08         0.40100E+06         0.00000E+00
    0.40100E+06        -0.50260E+08         0.00000E+00
    0.00000E+00         0.00000E+00        -0.42047E+08
 
   -0.40337E+08         0.45677E+06         0.00000E+00
    0.45677E+06        -0.50304E+08         0.00000E+00
    0.00000E+00         0.00000E+00        -0.42047E+08
 
   -0.40440E+08         0.51667E+06         0.00000E+00
    0.51667E+06        -0.50351E+08         0.00000E+00
    0.00000E+00         0.00000E+00        -0.42047E+08
 
   -0.40533E+08         0.58088E+06         0.00000E+00
    0.58088E+06        -0.50399E+08         0.00000E+00
    0.00000E+00         0.00000E+00        -0.42047E+08
 
   -0.40618E+08         0.64955E+06         0.00000E+00
    0.64955E+06        -0.50449E+08         0.00000E+00
    0.00000E+00         0.00000E+00        -0.42047E+08
 
   -0.40696E+08         0.72282E+06         0.00000E+00
    0.72282E+06        -0.50500E+08         0.00000E+00
    0.00000E+00         0.00000E+00        -0.42047E+08
 
   -0.40766E+08         0.80079E+06         0.00000E+00
    0.80079E+06        -0.50552E+08         0.00000E+00
    0.00000E+00         0.00000E+00        -0.42047E+08
 
   -0.40830E+08         0.88358E+06         0.00000E+00
    0.88358E+06        -0.50604E+08         0.00000E+00
    0.00000E+00         0.00000E+00        -0.42047E+08
 
   -0.40888E+08         0.97125E+06         0.00000E+00
    0.97125E+06        -0.50657E+08         0.00000E+00
    0.00000E+00         0.00000E+00        -0.42047E+08
 
   -0.40940E+08         0.10639E+07         0.00000E+00
    0.10639E+07        -0.50710E+08         0.00000E+00
    0.00000E+00         0.00000E+00        -0.42047E+08
 
   -0.40987E+08         0.11615E+07         0.00000E+00
    0.11615E+07        -0.50764E+08         0.00000E+00
    0.00000E+00         0.00000E+00        -0.42047E+08
 
   -0.41029E+08         0.12642E+07         0.00000E+00
    0.12642E+07        -0.50816E+08         0.00000E+00
    0.00000E+00         0.00000E+00        -0.42047E+08
 
   -0.41068E+08         0.13719E+07         0.00000E+00
    0.13719E+07        -0.50869E+08         0.00000E+00
    0.00000E+00         0.00000E+00        -0.42047E+08
 
   -0.41103E+08         0.14847E+07         0.00000E+00
    0.14847E+07        -0.50920E+08         0.00000E+00
    0.00000E+00         0.00000E+00        -0.42047E+08
 
   -0.41134E+08         0.16026E+07         0.00000E+00
    0.16026E+07        -0.50971E+08         0.00000E+00
    0.00000E+00         0.00000E+00        -0.42047E+08
 
   -0.41163E+08         0.17256E+07         0.00000E+00
    0.17256E+07        -0.51021E+08         0.00000E+00
    0.00000E+00         0.00000E+00        -0.42047E+08
 
   -0.41190E+08         0.18536E+07         0.00000E+00
    0.18536E+07        -0.51069E+08         0.00000E+00
    0.00000E+00         0.00000E+00        -0.42047E+08
 
   -0.41215E+08         0.19866E+07         0.00000E+00
    0.19866E+07        -0.51115E+08         0.00000E+00
    0.00000E+00         0.00000E+00        -0.42047E+08
 
   -0.41238E+08         0.21247E+07         0.00000E+00
    0.21247E+07        -0.51160E+08         0.00000E+00
    0.00000E+00         0.00000E+00        -0.42047E+08
 
   -0.41260E+08         0.22676E+07         0.00000E+00
    0.22676E+07        -0.51203E+08         0.00000E+00
    0.00000E+00         0.00000E+00        -0.42047E+08
 
   -0.41282E+08         0.24155E+07         0.00000E+00
    0.24155E+07        -0.51243E+08         0.00000E+00
    0.00000E+00         0.00000E+00        -0.42047E+08
 
   -0.41303E+08         0.25682E+07         0.00000E+00
    0.25682E+07        -0.51281E+08         0.00000E+00
    0.00000E+00         0.00000E+00        -0.42047E+08
 
   -0.41325E+08         0.27256E+07         0.00000E+00
    0.27256E+07        -0.51317E+08         0.00000E+00
    0.00000E+00         0.00000E+00        -0.42047E+08
 
   -0.41347E+08         0.28877E+07         0.00000E+00
    0.28877E+07        -0.51350E+08         0.00000E+00
    0.00000E+00         0.00000E+00        -0.42047E+08
 
   -0.41370E+08         0.30545E+07         0.00000E+00
    0.30545E+07        -0.51380E+08         0.00000E+00
    0.00000E+00         0.00000E+00        -0.42047E+08
 
   -0.41393E+08         0.32257E+07         0.00000E+00
    0.32257E+07        -0.51407E+08         0.00000E+00
    0.00000E+00         0.00000E+00        -0.42047E+08
 
   -0.41419E+08         0.34013E+07         0.00000E+00
    0.34013E+07        -0.51431E+08         0.00000E+00
    0.00000E+00         0.00000E+00        -0.42047E+08
 
   -0.41446E+08         0.35812E+07         0.00000E+00
    0.35812E+07        -0.51451E+08         0.00000E+00
    0.00000E+00         0.00000E+00        -0.42047E+08
 
   -0.41475E+08         0.37653E+07         0.00000E+00
    0.37653E+07        -0.51468E+08         0.00000E+00
    0.00000E+00         0.00000E+00        -0.42047E+08
 
   -0.41507E+08         0.39535E+07         0.00000E+00
    0.39535E+07        -0.51481E+08         0.00000E+00
    0.00000E+00         0.00000E+00        -0.42047E+08
 
   -0.41541E+08         0.41456E+07         0.00000E+00
    0.41456E+07        -0.51491E+08         0.00000E+00
    0.00000E+00         0.00000E+00        -0.42047E+08
 
   -0.41578E+08         0.43416E+07         0.00000E+00
    0.43416E+07        -0.51496E+08         0.00000E+00
    0.00000E+00         0.00000E+00        -0.42047E+08
 
   -0.41618E+08         0.45412E+07         0.00000E+00
    0.45412E+07        -0.51497E+08         0.00000E+00
    0.00000E+00         0.00000E+00        -0.42047E+08
 
   -0.41662E+08         0.47443E+07         0.00000E+00
    0.47443E+07        -0.51494E+08         0.00000E+00
    0.00000E+00         0.00000E+00        -0.42047E+08
 
   -0.41710E+08         0.49507E+07         0.00000E+00
    0.49507E+07        -0.51486E+08         0.00000E+00
    0.00000E+00         0.00000E+00        -0.42047E+08
 
   -0.41761E+08         0.51604E+07         0.00000E+00
    0.51604E+07        -0.51474E+08         0.00000E+00
    0.00000E+00         0.00000E+00        -0.42047E+08
 
   -0.41817E+08         0.53731E+07         0.00000E+00
    0.53731E+07        -0.51457E+08         0.00000E+00
    0.00000E+00         0.00000E+00        -0.42047E+08
 
   -0.41877E+08         0.55886E+07         0.00000E+00
    0.55886E+07        -0.51435E+08         0.00000E+00
    0.00000E+00         0.00000E+00        -0.42047E+08
 
   -0.41941E+08         0.58068E+07         0.00000E+00
    0.58068E+07        -0.51408E+08         0.00000E+00
    0.00000E+00         0.00000E+00        -0.42047E+08
 
   -0.42011E+08         0.60274E+07         0.00000E+00
    0.60274E+07        -0.51376E+08         0.00000E+00
    0.00000E+00         0.00000E+00        -0.42047E+08
 
   -0.38377E+08        -0.31245E+04         0.00000E+00
   -0.31245E+04        -0.50002E+08         0.00000E+00
    0.00000E+00         0.00000E+00        -0.40865E+08
 
   -0.38610E+08        -0.34694E+04         0.00000E+00
   -0.34694E+04        -0.50009E+08         0.00000E+00
    0.00000E+00         0.00000E+00        -0.40865E+08
 
   -0.38825E+08        -0.98426E+03         0.00000E+00
   -0.98426E+03        -0.50023E+08         0.00000E+00
    0.00000E+00         0.00000E+00        -0.40865E+08
 
   -0.39023E+08         0.47783E+04         0.00000E+00
    0.47783E+04        -0.50042E+08         0.00000E+00
    0.00000E+00         0.00000E+00        -0.40865E+08
 
   -0.39204E+08         0.14226E+05         0.00000E+00
    0.14226E+05        -0.50067E+08         0.00000E+00
    0.00000E+00         0.00000E+00        -0.40865E+08
 
   -0.39369E+08         0.27727E+05         0.00000E+00
    0.27727E+05        -0.50097E+08         0.00000E+00
    0.00000E+00         0.00000E+00        -0.40865E+08
 
   -0.39519E+08         0.45617E+05         0.00000E+00
    0.45617E+05        -0.50131E+08         0.00000E+00
    0.00000E+00         0.00000E+00        -0.40865E+08
 
   -0.39655E+08         0.68193E+05         0.00000E+00
    0.68193E+05        -0.50170E+08         0.00000E+00
    0.00000E+00         0.00000E+00        -0.40865E+08
 
   -0.39779E+08         0.95722E+05         0.00000E+00
    0.95722E+05        -0.50212E+08         0.00000E+00
    0.00000E+00         0.00000E+00        -0.40865E+08
 
   -0.39889E+08         0.12844E+06         0.00000E+00
    0.12844E+06        -0.50258E+08         0.00000E+00
    0.00000E+00         0.00000E+00        -0.40865E+08
 
   -0.39988E+08         0.16656E+06         0.00000E+00
    0.16656E+06        -0.50307E+08         0.00000E+00
    0.00000E+00         0.00000E+00        -0.40865E+08
 
   -0.40075E+08         0.21025E+06         0.00000E+00
    0.21025E+06        -0.50359E+08         0.00000E+00
    0.00000E+00         0.00000E+00        -0.40865E+08
 
   -0.40153E+08         0.25967E+06         0.00000E+00
    0.25967E+06        -0.50414E+08         0.00000E+00
    0.00000E+00         0.00000E+00        -0.40865E+08
 
   -0.40221E+08         0.31495E+06         0.00000E+00
    0.31495E+06        -0.50470E+08         0.00000E+00
    0.00000E+00         0.00000E+00        -0.40865E+08
 
   -0.40280E+08         0.37621E+06         0.00000E+00
    0.37621E+06        -0.50528E+08         0.00000E+00
    0.00000E+00         0.00000E+00        -0.40865E+08
 
   -0.40330E+08         0.44353E+06         0.00000E+00
    0.44353E+06        -0.50587E+08         0.00000E+00
    0.00000E+00         0.00000E+00        -0.40865E+08
 
   -0.40374E+08         0.51698E+06         0.00000E+00
    0.51698E+06        -0.50648E+08         0.00000E+00
    0.00000E+00         0.00000E+00        -0.40865E+08
 
   -0.40410E+08         0.59661E+06         0.00000E+00
    0.59661E+06        -0.50710E+08         0.00000E+00
    0.00000E+00         0.00000E+00        -0.40865E+08
 
   -0.40440E+08         0.68247E+06         0.00000E+00
    0.68247E+06        -0.50771E+08         0.00000E+00
    0.00000E+00         0.00000E+00        -0.40865E+08
 
   -0.40464E+08         0.77457E+06         0.00000E+00
    0.77457E+06        -0.50834E+08         0.00000E+00
    0.00000E+00         0.00000E+00        -0.40865E+08
 
   -0.40483E+08         0.87293E+06         0.00000E+00
    0.87293E+06        -0.50896E+08         0.00000E+00
    0.00000E+00         0.00000E+00        -0.40865E+08
 
   -0.40497E+08         0.97754E+06         0.00000E+00
    0.97754E+06        -0.50958E+08         0.00000E+00
    0.00000E+00         0.00000E+00        -0.40865E+08
 
   -0.40507E+08         0.10884E+07         0.00000E+00
    0.10884E+07        -0.51019E+08         0.00000E+00
    0.00000E+00         0.00000E+00        -0.40865E+08
 
   -0.40514E+08         0.12055E+07         0.00000E+00
    0.12055E+07        -0.51080E+08         0.00000E+00
    0.00000E+00         0.00000E+00        -0.40865E+08
 
   -0.40517E+08         0.13287E+07         0.00000E+00
    0.13287E+07        -0.51140E+08         0.00000E+00
    0.00000E+00         0.00000E+00        -0.40865E+08
 
   -0.40518E+08         0.14581E+07         0.00000E+00
    0.14581E+07        -0.51199E+08         0.00000E+00
    0.00000E+00         0.00000E+00        -0.40865E+08
 
   -0.40517E+08         0.15936E+07         0.00000E+00
    0.15936E+07        -0.51256E+08         0.00000E+00
    0.00000E+00         0.00000E+00        -0.40865E+08
 
   -0.40515E+08         0.17352E+07         0.00000E+00
    0.17352E+07        -0.51312E+08         0.00000E+00
    0.00000E+00         0.00000E+00        -0.40865E+08
 
   -0.40511E+08         0.18827E+07         0.00000E+00
    0.18827E+07        -0.51366E+08         0.00000E+00
    0.00000E+00         0.00000E+00        -0.40865E+08
 
   -0.40506E+08         0.20361E+07         0.00000E+00
    0.20361E+07        -0.51417E+08         0.00000E+00
    0.00000E+00         0.00000E+00        -0.40865E+08
 
   -0.40501E+08         0.21954E+07         0.00000E+00
    0.21954E+07        -0.51467E+08         0.00000E+00
    0.00000E+00         0.00000E+00        -0.40865E+08
 
   -0.40496E+08         0.23604E+07         0.00000E+00
    0.23604E+07        -0.51514E+08         0.00000E+00
    0.00000E+00         0.00000E+00        -0.40865E+08
 
   -0.40492E+08         0.25311E+07         0.00000E+00
    0.25311E+07        -0.51559E+08         0.00000E+00
    0.00000E+00         0.00000E+00        -0.40865E+08
 
   -0.40489E+08         0.27074E+07         0.00000E+00
    0.27074E+07        -0.51601E+08         0.00000E+00
    0.00000E+00         0.00000E+00        -0.40865E+08
 
   -0.40487E+08         0.28891E+07         0.00000E+00
    0.28891E+07        -0.51640E+08         0.00000E+00
    0.00000E+00         0.00000E+00        -0.40865E+08
 
   -0.40486E+08         0.30763E+07         0.00000E+00
    0.30763E+07        -0.51676E+08         0.00000E+00
    0.00000E+00         0.00000E+00        -0.40865E+08
 
   -0.40487E+08         0.32687E+07         0.00000E+00
    0.32687E+07        -0.51709E+08         0.00000E+00
    0.00000E+00         0.00000E+00        -0.40865E+08
 
   -0.40491E+08         0.34662E+07         0.00000E+00
    0.34662E+07        -0.51738E+08         0.00000E+00
    0.00000E+00         0.00000E+00        -0.40865E+08
 
   -0.40498E+08         0.36687E+07         0.00000E+00
    0.36687E+07        -0.51763E+08         0.00000E+00
    0.00000E+00         0.00000E+00        -0.40865E+08
 
   -0.40507E+08         0.38762E+07         0.00000E+00
    0.38762E+07        -0.51785E+08         0.00000E+00
    0.00000E+00         0.00000E+00        -0.40865E+08
 
   -0.40520E+08         0.40883E+07         0.00000E+00
    0.40883E+07        -0.51803E+08         0.00000E+00
    0.00000E+00         0.00000E+00        -0.40865E+08
 
   -0.40537E+08         0.43051E+07         0.00000E+00
    0.43051E+07        -0.51817E+08         0.00000E+00
    0.00000E+00         0.00000E+00        -0.40865E+08
 
   -0.40557E+08         0.45263E+07         0.00000E+00
    0.45263E+07        -0.51826E+08         0.00000E+00
    0.00000E+00         0.00000E+00        -0.40865E+08
 
   -0.40582E+08         0.47518E+07         0.00000E+00
    0.47518E+07        -0.51831E+08         0.00000E+00
    0.00000E+00         0.00000E+00        -0.40865E+08
 
   -0.40611E+08         0.49814E+07         0.00000E+00
    0.49814E+07        -0.51831E+08         0.00000E+00
    0.00000E+00         0.00000E+00        -0.40865E+08
 
   -0.40646E+08         0.52149E+07         0.00000E+00
    0.52149E+07        -0.51826E+08         0.00000E+00
    0.00000E+00         0.00000E+00        -0.40865E+08
 
   -0.40685E+08         0.54522E+07         0.00000E+00
    0.54522E+07        -0.51817E+08         0.00000E+00
    0.00000E+00         0.00000E+00        -0.40865E+08
 
   -0.40729E+08         0.56929E+07         0.00000E+00
    0.56929E+07        -0.51802E+08         0.00000E+00
    0.00000E+00         0.00000E+00        -0.40865E+08
 
   -0.40780E+08         0.59370E+07         0.00000E+00
    0.59370E+07        -0.51782E+08         0.00000E+00
    0.00000E+00         0.00000E+00        -0.40865E+08
 
   -0.40836E+08         0.61842E+07         0.00000E+00
    0.61842E+07        -0.51757E+08         0.00000E+00
    0.00000E+00         0.00000E+00        -0.40865E+08
 
   -0.38474E+08        -0.24090E+05         0.00000E+00
   -0.24090E+05        -0.50003E+08         0.00000E+00
    0.00000E+00         0.00000E+00        -0.39544E+08
 
   -0.38688E+08        -0.59627E+05         0.00000E+00
   -0.59627E+05        -0.50011E+08         0.00000E+00
    0.00000E+00         0.00000E+00        -0.39544E+08
 
   -0.38882E+08        -0.89924E+05         0.00000E+00
   -0.89924E+05        -0.50026E+08         0.00000E+00
    0.00000E+00         0.00000E+00        -0.39544E+08
 
   -0.39056E+08        -0.11457E+06         0.00000E+00
   -0.11457E+06        -0.50049E+08         0.00000E+00
    0.00000E+00         0.00000E+00        -0.39544E+08
 
   -0.39212E+08        -0.13322E+06         0.00000E+00
   -0.13322E+06        -0.50077E+08         0.00000E+00
    0.00000E+00         0.00000E+00        -0.39544E+08
 
   -0.39351E+08        -0.14553E+06         0.00000E+00
   -0.14553E+06        -0.50112E+08         0.00000E+00
    0.00000E+00         0.00000E+00        -0.39544E+08
 
   -0.39473E+08        -0.15125E+06         0.00000E+00
   -0.15125E+06        -0.50151E+08         0.00000E+00
    0.00000E+00         0.00000E+00        -0.39544E+08
 
   -0.39580E+08        -0.15012E+06         0.00000E+00
   -0.15012E+06        -0.50195E+08         0.00000E+00
    0.00000E+00         0.00000E+00        -0.39544E+08
 
   -0.39673E+08        -0.14194E+06         0.00000E+00
   -0.14194E+06        -0.50244E+08         0.00000E+00
    0.00000E+00         0.00000E+00        -0.39544E+08
 
   -0.39752E+08        -0.12655E+06         0.00000E+00
   -0.12655E+06        -0.50296E+08         0.00000E+00
    0.00000E+00         0.00000E+00        -0.39544E+08
 
   -0.39819E+08        -0.10380E+06         0.00000E+00
   -0.10380E+06        -0.50352E+08         0.00000E+00
    0.00000E+00         0.00000E+00        -0.39544E+08
 
   -0.39874E+08        -0.73579E+05         0.00000E+00
   -0.73579E+05        -0.50411E+08         0.00000E+00
    0.00000E+00         0.00000E+00        -0.39544E+08
 
   -0.39918E+08        -0.35804E+05         0.00000E+00
   -0.35804E+05        -0.50472E+08         0.00000E+00
    0.00000E+00         0.00000E+00        -0.39544E+08
 
   -0.39952E+08         0.95855E+04         0.00000E+00
    0.95855E+04        -0.50536E+08         0.00000E+00
    0.00000E+00         0.00000E+00        -0.39544E+08
 
   -0.39977E+08         0.62631E+05         0.00000E+00
    0.62631E+05        -0.50601E+08         0.00000E+00
    0.00000E+00         0.00000E+00        -0.39544E+08
 
   -0.39993E+08         0.12335E+06         0.00000E+00
    0.12335E+06        -0.50668E+08         0.00000E+00
    0.00000E+00         0.00000E+00        -0.39544E+08
 
   -0.40002E+08         0.19176E+06         0.00000E+00
    0.19176E+06        -0.50736E+08         0.00000E+00
    0.00000E+00         0.00000E+00        -0.39544E+08
 
   -0.40003E+08         0.26783E+06         0.00000E+00
    0.26783E+06        -0.50806E+08         0.00000E+00
    0.00000E+00         0.00000E+00        -0.39544E+08
 
   -0.39998E+08         0.35155E+06         0.00000E+00
    0.35155E+06        -0.50875E+08         0.00000E+00
    0.00000E+00         0.00000E+00        -0.39544E+08
 
   -0.39988E+08         0.44287E+06         0.00000E+00
    0.44287E+06        -0.50945E+08         0.00000E+00
    0.00000E+00         0.00000E+00        -0.39544E+08
 
   -0.39972E+08         0.54175E+06         0.00000E+00
    0.54175E+06        -0.51015E+08         0.00000E+00
    0.00000E+00         0.00000E+00        -0.39544E+08
 
   -0.39953E+08         0.64814E+06         0.00000E+00
    0.64814E+06        -0.51085E+08         0.00000E+00
    0.00000E+00         0.00000E+00        -0.39544E+08
 
   -0.39929E+08         0.76197E+06         0.00000E+00
    0.76197E+06        -0.51154E+08         0.00000E+00
    0.00000E+00         0.00000E+00        -0.39544E+08
 
   -0.39901E+08         0.88318E+06         0.00000E+00
    0.88318E+06        -0.51223E+08         0.00000E+00
    0.00000E+00         0.00000E+00        -0.39544E+08
 
   -0.39872E+08         0.10117E+07         0.00000E+00
    0.10117E+07        -0.51291E+08         0.00000E+00
    0.00000E+00         0.00000E+00        -0.39544E+08
 
   -0.39839E+08         0.11474E+07         0.00000E+00
    0.11474E+07        -0.51357E+08         0.00000E+00
    0.00000E+00         0.00000E+00        -0.39544E+08
 
   -0.39805E+08         0.12903E+07         0.00000E+00
    0.12903E+07        -0.51423E+08         0.00000E+00
    0.00000E+00         0.00000E+00        -0.39544E+08
 
   -0.39770E+08         0.14402E+07         0.00000E+00
    0.14402E+07        -0.51486E+08         0.00000E+00
    0.00000E+00         0.00000E+00        -0.39544E+08
 
   -0.39734E+08         0.15971E+07         0.00000E+00
    0.15971E+07        -0.51548E+08         0.00000E+00
    0.00000E+00         0.00000E+00        -0.39544E+08
 
   -0.39698E+08         0.17609E+07         0.00000E+00
    0.17609E+07        -0.51609E+08         0.00000E+00
    0.00000E+00         0.00000E+00        -0.39544E+08
 
   -0.39662E+08         0.19314E+07         0.00000E+00
    0.19314E+07        -0.51667E+08         0.00000E+00
    0.00000E+00         0.00000E+00        -0.39544E+08
 
   -0.39626E+08         0.21087E+07         0.00000E+00
    0.21087E+07        -0.51722E+08         0.00000E+00
    0.00000E+00         0.00000E+00        -0.39544E+08
 
   -0.39591E+08         0.22925E+07         0.00000E+00
    0.22925E+07        -0.51775E+08         0.00000E+00
    0.00000E+00         0.00000E+00        -0.39544E+08
 
   -0.39558E+08         0.24828E+07         0.00000E+00
    0.24828E+07        -0.51826E+08         0.00000E+00
    0.00000E+00         0.00000E+00        -0.39544E+08
 
   -0.39526E+08         0.26795E+07         0.00000E+00
    0.26795E+07        -0.51874E+08         0.00000E+00
    0.00000E+00         0.00000E+00        -0.39544E+08
 
   -0.39497E+08         0.28825E+07         0.00000E+00
    0.28825E+07        -0.51918E+08         0.00000E+00
    0.00000E+00         0.00000E+00        -0.39544E+08
 
   -0.39470E+08         0.30916E+07         0.00000E+00
    0.30916E+07        -0.51960E+08         0.00000E+00
    0.00000E+00         0.00000E+00        -0.39544E+08
 
   -0.39446E+08         0.33068E+07         0.00000E+00
    0.33068E+07        -0.51998E+08         0.00000E+00
    0.00000E+00         0.00000E+00        -0.39544E+08
 
   -0.39426E+08         0.35279E+07         0.00000E+00
    0.35279E+07        -0.52032E+08         0.00000E+00
    0.00000E+00         0.00000E+00        -0.39544E+08
 
   -0.39409E+08         0.37548E+07         0.00000E+00
    0.37548E+07        -0.52063E+08         0.00000E+00
    0.00000E+00         0.00000E+00        -0.39544E+08
 
   -0.39397E+08         0.39873E+07         0.00000E+00
    0.39873E+07        -0.52090E+08         0.00000E+00
    0.00000E+00         0.00000E+00        -0.39544E+08
 
   -0.39388E+08         0.42253E+07         0.00000E+00
    0.42253E+07        -0.52113E+08         0.00000E+00
    0.00000E+00         0.00000E+00        -0.39544E+08
 
   -0.39385E+08         0.44686E+07         0.00000E+00
    0.44686E+07        -0.52131E+08         0.00000E+00
    0.00000E+00         0.00000E+00        -0.39544E+08
 
   -0.39387E+08         0.47171E+07         0.00000E+00
    0.47171E+07        -0.52145E+08         0.00000E+00
    0.00000E+00         0.00000E+00        -0.39544E+08
 
   -0.39394E+08         0.49706E+07         0.00000E+00
    0.49706E+07        -0.52154E+08         0.00000E+00
    0.00000E+00         0.00000E+00        -0.39544E+08
 
   -0.39407E+08         0.52289E+07         0.00000E+00
    0.52289E+07        -0.52158E+08         0.00000E+00
    0.00000E+00         0.00000E+00        -0.39544E+08
 
   -0.39426E+08         0.54917E+07         0.00000E+00
    0.54917E+07        -0.52157E+08         0.00000E+00
    0.00000E+00         0.00000E+00        -0.39544E+08
 
   -0.39451E+08         0.57589E+07         0.00000E+00
    0.57589E+07        -0.52151E+08         0.00000E+00
    0.00000E+00         0.00000E+00        -0.39544E+08
 
   -0.39483E+08         0.60303E+07         0.00000E+00
    0.60303E+07        -0.52139E+08         0.00000E+00
    0.00000E+00         0.00000E+00        -0.39544E+08
 
   -0.39523E+08         0.63055E+07         0.00000E+00
    0.63055E+07        -0.52122E+08         0.00000E+00
    0.00000E+00         0.00000E+00        -0.39544E+08
 
   -0.38766E+08        -0.48392E+05         0.00000E+00
   -0.48392E+05        -0.50003E+08         0.00000E+00
    0.00000E+00         0.00000E+00        -0.38076E+08
 
   -0.38947E+08        -0.12405E+06         0.00000E+00
   -0.12405E+06        -0.50012E+08         0.00000E+00
    0.00000E+00         0.00000E+00        -0.38076E+08
 
   -0.39107E+08        -0.19148E+06         0.00000E+00
   -0.19148E+06        -0.50030E+08         0.00000E+00
    0.00000E+00         0.00000E+00        -0.38076E+08
 
   -0.39245E+08        -0.25034E+06         0.00000E+00
   -0.25034E+06        -0.50055E+08         0.00000E+00
    0.00000E+00         0.00000E+00        -0.38076E+08
 
   -0.39363E+08        -0.30036E+06         0.00000E+00
   -0.30036E+06        -0.50087E+08         0.00000E+00
    0.00000E+00         0.00000E+00        -0.38076E+08
 
   -0.39463E+08        -0.34131E+06         0.00000E+00
   -0.34131E+06        -0.50125E+08         0.00000E+00
    0.00000E+00         0.00000E+00        -0.38076E+08
 
   -0.39546E+08        -0.37301E+06         0.00000E+00
   -0.37301E+06        -0.50169E+08         0.00000E+00
    0.00000E+00         0.00000E+00        -0.38076E+08
 
   -0.39612E+08        -0.39531E+06         0.00000E+00
   -0.39531E+06        -0.50218E+08         0.00000E+00
    0.00000E+00         0.00000E+00        -0.38076E+08
 
   -0.39663E+08        -0.40812E+06         0.00000E+00
   -0.40812E+06        -0.50271E+08         0.00000E+00
    0.00000E+00         0.00000E+00        -0.38076E+08
 
   -0.39700E+08        -0.41136E+06         0.00000E+00
   -0.41136E+06        -0.50329E+08         0.00000E+00
    0.00000E+00         0.00000E+00        -0.38076E+08
 
   -0.39724E+08        -0.40501E+06         0.00000E+00
   -0.40501E+06        -0.50390E+08         0.00000E+00
    0.00000E+00         0.00000E+00        -0.38076E+08
 
   -0.39737E+08        -0.38905E+06         0.00000E+00
   -0.38905E+06        -0.50454E+08         0.00000E+00
    0.00000E+00         0.00000E+00        -0.38076E+08
 
   -0.39738E+08        -0.36352E+06         0.00000E+00
   -0.36352E+06        -0.50521E+08         0.00000E+00
    0.00000E+00         0.00000E+00        -0.38076E+08
 
   -0.39729E+08        -0.32845E+06         0.00000E+00
   -0.32845E+06        -0.50590E+08         0.00000E+00
    0.00000E+00         0.00000E+00        -0.38076E+08
 
   -0.39711E+08        -0.28390E+06         0.00000E+00
   -0.28390E+06        -0.50661E+08         0.00000E+00
    0.00000E+00         0.00000E+00        -0.38076E+08
 
   -0.39685E+08        -0.22996E+06         0.00000E+00
   -0.22996E+06        -0.50734E+08         0.00000E+00
    0.00000E+00         0.00000E+00        -0.38076E+08
 
   -0.39652E+08        -0.16672E+06         0.00000E+00
   -0.16672E+06        -0.50808E+08         0.00000E+00
    0.00000E+00         0.00000E+00        -0.38076E+08
 
   -0.39611E+08        -0.94290E+05         0.00000E+00
   -0.94290E+05        -0.50882E+08         0.00000E+00
    0.00000E+00         0.00000E+00        -0.38076E+08
 
   -0.39565E+08        -0.12773E+05         0.00000E+00
   -0.12773E+05        -0.50957E+08         0.00000E+00
    0.00000E+00         0.00000E+00        -0.38076E+08
 
   -0.39513E+08         0.77707E+05         0.00000E+00
    0.77707E+05        -0.51033E+08         0.00000E+00
    0.00000E+00         0.00000E+00        -0.38076E+08
 
   -0.39457E+08         0.17703E+06         0.00000E+00
    0.17703E+06        -0.51108E+08         0.00000E+00
    0.00000E+00         0.00000E+00        -0.38076E+08
 
   -0.39397E+08         0.28506E+06         0.00000E+00
    0.28506E+06        -0.51183E+08         0.00000E+00
    0.00000E+00         0.00000E+00        -0.38076E+08
 
   -0.39333E+08         0.40168E+06         0.00000E+00
    0.40168E+06        -0.51258E+08         0.00000E+00
    0.00000E+00         0.00000E+00        -0.38076E+08
 
   -0.39267E+08         0.52676E+06         0.00000E+00
    0.52676E+06        -0.51332E+08         0.00000E+00
    0.00000E+00         0.00000E+00        -0.38076E+08
 
   -0.39198E+08         0.66018E+06         0.00000E+00
    0.66018E+06        -0.51406E+08         0.00000E+00
    0.00000E+00         0.00000E+00        -0.38076E+08
 
   -0.39127E+08         0.80182E+06         0.00000E+00
    0.80182E+06        -0.51478E+08         0.00000E+00
    0.00000E+00         0.00000E+00        -0.38076E+08
 
   -0.39055E+08         0.95156E+06         0.00000E+00
    0.95156E+06        -0.51549E+08         0.00000E+00
    0.00000E+00         0.00000E+00        -0.38076E+08
 
   -0.38983E+08         0.11093E+07         0.00000E+00
    0.11093E+07        -0.51619E+08         0.00000E+00
    0.00000E+00         0.00000E+00        -0.38076E+08
 
   -0.38910E+08         0.12749E+07         0.00000E+00
    0.12749E+07        -0.51687E+08         0.00000E+00
    0.00000E+00         0.00000E+00        -0.38076E+08
 
   -0.38837E+08         0.14482E+07         0.00000E+00
    0.14482E+07        -0.51754E+08         0.00000E+00
    0.00000E+00         0.00000E+00        -0.38076E+08
 
   -0.38765E+08         0.16293E+07         0.00000E+00
    0.16293E+07        -0.51818E+08         0.00000E+00
    0.00000E+00         0.00000E+00        -0.38076E+08
 
   -0.38694E+08         0.18179E+07         0.00000E+00
    0.18179E+07        -0.51881E+08         0.00000E+00
    0.00000E+00         0.00000E+00        -0.38076E+08
 
   -0.38625E+08         0.20139E+07         0.00000E+00
    0.20139E+07        -0.51941E+08         0.00000E+00
    0.00000E+00         0.00000E+00        -0.38076E+08
 
   -0.38557E+08         0.22174E+07         0.00000E+00
    0.22174E+07        -0.51999E+08         0.00000E+00
    0.00000E+00         0.00000E+00        -0.38076E+08
 
   -0.38491E+08         0.24281E+07         0.00000E+00
    0.24281E+07        -0.52055E+08         0.00000E+00
    0.00000E+00         0.00000E+00        -0.38076E+08
 
   -0.38429E+08         0.26460E+07         0.00000E+00
    0.26460E+07        -0.52107E+08         0.00000E+00
    0.00000E+00         0.00000E+00        -0.38076E+08
 
   -0.38369E+08         0.28710E+07         0.00000E+00
    0.28710E+07        -0.52157E+08         0.00000E+00
    0.00000E+00         0.00000E+00        -0.38076E+08
 
   -0.38313E+08         0.31029E+07         0.00000E+00
    0.31029E+07        -0.52204E+08         0.00000E+00
    0.00000E+00         0.00000E+00        -0.38076E+08
 
   -0.38261E+08         0.33417E+07         0.00000E+00
    0.33417E+07        -0.52248E+08         0.00000E+00
    0.00000E+00         0.00000E+00        -0.38076E+08
 
   -0.38213E+08         0.35873E+07         0.00000E+00
    0.35873E+07        -0.52288E+08         0.00000E+00
    0.00000E+00         0.00000E+00        -0.38076E+08
 
   -0.38170E+08         0.38395E+07         0.00000E+00
    0.38395E+07        -0.52324E+08         0.00000E+00
    0.00000E+00         0.00000E+00        -0.38076E+08
 
   -0.38133E+08         0.40982E+07         0.00000E+00
    0.40982E+07        -0.52356E+08         0.00000E+00
    0.00000E+00         0.00000E+00        -0.38076E+08
 
   -0.38100E+08         0.43633E+07         0.00000E+00
    0.43633E+07        -0.52385E+08         0.00000E+00
    0.00000E+00         0.00000E+00        -0.38076E+08
 
   -0.38074E+08         0.46346E+07         0.00000E+00
    0.46346E+07        -0.52409E+08         0.00000E+00
    0.00000E+00         0.00000E+00        -0.38076E+08
 
   -0.38054E+08         0.49119E+07         0.00000E+00
    0.49119E+07        -0.52428E+08         0.00000E+00
    0.00000E+00         0.00000E+00        -0.38076E+08
 
   -0.38041E+08         0.51951E+07         0.00000E+00
    0.51951E+07        -0.52443E+08         0.00000E+00
    0.00000E+00         0.00000E+00        -0.38076E+08
 
   -0.38035E+08         0.54839E+07         0.00000E+00
    0.54839E+07        -0.52452E+08         0.00000E+00
    0.00000E+00         0.00000E+00        -0.38076E+08
 
   -0.38037E+08         0.57781E+07         0.00000E+00
    0.57781E+07        -0.52456E+08         0.00000E+00
    0.00000E+00         0.00000E+00        -0.38076E+08
 
   -0.38047E+08         0.60775E+07         0.00000E+00
    0.60775E+07        -0.52455E+08         0.00000E+00
    0.00000E+00         0.00000E+00        -0.38076E+08
 
   -0.38065E+08         0.63819E+07         0.00000E+00
    0.63819E+07        -0.52448E+08         0.00000E+00
    0.00000E+00         0.00000E+00        -0.38076E+08
 
   -0.39278E+08        -0.75830E+05         0.00000E+00
   -0.75830E+05        -0.50003E+08         0.00000E+00
    0.00000E+00         0.00000E+00        -0.36455E+08
 
   -0.39410E+08        -0.19589E+06         0.00000E+00
   -0.19589E+06        -0.50014E+08         0.00000E+00
    0.00000E+00         0.00000E+00        -0.36455E+08
 
   -0.39519E+08        -0.30405E+06         0.00000E+00
   -0.30405E+06        -0.50033E+08         0.00000E+00
    0.00000E+00         0.00000E+00        -0.36455E+08
 
   -0.39605E+08        -0.40010E+06         0.00000E+00
   -0.40010E+06        -0.50060E+08         0.00000E+00
    0.00000E+00         0.00000E+00        -0.36455E+08
 
   -0.39671E+08        -0.48390E+06         0.00000E+00
   -0.48390E+06        -0.50095E+08         0.00000E+00
    0.00000E+00         0.00000E+00        -0.36455E+08
 
   -0.39717E+08        -0.55536E+06         0.00000E+00
   -0.55536E+06        -0.50136E+08         0.00000E+00
    0.00000E+00         0.00000E+00        -0.36455E+08
 
   -0.39745E+08        -0.61444E+06         0.00000E+00
   -0.61444E+06        -0.50183E+08         0.00000E+00
    0.00000E+00         0.00000E+00        -0.36455E+08
 
   -0.39757E+08        -0.66116E+06         0.00000E+00
   -0.66116E+06        -0.50235E+08         0.00000E+00
    0.00000E+00         0.00000E+00        -0.36455E+08
 
   -0.39754E+08        -0.69556E+06         0.00000E+00
   -0.69556E+06        -0.50292E+08         0.00000E+00
    0.00000E+00         0.00000E+00        -0.36455E+08
 
   -0.39737E+08        -0.71773E+06         0.00000E+00
   -0.71773E+06        -0.50352E+08         0.00000E+00
    0.00000E+00         0.00000E+00        -0.36455E+08
 
   -0.39707E+08        -0.72781E+06         0.00000E+00
   -0.72781E+06        -0.50417E+08         0.00000E+00
    0.00000E+00         0.00000E+00        -0.36455E+08
 
   -0.39666E+08        -0.72595E+06         0.00000E+00
   -0.72595E+06        -0.50484E+08         0.00000E+00
    0.00000E+00         0.00000E+00        -0.36455E+08
 
   -0.39614E+08        -0.71232E+06         0.00000E+00
   -0.71232E+06        -0.50554E+08         0.00000E+00
    0.00000E+00         0.00000E+00        -0.36455E+08
 
   -0.39553E+08        -0.68712E+06         0.00000E+00
   -0.68712E+06        -0.50625E+08         0.00000E+00
    0.00000E+00         0.00000E+00        -0.36455E+08
 
   -0.39484E+08        -0.65058E+06         0.00000E+00
   -0.65058E+06        -0.50699E+08         0.00000E+00
    0.00000E+00         0.00000E+00        -0.36455E+08
 
   -0.39407E+08        -0.60291E+06         0.00000E+00
   -0.60291E+06        -0.50773E+08         0.00000E+00
    0.00000E+00         0.00000E+00        -0.36455E+08
 
   -0.39323E+08        -0.54434E+06         0.00000E+00
   -0.54434E+06        -0.50849E+08         0.00000E+00
    0.00000E+00         0.00000E+00        -0.36455E+08
 
   -0.39234E+08        -0.47511E+06         0.00000E+00
   -0.47511E+06        -0.50926E+08         0.00000E+00
    0.00000E+00         0.00000E+00        -0.36455E+08
 
   -0.39139E+08        -0.39546E+06         0.00000E+00
   -0.39546E+06        -0.51002E+08         0.00000E+00
    0.00000E+00         0.00000E+00        -0.36455E+08
 
   -0.39040E+08        -0.30562E+06         0.00000E+00
   -0.30562E+06        -0.51079E+08         0.00000E+00
    0.00000E+00         0.00000E+00        -0.36455E+08
 
   -0.38937E+08        -0.20581E+06         0.00000E+00
   -0.20581E+06        -0.51156E+08         0.00000E+00
    0.00000E+00         0.00000E+00        -0.36455E+08
 
   -0.38831E+08        -0.96240E+05         0.00000E+00
   -0.96240E+05        -0.51233E+08         0.00000E+00
    0.00000E+00         0.00000E+00        -0.36455E+08
 
   -0.38722E+08         0.22871E+05         0.00000E+00
    0.22871E+05        -0.51310E+08         0.00000E+00
    0.00000E+00         0.00000E+00        -0.36455E+08
 
   -0.38612E+08         0.15133E+06         0.00000E+00
    0.15133E+06        -0.51385E+08         0.00000E+00
    0.00000E+00         0.00000E+00        -0.36455E+08
 
   -0.38499E+08         0.28897E+06         0.00000E+00
    0.28897E+06        -0.51461E+08         0.00000E+00
    0.00000E+00         0.00000E+00        -0.36455E+08
 
   -0.38386E+08         0.43561E+06         0.00000E+00
    0.43561E+06        -0.51535E+08         0.00000E+00
    0.00000E+00         0.00000E+00        -0.36455E+08
 
   -0.38272E+08         0.59110E+06         0.00000E+00
    0.59110E+06        -0.51609E+08         0.00000E+00
    0.00000E+00         0.00000E+00        -0.36455E+08
 
   -0.38158E+08         0.75530E+06         0.00000E+00
    0.75530E+06        -0.51681E+08         0.00000E+00
    0.00000E+00         0.00000E+00        -0.36455E+08
 
   -0.38044E+08         0.92810E+06         0.00000E+00
    0.92810E+06        -0.51752E+08         0.00000E+00
    0.00000E+00         0.00000E+00        -0.36455E+08
 
   -0.37931E+08         0.11094E+07         0.00000E+00
    0.11094E+07        -0.51822E+08         0.00000E+00
    0.00000E+00         0.00000E+00        -0.36455E+08
 
   -0.37819E+08         0.12990E+07         0.00000E+00
    0.12990E+07        -0.51891E+08         0.00000E+00
    0.00000E+00         0.00000E+00        -0.36455E+08
 
   -0.37708E+08         0.14970E+07         0.00000E+00
    0.14970E+07        -0.51958E+08         0.00000E+00
    0.00000E+00         0.00000E+00        -0.36455E+08
 
   -0.37600E+08         0.17032E+07         0.00000E+00
    0.17032E+07        -0.52024E+08         0.00000E+00
    0.00000E+00         0.00000E+00        -0.36455E+08
 
   -0.37493E+08         0.19176E+07         0.00000E+00
    0.19176E+07        -0.52087E+08         0.00000E+00
    0.00000E+00         0.00000E+00        -0.36455E+08
 
   -0.37390E+08         0.21400E+07         0.00000E+00
    0.21400E+07        -0.52149E+08         0.00000E+00
    0.00000E+00         0.00000E+00        -0.36455E+08
 
   -0.37289E+08         0.23705E+07         0.00000E+00
    0.23705E+07        -0.52209E+08         0.00000E+00
    0.00000E+00         0.00000E+00        -0.36455E+08
 
   -0.37192E+08         0.26090E+07         0.00000E+00
    0.26090E+07        -0.52266E+08         0.00000E+00
    0.00000E+00         0.00000E+00        -0.36455E+08
 
   -0.37099E+08         0.28555E+07         0.00000E+00
    0.28555E+07        -0.52321E+08         0.00000E+00
    0.00000E+00         0.00000E+00        -0.36455E+08
 
   -0.37010E+08         0.31098E+07         0.00000E+00
    0.31098E+07        -0.52374E+08         0.00000E+00
    0.00000E+00         0.00000E+00        -0.36455E+08
 
   -0.36926E+08         0.33719E+07         0.00000E+00
    0.33719E+07        -0.52423E+08         0.00000E+00
    0.00000E+00         0.00000E+00        -0.36455E+08
 
   -0.36848E+08         0.36418E+07         0.00000E+00
    0.36418E+07        -0.52469E+08         0.00000E+00
    0.00000E+00         0.00000E+00        -0.36455E+08
 
   -0.36775E+08         0.39194E+07         0.00000E+00
    0.39194E+07        -0.52512E+08         0.00000E+00
    0.00000E+00         0.00000E+00        -0.36455E+08
 
   -0.36708E+08         0.42046E+07         0.00000E+00
    0.42046E+07        -0.52552E+08         0.00000E+00
    0.00000E+00         0.00000E+00        -0.36455E+08
 
   -0.36648E+08         0.44972E+07         0.00000E+00
    0.44972E+07        -0.52587E+08         0.00000E+00
    0.00000E+00         0.00000E+00        -0.36455E+08
 
   -0.36596E+08         0.47972E+07         0.00000E+00
    0.47972E+07        -0.52619E+08         0.00000E+00
    0.00000E+00         0.00000E+00        -0.36455E+08
 
   -0.36551E+08         0.51043E+07         0.00000E+00
    0.51043E+07        -0.52646E+08         0.00000E+00
    0.00000E+00         0.00000E+00        -0.36455E+08
 
   -0.36514E+08         0.54185E+07         0.00000E+00
    0.54185E+07        -0.52668E+08         0.00000E+00
    0.00000E+00         0.00000E+00        -0.36455E+08
 
   -0.36485E+08         0.57394E+07         0.00000E+00
    0.57394E+07        -0.52685E+08         0.00000E+00
    0.00000E+00         0.00000E+00        -0.36455E+08
 
   -0.36466E+08         0.60670E+07         0.00000E+00
    0.60670E+07        -0.52697E+08         0.00000E+00
    0.00000E+00         0.00000E+00        -0.36455E+08
 
   -0.36457E+08         0.64009E+07         0.00000E+00
    0.64009E+07        -0.52703E+08         0.00000E+00
    0.00000E+00         0.00000E+00        -0.36455E+08
 
   -0.40031E+08        -0.10601E+06         0.00000E+00
   -0.10601E+06        -0.50003E+08         0.00000E+00
    0.00000E+00         0.00000E+00        -0.34679E+08
 
   -0.40093E+08        -0.27364E+06         0.00000E+00
   -0.27364E+06        -0.50015E+08         0.00000E+00
    0.00000E+00         0.00000E+00        -0.34679E+08
 
   -0.40131E+08        -0.42491E+06         0.00000E+00
   -0.42491E+06        -0.50035E+08         0.00000E+00
    0.00000E+00         0.00000E+00        -0.34679E+08
 
   -0.40147E+08        -0.55979E+06         0.00000E+00
   -0.55979E+06        -0.50064E+08         0.00000E+00
    0.00000E+00         0.00000E+00        -0.34679E+08
 
   -0.40141E+08        -0.67834E+06         0.00000E+00
   -0.67834E+06        -0.50100E+08         0.00000E+00
    0.00000E+00         0.00000E+00        -0.34679E+08
 
   -0.40116E+08        -0.78068E+06         0.00000E+00
   -0.78068E+06        -0.50142E+08         0.00000E+00
    0.00000E+00         0.00000E+00        -0.34679E+08
 
   -0.40074E+08        -0.86699E+06         0.00000E+00
   -0.86699E+06        -0.50190E+08         0.00000E+00
    0.00000E+00         0.00000E+00        -0.34679E+08
 
   -0.40016E+08        -0.93749E+06         0.00000E+00
   -0.93749E+06        -0.50243E+08         0.00000E+00
    0.00000E+00         0.00000E+00        -0.34679E+08
 
   -0.39944E+08        -0.99248E+06         0.00000E+00
   -0.99248E+06        -0.50301E+08         0.00000E+00
    0.00000E+00         0.00000E+00        -0.34679E+08
 
   -0.39859E+08        -0.10323E+07         0.00000E+00
   -0.10323E+07        -0.50362E+08         0.00000E+00
    0.00000E+00         0.00000E+00        -0.34679E+08
 
   -0.39763E+08        -0.10573E+07         0.00000E+00
   -0.10573E+07        -0.50425E+08         0.00000E+00
    0.00000E+00         0.00000E+00        -0.34679E+08
 
   -0.39657E+08        -0.10678E+07         0.00000E+00
   -0.10678E+07        -0.50492E+08         0.00000E+00
    0.00000E+00         0.00000E+00        -0.34679E+08
 
   -0.39541E+08        -0.10644E+07         0.00000E+00
   -0.10644E+07        -0.50560E+08         0.00000E+00
    0.00000E+00         0.00000E+00        -0.34679E+08
 
   -0.39418E+08        -0.10473E+07         0.00000E+00
   -0.10473E+07        -0.50630E+08         0.00000E+00
    0.00000E+00         0.00000E+00        -0.34679E+08
 
   -0.39288E+08        -0.10171E+07         0.00000E+00
   -0.10171E+07        -0.50701E+08         0.00000E+00
    0.00000E+00         0.00000E+00        -0.34679E+08
 
   -0.39153E+08        -0.97414E+06         0.00000E+00
   -0.97414E+06        -0.50773E+08         0.00000E+00
    0.00000E+00         0.00000E+00        -0.34679E+08
 
   -0.39012E+08        -0.91888E+06         0.00000E+00
   -0.91888E+06        -0.50845E+08         0.00000E+00
    0.00000E+00         0.00000E+00        -0.34679E+08
 
   -0.38867E+08        -0.85174E+06         0.00000E+00
   -0.85174E+06        -0.50918E+08         0.00000E+00
    0.00000E+00         0.00000E+00        -0.34679E+08
 
   -0.38718E+08        -0.77311E+06         0.00000E+00
   -0.77311E+06        -0.50991E+08         0.00000E+00
    0.00000E+00         0.00000E+00        -0.34679E+08
 
   -0.38566E+08        -0.68337E+06         0.00000E+00
   -0.68337E+06        -0.51063E+08         0.00000E+00
    0.00000E+00         0.00000E+00        -0.34679E+08
 
   -0.38412E+08        -0.58287E+06         0.00000E+00
   -0.58287E+06        -0.51136E+08         0.00000E+00
    0.00000E+00         0.00000E+00        -0.34679E+08
 
   -0.38256E+08        -0.47194E+06         0.00000E+00
   -0.47194E+06        -0.51209E+08         0.00000E+00
    0.00000E+00         0.00000E+00        -0.34679E+08
 
   -0.38099E+08        -0.35089E+06         0.00000E+00
   -0.35089E+06        -0.51281E+08         0.00000E+00
    0.00000E+00         0.00000E+00        -0.34679E+08
 
   -0.37940E+08        -0.21998E+06         0.00000E+00
   -0.21998E+06        -0.51353E+08         0.00000E+00
    0.00000E+00         0.00000E+00        -0.34679E+08
 
   -0.37782E+08        -0.79452E+05         0.00000E+00
   -0.79452E+05        -0.51425E+08         0.00000E+00
    0.00000E+00         0.00000E+00        -0.34679E+08
 
   -0.37623E+08         0.70481E+05         0.00000E+00
    0.70481E+05        -0.51496E+08         0.00000E+00
    0.00000E+00         0.00000E+00        -0.34679E+08
 
   -0.37464E+08         0.22964E+06         0.00000E+00
    0.22964E+06        -0.51567E+08         0.00000E+00
    0.00000E+00         0.00000E+00        -0.34679E+08
 
   -0.37305E+08         0.39789E+06         0.00000E+00
    0.39789E+06        -0.51637E+08         0.00000E+00
    0.00000E+00         0.00000E+00        -0.34679E+08
 
   -0.37148E+08         0.57511E+06         0.00000E+00
    0.57511E+06        -0.51707E+08         0.00000E+00
    0.00000E+00         0.00000E+00        -0.34679E+08
 
   -0.36991E+08         0.76120E+06         0.00000E+00
    0.76120E+06        -0.51776E+08         0.00000E+00
    0.00000E+00         0.00000E+00        -0.34679E+08
 
   -0.36836E+08         0.95611E+06         0.00000E+00
    0.95611E+06        -0.51845E+08         0.00000E+00
    0.00000E+00         0.00000E+00        -0.34679E+08
 
   -0.36683E+08         0.11598E+07         0.00000E+00
    0.11598E+07        -0.51913E+08         0.00000E+00
    0.00000E+00         0.00000E+00        -0.34679E+08
 
   -0.36532E+08         0.13723E+07         0.00000E+00
    0.13723E+07        -0.51981E+08         0.00000E+00
    0.00000E+00         0.00000E+00        -0.34679E+08
 
   -0.36383E+08         0.15935E+07         0.00000E+00
    0.15935E+07        -0.52048E+08         0.00000E+00
    0.00000E+00         0.00000E+00        -0.34679E+08
 
   -0.36238E+08         0.18235E+07         0.00000E+00
    0.18235E+07        -0.52114E+08         0.00000E+00
    0.00000E+00         0.00000E+00        -0.34679E+08
 
   -0.36095E+08         0.20623E+07         0.00000E+00
    0.20623E+07        -0.52179E+08         0.00000E+00
    0.00000E+00         0.00000E+00        -0.34679E+08
 
   -0.35956E+08         0.23100E+07         0.00000E+00
    0.23100E+07        -0.52242E+08         0.00000E+00
    0.00000E+00         0.00000E+00        -0.34679E+08
 
   -0.35821E+08         0.25666E+07         0.00000E+00
    0.25666E+07        -0.52305E+08         0.00000E+00
    0.00000E+00         0.00000E+00        -0.34679E+08
 
   -0.35690E+08         0.28321E+07         0.00000E+00
    0.28321E+07        -0.52366E+08         0.00000E+00
    0.00000E+00         0.00000E+00        -0.34679E+08
 
   -0.35564E+08         0.31067E+07         0.00000E+00
    0.31067E+07        -0.52425E+08         0.00000E+00
    0.00000E+00         0.00000E+00        -0.34679E+08
 
   -0.35443E+08         0.33903E+07         0.00000E+00
    0.33903E+07        -0.52482E+08         0.00000E+00
    0.00000E+00         0.00000E+00        -0.34679E+08
 
   -0.35329E+08         0.36829E+07         0.00000E+00
    0.36829E+07        -0.52537E+08         0.00000E+00
    0.00000E+00         0.00000E+00        -0.34679E+08
 
   -0.35221E+08         0.39846E+07         0.00000E+00
    0.39846E+07        -0.52589E+08         0.00000E+00
    0.00000E+00         0.00000E+00        -0.34679E+08
 
   -0.35120E+08         0.42953E+07         0.00000E+00
    0.42953E+07        -0.52638E+08         0.00000E+00
    0.00000E+00         0.00000E+00        -0.34679E+08
 
   -0.35027E+08         0.46151E+07         0.00000E+00
    0.46151E+07        -0.52684E+08         0.00000E+00
    0.00000E+00         0.00000E+00        -0.34679E+08
 
   -0.34942E+08         0.49437E+07         0.00000E+00
    0.49437E+07        -0.52726E+08         0.00000E+00
    0.00000E+00         0.00000E+00        -0.34679E+08
 
   -0.34866E+08         0.52813E+07         0.00000E+00
    0.52813E+07        -0.52764E+08         0.00000E+00
    0.00000E+00         0.00000E+00        -0.34679E+08
 
   -0.34800E+08         0.56274E+07         0.00000E+00
    0.56274E+07        -0.52798E+08         0.00000E+00
    0.00000E+00         0.00000E+00        -0.34679E+08
 
   -0.34744E+08         0.59821E+07         0.00000E+00
    0.59821E+07        -0.52826E+08         0.00000E+00
    0.00000E+00         0.00000E+00        -0.34679E+08
 
   -0.34699E+08         0.63451E+07         0.00000E+00
    0.63451E+07        -0.52849E+08         0.00000E+00
    0.00000E+00         0.00000E+00        -0.34679E+08
 
   -0.41039E+08        -0.13843E+06         0.00000E+00
   -0.13843E+06        -0.50004E+08         0.00000E+00
    0.00000E+00         0.00000E+00        -0.32750E+08
 
   -0.41007E+08        -0.35511E+06         0.00000E+00
   -0.35511E+06        -0.50015E+08         0.00000E+00
    0.00000E+00         0.00000E+00        -0.32750E+08
 
   -0.40950E+08        -0.54999E+06         0.00000E+00
   -0.54999E+06        -0.50036E+08         0.00000E+00
    0.00000E+00         0.00000E+00        -0.32750E+08
 
   -0.40871E+08        -0.72333E+06         0.00000E+00
   -0.72333E+06        -0.50065E+08         0.00000E+00
    0.00000E+00         0.00000E+00        -0.32750E+08
 
   -0.40773E+08        -0.87542E+06         0.00000E+00
   -0.87542E+06        -0.50101E+08         0.00000E+00
    0.00000E+00         0.00000E+00        -0.32750E+08
 
   -0.40656E+08        -0.10067E+07         0.00000E+00
   -0.10067E+07        -0.50142E+08         0.00000E+00
    0.00000E+00         0.00000E+00        -0.32750E+08
 
   -0.40525E+08        -0.11176E+07         0.00000E+00
   -0.11176E+07        -0.50189E+08         0.00000E+00
    0.00000E+00         0.00000E+00        -0.32750E+08
 
   -0.40379E+08        -0.12088E+07         0.00000E+00
   -0.12088E+07        -0.50239E+08         0.00000E+00
    0.00000E+00         0.00000E+00        -0.32750E+08
 
   -0.40222E+08        -0.12808E+07         0.00000E+00
   -0.12808E+07        -0.50293E+08         0.00000E+00
    0.00000E+00         0.00000E+00        -0.32750E+08
 
   -0.40055E+08        -0.13345E+07         0.00000E+00
   -0.13345E+07        -0.50349E+08         0.00000E+00
    0.00000E+00         0.00000E+00        -0.32750E+08
 
   -0.39879E+08        -0.13705E+07         0.00000E+00
   -0.13705E+07        -0.50407E+08         0.00000E+00
    0.00000E+00         0.00000E+00        -0.32750E+08
 
   -0.39696E+08        -0.13896E+07         0.00000E+00
   -0.13896E+07        -0.50467E+08         0.00000E+00
    0.00000E+00         0.00000E+00        -0.32750E+08
 
   -0.39506E+08        -0.13925E+07         0.00000E+00
   -0.13925E+07        -0.50527E+08         0.00000E+00
    0.00000E+00         0.00000E+00        -0.32750E+08
 
   -0.39312E+08        -0.13800E+07         0.00000E+00
   -0.13800E+07        -0.50588E+08         0.00000E+00
    0.00000E+00         0.00000E+00        -0.32750E+08
 
   -0.39114E+08        -0.13528E+07         0.00000E+00
   -0.13528E+07        -0.50650E+08         0.00000E+00
    0.00000E+00         0.00000E+00        -0.32750E+08
 
   -0.38913E+08        -0.13117E+07         0.00000E+00
   -0.13117E+07        -0.50711E+08         0.00000E+00
    0.00000E+00         0.00000E+00        -0.32750E+08
 
   -0.38709E+08        -0.12573E+07         0.00000E+00
   -0.12573E+07        -0.50772E+08         0.00000E+00
    0.00000E+00         0.00000E+00        -0.32750E+08
 
   -0.38504E+08        -0.11903E+07         0.00000E+00
   -0.11903E+07        -0.50833E+08         0.00000E+00
    0.00000E+00         0.00000E+00        -0.32750E+08
 
   -0.38298E+08        -0.11113E+07         0.00000E+00
   -0.11113E+07        -0.50894E+08         0.00000E+00
    0.00000E+00         0.00000E+00        -0.32750E+08
 
   -0.38090E+08        -0.10209E+07         0.00000E+00
   -0.10209E+07        -0.50955E+08         0.00000E+00
    0.00000E+00         0.00000E+00        -0.32750E+08
 
   -0.37883E+08        -0.91956E+06         0.00000E+00
   -0.91956E+06        -0.51015E+08         0.00000E+00
    0.00000E+00         0.00000E+00        -0.32750E+08
 
   -0.37675E+08        -0.80776E+06         0.00000E+00
   -0.80776E+06        -0.51076E+08         0.00000E+00
    0.00000E+00         0.00000E+00        -0.32750E+08
 
   -0.37468E+08        -0.68589E+06         0.00000E+00
   -0.68589E+06        -0.51136E+08         0.00000E+00
    0.00000E+00         0.00000E+00        -0.32750E+08
 
   -0.37261E+08        -0.55429E+06         0.00000E+00
   -0.55429E+06        -0.51196E+08         0.00000E+00
    0.00000E+00         0.00000E+00        -0.32750E+08
 
   -0.37055E+08        -0.41326E+06         0.00000E+00
   -0.41326E+06        -0.51257E+08         0.00000E+00
    0.00000E+00         0.00000E+00        -0.32750E+08
 
   -0.36850E+08        -0.26302E+06         0.00000E+00
   -0.26302E+06        -0.51318E+08         0.00000E+00
    0.00000E+00         0.00000E+00        -0.32750E+08
 
   -0.36646E+08        -0.10375E+06         0.00000E+00
   -0.10375E+06        -0.51379E+08         0.00000E+00
    0.00000E+00         0.00000E+00        -0.32750E+08
 
   -0.36443E+08         0.64413E+05         0.00000E+00
    0.64413E+05        -0.51441E+08         0.00000E+00
    0.00000E+00         0.00000E+00        -0.32750E+08
 
   -0.36240E+08         0.24139E+06         0.00000E+00
    0.24139E+06        -0.51503E+08         0.00000E+00
    0.00000E+00         0.00000E+00        -0.32750E+08
 
   -0.36040E+08         0.42716E+06         0.00000E+00
    0.42716E+06        -0.51566E+08         0.00000E+00
    0.00000E+00         0.00000E+00        -0.32750E+08
 
   -0.35841E+08         0.62173E+06         0.00000E+00
    0.62173E+06        -0.51630E+08         0.00000E+00
    0.00000E+00         0.00000E+00        -0.32750E+08
 
   -0.35643E+08         0.82515E+06         0.00000E+00
    0.82515E+06        -0.51695E+08         0.00000E+00
    0.00000E+00         0.00000E+00        -0.32750E+08
 
   -0.35447E+08         0.10375E+07         0.00000E+00
    0.10375E+07        -0.51760E+08         0.00000E+00
    0.00000E+00         0.00000E+00        -0.32750E+08
 
   -0.35254E+08         0.12590E+07         0.00000E+00
    0.12590E+07        -0.51827E+08         0.00000E+00
    0.00000E+00         0.00000E+00        -0.32750E+08
 
   -0.35063E+08         0.14896E+07         0.00000E+00
    0.14896E+07        -0.51894E+08         0.00000E+00
    0.00000E+00         0.00000E+00        -0.32750E+08
 
   -0.34874E+08         0.17297E+07         0.00000E+00
    0.17297E+07        -0.51962E+08         0.00000E+00
    0.00000E+00         0.00000E+00        -0.32750E+08
 
   -0.34688E+08         0.19794E+07         0.00000E+00
    0.19794E+07        -0.52030E+08         0.00000E+00
    0.00000E+00         0.00000E+00        -0.32750E+08
 
   -0.34506E+08         0.22390E+07         0.00000E+00
    0.22390E+07        -0.52100E+08         0.00000E+00
    0.00000E+00         0.00000E+00        -0.32750E+08
 
   -0.34327E+08         0.25086E+07         0.00000E+00
    0.25086E+07        -0.52169E+08         0.00000E+00
    0.00000E+00         0.00000E+00        -0.32750E+08
 
   -0.34153E+08         0.27885E+07         0.00000E+00
    0.27885E+07        -0.52238E+08         0.00000E+00
    0.00000E+00         0.00000E+00        -0.32750E+08
 
   -0.33983E+08         0.30789E+07         0.00000E+00
    0.30789E+07        -0.52307E+08         0.00000E+00
    0.00000E+00         0.00000E+00        -0.32750E+08
 
   -0.33819E+08         0.33800E+07         0.00000E+00
    0.33800E+07        -0.52376E+08         0.00000E+00
    0.00000E+00         0.00000E+00        -0.32750E+08
 
   -0.33661E+08         0.36920E+07         0.00000E+00
    0.36920E+07        -0.52443E+08         0.00000E+00
    0.00000E+00         0.00000E+00        -0.32750E+08
 
   -0.33510E+08         0.40151E+07         0.00000E+00
    0.40151E+07        -0.52509E+08         0.00000E+00
    0.00000E+00         0.00000E+00        -0.32750E+08
 
   -0.33366E+08         0.43494E+07         0.00000E+00
    0.43494E+07        -0.52573E+08         0.00000E+00
    0.00000E+00         0.00000E+00        -0.32750E+08
 
   -0.33231E+08         0.46950E+07         0.00000E+00
    0.46950E+07        -0.52635E+08         0.00000E+00
    0.00000E+00         0.00000E+00        -0.32750E+08
 
   -0.33105E+08         0.50519E+07         0.00000E+00
    0.50519E+07        -0.52693E+08         0.00000E+00
    0.00000E+00         0.00000E+00        -0.32750E+08
 
   -0.32990E+08         0.54200E+07         0.00000E+00
    0.54200E+07        -0.52748E+08         0.00000E+00
    0.00000E+00         0.00000E+00        -0.32750E+08
 
   -0.32885E+08         0.57994E+07         0.00000E+00
    0.57994E+07        -0.52799E+08         0.00000E+00
    0.00000E+00         0.00000E+00        -0.32750E+08
 
   -0.32793E+08         0.61898E+07         0.00000E+00
    0.61898E+07        -0.52845E+08         0.00000E+00
    0.00000E+00         0.00000E+00        -0.32750E+08
 
   -0.42308E+08        -0.17239E+06         0.00000E+00
   -0.17239E+06        -0.50004E+08         0.00000E+00
    0.00000E+00         0.00000E+00        -0.30674E+08
 
   -0.42150E+08        -0.43753E+06         0.00000E+00
   -0.43753E+06        -0.50015E+08         0.00000E+00
    0.00000E+00         0.00000E+00        -0.30674E+08
 
   -0.41968E+08        -0.67399E+06         0.00000E+00
   -0.67399E+06        -0.50036E+08         0.00000E+00
    0.00000E+00         0.00000E+00        -0.30674E+08
 
   -0.41767E+08        -0.88217E+06         0.00000E+00
   -0.88217E+06        -0.50063E+08         0.00000E+00
    0.00000E+00         0.00000E+00        -0.30674E+08
 
   -0.41549E+08        -0.10630E+07         0.00000E+00
   -0.10630E+07        -0.50096E+08         0.00000E+00
    0.00000E+00         0.00000E+00        -0.30674E+08
 
   -0.41317E+08        -0.12174E+07         0.00000E+00
   -0.12174E+07        -0.50133E+08         0.00000E+00
    0.00000E+00         0.00000E+00        -0.30674E+08
 
   -0.41074E+08        -0.13465E+07         0.00000E+00
   -0.13465E+07        -0.50174E+08         0.00000E+00
    0.00000E+00         0.00000E+00        -0.30674E+08
 
   -0.40821E+08        -0.14513E+07         0.00000E+00
   -0.14513E+07        -0.50216E+08         0.00000E+00
    0.00000E+00         0.00000E+00        -0.30674E+08
 
   -0.40561E+08        -0.15332E+07         0.00000E+00
   -0.15332E+07        -0.50260E+08         0.00000E+00
    0.00000E+00         0.00000E+00        -0.30674E+08
 
   -0.40296E+08        -0.15932E+07         0.00000E+00
   -0.15932E+07        -0.50305E+08         0.00000E+00
    0.00000E+00         0.00000E+00        -0.30674E+08
 
   -0.40027E+08        -0.16329E+07         0.00000E+00
   -0.16329E+07        -0.50349E+08         0.00000E+00
    0.00000E+00         0.00000E+00        -0.30674E+08
 
   -0.39756E+08        -0.16533E+07         0.00000E+00
   -0.16533E+07        -0.50393E+08         0.00000E+00
    0.00000E+00         0.00000E+00        -0.30674E+08
 
   -0.39484E+08        -0.16559E+07         0.00000E+00
   -0.16559E+07        -0.50436E+08         0.00000E+00
    0.00000E+00         0.00000E+00        -0.30674E+08
 
   -0.39212E+08        -0.16420E+07         0.00000E+00
   -0.16420E+07        -0.50478E+08         0.00000E+00
    0.00000E+00         0.00000E+00        -0.30674E+08
 
   -0.38941E+08        -0.16126E+07         0.00000E+00
   -0.16126E+07        -0.50519E+08         0.00000E+00
    0.00000E+00         0.00000E+00        -0.30674E+08
 
   -0.38671E+08        -0.15689E+07         0.00000E+00
   -0.15689E+07        -0.50559E+08         0.00000E+00
    0.00000E+00         0.00000E+00        -0.30674E+08
 
   -0.38403E+08        -0.15120E+07         0.00000E+00
   -0.15120E+07        -0.50598E+08         0.00000E+00
    0.00000E+00         0.00000E+00        -0.30674E+08
 
   -0.38137E+08        -0.14427E+07         0.00000E+00
   -0.14427E+07        -0.50636E+08         0.00000E+00
    0.00000E+00         0.00000E+00        -0.30674E+08
 
   -0.37873E+08        -0.13620E+07         0.00000E+00
   -0.13620E+07        -0.50673E+08         0.00000E+00
    0.00000E+00         0.00000E+00        -0.30674E+08
 
   -0.37612E+08        -0.12705E+07         0.00000E+00
   -0.12705E+07        -0.50711E+08         0.00000E+00
    0.00000E+00         0.00000E+00        -0.30674E+08
 
   -0.37353E+08        -0.11688E+07         0.00000E+00
   -0.11688E+07        -0.50748E+08         0.00000E+00
    0.00000E+00         0.00000E+00        -0.30674E+08
 
   -0.37096E+08        -0.10577E+07         0.00000E+00
   -0.10577E+07        -0.50785E+08         0.00000E+00
    0.00000E+00         0.00000E+00        -0.30674E+08
 
   -0.36841E+08        -0.93740E+06         0.00000E+00
   -0.93740E+06        -0.50824E+08         0.00000E+00
    0.00000E+00         0.00000E+00        -0.30674E+08
 
   -0.36589E+08        -0.80843E+06         0.00000E+00
   -0.80843E+06        -0.50863E+08         0.00000E+00
    0.00000E+00         0.00000E+00        -0.30674E+08
 
   -0.36338E+08        -0.67105E+06         0.00000E+00
   -0.67105E+06        -0.50903E+08         0.00000E+00
    0.00000E+00         0.00000E+00        -0.30674E+08
 
   -0.36090E+08        -0.52548E+06         0.00000E+00
   -0.52548E+06        -0.50944E+08         0.00000E+00
    0.00000E+00         0.00000E+00        -0.30674E+08
 
   -0.35843E+08        -0.37185E+06         0.00000E+00
   -0.37185E+06        -0.50988E+08         0.00000E+00
    0.00000E+00         0.00000E+00        -0.30674E+08
 
   -0.35597E+08        -0.21024E+06         0.00000E+00
   -0.21024E+06        -0.51033E+08         0.00000E+00
    0.00000E+00         0.00000E+00        -0.30674E+08
 
   -0.35353E+08        -0.40660E+05         0.00000E+00
   -0.40660E+05        -0.51081E+08         0.00000E+00
    0.00000E+00         0.00000E+00        -0.30674E+08
 
   -0.35110E+08         0.13697E+06         0.00000E+00
    0.13697E+06        -0.51131E+08         0.00000E+00
    0.00000E+00         0.00000E+00        -0.30674E+08
 
   -0.34868E+08         0.32277E+06         0.00000E+00
    0.32277E+06        -0.51184E+08         0.00000E+00
    0.00000E+00         0.00000E+00        -0.30674E+08
 
   -0.34626E+08         0.51693E+06         0.00000E+00
    0.51693E+06        -0.51239E+08         0.00000E+00
    0.00000E+00         0.00000E+00        -0.30674E+08
 
   -0.34386E+08         0.71971E+06         0.00000E+00
    0.71971E+06        -0.51298E+08         0.00000E+00
    0.00000E+00         0.00000E+00        -0.30674E+08
 
   -0.34147E+08         0.93140E+06         0.00000E+00
    0.93140E+06        -0.51360E+08         0.00000E+00
    0.00000E+00         0.00000E+00        -0.30674E+08
 
   -0.33908E+08         0.11524E+07         0.00000E+00
    0.11524E+07        -0.51425E+08         0.00000E+00
    0.00000E+00         0.00000E+00        -0.30674E+08
 
   -0.33671E+08         0.13830E+07         0.00000E+00
    0.13830E+07        -0.51493E+08         0.00000E+00
    0.00000E+00         0.00000E+00        -0.30674E+08
 
   -0.33435E+08         0.16238E+07         0.00000E+00
    0.16238E+07        -0.51565E+08         0.00000E+00
    0.00000E+00         0.00000E+00        -0.30674E+08
 
   -0.33200E+08         0.18752E+07         0.00000E+00
    0.18752E+07        -0.51640E+08         0.00000E+00
    0.00000E+00         0.00000E+00        -0.30674E+08
 
   -0.32968E+08         0.21378E+07         0.00000E+00
    0.21378E+07        -0.51717E+08         0.00000E+00
    0.00000E+00         0.00000E+00        -0.30674E+08
 
   -0.32738E+08         0.24120E+07         0.00000E+00
    0.24120E+07        -0.51798E+08         0.00000E+00
    0.00000E+00         0.00000E+00        -0.30674E+08
 
   -0.32510E+08         0.26984E+07         0.00000E+00
    0.26984E+07        -0.51880E+08         0.00000E+00
    0.00000E+00         0.00000E+00        -0.30674E+08
 
   -0.32287E+08         0.29975E+07         0.00000E+00
    0.29975E+07        -0.51965E+08         0.00000E+00
    0.00000E+00         0.00000E+00        -0.30674E+08
 
   -0.32068E+08         0.33098E+07         0.00000E+00
    0.33098E+07        -0.52051E+08         0.00000E+00
    0.00000E+00         0.00000E+00        -0.30674E+08
 
   -0.31854E+08         0.36359E+07         0.00000E+00
    0.36359E+07        -0.52139E+08         0.00000E+00
    0.00000E+00         0.00000E+00        -0.30674E+08
 
   -0.31647E+08         0.39760E+07         0.00000E+00
    0.39760E+07        -0.52226E+08         0.00000E+00
    0.00000E+00         0.00000E+00        -0.30674E+08
 
   -0.31448E+08         0.43306E+07         0.00000E+00
    0.43306E+07        -0.52313E+08         0.00000E+00
    0.00000E+00         0.00000E+00        -0.30674E+08
 
   -0.31257E+08         0.47001E+07         0.00000E+00
    0.47001E+07        -0.52399E+08         0.00000E+00
    0.00000E+00         0.00000E+00        -0.30674E+08
 
   -0.31076E+08         0.50846E+07         0.00000E+00
    0.50846E+07        -0.52484E+08         0.00000E+00
    0.00000E+00         0.00000E+00        -0.30674E+08
 
   -0.30906E+08         0.54843E+07         0.00000E+00
    0.54843E+07        -0.52565E+08         0.00000E+00
    0.00000E+00         0.00000E+00        -0.30674E+08
 
   -0.30749E+08         0.58988E+07         0.00000E+00
    0.58988E+07        -0.52642E+08         0.00000E+00
    0.00000E+00         0.00000E+00        -0.30674E+08
 
   -0.43831E+08        -0.20866E+06         0.00000E+00
   -0.20866E+06        -0.50004E+08         0.00000E+00
    0.00000E+00         0.00000E+00        -0.28464E+08
 
   -0.43505E+08        -0.51765E+06         0.00000E+00
   -0.51765E+06        -0.50016E+08         0.00000E+00
    0.00000E+00         0.00000E+00        -0.28464E+08
 
   -0.43160E+08        -0.78825E+06         0.00000E+00
   -0.78825E+06        -0.50034E+08         0.00000E+00
    0.00000E+00         0.00000E+00        -0.28464E+08
 
   -0.42801E+08        -0.10227E+07         0.00000E+00
   -0.10227E+07        -0.50056E+08         0.00000E+00
    0.00000E+00         0.00000E+00        -0.28464E+08
 
   -0.42431E+08        -0.12222E+07         0.00000E+00
   -0.12222E+07        -0.50083E+08         0.00000E+00
    0.00000E+00         0.00000E+00        -0.28464E+08
 
   -0.42053E+08        -0.13881E+07         0.00000E+00
   -0.13881E+07        -0.50110E+08         0.00000E+00
    0.00000E+00         0.00000E+00        -0.28464E+08
 
   -0.41672E+08        -0.15225E+07         0.00000E+00
   -0.15225E+07        -0.50138E+08         0.00000E+00
    0.00000E+00         0.00000E+00        -0.28464E+08
 
   -0.41290E+08        -0.16273E+07         0.00000E+00
   -0.16273E+07        -0.50164E+08         0.00000E+00
    0.00000E+00         0.00000E+00        -0.28464E+08
 
   -0.40910E+08        -0.17050E+07         0.00000E+00
   -0.17050E+07        -0.50187E+08         0.00000E+00
    0.00000E+00         0.00000E+00        -0.28464E+08
 
   -0.40533E+08        -0.17580E+07         0.00000E+00
   -0.17580E+07        -0.50207E+08         0.00000E+00
    0.00000E+00         0.00000E+00        -0.28464E+08
 
   -0.40161E+08        -0.17887E+07         0.00000E+00
   -0.17887E+07        -0.50224E+08         0.00000E+00
    0.00000E+00         0.00000E+00        -0.28464E+08
 
   -0.39796E+08        -0.17993E+07         0.00000E+00
   -0.17993E+07        -0.50237E+08         0.00000E+00
    0.00000E+00         0.00000E+00        -0.28464E+08
 
   -0.39438E+08        -0.17920E+07         0.00000E+00
   -0.17920E+07        -0.50247E+08         0.00000E+00
    0.00000E+00         0.00000E+00        -0.28464E+08
 
   -0.39088E+08        -0.17685E+07         0.00000E+00
   -0.17685E+07        -0.50255E+08         0.00000E+00
    0.00000E+00         0.00000E+00        -0.28464E+08
 
   -0.38745E+08        -0.17307E+07         0.00000E+00
   -0.17307E+07        -0.50260E+08         0.00000E+00
    0.00000E+00         0.00000E+00        -0.28464E+08
 
   -0.38409E+08        -0.16800E+07         0.00000E+00
   -0.16800E+07        -0.50263E+08         0.00000E+00
    0.00000E+00         0.00000E+00        -0.28464E+08
 
   -0.38081E+08        -0.16177E+07         0.00000E+00
   -0.16177E+07        -0.50264E+08         0.00000E+00
    0.00000E+00         0.00000E+00        -0.28464E+08
 
   -0.37759E+08        -0.15450E+07         0.00000E+00
   -0.15450E+07        -0.50265E+08         0.00000E+00
    0.00000E+00         0.00000E+00        -0.28464E+08
 
   -0.37444E+08        -0.14627E+07         0.00000E+00
   -0.14627E+07        -0.50265E+08         0.00000E+00
    0.00000E+00         0.00000E+00        -0.28464E+08
 
   -0.37135E+08        -0.13717E+07         0.00000E+00
   -0.13717E+07        -0.50266E+08         0.00000E+00
    0.00000E+00         0.00000E+00        -0.28464E+08
 
   -0.36832E+08        -0.12726E+07         0.00000E+00
   -0.12726E+07        -0.50267E+08         0.00000E+00
    0.00000E+00         0.00000E+00        -0.28464E+08
 
   -0.36533E+08        -0.11661E+07         0.00000E+00
   -0.11661E+07        -0.50270E+08         0.00000E+00
    0.00000E+00         0.00000E+00        -0.28464E+08
 
   -0.36239E+08        -0.10525E+07         0.00000E+00
   -0.10525E+07        -0.50275E+08         0.00000E+00
    0.00000E+00         0.00000E+00        -0.28464E+08
 
   -0.35948E+08        -0.93225E+06         0.00000E+00
   -0.93225E+06        -0.50282E+08         0.00000E+00
    0.00000E+00         0.00000E+00        -0.28464E+08
 
   -0.35660E+08        -0.80547E+06         0.00000E+00
   -0.80547E+06        -0.50292E+08         0.00000E+00
    0.00000E+00         0.00000E+00        -0.28464E+08
 
   -0.35375E+08        -0.67234E+06         0.00000E+00
   -0.67234E+06        -0.50305E+08         0.00000E+00
    0.00000E+00         0.00000E+00        -0.28464E+08
 
   -0.35092E+08        -0.53292E+06         0.00000E+00
   -0.53292E+06        -0.50322E+08         0.00000E+00
    0.00000E+00         0.00000E+00        -0.28464E+08
 
   -0.34810E+08        -0.38719E+06         0.00000E+00
   -0.38719E+06        -0.50343E+08         0.00000E+00
    0.00000E+00         0.00000E+00        -0.28464E+08
 
   -0.34530E+08        -0.23505E+06         0.00000E+00
   -0.23505E+06        -0.50368E+08         0.00000E+00
    0.00000E+00         0.00000E+00        -0.28464E+08
 
   -0.34249E+08        -0.76307E+05         0.00000E+00
   -0.76307E+05        -0.50399E+08         0.00000E+00
    0.00000E+00         0.00000E+00        -0.28464E+08
 
   -0.33968E+08         0.89284E+05         0.00000E+00
    0.89284E+05        -0.50434E+08         0.00000E+00
    0.00000E+00         0.00000E+00        -0.28464E+08
 
   -0.33687E+08         0.26206E+06         0.00000E+00
    0.26206E+06        -0.50475E+08         0.00000E+00
    0.00000E+00         0.00000E+00        -0.28464E+08
 
   -0.33405E+08         0.44243E+06         0.00000E+00
    0.44243E+06        -0.50522E+08         0.00000E+00
    0.00000E+00         0.00000E+00        -0.28464E+08
 
   -0.33122E+08         0.63089E+06         0.00000E+00
    0.63089E+06        -0.50575E+08         0.00000E+00
    0.00000E+00         0.00000E+00        -0.28464E+08
 
   -0.32837E+08         0.82801E+06         0.00000E+00
    0.82801E+06        -0.50634E+08         0.00000E+00
    0.00000E+00         0.00000E+00        -0.28464E+08
 
   -0.32550E+08         0.10344E+07         0.00000E+00
    0.10344E+07        -0.50700E+08         0.00000E+00
    0.00000E+00         0.00000E+00        -0.28464E+08
 
   -0.32262E+08         0.12509E+07         0.00000E+00
    0.12509E+07        -0.50772E+08         0.00000E+00
    0.00000E+00         0.00000E+00        -0.28464E+08
 
   -0.31972E+08         0.14783E+07         0.00000E+00
    0.14783E+07        -0.50851E+08         0.00000E+00
    0.00000E+00         0.00000E+00        -0.28464E+08
 
   -0.31680E+08         0.17175E+07         0.00000E+00
    0.17175E+07        -0.50937E+08         0.00000E+00
    0.00000E+00         0.00000E+00        -0.28464E+08
 
   -0.31386E+08         0.19695E+07         0.00000E+00
    0.19695E+07        -0.51029E+08         0.00000E+00
    0.00000E+00         0.00000E+00        -0.28464E+08
 
   -0.31092E+08         0.22354E+07         0.00000E+00
    0.22354E+07        -0.51128E+08         0.00000E+00
    0.00000E+00         0.00000E+00        -0.28464E+08
 
   -0.30797E+08         0.25162E+07         0.00000E+00
    0.25162E+07        -0.51233E+08         0.00000E+00
    0.00000E+00         0.00000E+00        -0.28464E+08
 
   -0.30503E+08         0.28130E+07         0.00000E+00
    0.28130E+07        -0.51343E+08         0.00000E+00
    0.00000E+00         0.00000E+00        -0.28464E+08
 
   -0.30211E+08         0.31271E+07         0.00000E+00
    0.31271E+07        -0.51458E+08         0.00000E+00
    0.00000E+00         0.00000E+00        -0.28464E+08
 
   -0.29922E+08         0.34592E+07         0.00000E+00
    0.34592E+07        -0.51577E+08         0.00000E+00
    0.00000E+00         0.00000E+00        -0.28464E+08
 
   -0.29638E+08         0.38104E+07         0.00000E+00
    0.38104E+07        -0.51699E+08         0.00000E+00
    0.00000E+00         0.00000E+00        -0.28464E+08
 
   -0.29360E+08         0.41812E+07         0.00000E+00
    0.41812E+07        -0.51823E+08         0.00000E+00
    0.00000E+00         0.00000E+00        -0.28464E+08
 
   -0.29090E+08         0.45722E+07         0.00000E+00
    0.45722E+07        -0.51947E+08         0.00000E+00
    0.00000E+00         0.00000E+00        -0.28464E+08
 
   -0.28830E+08         0.49841E+07         0.00000E+00
    0.49841E+07        -0.52071E+08         0.00000E+00
    0.00000E+00         0.00000E+00        -0.28464E+08
 
   -0.28583E+08         0.54185E+07         0.00000E+00
    0.54185E+07        -0.52194E+08         0.00000E+00
    0.00000E+00         0.00000E+00        -0.28464E+08
 
   -0.45585E+08        -0.24392E+06         0.00000E+00
   -0.24392E+06        -0.50001E+08         0.00000E+00
    0.00000E+00         0.00000E+00        -0.26137E+08
 
   -0.45034E+08        -0.58898E+06         0.00000E+00
   -0.58898E+06        -0.50010E+08         0.00000E+00
    0.00000E+00         0.00000E+00        -0.26137E+08
 
   -0.44471E+08        -0.88438E+06         0.00000E+00
   -0.88438E+06        -0.50028E+08         0.00000E+00
    0.00000E+00         0.00000E+00        -0.26137E+08
 
   -0.43900E+08        -0.11277E+07         0.00000E+00
   -0.11277E+07        -0.50046E+08         0.00000E+00
    0.00000E+00         0.00000E+00        -0.26137E+08
 
   -0.43331E+08        -0.13218E+07         0.00000E+00
   -0.13218E+07        -0.50059E+08         0.00000E+00
    0.00000E+00         0.00000E+00        -0.26137E+08
 
   -0.42770E+08        -0.14716E+07         0.00000E+00
   -0.14716E+07        -0.50065E+08         0.00000E+00
    0.00000E+00         0.00000E+00        -0.26137E+08
 
   -0.42223E+08        -0.15827E+07         0.00000E+00
   -0.15827E+07        -0.50062E+08         0.00000E+00
    0.00000E+00         0.00000E+00        -0.26137E+08
 
   -0.41693E+08        -0.16607E+07         0.00000E+00
   -0.16607E+07        -0.50049E+08         0.00000E+00
    0.00000E+00         0.00000E+00        -0.26137E+08
 
   -0.41181E+08        -0.17105E+07         0.00000E+00
   -0.17105E+07        -0.50028E+08         0.00000E+00
    0.00000E+00         0.00000E+00        -0.26137E+08
 
   -0.40689E+08        -0.17363E+07         0.00000E+00
   -0.17363E+07        -0.49999E+08         0.00000E+00
    0.00000E+00         0.00000E+00        -0.26137E+08
 
   -0.40217E+08        -0.17421E+07         0.00000E+00
   -0.17421E+07        -0.49963E+08         0.00000E+00
    0.00000E+00         0.00000E+00        -0.26137E+08
 
   -0.39764E+08        -0.17307E+07         0.00000E+00
   -0.17307E+07        -0.49921E+08         0.00000E+00
    0.00000E+00         0.00000E+00        -0.26137E+08
 
   -0.39328E+08        -0.17050E+07         0.00000E+00
   -0.17050E+07        -0.49875E+08         0.00000E+00
    0.00000E+00         0.00000E+00        -0.26137E+08
 
   -0.38910E+08        -0.16670E+07         0.00000E+00
   -0.16670E+07        -0.49826E+08         0.00000E+00
    0.00000E+00         0.00000E+00        -0.26137E+08
 
   -0.38508E+08        -0.16185E+07         0.00000E+00
   -0.16185E+07        -0.49775E+08         0.00000E+00
    0.00000E+00         0.00000E+00        -0.26137E+08
 
   -0.38119E+08        -0.15609E+07         0.00000E+00
   -0.15609E+07        -0.49722E+08         0.00000E+00
    0.00000E+00         0.00000E+00        -0.26137E+08
 
   -0.37744E+08        -0.14956E+07         0.00000E+00
   -0.14956E+07        -0.49670E+08         0.00000E+00
    0.00000E+00         0.00000E+00        -0.26137E+08
 
   -0.37381E+08        -0.14234E+07         0.00000E+00
   -0.14234E+07        -0.49618E+08         0.00000E+00
    0.00000E+00         0.00000E+00        -0.26137E+08
 
   -0.37028E+08        -0.13451E+07         0.00000E+00
   -0.13451E+07        -0.49568E+08         0.00000E+00
    0.00000E+00         0.00000E+00        -0.26137E+08
 
   -0.36685E+08        -0.12615E+07         0.00000E+00
   -0.12615E+07        -0.49520E+08         0.00000E+00
    0.00000E+00         0.00000E+00        -0.26137E+08
 
   -0.36349E+08        -0.11728E+07         0.00000E+00
   -0.11728E+07        -0.49475E+08         0.00000E+00
    0.00000E+00         0.00000E+00        -0.26137E+08
 
   -0.36021E+08        -0.10796E+07         0.00000E+00
   -0.10796E+07        -0.49433E+08         0.00000E+00
    0.00000E+00         0.00000E+00        -0.26137E+08
 
   -0.35698E+08        -0.98203E+06         0.00000E+00
   -0.98203E+06        -0.49396E+08         0.00000E+00
    0.00000E+00         0.00000E+00        -0.26137E+08
 
   -0.35381E+08        -0.88036E+06         0.00000E+00
   -0.88036E+06        -0.49364E+08         0.00000E+00
    0.00000E+00         0.00000E+00        -0.26137E+08
 
   -0.35066E+08        -0.77465E+06         0.00000E+00
   -0.77465E+06        -0.49337E+08         0.00000E+00
    0.00000E+00         0.00000E+00        -0.26137E+08
 
   -0.34755E+08        -0.66492E+06         0.00000E+00
   -0.66492E+06        -0.49315E+08         0.00000E+00
    0.00000E+00         0.00000E+00        -0.26137E+08
 
   -0.34446E+08        -0.55113E+06         0.00000E+00
   -0.55113E+06        -0.49300E+08         0.00000E+00
    0.00000E+00         0.00000E+00        -0.26137E+08
 
   -0.34137E+08        -0.43315E+06         0.00000E+00
   -0.43315E+06        -0.49291E+08         0.00000E+00
    0.00000E+00         0.00000E+00        -0.26137E+08
 
   -0.33828E+08        -0.31080E+06         0.00000E+00
   -0.31080E+06        -0.49290E+08         0.00000E+00
    0.00000E+00         0.00000E+00        -0.26137E+08
 
   -0.33519E+08        -0.18383E+06         0.00000E+00
   -0.18383E+06        -0.49296E+08         0.00000E+00
    0.00000E+00         0.00000E+00        -0.26137E+08
 
   -0.33207E+08        -0.51903E+05         0.00000E+00
   -0.51903E+05        -0.49309E+08         0.00000E+00
    0.00000E+00         0.00000E+00        -0.26137E+08
 
   -0.32893E+08         0.85379E+05         0.00000E+00
    0.85379E+05        -0.49331E+08         0.00000E+00
    0.00000E+00         0.00000E+00        -0.26137E+08
 
   -0.32576E+08         0.22850E+06         0.00000E+00
    0.22850E+06        -0.49362E+08         0.00000E+00
    0.00000E+00         0.00000E+00        -0.26137E+08
 
   -0.32254E+08         0.37804E+06         0.00000E+00
    0.37804E+06        -0.49402E+08         0.00000E+00
    0.00000E+00         0.00000E+00        -0.26137E+08
 
   -0.31928E+08         0.53468E+06         0.00000E+00
    0.53468E+06        -0.49452E+08         0.00000E+00
    0.00000E+00         0.00000E+00        -0.26137E+08
 
   -0.31595E+08         0.69921E+06         0.00000E+00
    0.69921E+06        -0.49511E+08         0.00000E+00
    0.00000E+00         0.00000E+00        -0.26137E+08
 
   -0.31257E+08         0.87256E+06         0.00000E+00
    0.87256E+06        -0.49581E+08         0.00000E+00
    0.00000E+00         0.00000E+00        -0.26137E+08
 
   -0.30911E+08         0.10558E+07         0.00000E+00
    0.10558E+07        -0.49661E+08         0.00000E+00
    0.00000E+00         0.00000E+00        -0.26137E+08
 
   -0.30558E+08         0.12502E+07         0.00000E+00
    0.12502E+07        -0.49753E+08         0.00000E+00
    0.00000E+00         0.00000E+00        -0.26137E+08
 
   -0.30198E+08         0.14571E+07         0.00000E+00
    0.14571E+07        -0.49856E+08         0.00000E+00
    0.00000E+00         0.00000E+00        -0.26137E+08
 
   -0.29829E+08         0.16783E+07         0.00000E+00
    0.16783E+07        -0.49971E+08         0.00000E+00
    0.00000E+00         0.00000E+00        -0.26137E+08
 
   -0.29452E+08         0.19156E+07         0.00000E+00
    0.19156E+07        -0.50098E+08         0.00000E+00
    0.00000E+00         0.00000E+00        -0.26137E+08
 
   -0.29068E+08         0.21711E+07         0.00000E+00
    0.21711E+07        -0.50236E+08         0.00000E+00
    0.00000E+00         0.00000E+00        -0.26137E+08
 
   -0.28677E+08         0.24473E+07         0.00000E+00
    0.24473E+07        -0.50387E+08         0.00000E+00
    0.00000E+00         0.00000E+00        -0.26137E+08
 
   -0.28281E+08         0.27466E+07         0.00000E+00
    0.27466E+07        -0.50548E+08         0.00000E+00
    0.00000E+00         0.00000E+00        -0.26137E+08
 
   -0.27882E+08         0.30718E+07         0.00000E+00
    0.30718E+07        -0.50719E+08         0.00000E+00
    0.00000E+00         0.00000E+00        -0.26137E+08
 
   -0.27484E+08         0.34252E+07         0.00000E+00
    0.34252E+07        -0.50898E+08         0.00000E+00
    0.00000E+00         0.00000E+00        -0.26137E+08
 
   -0.27089E+08         0.38085E+07         0.00000E+00
    0.38085E+07        -0.51082E+08         0.00000E+00
    0.00000E+00         0.00000E+00        -0.26137E+08
 
   -0.26703E+08         0.42218E+07         0.00000E+00
    0.42218E+07        -0.51268E+08         0.00000E+00
    0.00000E+00         0.00000E+00        -0.26137E+08
 
   -0.26324E+08         0.46614E+07         0.00000E+00
    0.46614E+07        -0.51451E+08         0.00000E+00
    0.00000E+00         0.00000E+00        -0.26137E+08
 
   -0.47541E+08        -0.30969E+06         0.00000E+00
   -0.30969E+06        -0.50023E+08         0.00000E+00
    0.00000E+00         0.00000E+00        -0.23721E+08
 
   -0.46631E+08        -0.67445E+06         0.00000E+00
   -0.67445E+06        -0.50052E+08         0.00000E+00
    0.00000E+00         0.00000E+00        -0.23721E+08
 
   -0.45729E+08        -0.93215E+06         0.00000E+00
   -0.93215E+06        -0.50054E+08         0.00000E+00
    0.00000E+00         0.00000E+00        -0.23721E+08
 
   -0.44864E+08        -0.11111E+07         0.00000E+00
   -0.11111E+07        -0.50028E+08         0.00000E+00
    0.00000E+00         0.00000E+00        -0.23721E+08
 
   -0.44048E+08        -0.12322E+07         0.00000E+00
   -0.12322E+07        -0.49977E+08         0.00000E+00
    0.00000E+00         0.00000E+00        -0.23721E+08
 
   -0.43284E+08        -0.13103E+07         0.00000E+00
   -0.13103E+07        -0.49906E+08         0.00000E+00
    0.00000E+00         0.00000E+00        -0.23721E+08
 
   -0.42571E+08        -0.13564E+07         0.00000E+00
   -0.13564E+07        -0.49818E+08         0.00000E+00
    0.00000E+00         0.00000E+00        -0.23721E+08
 
   -0.41906E+08        -0.13782E+07         0.00000E+00
   -0.13782E+07        -0.49718E+08         0.00000E+00
    0.00000E+00         0.00000E+00        -0.23721E+08
 
   -0.41284E+08        -0.13816E+07         0.00000E+00
   -0.13816E+07        -0.49607E+08         0.00000E+00
    0.00000E+00         0.00000E+00        -0.23721E+08
 
   -0.40702E+08        -0.13707E+07         0.00000E+00
   -0.13707E+07        -0.49490E+08         0.00000E+00
    0.00000E+00         0.00000E+00        -0.23721E+08
 
   -0.40156E+08        -0.13488E+07         0.00000E+00
   -0.13488E+07        -0.49369E+08         0.00000E+00
    0.00000E+00         0.00000E+00        -0.23721E+08
 
   -0.39641E+08        -0.13181E+07         0.00000E+00
   -0.13181E+07        -0.49245E+08         0.00000E+00
    0.00000E+00         0.00000E+00        -0.23721E+08
 
   -0.39155E+08        -0.12805E+07         0.00000E+00
   -0.12805E+07        -0.49121E+08         0.00000E+00
    0.00000E+00         0.00000E+00        -0.23721E+08
 
   -0.38694E+08        -0.12372E+07         0.00000E+00
   -0.12372E+07        -0.48998E+08         0.00000E+00
    0.00000E+00         0.00000E+00        -0.23721E+08
 
   -0.38255E+08        -0.11894E+07         0.00000E+00
   -0.11894E+07        -0.48876E+08         0.00000E+00
    0.00000E+00         0.00000E+00        -0.23721E+08
 
   -0.37836E+08        -0.11377E+07         0.00000E+00
   -0.11377E+07        -0.48758E+08         0.00000E+00
    0.00000E+00         0.00000E+00        -0.23721E+08
 
   -0.37435E+08        -0.10828E+07         0.00000E+00
   -0.10828E+07        -0.48643E+08         0.00000E+00
    0.00000E+00         0.00000E+00        -0.23721E+08
 
   -0.37048E+08        -0.10252E+07         0.00000E+00
   -0.10252E+07        -0.48533E+08         0.00000E+00
    0.00000E+00         0.00000E+00        -0.23721E+08
 
   -0.36675E+08        -0.96511E+06         0.00000E+00
   -0.96511E+06        -0.48428E+08         0.00000E+00
    0.00000E+00         0.00000E+00        -0.23721E+08
 
   -0.36313E+08        -0.90289E+06         0.00000E+00
   -0.90289E+06        -0.48329E+08         0.00000E+00
    0.00000E+00         0.00000E+00        -0.23721E+08
 
   -0.35960E+08        -0.83868E+06         0.00000E+00
   -0.83868E+06        -0.48237E+08         0.00000E+00
    0.00000E+00         0.00000E+00        -0.23721E+08
 
   -0.35616E+08        -0.77260E+06         0.00000E+00
   -0.77260E+06        -0.48151E+08         0.00000E+00
    0.00000E+00         0.00000E+00        -0.23721E+08
 
   -0.35278E+08        -0.70471E+06         0.00000E+00
   -0.70471E+06        -0.48072E+08         0.00000E+00
    0.00000E+00         0.00000E+00        -0.23721E+08
 
   -0.34945E+08        -0.63501E+06         0.00000E+00
   -0.63501E+06        -0.48001E+08         0.00000E+00
    0.00000E+00         0.00000E+00        -0.23721E+08
 
   -0.34616E+08        -0.56348E+06         0.00000E+00
   -0.56348E+06        -0.47938E+08         0.00000E+00
    0.00000E+00         0.00000E+00        -0.23721E+08
 
   -0.34289E+08        -0.49005E+06         0.00000E+00
   -0.49005E+06        -0.47884E+08         0.00000E+00
    0.00000E+00         0.00000E+00        -0.23721E+08
 
   -0.33964E+08        -0.41462E+06         0.00000E+00
   -0.41462E+06        -0.47838E+08         0.00000E+00
    0.00000E+00         0.00000E+00        -0.23721E+08
 
   -0.33639E+08        -0.33703E+06         0.00000E+00
   -0.33703E+06        -0.47801E+08         0.00000E+00
    0.00000E+00         0.00000E+00        -0.23721E+08
 
   -0.33312E+08        -0.25711E+06         0.00000E+00
   -0.25711E+06        -0.47773E+08         0.00000E+00
    0.00000E+00         0.00000E+00        -0.23721E+08
 
   -0.32984E+08        -0.17461E+06         0.00000E+00
   -0.17461E+06        -0.47756E+08         0.00000E+00
    0.00000E+00         0.00000E+00        -0.23721E+08
 
   -0.32651E+08        -0.89273E+05         0.00000E+00
   -0.89273E+05        -0.47748E+08         0.00000E+00
    0.00000E+00         0.00000E+00        -0.23721E+08
 
   -0.32315E+08        -0.75573E+03         0.00000E+00
   -0.75573E+03        -0.47751E+08         0.00000E+00
    0.00000E+00         0.00000E+00        -0.23721E+08
 
   -0.31972E+08         0.91332E+05         0.00000E+00
    0.91332E+05        -0.47766E+08         0.00000E+00
    0.00000E+00         0.00000E+00        -0.23721E+08
 
   -0.31622E+08         0.18745E+06         0.00000E+00
    0.18745E+06        -0.47791E+08         0.00000E+00
    0.00000E+00         0.00000E+00        -0.23721E+08
 
   -0.31264E+08         0.28816E+06         0.00000E+00
    0.28816E+06        -0.47829E+08         0.00000E+00
    0.00000E+00         0.00000E+00        -0.23721E+08
 
   -0.30896E+08         0.39411E+06         0.00000E+00
    0.39411E+06        -0.47880E+08         0.00000E+00
    0.00000E+00         0.00000E+00        -0.23721E+08
 
   -0.30517E+08         0.50608E+06         0.00000E+00
    0.50608E+06        -0.47944E+08         0.00000E+00
    0.00000E+00         0.00000E+00        -0.23721E+08
 
   -0.30126E+08         0.62501E+06         0.00000E+00
    0.62501E+06        -0.48022E+08         0.00000E+00
    0.00000E+00         0.00000E+00        -0.23721E+08
 
   -0.29720E+08         0.75204E+06         0.00000E+00
    0.75204E+06        -0.48115E+08         0.00000E+00
    0.00000E+00         0.00000E+00        -0.23721E+08
 
   -0.29299E+08         0.88853E+06         0.00000E+00
    0.88853E+06        -0.48224E+08         0.00000E+00
    0.00000E+00         0.00000E+00        -0.23721E+08
 
   -0.28860E+08         0.10362E+07         0.00000E+00
    0.10362E+07        -0.48350E+08         0.00000E+00
    0.00000E+00         0.00000E+00        -0.23721E+08
 
   -0.28402E+08         0.11971E+07         0.00000E+00
    0.11971E+07        -0.48494E+08         0.00000E+00
    0.00000E+00         0.00000E+00        -0.23721E+08
 
   -0.27923E+08         0.13739E+07         0.00000E+00
    0.13739E+07        -0.48656E+08         0.00000E+00
    0.00000E+00         0.00000E+00        -0.23721E+08
 
   -0.27422E+08         0.15699E+07         0.00000E+00
    0.15699E+07        -0.48839E+08         0.00000E+00
    0.00000E+00         0.00000E+00        -0.23721E+08
 
   -0.26897E+08         0.17892E+07         0.00000E+00
    0.17892E+07        -0.49044E+08         0.00000E+00
    0.00000E+00         0.00000E+00        -0.23721E+08
 
   -0.26348E+08         0.20375E+07         0.00000E+00
    0.20375E+07        -0.49271E+08         0.00000E+00
    0.00000E+00         0.00000E+00        -0.23721E+08
 
   -0.25776E+08         0.23216E+07         0.00000E+00
    0.23216E+07        -0.49521E+08         0.00000E+00
    0.00000E+00         0.00000E+00        -0.23721E+08
 
   -0.25186E+08         0.26507E+07         0.00000E+00
    0.26507E+07        -0.49793E+08         0.00000E+00
    0.00000E+00         0.00000E+00        -0.23721E+08
 
   -0.24588E+08         0.30366E+07         0.00000E+00
    0.30366E+07        -0.50087E+08         0.00000E+00
    0.00000E+00         0.00000E+00        -0.23721E+08
 
   -0.24005E+08         0.34943E+07         0.00000E+00
    0.34943E+07        -0.50396E+08         0.00000E+00
    0.00000E+00         0.00000E+00        -0.23721E+08
 
   -0.49323E+08        -0.38325E+06         0.00000E+00
   -0.38325E+06        -0.49949E+08         0.00000E+00
    0.00000E+00         0.00000E+00        -0.21247E+08
 
   -0.47798E+08        -0.48795E+06         0.00000E+00
   -0.48795E+06        -0.49832E+08         0.00000E+00
    0.00000E+00         0.00000E+00        -0.21247E+08
 
   -0.46496E+08        -0.54419E+06         0.00000E+00
   -0.54419E+06        -0.49674E+08         0.00000E+00
    0.00000E+00         0.00000E+00        -0.21247E+08
 
   -0.45362E+08        -0.57263E+06         0.00000E+00
   -0.57263E+06        -0.49490E+08         0.00000E+00
    0.00000E+00         0.00000E+00        -0.21247E+08
 
   -0.44361E+08        -0.58441E+06         0.00000E+00
   -0.58441E+06        -0.49290E+08         0.00000E+00
    0.00000E+00         0.00000E+00        -0.21247E+08
 
   -0.43466E+08        -0.58575E+06         0.00000E+00
   -0.58575E+06        -0.49082E+08         0.00000E+00
    0.00000E+00         0.00000E+00        -0.21247E+08
 
   -0.42658E+08        -0.58030E+06         0.00000E+00
   -0.58030E+06        -0.48870E+08         0.00000E+00
    0.00000E+00         0.00000E+00        -0.21247E+08
 
   -0.41923E+08        -0.57022E+06         0.00000E+00
   -0.57022E+06        -0.48657E+08         0.00000E+00
    0.00000E+00         0.00000E+00        -0.21247E+08
 
   -0.41249E+08        -0.55690E+06         0.00000E+00
   -0.55690E+06        -0.48446E+08         0.00000E+00
    0.00000E+00         0.00000E+00        -0.21247E+08
 
   -0.40628E+08        -0.54123E+06         0.00000E+00
   -0.54123E+06        -0.48239E+08         0.00000E+00
    0.00000E+00         0.00000E+00        -0.21247E+08
 
   -0.40051E+08        -0.52382E+06         0.00000E+00
   -0.52382E+06        -0.48036E+08         0.00000E+00
    0.00000E+00         0.00000E+00        -0.21247E+08
 
   -0.39512E+08        -0.50507E+06         0.00000E+00
   -0.50507E+06        -0.47839E+08         0.00000E+00
    0.00000E+00         0.00000E+00        -0.21247E+08
 
   -0.39006E+08        -0.48529E+06         0.00000E+00
   -0.48529E+06        -0.47649E+08         0.00000E+00
    0.00000E+00         0.00000E+00        -0.21247E+08
 
   -0.38530E+08        -0.46469E+06         0.00000E+00
   -0.46469E+06        -0.47465E+08         0.00000E+00
    0.00000E+00         0.00000E+00        -0.21247E+08
 
   -0.38079E+08        -0.44342E+06         0.00000E+00
   -0.44342E+06        -0.47290E+08         0.00000E+00
    0.00000E+00         0.00000E+00        -0.21247E+08
 
   -0.37649E+08        -0.42159E+06         0.00000E+00
   -0.42159E+06        -0.47122E+08         0.00000E+00
    0.00000E+00         0.00000E+00        -0.21247E+08
 
   -0.37239E+08        -0.39928E+06         0.00000E+00
   -0.39928E+06        -0.46963E+08         0.00000E+00
    0.00000E+00         0.00000E+00        -0.21247E+08
 
   -0.36844E+08        -0.37654E+06         0.00000E+00
   -0.37654E+06        -0.46812E+08         0.00000E+00
    0.00000E+00         0.00000E+00        -0.21247E+08
 
   -0.36464E+08        -0.35342E+06         0.00000E+00
   -0.35342E+06        -0.46669E+08         0.00000E+00
    0.00000E+00         0.00000E+00        -0.21247E+08
 
   -0.36096E+08        -0.32992E+06         0.00000E+00
   -0.32992E+06        -0.46536E+08         0.00000E+00
    0.00000E+00         0.00000E+00        -0.21247E+08
 
   -0.35737E+08        -0.30606E+06         0.00000E+00
   -0.30606E+06        -0.46412E+08         0.00000E+00
    0.00000E+00         0.00000E+00        -0.21247E+08
 
   -0.35387E+08        -0.28183E+06         0.00000E+00
   -0.28183E+06        -0.46297E+08         0.00000E+00
    0.00000E+00         0.00000E+00        -0.21247E+08
 
   -0.35044E+08        -0.25722E+06         0.00000E+00
   -0.25722E+06        -0.46192E+08         0.00000E+00
    0.00000E+00         0.00000E+00        -0.21247E+08
 
   -0.34705E+08        -0.23218E+06         0.00000E+00
   -0.23218E+06        -0.46097E+08         0.00000E+00
    0.00000E+00         0.00000E+00        -0.21247E+08
 
   -0.34370E+08        -0.20670E+06         0.00000E+00
   -0.20670E+06        -0.46011E+08         0.00000E+00
    0.00000E+00         0.00000E+00        -0.21247E+08
 
   -0.34037E+08        -0.18072E+06         0.00000E+00
   -0.18072E+06        -0.45936E+08         0.00000E+00
    0.00000E+00         0.00000E+00        -0.21247E+08
 
   -0.33705E+08        -0.15419E+06         0.00000E+00
   -0.15419E+06        -0.45870E+08         0.00000E+00
    0.00000E+00         0.00000E+00        -0.21247E+08
 
   -0.33372E+08        -0.12704E+06         0.00000E+00
   -0.12704E+06        -0.45816E+08         0.00000E+00
    0.00000E+00         0.00000E+00        -0.21247E+08
 
   -0.33038E+08        -0.99185E+05         0.00000E+00
   -0.99185E+05        -0.45772E+08         0.00000E+00
    0.00000E+00         0.00000E+00        -0.21247E+08
 
   -0.32700E+08        -0.70541E+05         0.00000E+00
   -0.70541E+05        -0.45740E+08         0.00000E+00
    0.00000E+00         0.00000E+00        -0.21247E+08
 
   -0.32358E+08        -0.40996E+05         0.00000E+00
   -0.40996E+05        -0.45719E+08         0.00000E+00
    0.00000E+00         0.00000E+00        -0.21247E+08
 
   -0.32010E+08        -0.10424E+05         0.00000E+00
   -0.10424E+05        -0.45710E+08         0.00000E+00
    0.00000E+00         0.00000E+00        -0.21247E+08
 
   -0.31654E+08         0.21326E+05         0.00000E+00
    0.21326E+05        -0.45713E+08         0.00000E+00
    0.00000E+00         0.00000E+00        -0.21247E+08
 
   -0.31290E+08         0.54430E+05         0.00000E+00
    0.54430E+05        -0.45729E+08         0.00000E+00
    0.00000E+00         0.00000E+00        -0.21247E+08
 
   -0.30915E+08         0.89096E+05         0.00000E+00
    0.89096E+05        -0.45759E+08         0.00000E+00
    0.00000E+00         0.00000E+00        -0.21247E+08
 
   -0.30527E+08         0.12557E+06         0.00000E+00
    0.12557E+06        -0.45802E+08         0.00000E+00
    0.00000E+00         0.00000E+00        -0.21247E+08
 
   -0.30126E+08         0.16417E+06         0.00000E+00
    0.16417E+06        -0.45861E+08         0.00000E+00
    0.00000E+00         0.00000E+00        -0.21247E+08
 
   -0.29708E+08         0.20525E+06         0.00000E+00
    0.20525E+06        -0.45935E+08         0.00000E+00
    0.00000E+00         0.00000E+00        -0.21247E+08
 
   -0.29271E+08         0.24927E+06         0.00000E+00
    0.24927E+06        -0.46027E+08         0.00000E+00
    0.00000E+00         0.00000E+00        -0.21247E+08
 
   -0.28813E+08         0.29680E+06         0.00000E+00
    0.29680E+06        -0.46136E+08         0.00000E+00
    0.00000E+00         0.00000E+00        -0.21247E+08
 
   -0.28330E+08         0.34858E+06         0.00000E+00
    0.34858E+06        -0.46265E+08         0.00000E+00
    0.00000E+00         0.00000E+00        -0.21247E+08
 
   -0.27819E+08         0.40554E+06         0.00000E+00
    0.40554E+06        -0.46416E+08         0.00000E+00
    0.00000E+00         0.00000E+00        -0.21247E+08
 
   -0.27275E+08         0.46893E+06         0.00000E+00
    0.46893E+06        -0.46590E+08         0.00000E+00
    0.00000E+00         0.00000E+00        -0.21247E+08
 
   -0.26692E+08         0.54046E+06         0.00000E+00
    0.54046E+06        -0.46790E+08         0.00000E+00
    0.00000E+00         0.00000E+00        -0.21247E+08
 
   -0.26064E+08         0.62247E+06         0.00000E+00
    0.62247E+06        -0.47021E+08         0.00000E+00
    0.00000E+00         0.00000E+00        -0.21247E+08
 
   -0.25382E+08         0.71834E+06         0.00000E+00
    0.71834E+06        -0.47285E+08         0.00000E+00
    0.00000E+00         0.00000E+00        -0.21247E+08
 
   -0.24635E+08         0.83309E+06         0.00000E+00
    0.83309E+06        -0.47590E+08         0.00000E+00
    0.00000E+00         0.00000E+00        -0.21247E+08
 
   -0.23808E+08         0.97440E+06         0.00000E+00
    0.97440E+06        -0.47942E+08         0.00000E+00
    0.00000E+00         0.00000E+00        -0.21247E+08
 
   -0.22879E+08         0.11546E+07         0.00000E+00
    0.11546E+07        -0.48352E+08         0.00000E+00
    0.00000E+00         0.00000E+00        -0.21247E+08
 
   -0.21816E+08         0.13944E+07         0.00000E+00
    0.13944E+07        -0.48835E+08         0.00000E+00
    0.00000E+00         0.00000E+00        -0.21247E+08
 
SCALARS stresss double 
LOOKUP_TABLE default
  -49999430.2408646     
  -49999427.0915873     
  -49999424.2615038     
  -49999421.7531090     
  -49999419.5684221     
  -49999417.7090972     
  -49999416.1764866     
  -49999414.9716781     
  -49999414.0955181     
  -49999413.5486272     
  -49999413.3314102     
  -49999413.4440633     
  -49999413.8865793     
  -49999414.6587514     
  -49999415.7601765     
  -49999417.1902574     
  -49999418.9482054     
  -49999421.0330415     
  -49999423.4435988     
  -49999426.1785234     
  -49999429.2362765     
  -49999432.6151356     
  -49999436.3131961     
  -49999440.3283729     
  -49999444.6584017     
  -49999449.3008412     
  -49999454.2530744     
  -49999459.5123102     
  -49999465.0755859     
  -49999470.9397683     
  -49999477.1015565     
  -49999483.5574835     
  -49999490.3039187     
  -49999497.3370702     
  -49999504.6529870     
  -49999512.2475619     
  -49999520.1165344     
  -49999528.2554929     
  -49999536.6598788     
  -49999545.3249891     
  -49999554.2459809     
  -49999563.4178750     
  -49999572.8355611     
  -49999582.4938041     
  -49999592.3872509     
  -49999602.5104410     
  -49999612.8578206     
  -49999623.4237650     
  -49999634.2026148     
  -49999645.1887404     
  -49999422.1293515     
  -49999418.9176888     
  -49999416.0349363     
  -49999413.4818553     
  -49999411.2594190     
  -49999409.3686226     
  -49999407.8103865     
  -49999406.5855050     
  -49999405.6946186     
  -49999405.1381985     
  -49999404.9165379     
  -49999405.0297468     
  -49999405.4777494     
  -49999406.2602822     
  -49999407.3768938     
  -49999408.8269443     
  -49999410.6096055     
  -49999412.7238616     
  -49999415.1685098     
  -49999417.9421609     
  -49999421.0432404     
  -49999424.4699895     
  -49999428.2204663     
  -49999432.2925470     
  -49999436.6839273     
  -49999441.3921239     
  -49999446.4144759     
  -49999451.7481468     
  -49999457.3901257     
  -49999463.3372295     
  -49999469.5861048     
  -49999476.1332296     
  -49999482.9749158     
  -49999490.1073110     
  -49999497.5264011     
  -49999505.2280122     
  -49999513.2078133     
  -49999521.4613186     
  -49999529.9838900     
  -49999538.7707391     
  -49999547.8169303     
  -49999557.1173820     
  -49999566.6668684     
  -49999576.4600201     
  -49999586.4913229     
  -49999596.7551124     
  -49999607.2455632     
  -49999617.9566632     
  -49999628.8821613     
  -49999640.0154578     
  -49999405.8196633     
  -49999402.5133393     
  -49999399.5445214     
  -49999396.9148693     
  -49999394.6257180     
  -49999392.6781822     
  -49999391.0731933     
  -49999389.8115108     
  -49999388.8937222     
  -49999388.3202407     
  -49999388.0913012     
  -49999388.2069571     
  -49999388.6670777     
  -49999389.4713464     
  -49999390.6192589     
  -49999392.1101226     
  -49999393.9430556     
  -49999396.1169872     
  -49999398.6306572     
  -49999401.4826171     
  -49999404.6712299     
  -49999408.1946711     
  -49999412.0509298     
  -49999416.2378094     
  -49999420.7529291     
  -49999425.5937247     
  -49999430.7574507     
  -49999436.2411812     
  -49999442.0418119     
  -49999448.1560616     
  -49999454.5804743     
  -49999461.3114208     
  -49999468.3451009     
  -49999475.6775453     
  -49999483.3046177     
  -49999491.2220173     
  -49999499.4252806     
  -49999507.9097837     
  -49999516.6707448     
  -49999525.7032259     
  -49999535.0021354     
  -49999544.5622295     
  -49999554.3781148     
  -49999564.4442496     
  -49999574.7549461     
  -49999585.3043737     
  -49999596.0865647     
  -49999607.0954282     
  -49999618.3247830     
  -49999629.7684370     
  -49999381.0671010     
  -49999377.6239919     
  -49999374.5323877     
  -49999371.7938815     
  -49999369.4099085     
  -49999367.3817086     
  -49999365.7103187     
  -49999364.3965740     
  -49999363.4411105     
  -49999362.8443666     
  -49999362.6065842     
  -49999362.7278094     
  -49999363.2078918     
  -49999364.0464852     
  -49999365.2430466     
  -49999366.7968366     
  -49999368.7069192     
  -49999370.9721619     
  -49999373.5912361     
  -49999376.5626176     
  -49999379.8845869     
  -49999383.5552304     
  -49999387.5724410     
  -49999391.9339191     
  -49999396.6371739     
  -49999401.6795247     
  -49999407.0581023     
  -49999412.7698503     
  -49999418.8115272     
  -49999425.1797077     
  -49999431.8707847     
  -49999438.8809712     
  -49999446.2063025     
  -49999453.8426382     
  -49999461.7856642     
  -49999470.0308955     
  -49999478.5736779     
  -49999487.4091909     
  -49999496.5324503     
  -49999505.9383103     
  -49999515.6214668     
  -49999525.5764601     
  -49999535.7976780     
  -49999546.2793593     
  -49999557.0155979     
  -49999568.0003467     
  -49999579.2274224     
  -49999590.6905070     
  -49999602.3831428     
  -49999614.2987012     
  -49999347.5201937     
  -49999343.8947358     
  -49999340.6396146     
  -49999337.7565624     
  -49999335.2470931     
  -49999333.1125133     
  -49999331.3539223     
  -49999329.9722106     
  -49999328.9680593     
  -49999328.3419388     
  -49999328.0941099     
  -49999328.2246231     
  -49999328.7333192     
  -49999329.6198295     
  -49999330.8835763     
  -49999332.5237731     
  -49999334.5394252     
  -49999336.9293301     
  -49999339.6920781     
  -49999342.8260531     
  -49999346.3294333     
  -49999350.2001924     
  -49999354.4361002     
  -49999359.0347243     
  -49999363.9934310     
  -49999369.3093869     
  -49999374.9795603     
  -49999381.0007228     
  -49999387.3694515     
  -49999394.0821301     
  -49999401.1349514     
  -49999408.5239193     
  -49999416.2448509     
  -49999424.2933788     
  -49999432.6649533     
  -49999441.3548454     
  -49999450.3581488     
  -49999459.6697829     
  -49999469.2844958     
  -49999479.1968668     
  -49999489.4013098     
  -49999499.8920761     
  -49999510.6632584     
  -49999521.7087932     
  -49999533.0224647     
  -49999544.5979081     
  -49999556.4286123     
  -49999568.5079235     
  -49999580.8290514     
  -49999593.3850859     
  -49999304.7013057     
  -49999300.8450700     
  -49999297.3832323     
  -49999294.3176328     
  -49999291.6498920     
  -49999289.3814064     
  -49999287.5133488     
  -49999286.0466678     
  -49999284.9820882     
  -49999284.3201106     
  -49999284.0610112     
  -49999284.2048419     
  -49999284.7514306     
  -49999285.7003810     
  -49999287.0510734     
  -49999288.8026649     
  -49999290.9540901     
  -49999293.5040617     
  -49999296.4510715     
  -49999299.7933908     
  -49999303.5290720     
  -49999307.6559494     
  -49999312.1716403     
  -49999317.0735467     
  -49999322.3588564     
  -49999328.0245448     
  -49999334.0673765     
  -49999340.4839070     
  -49999347.2704848     
  -49999354.4232534     
  -49999361.9381533     
  -49999369.8109243     
  -49999378.0371080     
  -49999386.6120500     
  -49999395.5309028     
  -49999404.7886284     
  -49999414.3800010     
  -49999424.2996100     
  -49999434.5418630     
  -49999445.1009888     
  -49999455.9710409     
  -49999467.1459007     
  -49999478.6192807     
  -49999490.3847284     
  -49999502.4356294     
  -49999514.7652116     
  -49999527.3665490     
  -49999540.2325658     
  -49999553.3560401     
  -49999566.7296034     
  -49999252.0013481     
  -49999247.8626253     
  -49999244.1479217     
  -49999240.8592119     
  -49999237.9982311     
  -49999235.5664752     
  -49999233.5651998     
  -49999231.9954199     
  -49999230.8579092     
  -49999230.1532001     
  -49999229.8815837     
  -49999230.0431095     
  -49999230.6375860     
  -49999231.6645804     
  -49999233.1234198     
  -49999235.0131908     
  -49999237.3327409     
  -49999240.0806788     
  -49999243.2553755     
  -49999246.8549653     
  -49999250.8773470     
  -49999255.3201847     
  -49999260.1809098     
  -49999265.4567223     
  -49999271.1445920     
  -49999277.2412609     
  -49999283.7432446     
  -49999290.6468345     
  -49999297.9480997     
  -49999305.6428894     
  -49999313.7268353     
  -49999322.1953538     
  -49999331.0436487     
  -49999340.2667141     
  -49999349.8593368     
  -49999359.8160996     
  -49999370.1313841     
  -49999380.7993739     
  -49999391.8140578     
  -49999403.1692334     
  -49999414.8585101     
  -49999426.8753133     
  -49999439.2128873     
  -49999451.8642998     
  -49999464.8224453     
  -49999478.0800493     
  -49999491.6296722     
  -49999505.4637133     
  -49999519.5744151     
  -49999533.9538691     
  -49999188.6707060     
  -49999184.1940302     
  -49999180.1769703     
  -49999176.6216553     
  -49999173.5299552     
  -49999170.9034807     
  -49999168.7435816     
  -49999167.0513475     
  -49999165.8276064     
  -49999165.0729248     
  -49999164.7876078     
  -49999164.9716989     
  -49999165.6249803     
  -49999166.7469729     
  -49999168.3369371     
  -49999170.3938732     
  -49999172.9165224     
  -49999175.9033672     
  -49999179.3526326     
  -49999183.2622875     
  -49999187.6300454     
  -49999192.4533663     
  -49999197.7294579     
  -49999203.4552775     
  -49999209.6275336     
  -49999216.2426878     
  -49999223.2969572     
  -49999230.7863160     
  -49999238.7064984     
  -49999247.0530006     
  -49999255.8210837     
  -49999265.0057761     
  -49999274.6018764     
  -49999284.6039564     
  -49999295.0063641     
  -49999305.8032271     
  -49999316.9884554     
  -49999328.5557453     
  -49999340.4985825     
  -49999352.8102463     
  -49999365.4838127     
  -49999378.5121588     
  -49999391.8879662     
  -49999405.6037259     
  -49999419.6517415     
  -49999434.0241342     
  -49999448.7128467     
  -49999463.7096481     
  -49999479.0061383     
  -49999494.5937519     
  -49999113.8085326     
  -49999108.9340631     
  -49999104.5612799     
  -49999100.6924898     
  -49999097.3297178     
  -49999094.4747056     
  -49999092.1289109     
  -49999090.2935070     
  -49999088.9693825     
  -49999088.1571407     
  -49999087.8570998     
  -49999088.0692928     
  -49999088.7934677     
  -49999090.0290879     
  -49999091.7753328     
  -49999094.0310981     
  -49999096.7949971     
  -49999100.0653614     
  -49999103.8402417     
  -49999108.1174097     
  -49999112.8943591     
  -49999118.1683072     
  -49999123.9361963     
  -49999130.1946964     
  -49999136.9402061     
  -49999144.1688555     
  -49999151.8765080     
  -49999160.0587632     
  -49999168.7109588     
  -49999177.8281739     
  -49999187.4052313     
  -49999197.4367009     
  -49999207.9169023     
  -49999218.8399085     
  -49999230.1995489     
  -49999241.9894129     
  -49999254.2028537     
  -49999266.8329915     
  -49999279.8727177     
  -49999293.3146991     
  -49999307.1513815     
  -49999321.3749940     
  -49999335.9775537     
  -49999350.9508696     
  -49999366.2865476     
  -49999381.9759948     
  -49999398.0104244     
  -49999414.3808604     
  -49999431.0781428     
  -49999448.0929325     
  -49999026.3498375     
  -49999021.0126809     
  -49999016.2263408     
  -49999011.9933282     
  -49999008.3158443     
  -49999005.1957800     
  -49999002.6347148     
  -49999000.6339163     
  -49998999.1943397     
  -49998998.3166277     
  -49998998.0011102     
  -49998998.2478046     
  -49998999.0564159     
  -49999000.4263372     
  -49999002.3566501     
  -49999004.8461257     
  -49999007.8932255     
  -49999011.4961019     
  -49999015.6526005     
  -49999020.3602604     
  -49999025.6163164     
  -49999031.4177008     
  -49999037.7610447     
  -49999044.6426805     
  -49999052.0586441     
  -49999060.0046771     
  -49999068.4762291     
  -49999077.4684609     
  -49999086.9762468     
  -49999096.9941776     
  -49999107.5165643     
  -49999118.5374406     
  -49999130.0505664     
  -49999142.0494319     
  -49999154.5272608     
  -49999167.4770140     
  -49999180.8913940     
  -49999194.7628486     
  -49999209.0835755     
  -49999223.8455261     
  -49999239.0404105     
  -49999254.6597019     
  -49999270.6946412     
  -49999287.1362420     
  -49999303.9752956     
  -49999321.2023759     
  -49999338.8078448     
  -49999356.7818571     
  -49999375.1143665     
  -49999393.7951307     
  -49998925.0502422     
  -49998919.1797131     
  -49998913.9168749     
  -49998909.2644703     
  -49998905.2249002     
  -49998901.8002239     
  -49998898.9921573     
  -49998896.8020728     
  -49998895.2309988     
  -49998894.2796195     
  -49998893.9482745     
  -49998894.2369593     
  -49998895.1453254     
  -49998896.6726810     
  -49998898.8179913     
  -49998901.5798797     
  -49998904.9566287     
  -49998908.9461811     
  -49998913.5461413     
  -49998918.7537772     
  -49998924.5660215     
  -49998930.9794740     
  -49998937.9904033     
  -49998945.5947497     
  -49998953.7881269     
  -49998962.5658250     
  -49998971.9228135     
  -49998981.8537437     
  -49998992.3529521     
  -49999003.4144639     
  -49999015.0319960     
  -49999027.1989608     
  -49999039.9084701     
  -49999053.1533385     
  -49999066.9260882     
  -49999081.2189526     
  -49999096.0238809     
  -49999111.3325426     
  -49999127.1363321     
  -49999143.4263735     
  -49999160.1935255     
  -49999177.4283866     
  -49999195.1213002     
  -49999213.2623597     
  -49999231.8414144     
  -49999250.8480748     
  -49999270.2717183     
  -49999290.1014950     
  -49999310.3263339     
  -49999330.9349485     
  -49998808.4681734     
  -49998801.9869984     
  -49998796.1789240     
  -49998791.0469534     
  -49998786.5937124     
  -49998782.8214486     
  -49998779.7320299     
  -49998777.3269444     
  -49998775.6072997     
  -49998774.5738230     
  -49998774.2268606     
  -49998774.5663782     
  -49998775.5919618     
  -49998777.3028175     
  -49998779.6977727     
  -49998782.7752771     
  -49998786.5334038     
  -49998790.9698505     
  -49998796.0819417     
  -49998801.8666294     
  -49998808.3204963     
  -49998815.4397568     
  -49998823.2202603     
  -49998831.6574931     
  -49998840.7465815     
  -49998850.4822945     
  -49998860.8590468     
  -49998871.8709026     
  -49998883.5115784     
  -49998895.7744472     
  -49998908.6525416     
  -49998922.1385588     
  -49998936.2248638     
  -49998950.9034943     
  -49998966.1661651     
  -49998982.0042724     
  -49998998.4088993     
  -49999015.3708201     
  -49999032.8805058     
  -49999050.9281293     
  -49999069.5035710     
  -49999088.5964242     
  -49999108.1960008     
  -49999128.2913374     
  -49999148.8712010     
  -49999169.9240957     
  -49999191.4382683     
  -49999213.4017151     
  -49999235.8021885     
  -49999258.6272036     
  -49998674.9442398     
  -49998667.7677043     
  -49998661.3391214     
  -49998655.6617867     
  -49998650.7385770     
  -49998646.5719493     
  -49998643.1639394     
  -49998640.5161620     
  -49998638.6298097     
  -49998637.5056531     
  -49998637.1440407     
  -49998637.5448991     
  -49998638.7077336     
  -49998640.6316288     
  -49998643.3152497     
  -49998646.7568423     
  -49998650.9542358     
  -49998655.9048433     
  -49998661.6056643     
  -49998668.0532862     
  -49998675.2438867     
  -49998683.1732365     
  -49998691.8367014     
  -49998701.2292456     
  -49998711.3454346     
  -49998722.1794383     
  -49998733.7250347     
  -49998745.9756135     
  -49998758.9241799     
  -49998772.5633588     
  -49998786.8853988     
  -49998801.8821767     
  -49998817.5452025     
  -49998833.8656238     
  -49998850.8342308     
  -49998868.4414618     
  -49998886.6774081     
  -49998905.5318201     
  -49998924.9941124     
  -49998945.0533702     
  -49998965.6983549     
  -49998986.9175105     
  -49999008.6989700     
  -49999031.0305619     
  -49999053.8998168     
  -49999077.2939739     
  -49999101.1999887     
  -49999125.6045396     
  -49999150.4940348     
  -49999175.8546206     
  -49998522.5774962     
  -49998514.6125297     
  -49998507.4808475     
  -49998501.1860707     
  -49998495.7313549     
  -49998491.1193882     
  -49998487.3523910     
  -49998484.4321149     
  -49998482.3598425     
  -49998481.1363872     
  -49998480.7620933     
  -49998481.2368362     
  -49998482.5600233     
  -49998484.7305945     
  -49998487.7470235     
  -49998491.6073188     
  -49998496.3090259     
  -49998501.8492284     
  -49998508.2245502     
  -49998515.4311583     
  -49998523.4647647     
  -49998532.3206293     
  -49998541.9935632     
  -49998552.4779314     
  -49998563.7676566     
  -49998575.8562229     
  -49998588.7366792     
  -49998602.4016440     
  -49998616.8433091     
  -49998632.0534445     
  -49998648.0234031     
  -49998664.7441254     
  -49998682.2061452     
  -49998700.3995943     
  -49998719.3142087     
  -49998738.9393337     
  -49998759.2639307     
  -49998780.2765824     
  -49998801.9655001     
  -49998824.3185292     
  -49998847.3231570     
  -49998870.9665186     
  -49998895.2354045     
  -49998920.1162680     
  -49998945.5952318     
  -49998971.6580964     
  -49998998.2903475     
  -49999025.4771635     
  -49999053.2034241     
  -49999081.4537183     
  -49998349.1982517     
  -49998340.3424519     
  -49998332.4169273     
  -49998325.4256602     
  -49998319.3721134     
  -49998314.2592292     
  -49998310.0894285     
  -49998306.8646103     
  -49998304.5861508     
  -49998303.2549038     
  -49998302.8712007     
  -49998303.4348511     
  -49998304.9451432     
  -49998307.4008451     
  -49998310.8002060     
  -49998315.1409576     
  -49998320.4203161     
  -49998326.6349841     
  -49998333.7811531     
  -49998341.8545060     
  -49998350.8502200     
  -49998360.7629696     
  -49998371.5869301     
  -49998383.3157813     
  -49998395.9427111     
  -49998409.4604197     
  -49998423.8611243     
  -49998439.1365632     
  -49998455.2780011     
  -49998472.2762339     
  -49998490.1215939     
  -49998508.8039559     
  -49998528.3127423     
  -49998548.6369296     
  -49998569.7650544     
  -49998591.6852198     
  -49998614.3851022     
  -49998637.8519580     
  -49998662.0726307     
  -49998687.0335584     
  -49998712.7207808     
  -49998739.1199472     
  -49998766.2163243     
  -49998793.9948043     
  -49998822.4399129     
  -49998851.5358178     
  -49998881.2663372     
  -49998911.6149488     
  -49998942.5647985     
  -49998974.0987094     
  -49998152.3370292     
  -49998142.4776227     
  -49998133.6584800     
  -49998125.8839812     
  -49998119.1579268     
  -49998113.4835363     
  -49998108.8634474     
  -49998105.2997151     
  -49998102.7938119     
  -49998101.3466272     
  -49998100.9584679     
  -49998101.6290592     
  -49998103.3575450     
  -49998106.1424894     
  -49998109.9818783     
  -49998114.8731210     
  -49998120.8130525     
  -49998127.7979354     
  -49998135.8234634     
  -49998144.8847635     
  -49998154.9763995     
  -49998166.0923760     
  -49998178.2261414     
  -49998191.3705927     
  -49998205.5180794     
  -49998220.6604085     
  -49998236.7888492     
  -49998253.8941382     
  -49998271.9664850     
  -49998290.9955778     
  -49998310.9705893     
  -49998331.8801831     
  -49998353.7125200     
  -49998376.4552648     
  -49998400.0955930     
  -49998424.6201986     
  -49998450.0153008     
  -49998476.2666523     
  -49998503.3595466     
  -49998531.2788265     
  -49998560.0088924     
  -49998589.5337106     
  -49998619.8368221     
  -49998650.9013521     
  -49998682.7100179     
  -49998715.2451398     
  -49998748.4886492     
  -49998782.4220995     
  -49998817.0266749     
  -49998852.2832017     
  -49997929.1892289     
  -49997918.2019698     
  -49997908.3794746     
  -49997899.7265601     
  -49997892.2473953     
  -49997885.9455001     
  -49997880.8237442     
  -49997876.8843469     
  -49997874.1288764     
  -49997872.5582503     
  -49997872.1727358     
  -49997872.9719505     
  -49997874.9548638     
  -49997878.1197980     
  -49997882.4644301     
  -49997887.9857943     
  -49997894.6802838     
  -49997902.5436543     
  -49997911.5710264     
  -49997921.7568895     
  -49997933.0951052     
  -49997945.5789116     
  -49997959.2009273     
  -49997973.9531565     
  -49997989.8269936     
  -49998006.8132284     
  -49998024.9020520     
  -49998044.0830624     
  -49998064.3452708     
  -49998085.6771076     
  -49998108.0664297     
  -49998131.5005271     
  -49998155.9661303     
  -49998181.4494176     
  -49998207.9360232     
  -49998235.4110450     
  -49998263.8590532     
  -49998293.2640983     
  -49998323.6097208     
  -49998354.8789591     
  -49998387.0543600     
  -49998420.1179873     
  -49998454.0514318     
  -49998488.8358217     
  -49998524.4518320     
  -49998560.8796958     
  -49998598.0992141     
  -49998636.0897672     
  -49998674.8303252     
  -49998714.2994599     
  -49997676.5749853     
  -49997664.3229941     
  -49997653.3764880     
  -49997643.7407605     
  -49997635.4203805     
  -49997628.4191911     
  -49997622.7403082     
  -49997618.3861207     
  -49997615.3582900     
  -49997613.6577501     
  -49997613.2847087     
  -49997614.2386478     
  -49997616.5183252     
  -49997620.1217763     
  -49997625.0463164     
  -49997631.2885427     
  -49997638.8443376     
  -49997647.7088715     
  -49997657.8766068     
  -49997669.3413015     
  -49997682.0960136     
  -49997696.1331053     
  -49997711.4442488     
  -49997728.0204307     
  -49997745.8519581     
  -49997764.9284643     
  -49997785.2389153     
  -49997806.7716164     
  -49997829.5142189     
  -49997853.4537273     
  -49997878.5765072     
  -49997904.8682928     
  -49997932.3141953     
  -49997960.8987110     
  -49997990.6057303     
  -49998021.4185469     
  -49998053.3198665     
  -49998086.2918169     
  -49998120.3159578     
  -49998155.3732905     
  -49998191.4442688     
  -49998228.5088094     
  -49998266.5463025     
  -49998305.5356236     
  -49998345.4551440     
  -49998386.2827433     
  -49998427.9958206     
  -49998470.5713065     
  -49998513.9856759     
  -49998558.2149600     
  -49997390.8936397     
  -49997377.2261882     
  -49997365.0230910     
  -49997354.2901593     
  -49997345.0323933     
  -49997337.2539805     
  -49997330.9582957     
  -49997326.1478997     
  -49997322.8245401     
  -49997320.9891514     
  -49997320.6418558     
  -49997321.7819647     
  -49997324.4079804     
  -49997328.5175979     
  -49997334.1077079     
  -49997341.1743994     
  -49997349.7129629     
  -49997359.7178945     
  -49997371.1828998     
  -49997384.1008982     
  -49997398.4640281     
  -49997414.2636521     
  -49997431.4903625     
  -49997450.1339873     
  -49997470.1835968     
  -49997491.6275102     
  -49997514.4533025     
  -49997538.6478124     
  -49997564.1971497     
  -49997591.0867036     
  -49997619.3011514     
  -49997648.8244670     
  -49997679.6399299     
  -49997711.7301354     
  -49997745.0770037     
  -49997779.6617904     
  -49997815.4650966     
  -49997852.4668798     
  -49997890.6464652     
  -49997929.9825564     
  -49997970.4532476     
  -49998012.0360349     
  -49998054.7078290     
  -49998098.4449671     
  -49998143.2232262     
  -49998189.0178351     
  -49998235.8034887     
  -49998283.5543604     
  -49998332.2441167     
  -49998381.8459300     
  -49997068.0721713     
  -49997052.8234232     
  -49997039.2182155     
  -49997027.2629183     
  -49997016.9629931     
  -49997008.3229923     
  -49997001.3465578     
  -49996996.0364216     
  -49996992.3944052     
  -49996990.4214212     
  -49996990.1174736     
  -49996991.4816601     
  -49996994.5121738     
  -49996999.2063063     
  -49997005.5604497     
  -49997013.5701011     
  -49997023.2298659     
  -49997034.5334621     
  -49997047.4737253     
  -49997062.0426138     
  -49997078.2312141     
  -49997096.0297470     
  -49997115.4275741     
  -49997136.4132043     
  -49997158.9743017     
  -49997183.0976927     
  -49997208.7693741     
  -49997235.9745218     
  -49997264.6974994     
  -49997294.9218675     
  -49997326.6303933     
  -49997359.8050602     
  -49997394.4270786     
  -49997430.4768962     
  -49997467.9342092     
  -49997506.7779735     
  -49997546.9864163     
  -49997588.5370484     
  -49997631.4066764     
  -49997675.5714151     
  -49997721.0067010     
  -49997767.6873048     
  -49997815.5873459     
  -49997864.6803054     
  -49997914.9390407     
  -49997966.3357999     
  -49998018.8422365     
  -49998072.4294240     
  -49998127.0678715     
  -49998182.7275392     
  -49996703.5068461     
  -49996686.4945665     
  -49996671.3277687     
  -49996658.0134218     
  -49996646.5574773     
  -49996636.9648686     
  -49996629.2395103     
  -49996623.3842980     
  -49996619.4011091     
  -49996617.2908037     
  -49996617.0532264     
  -49996618.6872079     
  -49996622.1905682     
  -49996627.5601190     
  -49996634.7916677     
  -49996643.8800215     
  -49996654.8189917     
  -49996667.6013988     
  -49996682.2190780     
  -49996698.6628853     
  -49996716.9227040     
  -49996736.9874510     
  -49996758.8450850     
  -49996782.4826137     
  -49996807.8861025     
  -49996835.0406828     
  -49996863.9305612     
  -49996894.5390293     
  -49996926.8484734     
  -49996960.8403851     
  -49996996.4953718     
  -49997033.7931681     
  -49997072.7126475     
  -49997113.2318341     
  -49997155.3279150     
  -49997198.9772533     
  -49997244.1554008     
  -49997290.8371118     
  -49997338.9963567     
  -49997388.6063362     
  -49997439.6394959     
  -49997492.0675409     
  -49997545.8614511     
  -49997600.9914967     
  -49997657.4272540     
  -49997715.1376213     
  -49997774.0908354     
  -49997834.2544882     
  -49997895.5955437     
  -49997958.0803552     
  -49996291.9972425     
  -49996273.0214978     
  -49996256.1186690     
  -49996241.2963626     
  -49996228.5610456     
  -49996217.9180445     
  -49996209.3715452     
  -49996202.9245931     
  -49996198.5790945     
  -49996196.3358175     
  -49996196.1943944     
  -49996198.1533239     
  -49996202.2099750     
  -49996208.3605899     
  -49996216.6002887     
  -49996226.9230739     
  -49996239.3218362     
  -49996253.7883599     
  -49996270.3133295     
  -49996288.8863365     
  -49996309.4958869     
  -49996332.1294093     
  -49996356.7732627     
  -49996383.4127462     
  -49996412.0321078     
  -49996442.6145548     
  -49996475.1422635     
  -49996509.5963907     
  -49996545.9570844     
  -49996584.2034961     
  -49996624.3137924     
  -49996666.2651682     
  -49996710.0338590     
  -49996755.5951551     
  -49996802.9234151     
  -49996851.9920804     
  -49996902.7736895     
  -49996955.2398935     
  -49997009.3614713     
  -49997065.1083456     
  -49997122.4495990     
  -49997181.3534905     
  -49997241.7874728     
  -49997303.7182091     
  -49997367.1115907     
  -49997431.9327553     
  -49997498.1461053     
  -49997565.7153255     
  -49997634.6034032     
  -49997704.7726462     
  -49995827.6717071     
  -49995806.5135810     
  -49995787.6843688     
  -49995771.1923493     
  -49995757.0445250     
  -49995745.2466212     
  -49995735.8030862     
  -49995728.7170921     
  -49995723.9905362     
  -49995721.6240429     
  -49995721.6169662     
  -49995723.9673933     
  -49995728.6721482     
  -49995735.7267962     
  -49995745.1256491     
  -49995756.8617706     
  -49995770.9269830     
  -49995787.3118733     
  -49995806.0058017     
  -49995826.9969086     
  -49995850.2721234     
  -49995875.8171740     
  -49995903.6165962     
  -49995933.6537435     
  -49995965.9107986     
  -49996000.3687840     
  -49996037.0075738     
  -49996075.8059065     
  -49996116.7413973     
  -49996159.7905515     
  -49996204.9287781     
  -49996252.1304042     
  -49996301.3686898     
  -49996352.6158425     
  -49996405.8430337     
  -49996461.0204141     
  -49996518.1171305     
  -49996577.1013425     
  -49996637.9402401     
  -49996700.6000610     
  -49996765.0461091     
  -49996831.2427728     
  -49996899.1535439     
  -49996968.7410371     
  -49997039.9670092     
  -49997112.7923794     
  -49997187.1772496     
  -49997263.0809248     
  -49997340.4619346     
  -49997419.2780539     
  -49995303.9031699     
  -49995280.3235342     
  -49995259.3608156     
  -49995241.0239948     
  -49995225.3206225     
  -49995212.2568197     
  -49995201.8372778     
  -49995194.0652603     
  -49995188.9426045     
  -49995186.4697241     
  -49995186.6456130     
  -49995189.4678486     
  -49995194.9325973     
  -49995203.0346193     
  -49995213.7672751     
  -49995227.1225317     
  -49995243.0909707     
  -49995261.6617953     
  -49995282.8228399     
  -49995306.5605786     
  -49995332.8601356     
  -49995361.7052952     
  -49995393.0785133     
  -49995426.9609288     
  -49995463.3323759     
  -49995502.1713969     
  -49995543.4552554     
  -49995587.1599506     
  -49995633.2602315     
  -49995681.7296120     
  -49995732.5403860     
  -49995785.6636444     
  -49995841.0692907     
  -49995898.7260583     
  -49995958.6015286     
  -49996020.6621479     
  -49996084.8732472     
  -49996151.1990599     
  -49996219.6027420     
  -49996290.0463918     
  -49996362.4910696     
  -49996436.8968192     
  -49996513.2226884     
  -49996591.4267506     
  -49996671.4661270     
  -49996753.2970082     
  -49996836.8746775     
  -49996922.1535335     
  -49997009.0871135     
  -49997097.6281173     
  -49994713.2141114     
  -49994686.9524996     
  -49994663.6316667     
  -49994643.2613160     
  -49994625.8495495     
  -49994611.4028689     
  -49994599.9261758     
  -49994591.4227746     
  -49994585.8943746     
  -49994583.3410938     
  -49994583.7614631     
  -49994587.1524312     
  -49994593.5093703     
  -49994602.8260831     
  -49994615.0948094     
  -49994630.3062343     
  -49994648.4494969     
  -49994669.5121996     
  -49994693.4804180     
  -49994720.3387119     
  -49994750.0701365     
  -49994782.6562544     
  -49994818.0771485     
  -49994856.3114352     
  -49994897.3362782     
  -49994941.1274037     
  -49994987.6591149     
  -49995036.9043082     
  -49995088.8344894     
  -49995143.4197909     
  -49995200.6289890     
  -49995260.4295221     
  -49995322.7875096     
  -49995387.6677705     
  -49995455.0338435     
  -49995524.8480073     
  -49995597.0713010     
  -49995671.6635457     
  -49995748.5833657     
  -49995827.7882111     
  -49995909.2343804     
  -49995992.8770434     
  -49996078.6702647     
  -49996166.5670279     
  -49996256.5192596     
  -49996348.4778546     
  -49996442.3927008     
  -49996538.2127048     
  -49996635.8858178     
  -49996735.3590621     
  -49994047.1693225     
  -49994017.9429704     
  -49993992.0214273     
  -49993969.4151285     
  -49993950.1327167     
  -49993934.1810435     
  -49993921.5651706     
  -49993912.2883736     
  -49993906.3521448     
  -49993903.7561983     
  -49993904.4984751     
  -49993908.5751493     
  -49993915.9806354     
  -49993926.7075956     
  -49993940.7469492     
  -49993958.0878809     
  -49993978.7178521     
  -49994002.6226112     
  -49994029.7862054     
  -49994060.1909933     
  -49994093.8176578     
  -49994130.6452202     
  -49994170.6510548     
  -49994213.8109041     
  -49994260.0988946     
  -49994309.4875539     
  -49994361.9478275     
  -49994417.4490971     
  -49994475.9591992     
  -49994537.4444439     
  -49994601.8696350     
  -49994669.1980908     
  -49994739.3916643     
  -49994812.4107653     
  -49994888.2143827     
  -49994966.7601066     
  -49995048.0041522     
  -49995131.9013830     
  -49995218.4053356     
  -49995307.4682440     
  -49995399.0410652     
  -49995493.0735049     
  -49995589.5140437     
  -49995688.3099637     
  -49995789.4073757     
  -49995892.7512468     
  -49995998.2854285     
  -49996105.9526848     
  -49996215.6947212     
  -49996327.4522138     
  -49993296.2549252     
  -49993263.7580592     
  -49993234.9750172     
  -49993209.9169598     
  -49993188.5930417     
  -49993171.0104134     
  -49993157.1742245     
  -49993147.0876276     
  -49993140.7517830     
  -49993138.1658644     
  -49993139.3270663     
  -49993144.2306109     
  -49993152.8697569     
  -49993165.2358090     
  -49993181.3181281     
  -49993201.1041424     
  -49993224.5793596     
  -49993251.7273795     
  -49993282.5299076     
  -49993316.9667698     
  -49993355.0159273     
  -49993396.6534931     
  -49993441.8537482     
  -49993490.5891594     
  -49993542.8303978     
  -49993598.5463574     
  -49993657.7041750     
  -49993720.2692505     
  -49993786.2052680     
  -49993855.4742178     
  -49993928.0364184     
  -49994003.8505397     
  -49994082.8736268     
  -49994165.0611242     
  -49994250.3669007     
  -49994338.7432748     
  -49994430.1410408     
  -49994524.5094956     
  -49994621.7964656     
  -49994721.9483343     
  -49994824.9100711     
  -49994930.6252594     
  -49995039.0361262     
  -49995150.0835715     
  -49995263.7071989     
  -49995379.8453459     
  -49995498.4351150     
  -49995619.4124055     
  -49995742.7119452     
  -49995868.2673228     
  -49992449.7419288     
  -49992413.6454071     
  -49992381.7220865     
  -49992353.9838250     
  -49992330.4402364     
  -49992311.0986940     
  -49992295.9643343     
  -49992285.0400626     
  -49992278.3265598     
  -49992275.8222888     
  -49992277.5235039     
  -49992283.4242595     
  -49992293.5164211     
  -49992307.7896757     
  -49992326.2315452     
  -49992348.8273987     
  -49992375.5604671     
  -49992406.4118580     
  -49992441.3605715     
  -49992480.3835174     
  -49992523.4555322     
  -49992570.5493982     
  -49992621.6358623     
  -49992676.6836566     
  -49992735.6595189     
  -49992798.5282144     
  -49992865.2525586     
  -49992935.7934399     
  -49993010.1098439     
  -49993088.1588777     
  -49993169.8957957     
  -49993255.2740251     
  -49993344.2451932     
  -49993436.7591538     
  -49993532.7640162     
  -49993632.2061732     
  -49993735.0303302     
  -49993841.1795356     
  -49993950.5952105     
  -49994063.2171800     
  -49994178.9837046     
  -49994297.8315123     
  -49994419.6958312     
  -49994544.5104222     
  -49994672.2076128     
  -49994802.7183314     
  -49994935.9721411     
  -49995071.8972754     
  -49995210.4206731     
  -49995351.4680143     
  -49991495.5323866     
  -49991455.4838231     
  -49991420.1241973     
  -49991389.4660082     
  -49991363.5192460     
  -49991342.2913967     
  -49991325.7874477     
  -49991314.0098956     
  -49991306.9587537     
  -49991304.6315618     
  -49991307.0233961     
  -49991314.1268816     
  -49991325.9322037     
  -49991342.4271225     
  -49991363.5969872     
  -49991389.4247516     
  -49991419.8909912     
  -49991454.9739204     
  -49991494.6494114     
  -49991538.8910133     
  -49991587.6699731     
  -49991640.9552567     
  -49991698.7135711     
  -49991760.9093876     
  -49991827.5049658     
  -49991898.4603782     
  -49991973.7335359     
  -49992053.2802149     
  -49992137.0540833     
  -49992225.0067290     
  -49992317.0876889     
  -49992413.2444774     
  -49992513.4226173     
  -49992617.5656700     
  -49992725.6152672     
  -49992837.5111428     
  -49992953.1911658     
  -49993072.5913737     
  -49993195.6460060     
  -49993322.2875392     
  -49993452.4467218     
  -49993586.0526097     
  -49993723.0326029     
  -49993863.3124818     
  -49994006.8164446     
  -49994153.4671451     
  -49994303.1857311     
  -49994455.8918824     
  -49994611.5038510     
  -49994769.9385000     
  -49990419.9859716     
  -49990375.6105084     
  -49990336.5027601     
  -49990302.6757744     
  -49990274.1397957     
  -49990250.9022711     
  -49990232.9678590     
  -49990220.3384383     
  -49990213.0131183     
  -49990210.9882512     
  -49990214.2574445     
  -49990222.8115752     
  -49990236.6388052     
  -49990255.7245974     
  -49990280.0517333     
  -49990309.6003316     
  -49990344.3478681     
  -49990384.2691958     
  -49990429.3365670     
  -49990479.5196560     
  -49990534.7855828     
  -49990595.0989378     
  -49990660.4218072     
  -49990730.7137995     
  -49990805.9320736     
  -49990886.0313660     
  -49990970.9640210     
  -49991060.6800201     
  -49991155.1270127     
  -49991254.2503485     
  -49991357.9931088     
  -49991466.2961406     
  -49991579.0980900     
  -49991696.3354367     
  -49991817.9425296     
  -49991943.8516228     
  -49992073.9929118     
  -49992208.2945714     
  -49992346.6827932     
  -49992489.0818241     
  -49992635.4140058     
  -49992785.5998139     
  -49992939.5578988     
  -49993097.2051261     
  -49993258.4566181     
  -49993423.2257952     
  -49993591.4244191     
  -49993762.9626347     
  -49993937.7490138     
  -49994115.6905988     
  -49989207.7245303     
  -49989158.6264629     
  -49989115.4453629     
  -49989078.1946878     
  -49989046.8847642     
  -49989021.5227970     
  -49989002.1128801     
  -49988988.6560082     
  -49988981.1500903     
  -49988979.5899642     
  -49988983.9674121     
  -49988994.2711785     
  -49989010.4869880     
  -49989032.5975652     
  -49989060.5826556     
  -49989094.4190476     
  -49989134.0805955     
  -49989179.5382440     
  -49989230.7600537     
  -49989287.7112270     
  -49989350.3541361     
  -49989418.6483517     
  -49989492.5506719     
  -49989572.0151530     
  -49989656.9931411     
  -49989747.4333042     
  -49989843.2816655     
  -49989944.4816378     
  -49990050.9740580     
  -49990162.6972233     
  -49990279.5869279     
  -49990401.5765000     
  -49990528.5968403     
  -49990660.5764609     
  -49990797.4415247     
  -49990939.1158861     
  -49991085.5211316     
  -49991236.5766219     
  -49991392.1995340     
  -49991552.3049041     
  -49991716.8056713     
  -49991885.6127214     
  -49992058.6349323     
  -49992235.7792185     
  -49992416.9505771     
  -49992602.0521345     
  -49992790.9851926     
  -49992983.6492764     
  -49993179.9421819     
  -49993379.7600237     
  -49987841.4118750     
  -49987787.1773838     
  -49987739.5878508     
  -49987698.6569446     
  -49987664.3948402     
  -49987636.8082310     
  -49987615.9003431     
  -49987601.6709502     
  -49987594.1163902     
  -49987593.2295840     
  -49987599.0000542     
  -49987611.4139467     
  -49987630.4540526     
  -49987656.0998320     
  -49987688.3274389     
  -49987727.1097470     
  -49987772.4163773     
  -49987824.2137267     
  -49987882.4649974     
  -49987947.1302279     
  -49988018.1663250     
  -49988095.5270967     
  -49988179.1632862     
  -49988269.0226070     
  -49988365.0497788     
  -49988467.1865650     
  -49988575.3718102     
  -49988689.5414788     
  -49988809.6286957     
  -49988935.5637858     
  -49989067.2743163     
  -49989204.6851381     
  -49989347.7184296     
  -49989496.2937400     
  -49989650.3280339     
  -49989809.7357364     
  -49989974.4287794     
  -49990144.3166475     
  -49990319.3064258     
  -49990499.3028475     
  -49990684.2083423     
  -49990873.9230854     
  -49991068.3450472     
  -49991267.3700435     
  -49991470.8917856     
  -49991678.8019323     
  -49991890.9901411     
  -49992107.3441203     
  -49992327.7496815     
  -49992552.0907931     
  -49986301.5057438     
  -49986241.7070470     
  -49986189.3692071     
  -49986144.5058307     
  -49986107.1266291     
  -49986077.2374345     
  -49986054.8402176     
  -49986039.9331071     
  -49986032.5104104     
  -49986032.5626362     
  -49986040.0765185     
  -49986055.0350421     
  -49986077.4174692     
  -49986107.1993679     
  -49986144.3526421     
  -49986188.8455616     
  -49986240.6427953     
  -49986299.7054443     
  -49986365.9910765     
  -49986439.4537628     
  -49986520.0441141     
  -49986607.7093191     
  -49986702.3931843     
  -49986804.0361737     
  -49986912.5754507     
  -49987027.9449197     
  -49987150.0752701     
  -49987278.8940204     
  -49987414.3255630     
  -49987556.2912104     
  -49987704.7092424     
  -49987859.4949529     
  -49988020.5606992     
  -49988187.8159508     
  -49988361.1673392     
  -49988540.5187090     
  -49988725.7711687     
  -49988916.8231430     
  -49989113.5704253     
  -49989315.9062310     
  -49989523.7212512     
  -49989736.9037071     
  -49989955.3394050     
  -49990178.9117920     
  -49990407.5020112     
  -49990640.9889592     
  -49990879.2493420     
  -49991122.1577331     
  -49991369.5866314     
  -49991621.4065186     
  -49984565.9785009     
  -49984500.1798119     
  -49984442.7559472     
  -49984393.7200850     
  -49984353.0810641     
  -49984320.8434053     
  -49984297.0073334     
  -49984281.5688020     
  -49984274.5195194     
  -49984275.8469763     
  -49984285.5344749     
  -49984303.5611601     
  -49984329.9020517     
  -49984364.5280781     
  -49984407.4061121     
  -49984458.4990069     
  -49984517.7656349     
  -49984585.1609263     
  -49984660.6359106     
  -49984744.1377576     
  -49984835.6098209     
  -49984934.9916825     
  -49985042.2191972     
  -49985157.2245399     
  -49985279.9362525     
  -49985410.2792925     
  -49985548.1750827     
  -49985693.5415611     
  -49985846.2932327     
  -49986006.3412209     
  -49986173.5933214     
  -49986347.9540550     
  -49986529.3247230     
  -49986717.6034620     
  -49986912.6852998     
  -49987114.4622125     
  -49987322.8231817     
  -49987537.6542521     
  -49987758.8385909     
  -49987986.2565459     
  -49988219.7857062     
  -49988459.3009619     
  -49988704.6745650     
  -49988955.7761908     
  -49989212.4729995     
  -49989474.6296983     
  -49989742.1086043     
  -49990014.7697075     
  -49990292.4707339     
  -49990575.0672097     
  -49982610.0027463     
  -49982537.7685068     
  -49982474.9323682     
  -49982421.5065968     
  -49982377.4986305     
  -49982342.9111052     
  -49982317.7418832     
  -49982301.9840842     
  -49982295.6261166     
  -49982298.6517128     
  -49982311.0399635     
  -49982332.7653561     
  -49982363.7978132     
  -49982404.1027333     
  -49982453.6410326     
  -49982512.3691888     
  -49982580.2392855     
  -49982657.1990591     
  -49982743.1919458     
  -49982838.1571307     
  -49982942.0295975     
  -49983054.7401804     
  -49983176.2156156     
  -49983306.3785955     
  -49983445.1478223     
  -49983592.4380644     
  -49983748.1602121     
  -49983912.2213354     
  -49984084.5247419     
  -49984264.9700361     
  -49984453.4531793     
  -49984649.8665502     
  -49984854.0990059     
  -49985066.0359450     
  -49985285.5593692     
  -49985512.5479475     
  -49985746.8770802     
  -49985988.4189629     
  -49986237.0426523     
  -49986492.6141318     
  -49986754.9963775     
  -49987024.0494248     
  -49987299.6304360     
  -49987581.5937674     
  -49987869.7910375     
  -49988164.0711956     
  -49988464.2805899     
  -49988770.2630375     
  -49989081.8598930     
  -49989398.9101190     
  -49980405.5975663     
  -49980326.5035296     
  -49980257.9525888     
  -49980199.9554718     
  -49980152.5175392     
  -49980115.6388179     
  -49980089.3140374     
  -49980073.5326672     
  -49980068.2789568     
  -49980073.5319774     
  -49980089.2656650     
  -49980115.4488657     
  -49980152.0453827     
  -49980199.0140243     
  -49980256.3086544     
  -49980323.8782436     
  -49980401.6669222     
  -49980489.6140346     
  -49980587.6541951     
  -49980695.7173443     
  -49980813.7288077     
  -49980941.6093551     
  -49981079.2752604     
  -49981226.6383639     
  -49981383.6061342     
  -49981550.0817320     
  -49981725.9640744     
  -49981911.1479002     
  -49982105.5238362     
  -49982308.9784639     
  -49982521.3943875     
  -49982742.6503020     
  -49982972.6210622     
  -49983211.1777531     
  -49983458.1877593     
  -49983713.5148367     
  -49983977.0191832     
  -49984248.5575114     
  -49984527.9831205     
  -49984815.1459691     
  -49985109.8927492     
  -49985412.0669589     
  -49985721.5089771     
  -49986038.0561379     
  -49986361.5428049     
  -49986691.8004467     
  -49987028.6577118     
  -49987371.9405048     
  -49987721.4720614     
  -49988077.0730255     
  -49977921.2306809     
  -49977834.8785382     
  -49977760.3498781     
  -49977697.6530851     
  -49977646.7905854     
  -49977607.7588892     
  -49977580.5486352     
  -49977565.1446375     
  -49977561.5259348     
  -49977569.6658407     
  -49977589.5319964     
  -49977621.0864255     
  -49977664.2855896     
  -49977719.0804466     
  -49977785.4165100     
  -49977863.2339097     
  -49977952.4674543     
  -49978053.0466954     
  -49978164.8959918     
  -49978287.9345769     
  -49978422.0766255     
  -49978567.2313226     
  -49978723.3029336     
  -49978890.1908745     
  -49979067.7897843     
  -49979255.9895971     
  -49979454.6756161     
  -49979663.7285876     
  -49979883.0247765     
  -49980112.4360415     
  -49980351.8299124     
  -49980601.0696666     
  -49980860.0144069     
  -49981128.5191402     
  -49981406.4348554     
  -49981693.6086033     
  -49981989.8835760     
  -49982295.0991868     
  -49982609.0911507     
  -49982931.6915651     
  -49983262.7289907     
  -49983602.0285330     
  -49983949.4119234     
  -49984304.6976017     
  -49984667.7007972     
  -49985038.2336115     
  -49985416.1051005     
  -49985801.1213570     
  -49986193.0855933     
  -49986591.7982237     
  -49975121.3712200     
  -49975027.4076147     
  -49974946.6982971     
  -49974879.2482867     
  -49974825.0559976     
  -49974784.1132909     
  -49974756.4055307     
  -49974741.9116414     
  -49974740.6041678     
  -49974752.4493368     
  -49974777.4071205     
  -49974815.4313026     
  -49974866.4695451     
  -49974930.4634573     
  -49975007.3486665     
  -49975097.0548902     
  -49975199.5060090     
  -49975314.6201421     
  -49975442.3097232     
  -49975582.4815776     
  -49975735.0370010     
  -49975899.8718391     
  -49976076.8765677     
  -49976265.9363749     
  -49976466.9312428     
  -49976679.7360312     
  -49976904.2205612     
  -49977140.2497002     
  -49977387.6834466     
  -49977646.3770164     
  -49977916.1809289     
  -49978196.9410943     
  -49978488.4989003     
  -49978790.6913003     
  -49979103.3509014     
  -49979426.3060526     
  -49979759.3809337     
  -49980102.3956439     
  -49980455.1662912     
  -49980817.5050814     
  -49981189.2204078     
  -49981570.1169401     
  -49981959.9957148     
  -49982358.6542242     
  -49982765.8865066     
  -49983181.4832353     
  -49983605.2318093     
  -49984036.9164422     
  -49984476.3182522     
  -49984923.2153516     
  -49971965.9873096     
  -49971864.1282488     
  -49971777.1211717     
  -49971704.9664453     
  -49971647.6571249     
  -49971605.1790194     
  -49971577.5107606     
  -49971564.6238734     
  -49971566.4828489     
  -49971583.0452191     
  -49971614.2616339     
  -49971660.0759398     
  -49971720.4252602     
  -49971795.2400778     
  -49971884.4443181     
  -49971987.9554341     
  -49972105.6844938     
  -49972237.5362672     
  -49972383.4093154     
  -49972543.1960811     
  -49972716.7829795     
  -49972904.0504902     
  -49973104.8732507     
  -49973319.1201499     
  -49973546.6544226     
  -49973787.3337450     
  -49974041.0103298     
  -49974307.5310235     
  -49974586.7374025     
  -49974878.4658704     
  -49975182.5477557     
  -49975498.8094097     
  -49975827.0723043     
  -49976167.1531304     
  -49976518.8638966     
  -49976882.0120273     
  -49977256.4004616     
  -49977641.8277519     
  -49978038.0881622     
  -49978444.9717669     
  -49978862.2645495     
  -49979289.7485003     
  -49979727.2017155     
  -49980174.3984944     
  -49980631.1094379     
  -49981097.1015461     
  -49981572.1383156     
  -49982055.9798369     
  -49982548.3828914     
  -49983049.1010482     
  -49968409.9820400     
  -49968300.0439229     
  -49968206.7403767     
  -49968130.0655052     
  -49968070.0053327     
  -49968026.5378854     
  -49967999.6332756     
  -49967989.2537883     
  -49967995.3539692     
  -49968017.8807160     
  -49968056.7733703     
  -49968111.9638124     
  -49968183.3765571     
  -49968270.9288514     
  -49968374.5307735     
  -49968494.0853337     
  -49968629.4885756     
  -49968780.6296795     
  -49968947.3910661     
  -49969129.6485014     
  -49969327.2712031     
  -49969540.1219462     
  -49969768.0571713     
  -49970010.9270921     
  -49970268.5758037     
  -49970540.8413918     
  -49970827.5560419     
  -49971128.5461487     
  -49971443.6324260     
  -49971772.6300168     
  -49972115.3486032     
  -49972471.5925166     
  -49972841.1608475     
  -49973223.8475561     
  -49973619.4415816     
  -49974027.7269523     
  -49974448.4828948     
  -49974881.4839436     
  -49975326.5000497     
  -49975783.2966894     
  -49976251.6349726     
  -49976731.2717505     
  -49977221.9597234     
  -49977723.4475471     
  -49978235.4799401     
  -49978757.7977893     
  -49979290.1382558     
  -49979832.2348797     
  -49980383.8176851     
  -49980944.6132838     
  -49964402.5607666     
  -49964284.4994835     
  -49964185.0598505     
  -49964104.2277065     
  -49964041.9799797     
  -49963998.2847882     
  -49963973.1015429     
  -49963966.3810524     
  -49963978.0656305     
  -49964008.0892051     
  -49964056.3774299     
  -49964122.8477968     
  -49964207.4097508     
  -49964309.9648055     
  -49964430.4066605     
  -49964568.6213201     
  -49964724.4872126     
  -49964897.8753110     
  -49965088.6492544     
  -49965296.6654699     
  -49965521.7732957     
  -49965763.8151043     
  -49966022.6264265     
  -49966298.0360748     
  -49966589.8662686     
  -49966897.9327584     
  -49967222.0449500     
  -49967562.0060298     
  -49967917.6130884     
  -49968288.6572459     
  -49968674.9237751     
  -49969076.1922261     
  -49969492.2365489     
  -49969922.8252171     
  -49970367.7213501     
  -49970826.6828353     
  -49971299.4624492     
  -49971785.8079787     
  -49972285.4623410     
  -49972798.1637029     
  -49973323.6455999     
  -49973861.6370542     
  -49974411.8626915     
  -49974974.0428580     
  -49975547.8937355     
  -49976133.1274566     
  -49976729.4522183     
  -49977336.5723954     
  -49977954.1886527     
  -49978581.9980559     
  -49959886.5220280     
  -49959760.4818635     
  -49959655.2761785     
  -49959570.8800730     
  -49959507.2588415     
  -49959464.3680955     
  -49959442.1538891     
  -49959440.5528464     
  -49959459.4922913     
  -49959498.8903784     
  -49959558.6562269     
  -49959638.6900550     
  -49959738.8833157     
  -49959859.1188350     
  -49959999.2709497     
  -49960159.2056474     
  -49960338.7807066     
  -49960537.8458377     
  -49960756.2428249     
  -49960993.8056678     
  -49961250.3607239     
  -49961525.7268516     
  -49961819.7155522     
  -49962132.1311127     
  -49962462.7707487     
  -49962811.4247460     
  -49963177.8766032     
  -49963561.9031725     
  -49963963.2748015     
  -49964381.7554731     
  -49964817.1029454     
  -49965269.0688908     
  -49965737.3990344     
  -49966221.8332908     
  -49966722.1059016     
  -49967237.9455698     
  -49967769.0755946     
  -49968315.2140054     
  -49968876.0736933     
  -49969451.3625425     
  -49970040.7835603     
  -49970644.0350057     
  -49971260.8105173     
  -49971890.7992390     
  -49972533.6859454     
  -49973189.1511653     
  -49973856.8713044     
  -49974536.5187664     
  -49975227.7620726     
  -49975930.2659812     
  -49954797.4636865     
  -49954663.8380862     
  -49954553.5084932     
  -49954466.4362273     
  -49954402.5718437     
  -49954361.8552831     
  -49954344.2160238     
  -49954349.5732356     
  -49954377.8359361     
  -49954428.9031481     
  -49954502.6640591     
  -49954598.9981816     
  -49954717.7755148     
  -49954858.8567071     
  -49955022.0932197     
  -49955207.3274905     
  -49955414.3930986     
  -49955643.1149291     
  -49955893.3093379     
  -49956164.7843172     
  -49956457.3396597     
  -49956770.7671239     
  -49957104.8505977     
  -49957459.3662628     
  -49957834.0827571     
  -49958228.7613379     
  -49958643.1560428     
  -49959077.0138507     
  -49959530.0748412     
  -49960002.0723535     
  -49960492.7331429     
  -49961001.7775377     
  -49961528.9195932     
  -49962073.8672450     
  -49962636.3224611     
  -49963215.9813917     
  -49963812.5345179     
  -49964425.6667987     
  -49965055.0578164     
  -49965700.3819197     
  -49966361.3083662     
  -49967037.5014617     
  -49967728.6206992     
  -49968434.3208944     
  -49969154.2523215     
  -49969888.0608449     
  -49970635.3880508     
  -49971395.8713765     
  -49972169.1442371     
  -49972954.8361517     
  -49949062.8952187     
  -49948922.4018546     
  -49948807.9393615     
  -49948719.4515569     
  -49948656.8704745     
  -49948620.1165454     
  -49948609.0987824     
  -49948623.7149653     
  -49948663.8518286     
  -49948729.3852497     
  -49948820.1804391     
  -49948936.0921308     
  -49949076.9647742     
  -49949242.6327256     
  -49949432.9204412     
  -49949647.6426688     
  -49949886.6046413     
  -49950149.6022682     
  -49950436.4223279     
  -49950746.8426591     
  -49951080.6323514     
  -49951437.5519355     
  -49951817.3535717     
  -49952219.7812382     
  -49952644.5709171     
  -49953091.4507800     
  -49953560.1413716     
  -49954050.3557919     
  -49954561.7998766     
  -49955094.1723754     
  -49955647.1651293     
  -49956220.4632449     
  -49956813.7452674     
  -49957426.6833510     
  -49958058.9434275     
  -49958710.1853722     
  -49959380.0631682     
  -49960068.2250674     
  -49960774.3137501     
  -49961497.9664813     
  -49962238.8152654     
  -49962996.4869978     
  -49963770.6036141     
  -49964560.7822373     
  -49965366.6353218     
  -49966187.7707954     
  -49967023.7921988     
  -49967874.2988224     
  -49968738.8858404     
  -49969617.1444436     
  -49942601.2464177     
  -49942455.0194194     
  -49942337.8577721     
  -49942249.6832586     
  -49942190.4048014     
  -49942159.9186827     
  -49942158.1087658     
  -49942184.8467177     
  -49942239.9922338     
  -49942323.3932625     
  -49942434.8862313     
  -49942574.2962722     
  -49942741.4374489     
  -49942936.1129826     
  -49943158.1154783     
  -49943407.2271499     
  -49943683.2200458     
  -49943985.8562723     
  -49944314.8882171     
  -49944670.0587709     
  -49945051.1015472     
  -49945457.7411021     
  -49945889.6931502     
  -49946346.6647807     
  -49946828.3546697     
  -49947334.4532916     
  -49947864.6431276     
  -49948418.5988717     
  -49948995.9876349     
  -49949596.4691454     
  -49950219.6959478     
  -49950865.3135979     
  -49951532.9608555     
  -49952222.2698743     
  -49952932.8663879     
  -49953664.3698936     
  -49954416.3938324     
  -49955188.5457666     
  -49955980.4275531     
  -49956791.6355141     
  -49957621.7606045     
  -49958470.3885758     
  -49959337.1001367     
  -49960221.4711105     
  -49961123.0725890     
  -49962041.4710832     
  -49962976.2286707     
  -49963926.9031401     
  -49964893.0481315     
  -49965874.2132742     
  -49935320.7621464     
  -49935170.4648601     
  -49935052.5948410     
  -49934967.0463395     
  -49934913.6996213     
  -49934892.4212325     
  -49934903.0642650     
  -49934945.4686234     
  -49935019.4612926     
  -49935124.8566054     
  -49935261.4565099     
  -49935429.0508368     
  -49935627.4175673     
  -49935856.3230978     
  -49936115.5225058     
  -49936404.7598132     
  -49936723.7682492     
  -49937072.2705101     
  -49937449.9790183     
  -49937856.5961785     
  -49938291.8146323     
  -49938755.3175090     
  -49939246.7786751     
  -49939765.8629803     
  -49940312.2265001     
  -49940885.5167761     
  -49941485.3730520     
  -49942111.4265072     
  -49942763.3004860     
  -49943440.6107236     
  -49944142.9655683     
  -49944869.9661993     
  -49945621.2068415     
  -49946396.2749755     
  -49947194.7515436     
  -49948016.2111520     
  -49948860.2222686     
  -49949726.3474166     
  -49950614.1433637     
  -49951523.1613067     
  -49952452.9470528     
  -49953403.0411955     
  -49954372.9792869     
  -49955362.2920049     
  -49956370.5053169     
  -49957397.1406387     
  -49958441.7149897     
  -49959503.7411425     
  -49960582.7277707     
  -49961678.1795898     
  -49927118.2722423     
  -49926966.2344434     
  -49926850.3424398     
  -49926770.4563098     
  -49926726.4209861     
  -49926718.0665747     
  -49926745.2086713     
  -49926807.6486805     
  -49926905.1741337     
  -49927037.5590061     
  -49927204.5640334     
  -49927405.9370270     
  -49927641.4131884     
  -49927910.7154206     
  -49928213.5546385     
  -49928549.6300765     
  -49928918.6295935     
  -49929320.2299756     
  -49929754.0972352     
  -49930219.8869066     
  -49930717.2443392     
  -49931245.8049854     
  -49931805.1946864     
  -49932395.0299524     
  -49933014.9182396     
  -49933664.4582221     
  -49934343.2400596     
  -49935050.8456606     
  -49935786.8489403     
  -49936550.8160741     
  -49937342.3057454     
  -49938160.8693893     
  -49939006.0514297     
  -49939877.3895126     
  -49940774.4147326     
  -49941696.6518554     
  -49942643.6195337     
  -49943614.8305181     
  -49944609.7918627     
  -49945628.0051242     
  -49946668.9665570     
  -49947732.1673013     
  -49948817.0935662     
  -49949923.2268078     
  -49951050.0439010     
  -49952197.0173058     
  -49953363.6152295     
  -49954549.3017815     
  -49955753.5371248     
  -49956975.7776207     
  -49917877.8252671     
  -49917727.2093831     
  -49917616.8446841     
  -49917546.5490888     
  -49917516.1241918     
  -49917525.3556426     
  -49917574.0135244     
  -49917661.8527326     
  -49917788.6133517     
  -49917954.0210301     
  -49918157.7873537     
  -49918399.6102161     
  -49918679.1741873     
  -49918996.1508786     
  -49919350.1993039     
  -49919740.9662383     
  -49920168.0865720     
  -49920631.1836602     
  -49921129.8696689     
  -49921663.7459155     
  -49922232.4032047     
  -49922835.4221594     
  -49923472.3735460     
  -49924142.8185944     
  -49924846.3093122     
  -49925582.3887923     
  -49926350.5915164     
  -49927150.4436496     
  -49927981.4633311     
  -49928843.1609571     
  -49929735.0394572     
  -49930656.5945653     
  -49931607.3150818     
  -49932586.6831311     
  -49933594.1744105     
  -49934629.2584336     
  -49935691.3987656     
  -49936780.0532522     
  -49937894.6742413     
  -49939034.7087981     
  -49940199.5989124     
  -49941388.7816997     
  -49942601.6895949     
  -49943837.7505392     
  -49945096.3881598     
  -49946377.0219434     
  -49947679.0674024     
  -49949001.9362344     
  -49950345.0364753     
  -49951707.7726459     
  -49907469.1745656     
  -49907324.1761742     
  -49907223.9521316     
  -49907168.2686292     
  -49907156.8743589     
  -49907189.5009652     
  -49907265.8634949     
  -49907385.6608452     
  -49907548.5762086     
  -49907754.2775152     
  -49908002.4178707     
  -49908292.6359918     
  -49908624.5566356     
  -49908997.7910264     
  -49909411.9372756     
  -49909866.5807978     
  -49910361.2947204     
  -49910895.6402881     
  -49911469.1672600     
  -49912081.4143019     
  -49912731.9093705     
  -49913420.1700917     
  -49914145.7041306     
  -49914908.0095560     
  -49915706.5751956     
  -49916540.8809838     
  -49917410.3983033     
  -49918314.5903161     
  -49919252.9122884     
  -49920224.8119064     
  -49921229.7295840     
  -49922267.0987613     
  -49923336.3461961     
  -49924436.8922452     
  -49925568.1511378     
  -49926729.5312403     
  -49927920.4353122     
  -49929140.2607530     
  -49930388.3998406     
  -49931664.2399614     
  -49932967.1638306     
  -49934296.5497047     
  -49935651.7715854     
  -49937032.1994140     
  -49938437.1992582     
  -49939866.1334899     
  -49941318.3609550     
  -49942793.2371347     
  -49944290.1142982     
  -49945808.3416484     
  -49895746.1051530     
  -49895612.1937951     
  -49895528.0287318     
  -49895493.3130095     
  -49895507.7310367     
  -49895570.9491197     
  -49895682.6159954     
  -49895842.3633590     
  -49896049.8063884     
  -49896304.5442625     
  -49896606.1606754     
  -49896954.2243437     
  -49897348.2895084     
  -49897787.8964295     
  -49898272.5718742     
  -49898801.8295977     
  -49899375.1708160     
  -49899992.0846708     
  -49900652.0486870     
  -49901354.5292202     
  -49902098.9818965     
  -49902884.8520430     
  -49903711.5751087     
  -49904578.5770763     
  -49905485.2748642     
  -49906431.0767184     
  -49907415.3825947     
  -49908437.5845309     
  -49909497.0670078     
  -49910593.2073011     
  -49911725.3758216     
  -49912892.9364456     
  -49914095.2468340     
  -49915331.6587416     
  -49916601.5183145     
  -49917904.1663774     
  -49919238.9387103     
  -49920605.1663138     
  -49922002.1756637     
  -49923429.2889554     
  -49924885.8243370     
  -49926371.0961317     
  -49927884.4150504     
  -49929425.0883925     
  -49930992.4202375     
  -49932585.7116253     
  -49934204.2607265     
  -49935847.3630035     
  -49937514.3113599     
  -49939204.3962816     
  -49882544.5903556     
  -49882428.7975536     
  -49882368.2021046     
  -49882362.4303427     
  -49882411.0889032     
  -49882513.7653562     
  -49882670.0288327     
  -49882879.4306464     
  -49883141.5049074     
  -49883455.7691292     
  -49883821.7248279     
  -49884238.8581133     
  -49884706.6402714     
  -49885224.5283375     
  -49885791.9656603     
  -49886408.3824561     
  -49887073.1963527     
  -49887785.8129229     
  -49888545.6262068     
  -49889352.0192241     
  -49890204.3644737     
  -49891102.0244224     
  -49892044.3519819     
  -49893030.6909732     
  -49894060.3765791     
  -49895132.7357843     
  -49896247.0878028     
  -49897402.7444925     
  -49898599.0107572     
  -49899835.1849354     
  -49901110.5591762     
  -49902424.4198024     
  -49903776.0476595     
  -49905164.7184528     
  -49906589.7030704     
  -49908050.2678930     
  -49909545.6750911     
  -49911075.1829082     
  -49912638.0459317     
  -49914233.5153497     
  -49915860.8391961     
  -49917519.2625812     
  -49919208.0279105     
  -49920926.3750908     
  -49922673.5417225     
  -49924448.7632808     
  -49926251.2732839     
  -49928080.3034483     
  -49929935.0838337     
  -49931814.8429743     
  -49867680.7680294     
  -49867592.0303013     
  -49867564.4487342     
  -49867597.5568947     
  -49867690.8677220     
  -49867843.8742717     
  -49868056.0504516     
  -49868326.8517486     
  -49868655.7159455     
  -49869042.0638283     
  -49869485.2998822     
  -49869984.8129772     
  -49870539.9770418     
  -49871150.1517242     
  -49871814.6830418     
  -49872532.9040175     
  -49873304.1353027     
  -49874127.6857869     
  -49875002.8531936     
  -49875928.9246617     
  -49876905.1773124     
  -49877930.8788021     
  -49879005.2878599     
  -49880127.6548096     
  -49881297.2220775     
  -49882513.2246835     
  -49883774.8907177     
  -49885081.4418008     
  -49886432.0935283     
  -49887826.0558997     
  -49889262.5337310     
  -49890740.7270512     
  -49892259.8314838     
  -49893819.0386105     
  -49895417.5363205     
  -49897054.5091427     
  -49898729.1385626     
  -49900440.6033227     
  -49902188.0797076     
  -49903970.7418127     
  -49905787.7617977     
  -49907638.3101245     
  -49909521.5557794     
  -49911436.6664800     
  -49913382.8088672     
  -49915359.1486820     
  -49917364.8509278     
  -49919399.0800175     
  -49921460.9999064     
  -49923549.7742118     
  -49850948.7277148     
  -49850898.2933251     
  -49850915.5072729     
  -49850999.7914418     
  -49851150.5463584     
  -49851367.1520637     
  -49851648.9689720     
  -49851995.3387182     
  -49852405.5849909     
  -49852879.0143529     
  -49853414.9170464     
  -49854012.5677846     
  -49854671.2265273     
  -49855390.1392408     
  -49856168.5386426     
  -49857005.6449281     
  -49857900.6664820     
  -49858852.8005715     
  -49859861.2340223     
  -49860925.1438769     
  -49862043.6980347     
  -49863216.0558737     
  -49864441.3688540     
  -49865718.7811028     
  -49867047.4299795     
  -49868426.4466233     
  -49869854.9564806     
  -49871332.0798136     
  -49872856.9321898     
  -49874428.6249518     
  -49876046.2656681     
  -49877708.9585646     
  -49879415.8049363     
  -49881165.9035400     
  -49882958.3509677     
  -49884792.2420008     
  -49886666.6699451     
  -49888580.7269468     
  -49890533.5042891     
  -49892524.0926710     
  -49894551.5824664     
  -49896615.0639651     
  -49898713.6275955     
  -49900846.3641290     
  -49903012.3648664     
  -49905210.7218065     
  -49907440.5277975     
  -49909700.8766704     
  -49911990.8633559     
  -49914309.5839841     
  -49832118.1024372     
  -49832120.0115840     
  -49832196.6155192     
  -49832347.2022578     
  -49832571.0380150     
  -49832867.3682204     
  -49833235.4185176     
  -49833674.3957455     
  -49834183.4889032     
  -49834761.8700967     
  -49835408.6954665     
  -49836123.1060963     
  -49836904.2289028     
  -49837751.1775041     
  -49838663.0530694     
  -49839638.9451455     
  -49840677.9324645     
  -49841779.0837284     
  -49842941.4583724     
  -49844164.1073061     
  -49845446.0736322     
  -49846786.3933432     
  -49848184.0959944     
  -49849638.2053555     
  -49851147.7400377     
  -49852711.7140988     
  -49854329.1376247     
  -49855999.0172881     
  -49857720.3568833     
  -49859492.1578385     
  -49861313.4197046     
  -49863183.1406205     
  -49865100.3177562     
  -49867063.9477316     
  -49869073.0270136     
  -49871126.5522892     
  -49873223.5208172     
  -49875362.9307560     
  -49877543.7814700     
  -49879765.0738130     
  -49882025.8103903     
  -49884324.9957984     
  -49886661.6368433     
  -49889034.7427377     
  -49891443.3252760     
  -49893886.3989901     
  -49896362.9812830     
  -49898872.0925429     
  -49901412.7562373     
  -49903983.9989867     
  -49810931.4622517     
  -49811003.1113288     
  -49811157.0699637     
  -49811392.4664087     
  -49811708.4070662     
  -49812103.9776655     
  -49812578.2444168     
  -49813130.2551453     
  -49813759.0404009     
  -49814463.6145451     
  -49815242.9768138     
  -49816096.1123566     
  -49817021.9932497     
  -49818019.5794850     
  -49819087.8199325     
  -49820225.6532772     
  -49821432.0089294     
  -49822705.8079081     
  -49824045.9636982     
  -49825451.3830804     
  -49826920.9669329     
  -49828453.6110068     
  -49830048.2066737     
  -49831703.6416451     
  -49833418.8006648     
  -49835192.5661730     
  -49837023.8189427     
  -49838911.4386890     
  -49840854.3046495     
  -49842851.2961385     
  -49844901.2930721     
  -49847003.1764672     
  -49849155.8289122     
  -49851358.1350109     
  -49853608.9817993     
  -49855907.2591357     
  -49858251.8600636     
  -49860641.6811487     
  -49863075.6227894     
  -49865552.5895013     
  -49868071.4901760     
  -49870631.2383142     
  -49873230.7522342     
  -49875868.9552545     
  -49878544.7758529     
  -49881257.1478005     
  -49884005.0102719     
  -49886787.3079320     
  -49889602.9909996     
  -49892451.0152874     
  -49787101.5113138     
  -49787264.3127437     
  -49787517.6113105     
  -49787860.3454358     
  -49788291.4321676     
  -49788809.7685370     
  -49789414.2328856     
  -49790103.6861665     
  -49790876.9732136     
  -49791732.9239834     
  -49792670.3547652     
  -49793688.0693615     
  -49794784.8602362     
  -49795959.5096323     
  -49797210.7906572     
  -49798537.4683360     
  -49799938.3006324     
  -49801412.0394369     
  -49802957.4315223     
  -49804573.2194662     
  -49806258.1425406     
  -49808010.9375682     
  -49809830.3397459     
  -49811715.0834345     
  -49813663.9029161     
  -49815675.5331177     
  -49817748.7103025     
  -49819882.1727275     
  -49822074.6612691     
  -49824324.9200154     
  -49826631.6968267     
  -49828993.7438632     
  -49831409.8180810     
  -49833878.6816961     
  -49836399.1026167     
  -49838969.8548449     
  -49841589.7188459     
  -49844257.4818885     
  -49846971.9383530     
  -49849731.8900107     
  -49852536.1462727     
  -49855383.5244095     
  -49858272.8497414     
  -49861202.9558003     
  -49864172.6844633     
  -49867180.8860578     
  -49870226.4194394     
  -49873308.1520430     
  -49876424.9599058     
  -49879575.7276658     
  -49760308.0965478     
  -49760588.2463849     
  -49760967.6453444     
  -49761445.0072957     
  -49762019.0259009     
  -49762688.3761682     
  -49763451.7159704     
  -49764307.6875266     
  -49765254.9188468     
  -49766292.0251404     
  -49767417.6101848     
  -49768630.2676581     
  -49769928.5824313     
  -49771311.1318233     
  -49772776.4868150     
  -49774323.2132260     
  -49775949.8728508     
  -49777655.0245552     
  -49779437.2253342     
  -49781295.0313293     
  -49783226.9988064     
  -49785231.6850950     
  -49787307.6494861     
  -49789453.4540926     
  -49791667.6646695     
  -49793948.8513950     
  -49796295.5896133     
  -49798706.4605383     
  -49801180.0519189     
  -49803714.9586664     
  -49806309.7834441     
  -49808963.1372192     
  -49811673.6397775     
  -49814439.9202012     
  -49817260.6173107     
  -49820134.3800695     
  -49823059.8679538     
  -49826035.7512869     
  -49829060.7115382     
  -49832133.4415878     
  -49835252.6459574     
  -49838417.0410073     
  -49841625.3550998     
  -49844876.3287300     
  -49848168.7146248     
  -49851501.2778096     
  -49854872.7956433     
  -49858282.0578228     
  -49861727.8663570     
  -49865209.0355109     
  -49730195.0442431     
  -49730624.4101927     
  -49731162.3162438     
  -49731807.2118623     
  -49732557.5283603     
  -49733411.6806640     
  -49734368.0690372     
  -49735425.0807590     
  -49736581.0917550     
  -49737834.4681830     
  -49739183.5679708     
  -49740626.7423080     
  -49742162.3370900     
  -49743788.6943145     
  -49745504.1534309     
  -49747307.0526419     
  -49749195.7301578     
  -49751168.5254032     
  -49753223.7801760     
  -49755359.8397596     
  -49757575.0539882     
  -49759867.7782643     
  -49762236.3745307     
  -49764679.2121954     
  -49767194.6690110     
  -49769781.1319076     
  -49772436.9977816     
  -49775160.6742381     
  -49777950.5802902     
  -49780805.1470129     
  -49783722.8181543     
  -49786702.0507030     
  -49789741.3154130     
  -49792839.0972864     
  -49795993.8960137     
  -49799204.2263743     
  -49802468.6185945     
  -49805785.6186666     
  -49809153.7886277     
  -49812571.7067996     
  -49816037.9679898     
  -49819551.1836548     
  -49823109.9820260     
  -49826713.0081977     
  -49830358.9241797     
  -49834046.4089138     
  -49837774.1582544     
  -49841540.8849149     
  -49845345.3183798     
  -49849186.2047829     
  -49696366.8515376     
  -49696983.9940855     
  -49697719.4592652     
  -49698571.3867041     
  -49699537.9010562     
  -49700617.1139988     
  -49701807.1261738     
  -49703106.0290724     
  -49704511.9068618     
  -49706022.8381563     
  -49707636.8977298     
  -49709352.1581717     
  -49711166.6914856     
  -49713078.5706297     
  -49715085.8710013     
  -49717186.6718635     
  -49719379.0577150     
  -49721661.1196043     
  -49724030.9563867     
  -49726486.6759258     
  -49729026.3962401     
  -49731648.2465934     
  -49734350.3685322     
  -49737130.9168675     
  -49739988.0606045     
  -49742919.9838182     
  -49745924.8864774     
  -49749000.9852162     
  -49752146.5140554     
  -49755359.7250720     
  -49758638.8890200     
  -49761982.2959012     
  -49765388.2554875     
  -49768855.0977958     
  -49772381.1735149     
  -49775964.8543867     
  -49779604.5335404     
  -49783298.6257826     
  -49787045.5678422     
  -49790843.8185718     
  -49794691.8591056     
  -49798588.1929751     
  -49802531.3461830     
  -49806519.8672356     
  -49810552.3271347     
  -49814627.3193304     
  -49818743.4596334     
  -49822899.3860900     
  -49827093.7588179     
  -49831325.2598055     
  -49658385.2732198     
  -49659236.6120578     
  -49660216.4720546     
  -49661322.6315842     
  -49662552.8586400     
  -49663904.9130718     
  -49665376.5487533     
  -49666965.5156791     
  -49668669.5619929     
  -49670486.4359458     
  -49672413.8877849     
  -49674449.6715729     
  -49676591.5469384     
  -49678837.2807583     
  -49681184.6487705     
  -49683631.4371207     
  -49686175.4438407     
  -49688814.4802599     
  -49691546.3723520     
  -49694368.9620149     
  -49697280.1082867     
  -49700277.6884977     
  -49703359.5993584     
  -49706523.7579867     
  -49709768.1028716     
  -49713090.5947778     
  -49716489.2175889     
  -49719961.9790925     
  -49723506.9117074     
  -49727122.0731523     
  -49730805.5470593     
  -49734555.4435311     
  -49738369.8996443     
  -49742247.0798981     
  -49746185.1766115     
  -49750182.4102671     
  -49754237.0298048     
  -49758347.3128656     
  -49762511.5659848     
  -49766728.1247384     
  -49770995.3538407     
  -49775311.6471956     
  -49779675.4279018     
  -49784085.1482132     
  -49788539.2894541     
  -49793036.3618916     
  -49797574.9045648     
  -49802153.4850716     
  -49806770.6993139     
  -49811425.1712031     
  -49615765.8611273     
  -49616906.9977492     
  -49618187.1590832     
  -49619603.7045550     
  -49621153.9895565     
  -49622835.3679264     
  -49624645.1943452     
  -49626580.8266460     
  -49628639.6280398     
  -49630818.9692580     
  -49633116.2306101     
  -49635528.8039592     
  -49638054.0946152     
  -49640689.5231462     
  -49643432.5271091     
  -49646280.5627009     
  -49649231.1063305     
  -49652281.6561130     
  -49655429.7332864     
  -49658672.8835533     
  -49662008.6783473     
  -49665434.7160254     
  -49668948.6229885     
  -49672548.0547304     
  -49676230.6968163     
  -49679994.2657921     
  -49683836.5100270     
  -49687755.2104883     
  -49691748.1814514     
  -49695813.2711457     
  -49699948.3623373     
  -49704151.3728499     
  -49708420.2560260     
  -49712753.0011273     
  -49717147.6336780     
  -49721602.2157510     
  -49726114.8461973     
  -49730683.6608214     
  -49735306.8325031     
  -49739982.5712658     
  -49744709.1242936     
  -49749484.7758981     
  -49754307.8474348     
  -49759176.6971718     
  -49764089.7201094     
  -49769045.3477536     
  -49774042.0478439     
  -49779078.3240346     
  -49784152.7155330     
  -49789263.7966926     
  -49567974.5341724     
  -49569471.7391457     
  -49571118.6223163     
  -49572912.0600449     
  -49574848.9331585     
  -49576926.1296699     
  -49579140.5473933     
  -49581489.0964580     
  -49583968.7017195     
  -49586576.3050714     
  -49589308.8676564     
  -49592163.3719794     
  -49595136.8239237     
  -49598226.2546704     
  -49601428.7225240     
  -49604741.3146439     
  -49608161.1486849     
  -49611685.3743471     
  -49615311.1748367     
  -49619035.7682401     
  -49622856.4088121     
  -49626770.3881800     
  -49630775.0364659     
  -49634867.7233272     
  -49639045.8589194     
  -49643306.8947800     
  -49647648.3246379     
  -49652067.6851477     
  -49656562.5565522     
  -49661130.5632735     
  -49665769.3744349     
  -49670476.7043153     
  -49675250.3127377     
  -49680088.0053919     
  -49684987.6340955     
  -49689947.0969924     
  -49694964.3386912     
  -49700037.3503447     
  -49705164.1696719     
  -49710342.8809244     
  -49715571.6147963     
  -49720848.5482822     
  -49726171.9044815     
  -49731539.9523512     
  -49736951.0064093     
  -49742403.4263874     
  -49747895.6168360     
  -49753426.0266825     
  -49758993.1487412     
  -49764595.5191788     
  -49514424.2823214     
  -49516356.1519388     
  -49518448.2936667     
  -49520697.0303454     
  -49523098.7004026     
  -49525649.6607938     
  -49528346.2898186     
  -49531184.9898133     
  -49534162.1897232     
  -49537274.3475558     
  -49540517.9527159     
  -49543889.5282242     
  -49547385.6328233     
  -49551002.8629709     
  -49554737.8547228     
  -49558587.2855091     
  -49562547.8758035     
  -49566616.3906895     
  -49570789.6413256     
  -49575064.4863107     
  -49579437.8329525     
  -49583906.6384420     
  -49588467.9109348     
  -49593118.7105418     
  -49597856.1502337     
  -49602677.3966571     
  -49607579.6708694     
  -49612560.2489907     
  -49617616.4627776     
  -49622745.7001186     
  -49627945.4054558     
  -49633213.0801325     
  -49638546.2826703     
  -49643942.6289770     
  -49649399.7924877     
  -49654915.5042393     
  -49660487.5528834     
  -49666113.7846351     
  -49671792.1031637     
  -49677520.4694233     
  -49683296.9014271     
  -49689119.4739657     
  -49694986.3182714     
  -49700895.6216294     
  -49706845.6269380     
  -49712834.6322164     
  -49718860.9900659     
  -49724923.1070804     
  -49731019.4432103     
  -49737148.5110801     
  -49454472.1382637     
  -49456931.4196378     
  -49459561.2315025     
  -49462357.2667884     
  -49465315.2482961     
  -49468430.9318219     
  -49471700.1091359     
  -49475118.6108141     
  -49478682.3089287     
  -49482387.1195963     
  -49486229.0053897     
  -49490203.9776140     
  -49494308.0984504     
  -49498537.4829710     
  -49502888.3010268     
  -49507356.7790120     
  -49511939.2015086     
  -49516631.9128120     
  -49521431.3183438     
  -49526333.8859514     
  -49531336.1471001     
  -49536434.6979600     
  -49541626.2003893     
  -49546907.3828193     
  -49552275.0410419     
  -49557726.0389042     
  -49563257.3089123     
  -49568865.8527466     
  -49574548.7416923     
  -49580303.1169878     
  -49586126.1900932     
  -49592015.2428812     
  -49597967.6277538     
  -49603980.7676867     
  -49610052.1562044     
  -49616179.3572861     
  -49622360.0052086     
  -49628591.8043242     
  -49634872.5287779     
  -49641200.0221657     
  -49647572.1971353     
  -49653987.0349305     
  -49660442.5848824     
  -49666936.9638475     
  -49673468.3555951     
  -49680035.0101443     
  -49686635.2430538     
  -49693267.4346621     
  -49699930.0292838     
  -49706621.5343588     
  -49387416.5866334     
  -49390512.1622878     
  -49393787.8348877     
  -49397238.5859747     
  -49400859.4450209     
  -49404645.4926823     
  -49408591.8638770     
  -49412693.7506938     
  -49416946.4051327     
  -49421345.1416813     
  -49425885.3397322     
  -49430562.4458447     
  -49435371.9758531     
  -49440309.5168286     
  -49445370.7288966     
  -49450551.3469135     
  -49455847.1820086     
  -49461254.1229933     
  -49466768.1376432     
  -49472385.2738557     
  -49478101.6606886     
  -49483913.5092825     
  -49489817.1136709     
  -49495808.8514839     
  -49501885.1845455     
  -49508042.6593728     
  -49514277.9075767     
  -49520587.6461708     
  -49526968.6777899     
  -49533417.8908234     
  -49539932.2594647     
  -49546508.8436825     
  -49553144.7891145     
  -49559837.3268890     
  -49566583.7733753     
  -49573381.5298670     
  -49580228.0822002     
  -49587121.0003096     
  -49594057.9377251     
  -49601036.6310101     
  -49608054.8991451     
  -49615110.6428580     
  -49622201.8439026     
  -49629326.5642885     
  -49636482.9454616     
  -49643669.2074399     
  -49650883.6479030     
  -49658124.6412381     
  -49665390.6375438     
  -49672680.1615918     
  -49312495.6229883     
  -49316354.6350008     
  -49320402.1656326     
  -49324632.3998932     
  -49329039.5932579     
  -49333618.0749605     
  -49338362.2510817     
  -49343266.6074389     
  -49348325.7122821     
  -49353534.2188007     
  -49358886.8674470     
  -49364378.4880824     
  -49370004.0019492     
  -49375758.4234767     
  -49381636.8619243     
  -49387634.5228685     
  -49393746.7095381     
  -49399968.8240043     
  -49406296.3682290     
  -49412724.9449795     
  -49419250.2586115     
  -49425868.1157277     
  -49432574.4257167     
  -49439365.2011767     
  -49446236.5582287     
  -49453184.7167256     
  -49460206.0003594     
  -49467296.8366730     
  -49474453.7569799     
  -49481673.3961976     
  -49488952.4925969     
  -49496287.8874719     
  -49503676.5247359     
  -49511115.4504448     
  -49518601.8122531     
  -49526132.8588051     
  -49533705.9390654     
  -49541318.5015909     
  -49548968.0937473     
  -49556652.3608744     
  -49564369.0454000     
  -49572115.9859078     
  -49579891.1161590     
  -49587692.4640716     
  -49595518.1506582     
  -49603366.3889239     
  -49611235.4827269     
  -49619123.8256015     
  -49627029.8995464     
  -49634952.2737785     
  -49228885.7236688     
  -49233655.8027161     
  -49238621.1097802     
  -49243774.9467195     
  -49249110.7136433     
  -49254621.9121177     
  -49260302.1481344     
  -49266145.1348511     
  -49272144.6951094     
  -49278294.7637374     
  -49284589.3896438     
  -49291022.7377110     
  -49297589.0904952     
  -49304282.8497380     
  -49311098.5376993     
  -49318030.7983172     
  -49325074.3982019     
  -49332224.2274704     
  -49339475.3004296     
  -49346822.7561142     
  -49354261.8586849     
  -49361787.9976950     
  -49369396.6882319     
  -49377083.5709372     
  -49384844.4119155     
  -49392675.1025341     
  -49400571.6591219     
  -49408530.2225728     
  -49416547.0578573     
  -49424618.5534499     
  -49432741.2206772     
  -49440911.6929890     
  -49449126.7251607     
  -49457383.1924294     
  -49465678.0895688     
  -49474008.5299061     
  -49482371.7442864     
  -49490765.0799871     
  -49499185.9995859     
  -49507632.0797860     
  -49516101.0102019     
  -49524590.5921073     
  -49533098.7371489     
  -49541623.4660283     
  -49550162.9071539     
  -49558715.2952638     
  -49567278.9700238     
  -49575852.3745987     
  -49584434.0542013     
  -49593022.6546179     
  -49135702.0432948     
  -49141553.5886807     
  -49147604.6567564     
  -49153847.5812971     
  -49160274.8282119     
  -49166878.9984872     
  -49173652.8308600     
  -49180589.2042305     
  -49187681.1398214     
  -49194921.8030974     
  -49202304.5054479     
  -49209822.7056485     
  -49217470.0111068     
  -49225240.1789021     
  -49233127.1166293     
  -49241124.8830548     
  -49249227.6885941     
  -49257429.8956190     
  -49265726.0186038     
  -49274110.7241192     
  -49282578.8306809     
  -49291125.3084621     
  -49299745.2788784     
  -49308434.0140511     
  -49317186.9361587     
  -49325999.6166816     
  -49334867.7755491     
  -49343787.2801957     
  -49352754.1445308     
  -49361764.5278318     
  -49370814.7335650     
  -49379901.2081388     
  -49389020.5395992     
  -49398169.4562678     
  -49407344.8253324     
  -49416543.6513915     
  -49425763.0749587     
  -49435000.3709324     
  -49444252.9470332     
  -49453518.3422134     
  -49462794.2250429     
  -49472078.3920732     
  -49481368.7661848     
  -49490663.3949176     
  -49499960.4487898     
  -49509258.2196050     
  -49518555.1187511     
  -49527849.6754906     
  -49537140.5352456     
  -49546426.4578774     
  -49032000.2187429     
  -49039128.6507203     
  -49046457.6256059     
  -49053978.4302416     
  -49061682.5244899     
  -49069561.5436813     
  -49077607.3007554     
  -49085811.7881094     
  -49094167.1791643     
  -49102665.8296624     
  -49111300.2787066     
  -49120063.2495546     
  -49128947.6501789     
  -49137946.5736046     
  -49147053.2980362     
  -49156261.2867855     
  -49165564.1880109     
  -49174955.8342787     
  -49184430.2419586     
  -49193981.6104629     
  -49203604.3213396     
  -49213292.9372297     
  -49223042.2006992     
  -49232847.0329536     
  -49242702.5324464     
  -49252603.9733884     
  -49262546.8041684     
  -49272526.6456920     
  -49282539.2896481     
  -49292580.6967098     
  -49302646.9946779     
  -49312734.4765736     
  -49322839.5986873     
  -49332958.9785904     
  -49343089.3931164     
  -49353227.7763157     
  -49363371.2173914     
  -49373516.9586203     
  -49383662.3932641     
  -49393805.0634745     
  -49403942.6581977     
  -49414073.0110811     
  -49424194.0983856     
  -49434304.0369061     
  -49444401.0819051     
  -49454483.6250581     
  -49464550.1924156     
  -49474599.4423827     
  -49484630.1637165     
  -49494641.2735433     
  -48916780.2262290     
  -48925408.1005759     
  -48934233.2225486     
  -48943245.7652107     
  -48952436.1234801     
  -48961794.9157724     
  -48971312.9853032     
  -48980981.4010662     
  -48990791.4585008     
  -49000734.6798666     
  -49010802.8143368     
  -49020987.8378289     
  -49031281.9525855     
  -49041677.5865186     
  -49052167.3923354     
  -49062744.2464551     
  -49073401.2477344     
  -49084131.7160122     
  -49094929.1904885     
  -49105787.4279499     
  -49116700.4008533     
  -49127662.2952819     
  -49138667.5087839     
  -49149710.6481050     
  -49160786.5268280     
  -49171890.1629281     
  -49183016.7762554     
  -49194161.7859541     
  -49205320.8078291     
  -49216489.6516677     
  -49227664.3185259     
  -49238840.9979888     
  -49250016.0654115     
  -49261186.0791485     
  -49272347.7777800     
  -49283498.0773402     
  -49294634.0685554     
  -49305753.0140963     
  -49316852.3458523     
  -49327929.6622300     
  -49338982.7254830     
  -49350009.4590765     
  -49361007.9450892     
  -49371976.4216584     
  -49382913.2804686     
  -49393817.0642883     
  -49404686.4645555     
  -49415520.3190146     
  -49426317.6094054     
  -49437077.4592048     
  -48788992.8100522     
  -48799371.6458094     
  -48809938.8708543     
  -48820683.4974276     
  -48831594.8173481     
  -48842662.4024570     
  -48853876.1046881     
  -48865226.0557864     
  -48876702.6666904     
  -48888296.6266015     
  -48899998.9017555     
  -48911800.7339168     
  -48923693.6386138     
  -48935669.4031312     
  -48947720.0842789     
  -48959838.0059536     
  -48972015.7565096     
  -48984246.1859560     
  -48996522.4029953     
  -49008837.7719191     
  -49021185.9093768     
  -49033560.6810309     
  -49045956.1981129     
  -49058366.8138949     
  -49070787.1200890     
  -49083211.9431867     
  -49095636.3407526     
  -49108055.5976822     
  -49120465.2224361     
  -49132860.9432611     
  -49145238.7044091     
  -49157594.6623626     
  -49169925.1820766     
  -49182226.8332468     
  -49194496.3866099     
  -49206730.8102869     
  -49218927.2661739     
  -49231083.1063891     
  -49243195.8697815     
  -49255263.2785069     
  -49267283.2346774     
  -49279253.8170878     
  -49291173.2780242     
  -49303040.0401585     
  -49314852.6935312     
  -49326609.9926261     
  -49338310.8535389     
  -49349954.3512407     
  -49361539.7169387     
  -49373066.3355342     
  -48647549.0750887     
  -48659960.6984192     
  -48672544.8101127     
  -48685289.2443957     
  -48698182.1825777     
  -48711212.1517965     
  -48724368.0233637     
  -48737639.0107344     
  -48751014.6671242     
  -48764484.8827995     
  -48778039.8820599     
  -48791670.2199401     
  -48805366.7786491     
  -48819120.7637707     
  -48832923.7002465     
  -48846767.4281602     
  -48860644.0983445     
  -48874546.1678306     
  -48888466.3951574     
  -48902397.8355607     
  -48916333.8360588     
  -48930268.0304528     
  -48944194.3342569     
  -48958106.9395761     
  -48972000.3099466     
  -48985869.1751517     
  -48999708.5260317     
  -49013513.6092963     
  -49027279.9223566     
  -49041003.2081877     
  -49054679.4502332     
  -49068304.8673637     
  -49081875.9088998     
  -49095389.2497094     
  -49108841.7853893     
  -49122230.6275387     
  -49135553.0991345     
  -49148806.7300156     
  -49161989.2524817     
  -49175098.5970153     
  -49188132.8881319     
  -49201090.4403628     
  -49213969.7543770     
  -49226769.5132438     
  -49239488.5788431     
  -49252125.9884221     
  -49264680.9513049     
  -49277152.8457531     
  -49289541.2159814     
  -49301845.7693267     
  -48491333.9063073     
  -48506091.0554538     
  -48520996.0135253     
  -48536035.4621289     
  -48551196.5080037     
  -48566466.6794478     
  -48581833.9223267     
  -48597286.5956944     
  -48612813.4670549     
  -48628403.7072940     
  -48644046.8853070     
  -48659732.9623511     
  -48675452.2861485     
  -48691195.5847651     
  -48706953.9602906     
  -48722718.8823446     
  -48738482.1814308     
  -48754236.0421640     
  -48769972.9963908     
  -48785685.9162256     
  -48801368.0070235     
  -48817012.8003083     
  -48832614.1466765     
  -48848166.2086949     
  -48863663.4538099     
  -48879100.6472849     
  -48894472.8451830     
  -48909775.3874098     
  -48925003.8908316     
  -48940154.2424825     
  -48955222.5928746     
  -48970205.3494235     
  -48985099.1700012     
  -48999900.9566271     
  -49014607.8493093     
  -49029217.2200436     
  -49043726.6669821     
  -49058134.0087770     
  -49072437.2791109     
  -49086634.7214170     
  -49100724.7837981     
  -49114706.1141502     
  -49128577.5554939     
  -49142338.1415202     
  -49155987.0923527     
  -49169523.8105312     
  -49182947.8772168     
  -49196259.0486227     
  -49209457.2526692     
  -49222542.5858662     
  -48319223.9416600     
  -48336669.8089380     
  -48354228.0133865     
  -48371884.1678341     
  -48389624.3993686     
  -48407435.3426854     
  -48425304.1330167     
  -48443218.3986756     
  -48461166.2532494     
  -48479136.2874775     
  -48497117.5608451     
  -48515099.5929256     
  -48533072.3545017     
  -48551026.2584972     
  -48568952.1507454     
  -48586841.3006268     
  -48604685.3915989     
  -48622476.5116472     
  -48640207.1436821     
  -48657870.1559062     
  -48675458.7921754     
  -48692966.6623765     
  -48710387.7328436     
  -48727716.3168335     
  -48744947.0650797     
  -48762074.9564457     
  -48779095.2886941     
  -48796003.6693892     
  -48812796.0069508     
  -48829468.5018730     
  -48846017.6381244     
  -48862440.1747420     
  -48878733.1376345     
  -48894893.8116041     
  -48910919.7326018     
  -48926808.6802237     
  -48942558.6704608     
  -48958167.9487106     
  -48973634.9830581     
  -48988958.4578362     
  -49004137.2674700     
  -49019170.5106122     
  -49034057.4845757     
  -49048797.6800671     
  -49063390.7762259     
  -49077836.6359721     
  -49092135.3016642     
  -49106286.9910719     
  -49120292.0936609     
  -49134151.1671930     
  -48130110.8715956     
  -48150617.1775351     
  -48171187.2489738     
  -48191805.7916901     
  -48212458.1260900     
  -48233130.1765655     
  -48253808.4604532     
  -48274480.0766338     
  -48295132.6938117     
  -48315754.5385167     
  -48336334.3828644     
  -48356861.5321123     
  -48377325.8120487     
  -48397717.5562468     
  -48418027.5932195     
  -48438247.2335050     
  -48458368.2567167     
  -48478382.8985841     
  -48498283.8380157     
  -48518064.1842098     
  -48537717.4638409     
  -48557237.6083454     
  -48576618.9413316     
  -48595856.1661369     
  -48614944.3535537     
  -48633878.9297449     
  -48652655.6643702     
  -48671270.6589393     
  -48689720.3354129     
  -48708001.4250660     
  -48726110.9576312     
  -48744046.2507360     
  -48761804.8996476     
  -48779384.7673408     
  -48796783.9748989     
  -48814000.8922596     
  -48831034.1293182     
  -48847882.5273946     
  -48864545.1510772     
  -48881021.2804480     
  -48897310.4036985     
  -48913412.2101430     
  -48929326.5836326     
  -48945053.5963783     
  -48960593.5031857     
  -48975946.7361027     
  -48991113.8994874     
  -49006095.7654941     
  -49020893.2699797     
  -49035507.5088315     
  -47922930.8580704     
  -47946893.9599766     
  -47970856.5475782     
  -47994802.6826628     
  -48018717.1528701     
  -48042585.4559816     
  -48066393.7838604     
  -48090129.0060887     
  -48113778.6533483     
  -48137330.9005914     
  -48160774.5500447     
  -48184099.0140875     
  -48207294.2980458     
  -48230350.9829406     
  -48253260.2082273     
  -48276013.6545624     
  -48298603.5266316     
  -48321022.5360719     
  -48343263.8845187     
  -48365321.2468093     
  -48387188.7543689     
  -48408860.9788085     
  -48430332.9157596     
  -48451599.9689699     
  -48472657.9346844     
  -48493502.9863331     
  -48514131.6595468     
  -48534540.8375210     
  -48554727.7367458     
  -48574689.8931204     
  -48594425.1484680     
  -48613931.6374676     
  -48633207.7750166     
  -48652252.2440374     
  -48671063.9837425     
  -48689642.1783675     
  -48707986.2463851     
  -48726095.8302084     
  -48743970.7863939     
  -48761611.1763517     
  -48779017.2575709     
  -48796189.4753670     
  -48813128.4551561     
  -48829834.9952622     
  -48846310.0602630     
  -48862554.7748733     
  -48878570.4183739     
  -48894358.4195854     
  -48909920.3523874     
  -48925257.9317854     
  -47696700.8435016     
  -47724535.2764257     
  -47752286.3052307     
  -47779937.7399033     
  -47807474.2371931     
  -47834881.2785824     
  -47862145.1479971     
  -47889252.9093131     
  -47916192.3837120     
  -47942952.1269360     
  -47969521.4064908     
  -47995890.1788431     
  -48022049.0666563     
  -48047989.3361080     
  -48073702.8743288     
  -48099182.1670015     
  -48124420.2761577     
  -48149410.8182051     
  -48174147.9422213     
  -48198626.3085433     
  -48222841.0676839     
  -48246787.8396030     
  -48270462.6933598     
  -48293862.1271729     
  -48316983.0489103     
  -48339822.7570333     
  -48362378.9220147     
  -48384649.5682516     
  -48406633.0564915     
  -48428328.0667896     
  -48449733.5820128     
  -48470848.8719074     
  -48491673.4777433     
  -48512207.1975498     
  -48532450.0719533     
  -48552402.3706308     
  -48572064.5793879     
  -48591437.3878727     
  -48610521.6779332     
  -48629318.5126273     
  -48647829.1258922     
  -48666054.9128808     
  -48683997.4209691     
  -48701658.3414419     
  -48719039.5018595     
  -48736142.8591097     
  -48752970.4931479     
  -48769524.6014277     
  -48785807.4940229     
  -48801821.5894414     
  -47450562.4363034     
  -47482691.1704645     
  -47514631.8319223     
  -47546368.5325382     
  -47577886.3592876     
  -47609171.3444857     
  -47640210.4359027     
  -47670991.4668281     
  -47701503.1261445     
  -47731734.9284631     
  -47761677.1843754     
  -47791320.9708699     
  -47820658.1019613     
  -47849681.0995773     
  -47878383.1647447     
  -47906758.1491160     
  -47934800.5268727     
  -47962505.3670431     
  -47989868.3062662     
  -48016885.5220353     
  -48043553.7064491     
  -48069870.0405004     
  -48095832.1689269     
  -48121438.1756494     
  -48146686.5598211     
  -48171576.2125082     
  -48196106.3940233     
  -48220276.7119291     
  -48244087.0997318     
  -48267537.7962782     
  -48290629.3258738     
  -48313362.4791352     
  -48335738.2945901     
  -48357758.0410366     
  -48379423.2006743     
  -48400735.4530169     
  -48421696.6595958     
  -48442308.8494642     
  -48462574.2055099     
  -48482495.0515834     
  -48502073.8404499     
  -48521313.1425689     
  -48540215.6357095     
  -48558784.0954049     
  -48577021.3862504     
  -48594930.4540492     
  -48612514.3188094     
  -48629776.0685933     
  -48646718.8542226     
  -48663345.8848393     
  -47183833.8896659     
  -47220674.4682814     
  -47257197.1454950     
  -47293387.0870843     
  -47329230.5660394     
  -47364714.9234677     
  -47399828.5296105     
  -47434560.7450339     
  -47468901.8820582     
  -47502843.1664803     
  -47536376.6996467     
  -47569495.4209259     
  -47602193.0706298     
  -47634464.1534285     
  -47666303.9023007     
  -47697708.2430603     
  -47728673.7594935     
  -47759197.6591444     
  -47789277.7397772     
  -47818912.3565476     
  -47848100.3899094     
  -47876841.2142822     
  -47905134.6675041     
  -47932981.0210911     
  -47960380.9513227     
  -47987335.5111739     
  -48013846.1031086     
  -48039914.4527524     
  -48065542.5834579     
  -48090732.7917763     
  -48115487.6238478     
  -48139809.8527225     
  -48163702.4566215     
  -48187168.5981486     
  -48210211.6044613     
  -48232834.9484096     
  -48255042.2306496     
  -48276837.1627405     
  -48298223.5512295     
  -48319205.2827329     
  -48339786.3100180     
  -48359970.6390907     
  -48379762.3172951     
  -48399165.4224287     
  -48418184.0528777     
  -48436822.3187759     
  -48455084.3341920     
  -48472974.2103467     
  -48490496.0498640     
  -48507653.9420581     
  -46896070.4030200     
  -46938016.0042465     
  -46979485.2127228     
  -47020465.2395461     
  -47060944.5332881     
  -47100912.7298899     
  -47140360.6029808     
  -47179280.0146898     
  -47217663.8670091     
  -47255506.0537696     
  -47292801.4132798     
  -47329545.6816797     
  -47365735.4470532     
  -47401368.1043440     
  -47436441.8111114     
  -47470955.4441634     
  -47504908.5570985     
  -47538301.3387873     
  -47571134.5728190     
  -47603409.5979397     
  -47635128.2695026     
  -47666292.9219516     
  -47696906.3323555     
  -47726971.6850088     
  -47756492.5371146     
  -47785472.7855607     
  -47813916.6348026     
  -47841828.5658616     
  -47869213.3064477     
  -47896075.8022167     
  -47922421.1891666     
  -47948254.7671814     
  -47973581.9747271     
  -47998408.3647065     
  -48022739.5814759     
  -48046581.3390303     
  -48069939.4003592     
  -48092819.5579791     
  -48115227.6156456     
  -48137169.3712484     
  -48158650.6008952     
  -48179677.0441860     
  -48200254.3906831     
  -48220388.2675806     
  -48240084.2285771     
  -48259347.7439569     
  -48278184.1918817     
  -48296598.8508998     
  -48314596.8936751     
  -48332183.3819411     
  -46587132.5332185     
  -46634526.8887720     
  -46681254.2140314     
  -46727305.0403434     
  -46772671.2569575     
  -46817346.0481725     
  -46861323.8313377     
  -46904600.1957739     
  -46947171.8426702     
  -46989036.5260113     
  -47030192.9945827     
  -47070640.9350978     
  -47110380.9164837     
  -47149414.3353654     
  -47187743.3627738     
  -47225370.8921089     
  -47262300.4883811     
  -47298536.3387492     
  -47334083.2043769     
  -47368946.3736194     
  -47403131.6165538     
  -47436645.1408646     
  -47469493.5490910     
  -47501683.7972435     
  -47533223.1547938     
  -47564119.1660422     
  -47594379.6128637     
  -47624012.4788349     
  -47653025.9147408     
  -47681428.2054624     
  -47709227.7382421     
  -47736432.9723287     
  -47763052.4099967     
  -47789094.5689415     
  -47814567.9560479     
  -47839481.0425288     
  -47863842.2404370     
  -47887659.8805451     
  -47910942.1915964     
  -47933697.2809266     
  -47955933.1164559     
  -47977657.5100548     
  -47998878.1022860     
  -48019602.3485243     
  -48039837.5064595     
  -48059590.6249866     
  -48078868.5344889     
  -48097677.8385198     
  -48116024.9068900     
  -48133915.8701685     
  -46257261.8599823     
  -46310366.8746462     
  -46362578.8135667     
  -46413893.1324389     
  -46464306.7444341     
  -46513817.9429237     
  -46562426.3256269     
  -46610132.7202407     
  -46656939.1115975     
  -46702848.5703949     
  -46747865.1835322     
  -46791993.9860861     
  -46835240.8949503     
  -46877612.6441629     
  -46919116.7219352     
  -46959761.3093979     
  -46999555.2210726     
  -47038507.8470743     
  -47076629.0970484     
  -47113929.3458404     
  -47150419.3808981     
  -47186110.3513992     
  -47221013.7190975     
  -47255141.2108813     
  -47288504.7730301     
  -47321116.5271630     
  -47352988.7278618     
  -47384133.7219610     
  -47414563.9094870     
  -47444291.7062365     
  -47473329.5079790     
  -47501689.6562709     
  -47529384.4058691     
  -47556425.8937312     
  -47582826.1095923     
  -47608596.8681072     
  -47633749.7825506     
  -47658296.2400657     
  -47682247.3784571     
  -47705614.0645211     
  -47728406.8739131     
  -47750636.0725463     
  -47772311.5995277     
  -47793443.0516276     
  -47814039.6692909     
  -47834110.3241933     
  -47853663.5083494     
  -47872707.3247840     
  -47891249.4797761     
  -47909297.2766837     
  -45907162.1571537     
  -45966117.0269300     
  -46023914.6092015     
  -46080557.2616934     
  -46136048.8636302     
  -46190394.7225744     
  -46243601.4834291     
  -46295677.0396437     
  -46346630.4466479     
  -46396471.8375391     
  -46445212.3410406     
  -46492864.0017395     
  -46539439.7026107     
  -46584953.0898278     
  -46629418.4998520     
  -46672850.8887961     
  -46715265.7640445     
  -46756679.1181170     
  -46797107.3647533     
  -46836567.2771972     
  -46875075.9286552     
  -46912650.6349004     
  -46949308.8989948     
  -46985068.3580980     
  -47019946.7323303     
  -47053961.7756596     
  -47087131.2287772     
  -47119472.7739310     
  -47151003.9916829     
  -47181742.3195586     
  -47211705.0125585     
  -47240909.1054998     
  -47269371.3771612     
  -47297108.3162028     
  -47324136.0888372     
  -47350470.5082279     
  -47376127.0055962     
  -47401120.6030163     
  -47425465.8878865     
  -47449176.9890615     
  -47472267.5546390     
  -47494750.7313930     
  -47516639.1458521     
  -47537944.8870214     
  -47558679.4907550     
  -47578853.9257817     
  -47598478.5813985     
  -47617563.2568451     
  -47636117.1523629     
  -47654148.8619924     
  -45538083.1254423     
  -45602853.7731722     
  -45666162.8777279     
  -45728022.0893784     
  -45788444.5893040     
  -45847444.9795265     
  -45905039.1759382     
  -45961244.3044164     
  -46016078.6000437     
  -46069561.3094220     
  -46121712.5960666     
  -46172553.4488586     
  -46222105.5935324     
  -46270391.4071672     
  -46317433.8356452     
  -46363256.3140365     
  -46407882.6898646     
  -46451337.1492068     
  -46493644.1455745     
  -46534828.3315211     
  -46574914.4929192     
  -46613927.4858493     
  -46651892.1760392     
  -46688833.3807917     
  -46724775.8133406     
  -46759744.0295705     
  -46793762.3770403     
  -46826854.9462473     
  -46859045.5240734     
  -46890357.5493532     
  -46920814.0705087     
  -46950437.7051949     
  -46979250.6019054     
  -47007274.4034893     
  -47034530.2125358     
  -47061038.5585815     
  -47086819.3671079     
  -47111891.9302939     
  -47136274.8794956     
  -47159986.1594305     
  -47183043.0040493     
  -47205461.9140802     
  -47227258.6362414     
  -47248448.1441164     
  -47269044.6207005     
  -47289061.4426250     
  -47308511.1660697     
  -47327405.5143845     
  -47345755.3674858     
  -47363570.7529367     
  -45151902.1976677     
  -45222219.9658363     
  -45290731.3856589     
  -45357460.2319151     
  -45422431.7411202     
  -45485672.4842301     
  -45547210.2435271     
  -45607073.8937519     
  -45665293.2873639     
  -45721899.1438988     
  -45776922.9433770     
  -45830396.8237010     
  -45882353.4819700     
  -45932826.0796409     
  -45981848.1514580     
  -46029453.5180664     
  -46075676.2022250     
  -46120550.3485259     
  -46164110.1465282     
  -46206389.7572064     
  -46247423.2426152     
  -46287244.4986705     
  -46325887.1909406     
  -46363384.6933474     
  -46399770.0296718     
  -46435075.8177591     
  -46469334.2163244     
  -46502576.8742539     
  -46534834.8823047     
  -46566138.7271058     
  -46596518.2473680     
  -46626002.5922132     
  -46654620.1815369     
  -46682398.6683265     
  -46709364.9028601     
  -46735544.8987168     
  -46760963.8005381     
  -46785645.8534863     
  -46809614.3743516     
  -46832891.7242685     
  -46855499.2830130     
  -46877457.4248549     
  -46898785.4959527     
  -46919501.7932853     
  -46939623.5451211     
  -46959166.8930414     
  -46978146.8755464     
  -46996577.4132772     
  -47014471.2957557     
  -47031840.1701226     
  -44751198.0101451     
  -44826486.8087317     
  -44899585.3906099     
  -44970532.9398422     
  -45039369.9250938     
  -45106137.9557363     
  -45170879.6436974     
  -45233638.4705737     
  -45294458.6601871     
  -45353385.0564501     
  -45410463.0063993     
  -45465738.2482855     
  -45519256.8046101     
  -45571064.8799832     
  -45621208.7636764     
  -45669734.7367304     
  -45716688.9834802     
  -45762117.5073513     
  -45806066.0507811     
  -45848580.0191101     
  -45889704.4082912     
  -45929483.7362580     
  -45967961.9777925     
  -46005182.5027319     
  -46041188.0173548     
  -46076020.5087832     
  -46109721.1922451     
  -46142330.4610363     
  -46173887.8390301     
  -46204431.9355828     
  -46234000.4026898     
  -46262629.8942518     
  -46290356.0273188     
  -46317213.3451838     
  -46343235.2822119     
  -46368454.1302927     
  -46392901.0068207     
  -46416605.8241148     
  -46439597.2602003     
  -46461902.7308911     
  -46483548.3631179     
  -46504558.9694649     
  -46524958.0238892     
  -46544767.6386165     
  -46564008.5422163     
  -46582700.0588650     
  -46600860.0887880     
  -46618505.0899671     
  -46635650.0615635     
  -46652308.5276192     
  -44339306.8707563     
  -44418598.4088382     
  -44495281.0344134     
  -44569413.0642209     
  -44641053.7801234     
  -44710263.2709595     
  -44777102.2806373     
  -44841632.0639515     
  -44903914.2490286     
  -44964010.7062917     
  -45021983.4239061     
  -45077894.3895525     
  -45131805.4783356     
  -45183778.3466367     
  -45233874.3317195     
  -45282154.3568995     
  -45328678.8420774     
  -45373507.6194293     
  -45416699.8540373     
  -45458313.9692432     
  -45498407.5764954     
  -45537037.4094613     
  -45574259.2621699     
  -45610127.9309454     
  -45644697.1598955     
  -45678019.5897110     
  -45710146.7095383     
  -45741128.8116868     
  -45771014.9489359     
  -45799852.8942109     
  -45827689.1024057     
  -45854568.6741343     
  -45880535.3212061     
  -45905631.3336266     
  -45929897.5479430     
  -45953373.3167607     
  -45976096.4792786     
  -45998103.3327010     
  -46019428.6044068     
  -46040105.4247717     
  -46060165.3005613     
  -46079638.0888301     
  -46098551.9712798     
  -46116933.4290436     
  -46134807.2178937     
  -46152196.3439386     
  -46169122.0399474     
  -46185603.7421560     
  -46201659.0664847     
  -46217303.7895275     
  -43920351.0699907     
  -44002188.4234387     
  -44080971.2128204     
  -44156781.0058476     
  -44229699.8345451     
  -44299810.0241580     
  -44367194.0343845     
  -44431934.3063165     
  -44494113.1179973     
  -44553812.4485424     
  -44611113.8502280     
  -44666098.3282183     
  -44718846.2277529     
  -44769437.1286059     
  -44817949.7465950     
  -44864461.8418795     
  -44909050.1337794     
  -44951790.2218313     
  -44992756.5127906     
  -45032022.1532773     
  -45069658.9677506     
  -45105737.4014868     
  -45140326.4682221     
  -45173493.7021166     
  -45205305.1136866     
  -45235825.1493470     
  -45265116.6542071     
  -45293240.8377585     
  -45320257.2420986     
  -45346223.7123380     
  -45371196.3688465     
  -45395229.5810043     
  -45418375.9421358     
  -45440686.2453214     
  -45462209.4597979     
  -45482992.7076812     
  -45503081.2407658     
  -45522518.4171806     
  -45541345.6777052     
  -45559602.5215766     
  -45577326.4816483     
  -45594553.0987979     
  -45611315.8955281     
  -45627646.3487409     
  -45643573.8616524     
  -45659125.7347001     
  -45674327.1353028     
  -45689201.0674827     
  -45703768.3446236     
  -45718047.5475484     
  -43499225.4776313     
  -43581556.0142004     
  -43660371.8815335     
  -43735782.3297953     
  -43807896.3490175     
  -43876822.4993441     
  -43942668.7364237     
  -44005542.2567358     
  -44065549.3529335     
  -44122795.2775639     
  -44177384.1160366     
  -44229418.6692002     
  -44279000.3453128     
  -44326229.0610300     
  -44371203.1510676     
  -44414019.2862312     
  -44454772.3995108     
  -44493555.6199063     
  -44530460.2136128     
  -44565575.5321613     
  -44598988.9670750     
  -44630785.9105795     
  -44661049.7218788     
  -44689861.6984912     
  -44717301.0521207     
  -44743444.8885274     
  -44768368.1908485     
  -44792143.8058172     
  -44814842.4323280     
  -44836532.6117964     
  -44857280.7197778     
  -44877150.9583155     
  -44896205.3485153     
  -44914503.7228599     
  -44932103.7168093     
  -44949060.7592591     
  -44965428.0614714     
  -44981256.6041282     
  -44996595.1222057     
  -45011490.0874099     
  -45025985.6879528     
  -45040123.8054691     
  -45053943.9888922     
  -45067483.4251838     
  -45080776.9070739     
  -45093856.7983834     
  -45106752.9971832     
  -45119492.8933747     
  -45132101.3130986     
  -45144600.5105627     
  -43081527.1087086     
  -43161586.5684963     
  -43237674.9223972     
  -43309933.7710301     
  -43378503.4798950     
  -43443522.9665155     
  -43505129.5620765     
  -43563458.8529226     
  -43618644.5303079     
  -43670818.2562615     
  -43720109.5433400     
  -43766645.6460342     
  -43810551.4631862     
  -43851949.4514799     
  -43890959.5500661     
  -43927699.1161657     
  -43962282.8713046     
  -43994822.8577192     
  -44025428.4044151     
  -44054206.1023090     
  -44081259.7878398     
  -44106690.5343869     
  -44130596.6507727     
  -44153073.6860853     
  -44174214.4400062     
  -44194108.9778011     
  -44212844.6491000     
  -44230506.1095849     
  -44247175.3446930     
  -44262931.6944542     
  -44277851.8785927     
  -44292010.0210475     
  -44305477.6731021     
  -44318323.8343498     
  -44330614.9707728     
  -44342415.0292603     
  -44353785.4479458     
  -44364785.1618009     
  -44375470.6029841     
  -44385895.6955327     
  -44396111.8441005     
  -44406167.9165895     
  -44416110.2206152     
  -44425982.4735791     
  -44435825.7655129     
  -44445678.5133053     
  -44455576.4074789     
  -44465552.3640489     
  -44475636.4975059     
  -44485855.9169057     
  -42673412.2574753     
  -42747601.9077409     
  -42817392.4495447     
  -42882962.6504004     
  -42944488.6996131     
  -43002144.1661861     
  -43056099.7199196     
  -43106522.9648125     
  -43153578.3112009     
  -43197426.8530972     
  -43238226.2521439     
  -43276130.6350041     
  -43311290.5074724     
  -43343852.6855932     
  -43373960.2430089     
  -43401752.4737235     
  -43427364.8696824     
  -43450929.1126639     
  -43472573.0799325     
  -43492420.8629493     
  -43510592.7982632     
  -43527205.5095421     
  -43542371.9595690     
  -43556201.5109172     
  -43568799.9939437     
  -43580269.7806802     
  -43590709.8631614     
  -43600215.9347111     
  -43608880.4726973     
  -43616792.8212881     
  -43624039.2727594     
  -43630703.1459624     
  -43636864.8606110     
  -43642602.0061408     
  -43647989.4039788     
  -43653099.1621862     
  -43658000.7215506     
  -43662760.8923297     
  -43667443.8809302     
  -43672111.3058406     
  -43676822.2021122     
  -43681633.0137154     
  -43686597.5734792     
  -43691767.0714705     
  -43697190.0145255     
  -43702912.1794854     
  -43708976.5518577     
  -43715423.2115229     
  -43722289.1480733     
  -43729608.6410441     
  -42281368.4976328     
  -42345126.3367169     
  -42404117.1708839     
  -42458562.0866157     
  -42508678.3239917     
  -42554678.4382634     
  -42596770.4474897     
  -42635157.7254186     
  -42670038.7967970     
  -42701607.1610578     
  -42730051.1649168     
  -42755553.9109056     
  -42778293.1904335     
  -42798441.4375338     
  -42816165.7038622     
  -42831627.6565287     
  -42844983.5996996     
  -42856384.5198657     
  -42865976.1538285     
  -42873899.0779149     
  -42880288.8165997     
  -42885275.9685319     
  -42888986.3478105     
  -42891541.1382285     
  -42893057.0580910     
  -42893646.5331040     
  -42893417.8747716     
  -42892475.4616913     
  -42890919.9211569     
  -42888848.3085273     
  -42886354.2819107     
  -42883528.2698365     
  -42880457.6297280     
  -42877226.7951461     
  -42873917.4099347     
  -42870608.4475812     
  -42867376.3143171     
  -42864294.9347803     
  -42861435.8194468     
  -42858868.1135147     
  -42856658.6273004     
  -42854871.8480271     
  -42853569.9314683     
  -42852812.6688916     
  -42852657.4224645     
  -42853159.0304297     
  -42854369.7219515     
  -42856339.1479323     
  -42859114.4764373     
  -42862738.5863928     
  -41911897.2692860     
  -41959556.3429860     
  -42002180.8199768     
  -42040040.5399154     
  -42073397.8657299     
  -42102510.0019153     
  -42127627.6974100     
  -42148994.5891357     
  -42166847.0299709     
  -42181414.0177370     
  -42192917.0990731     
  -42201570.2564689     
  -42207579.8137173     
  -42211144.3834666     
  -42212454.8653887     
  -42211694.4944025     
  -42209038.9349962     
  -42204656.4173286     
  -42198707.9114043     
  -42191347.3361598     
  -42182721.8004393     
  -42172971.8726156     
  -42162231.8751879     
  -42150630.2002104     
  -42138289.6410085     
  -42125327.7353593     
  -42111857.1151917     
  -42097985.8578732     
  -42083817.8343035     
  -42069453.0492854     
  -42054987.9699782     
  -42040515.8386507     
  -42026126.9663863     
  -42011909.0048486     
  -41997947.1936252     
  -41984324.5809774     
  -41971122.2159702     
  -41958419.3099204     
  -41946293.3649659     
  -41934820.2676784     
  -41924074.3467238     
  -41914128.3966568     
  -41905053.6756111     
  -41896919.8905549     
  -41889795.1790518     
  -41883746.0547797     
  -41878837.1745582     
  -41875130.6940505     
  -41872685.7049131     
  -41871563.6067571     
  -41571110.2221213     
  -41595731.0327198     
  -41615193.9956568     
  -41629823.8911407     
  -41639943.5891315     
  -41645863.0166681     
  -41647881.1826417     
  -41646287.4623829     
  -41641361.4492712     
  -41633372.3373389     
  -41622578.3857125     
  -41609226.6054017     
  -41593552.6375481     
  -41575780.7616068     
  -41556123.9904975     
  -41534784.2334032     
  -41511952.5218916     
  -41487809.3008380     
  -41462524.7855143     
  -41436259.3833978     
  -41409164.1758963     
  -41381381.4523877     
  -41353045.2871301     
  -41324282.1486891     
  -41295211.5313800     
  -41265946.5985769     
  -41236594.8283991     
  -41207258.6530642     
  -41178036.0839969     
  -41149021.3155320     
  -41120305.3007495     
  -41091976.2936595     
  -41064120.3526654     
  -41036821.8010883     
  -41010163.6415684     
  -40984227.9224384     
  -40959096.0555489     
  -40934849.0861995     
  -40911567.9160691     
  -40889333.4782387     
  -40868226.8582667     
  -40848329.3465131     
  -40829722.3981778     
  -40812487.4824991     
  -40796705.8533338     
  -40782458.4183460     
  -40769826.1159647     
  -40758891.1006910     
  -40749736.3408827     
  -40742427.1118226     
  -41264284.0764325     
  -41257366.8842403     
  -41245374.0118063     
  -41228720.2900483     
  -41207779.5562156     
  -41182923.7214503     
  -41154517.8806830     
  -41122913.3140029     
  -41088444.3168909     
  -41051427.4991872     
  -41012161.9483797     
  -40970929.4752367     
  -40927994.7406988     
  -40883605.3161852     
  -40837991.7887003     
  -40791367.9996237     
  -40743931.4631213     
  -40695863.9725035     
  -40647332.3777717     
  -40598489.5043528     
  -40549475.1784733     
  -40500417.3255627     
  -40451433.1119360     
  -40402630.1050608     
  -40354107.4328723     
  -40305956.9272407     
  -40258264.2405300     
  -40211109.9270813     
  -40164570.4834072     
  -40118719.3419404     
  -40073627.8134243     
  -40029365.9725859     
  -39986003.4807601     
  -39943610.3379113     
  -39902257.5554177     
  -39862017.7406689     
  -39822965.5858622     
  -39785178.2575019     
  -39748735.6911977     
  -39713720.8089357     
  -39680219.6912281     
  -39648321.7467214     
  -39618119.9074111     
  -39589710.7998570     
  -39563194.6456667     
  -39538674.3080122     
  -39516252.6921481     
  -39496029.0878102     
  -39478103.5934621     
  -39462633.0890097     
  -40995262.2527144     
  -40946330.6004856     
  -40892679.0771381     
  -40834745.4687528     
  -40773075.3537037     
  -40708175.2798451     
  -40640503.3311601     
  -40570482.3462646     
  -40498508.9367838     
  -40424956.1226989     
  -40350172.3729267     
  -40274479.5740025     
  -40198171.3418471     
  -40121512.2348683     
  -40044737.9400879     
  -39968056.2830939     
  -39891648.8441470     
  -39815672.9689742     
  -39740263.9987957     
  -39665537.5870261     
  -39591592.0095643     
  -39518510.4080130     
  -39446362.9300814     
  -39375208.7496961     
  -39305097.9622031     
  -39236073.3587272     
  -39168172.0892682     
  -39101427.2272399     
  -39035869.2494432     
  -38971527.4452346     
  -38908431.2670472     
  -38846611.6314077     
  -38786102.1749993     
  -38726940.4638159     
  -38669169.1446933     
  -38612837.0171619     
  -38557999.9897230     
  -38504721.8693108     
  -38453074.9189357     
  -38403140.1134385     
  -38355007.0412030     
  -38308773.4662854     
  -38264544.7206160     
  -38222433.3852958     
  -38182560.1415550     
  -38145056.9774756     
  -38110072.9991287     
  -38077777.0393656     
  -38048328.1676010     
  -38021710.5132626     
  -40766447.5244918     
  -40661467.9381253     
  -40552362.0158836     
  -40440223.7582092     
  -40325627.9757729     
  -40209093.2100147     
  -40091168.1052014     
  -39972412.7653868     
  -39853364.5185600     
  -39734512.5387760     
  -39616284.4226916     
  -39499042.0317973     
  -39383083.2428296     
  -39268646.9621386     
  -39155919.6269112     
  -39045042.1052409     
  -38936116.3812551     
  -38829211.7140591     
  -38724370.1422987     
  -38621611.3115534     
  -38520936.6588902     
  -38422333.0170470     
  -38325775.7120293     
  -38231231.2299313     
  -38138659.5260563     
  -38048016.0445855     
  -37959253.5116845     
  -37872323.5598689     
  -37787178.2371225     
  -37703771.4507873     
  -37622060.3936047     
  -37542006.9971943     
  -37463579.4562375     
  -37386753.8638135     
  -37311515.9932551     
  -37237863.2521576     
  -37165806.8158599     
  -37095373.9145713     
  -37026610.1906795     
  -36959581.9464857     
  -36894377.9490467     
  -36831110.2294029     
  -36769913.0084371     
  -36710938.5791066     
  -36654348.9993333     
  -36600303.8281273     
  -36548949.7979648     
  -36500436.1964530     
  -36455030.7545421     
  -36413549.3086024     
  -40574218.4851784     
  -40393895.3784256     
  -40211963.2697038     
  -40027812.0642226     
  -39842499.4040047     
  -39657438.4394104     
  -39473922.6558061     
  -39292988.3862656     
  -39115406.5134100     
  -38941717.5939017     
  -38772276.3495500     
  -38607293.0563866     
  -38446868.1636409     
  -38291019.8752304     
  -38139705.5825274     
  -37992838.2937592     
  -37850299.1298154     
  -37711946.7819638     
  -37577624.6449033     
  -37447166.1798203     
  -37320398.9336236     
  -37197147.5403206     
  -37077235.9539113     
  -36960489.1043928     
  -36846734.1253035     
  -36735801.2693878     
  -36627524.6059094     
  -36521742.5770652     
  -36418298.4805923     
  -36317040.9402399     
  -36217824.4249341     
  -36120509.8812070     
  -36024965.5522123     
  -35931068.0711973     
  -35838703.9388794     
  -35747771.5243837     
  -35658183.7700206     
  -35569871.8325461     
  -35482789.9567701     
  -35396921.9440951     
  -35312289.6246844     
  -35228963.7026406     
  -35147077.0574089     
  -35066839.6638784     
  -34988551.8218736     
  -34912606.2091155     
  -34839454.3275525     
  -34769477.2567824     
  -34702615.9183811     
  -34637414.5834071     
  -40428201.1592362     
  -40134726.2772218     
  -39834533.0985432     
  -39537546.9720067     
  -39248702.1746002     
  -38970327.9449810     
  -38703364.9037272     
  -38448003.7656541     
  -38204030.1243433     
  -37971015.1500484     
  -37748423.1169062     
  -37535672.7883876     
  -37332172.5637301     
  -37137340.3851900     
  -36950614.6456623     
  -36771459.7201112     
  -36599368.2684434     
  -36433861.6044812     
  -36274488.9217007     
  -36120825.8627633     
  -35972472.7338163     
  -35829052.5489476     
  -35690209.0175691     
  -35555604.5415459     
  -35424918.2597261     
  -35297844.1590844     
  -35174089.2602416     
  -35053371.8783400     
  -34935419.9567757     
  -34819969.4703511     
  -34706762.8957953     
  -34595547.7515089     
  -34486075.2155875     
  -34378098.8431615     
  -34271373.4234999     
  -34165654.0487193     
  -34060695.5171121     
  -33956252.2787136     
  -33852079.2729018     
  -33747934.2513823     
  -33643582.6060366     
  -33538806.4839742     
  -33433421.3716263     
  -33327305.9636118     
  -33220456.2207336     
  -33113084.6144706     
  -33005806.0987344     
  -32899995.2203491     
  -32798490.3843713     
  -32707021.3932994     
  -40172822.0632867     
  -39625732.8270178     
  -39138817.2866326     
  -38699576.5920682     
  -38299287.4250841     
  -37931584.0841696     
  -37591645.9517145     
  -37275709.6703593     
  -36980762.9819896     
  -36704344.5675251     
  -36444408.3023053     
  -36199228.1740181     
  -35967329.7768168     
  -35747439.7248605     
  -35538447.4861704     
  -35339376.0362117     
  -35149358.9082925     
  -34967621.9696664     
  -34793468.7448645     
  -34626268.4382211     
  -34465446.0338821     
  -34310474.0093951     
  -34160865.3107408     
  -34016167.3167773     
  -33875956.5789491     
  -33739834.1640463     
  -33607421.4579522     
  -33478356.3094945     
  -33352289.4075118     
  -33228880.7921518     
  -33107796.4036949     
  -32988704.5687785     
  -32871272.3140937     
  -32755161.3800095     
  -32640023.7786789     
  -32525496.6989755     
  -32411196.4975960     
  -32296711.4213886     
  -32181592.5631027     
  -32065342.3322569     
  -31947399.3744520     
  -31827118.3071098     
  -31703741.6944684     
  -31576360.0533627     
  -31443852.7702226     
  -31304797.4348616     
  -31157324.8306801     
  -30998876.5561120     
  -30825780.9775547     
  -30632476.6615937     
SCALARS elementIsPlast double 
LOOKUP_TABLE default
  0.000000000000000E+000
  0.000000000000000E+000
  0.000000000000000E+000
  0.000000000000000E+000
  0.000000000000000E+000
  0.000000000000000E+000
  0.000000000000000E+000
  0.000000000000000E+000
  0.000000000000000E+000
  0.000000000000000E+000
  0.000000000000000E+000
  0.000000000000000E+000
  0.000000000000000E+000
  0.000000000000000E+000
  0.000000000000000E+000
  0.000000000000000E+000
  0.000000000000000E+000
  0.000000000000000E+000
  0.000000000000000E+000
  0.000000000000000E+000
  0.000000000000000E+000
  0.000000000000000E+000
  0.000000000000000E+000
  0.000000000000000E+000
  0.000000000000000E+000
  0.000000000000000E+000
  0.000000000000000E+000
  0.000000000000000E+000
  0.000000000000000E+000
  0.000000000000000E+000
  0.000000000000000E+000
  0.000000000000000E+000
  0.000000000000000E+000
  0.000000000000000E+000
  0.000000000000000E+000
  0.000000000000000E+000
  0.000000000000000E+000
  0.000000000000000E+000
  0.000000000000000E+000
  0.000000000000000E+000
  0.000000000000000E+000
  0.000000000000000E+000
  0.000000000000000E+000
  0.000000000000000E+000
  0.000000000000000E+000
  0.000000000000000E+000
  0.000000000000000E+000
  0.000000000000000E+000
  0.000000000000000E+000
  0.000000000000000E+000
  0.000000000000000E+000
  0.000000000000000E+000
  0.000000000000000E+000
  0.000000000000000E+000
  0.000000000000000E+000
  0.000000000000000E+000
  0.000000000000000E+000
  0.000000000000000E+000
  0.000000000000000E+000
  0.000000000000000E+000
  0.000000000000000E+000
  0.000000000000000E+000
  0.000000000000000E+000
  0.000000000000000E+000
  0.000000000000000E+000
  0.000000000000000E+000
  0.000000000000000E+000
  0.000000000000000E+000
  0.000000000000000E+000
  0.000000000000000E+000
  0.000000000000000E+000
  0.000000000000000E+000
  0.000000000000000E+000
  0.000000000000000E+000
  0.000000000000000E+000
  0.000000000000000E+000
  0.000000000000000E+000
  0.000000000000000E+000
  0.000000000000000E+000
  0.000000000000000E+000
  0.000000000000000E+000
  0.000000000000000E+000
  0.000000000000000E+000
  0.000000000000000E+000
  0.000000000000000E+000
  0.000000000000000E+000
  0.000000000000000E+000
  0.000000000000000E+000
  0.000000000000000E+000
  0.000000000000000E+000
  0.000000000000000E+000
  0.000000000000000E+000
  0.000000000000000E+000
  0.000000000000000E+000
  0.000000000000000E+000
  0.000000000000000E+000
  0.000000000000000E+000
  0.000000000000000E+000
  0.000000000000000E+000
  0.000000000000000E+000
  0.000000000000000E+000
  0.000000000000000E+000
  0.000000000000000E+000
  0.000000000000000E+000
  0.000000000000000E+000
  0.000000000000000E+000
  0.000000000000000E+000
  0.000000000000000E+000
  0.000000000000000E+000
  0.000000000000000E+000
  0.000000000000000E+000
  0.000000000000000E+000
  0.000000000000000E+000
  0.000000000000000E+000
  0.000000000000000E+000
  0.000000000000000E+000
  0.000000000000000E+000
  0.000000000000000E+000
  0.000000000000000E+000
  0.000000000000000E+000
  0.000000000000000E+000
  0.000000000000000E+000
  0.000000000000000E+000
  0.000000000000000E+000
  0.000000000000000E+000
  0.000000000000000E+000
  0.000000000000000E+000
  0.000000000000000E+000
  0.000000000000000E+000
  0.000000000000000E+000
  0.000000000000000E+000
  0.000000000000000E+000
  0.000000000000000E+000
  0.000000000000000E+000
  0.000000000000000E+000
  0.000000000000000E+000
  0.000000000000000E+000
  0.000000000000000E+000
  0.000000000000000E+000
  0.000000000000000E+000
  0.000000000000000E+000
  0.000000000000000E+000
  0.000000000000000E+000
  0.000000000000000E+000
  0.000000000000000E+000
  0.000000000000000E+000
  0.000000000000000E+000
  0.000000000000000E+000
  0.000000000000000E+000
  0.000000000000000E+000
  0.000000000000000E+000
  0.000000000000000E+000
  0.000000000000000E+000
  0.000000000000000E+000
  0.000000000000000E+000
  0.000000000000000E+000
  0.000000000000000E+000
  0.000000000000000E+000
  0.000000000000000E+000
  0.000000000000000E+000
  0.000000000000000E+000
  0.000000000000000E+000
  0.000000000000000E+000
  0.000000000000000E+000
  0.000000000000000E+000
  0.000000000000000E+000
  0.000000000000000E+000
  0.000000000000000E+000
  0.000000000000000E+000
  0.000000000000000E+000
  0.000000000000000E+000
  0.000000000000000E+000
  0.000000000000000E+000
  0.000000000000000E+000
  0.000000000000000E+000
  0.000000000000000E+000
  0.000000000000000E+000
  0.000000000000000E+000
  0.000000000000000E+000
  0.000000000000000E+000
  0.000000000000000E+000
  0.000000000000000E+000
  0.000000000000000E+000
  0.000000000000000E+000
  0.000000000000000E+000
  0.000000000000000E+000
  0.000000000000000E+000
  0.000000000000000E+000
  0.000000000000000E+000
  0.000000000000000E+000
  0.000000000000000E+000
  0.000000000000000E+000
  0.000000000000000E+000
  0.000000000000000E+000
  0.000000000000000E+000
  0.000000000000000E+000
  0.000000000000000E+000
  0.000000000000000E+000
  0.000000000000000E+000
  0.000000000000000E+000
  0.000000000000000E+000
  0.000000000000000E+000
  0.000000000000000E+000
  0.000000000000000E+000
  0.000000000000000E+000
  0.000000000000000E+000
  0.000000000000000E+000
  0.000000000000000E+000
  0.000000000000000E+000
  0.000000000000000E+000
  0.000000000000000E+000
  0.000000000000000E+000
  0.000000000000000E+000
  0.000000000000000E+000
  0.000000000000000E+000
  0.000000000000000E+000
  0.000000000000000E+000
  0.000000000000000E+000
  0.000000000000000E+000
  0.000000000000000E+000
  0.000000000000000E+000
  0.000000000000000E+000
  0.000000000000000E+000
  0.000000000000000E+000
  0.000000000000000E+000
  0.000000000000000E+000
  0.000000000000000E+000
  0.000000000000000E+000
  0.000000000000000E+000
  0.000000000000000E+000
  0.000000000000000E+000
  0.000000000000000E+000
  0.000000000000000E+000
  0.000000000000000E+000
  0.000000000000000E+000
  0.000000000000000E+000
  0.000000000000000E+000
  0.000000000000000E+000
  0.000000000000000E+000
  0.000000000000000E+000
  0.000000000000000E+000
  0.000000000000000E+000
  0.000000000000000E+000
  0.000000000000000E+000
  0.000000000000000E+000
  0.000000000000000E+000
  0.000000000000000E+000
  0.000000000000000E+000
  0.000000000000000E+000
  0.000000000000000E+000
  0.000000000000000E+000
  0.000000000000000E+000
  0.000000000000000E+000
  0.000000000000000E+000
  0.000000000000000E+000
  0.000000000000000E+000
  0.000000000000000E+000
  0.000000000000000E+000
  0.000000000000000E+000
  0.000000000000000E+000
  0.000000000000000E+000
  0.000000000000000E+000
  0.000000000000000E+000
  0.000000000000000E+000
  0.000000000000000E+000
  0.000000000000000E+000
  0.000000000000000E+000
  0.000000000000000E+000
  0.000000000000000E+000
  0.000000000000000E+000
  0.000000000000000E+000
  0.000000000000000E+000
  0.000000000000000E+000
  0.000000000000000E+000
  0.000000000000000E+000
  0.000000000000000E+000
  0.000000000000000E+000
  0.000000000000000E+000
  0.000000000000000E+000
  0.000000000000000E+000
  0.000000000000000E+000
  0.000000000000000E+000
  0.000000000000000E+000
  0.000000000000000E+000
  0.000000000000000E+000
  0.000000000000000E+000
  0.000000000000000E+000
  0.000000000000000E+000
  0.000000000000000E+000
  0.000000000000000E+000
  0.000000000000000E+000
  0.000000000000000E+000
  0.000000000000000E+000
  0.000000000000000E+000
  0.000000000000000E+000
  0.000000000000000E+000
  0.000000000000000E+000
  0.000000000000000E+000
  0.000000000000000E+000
  0.000000000000000E+000
  0.000000000000000E+000
  0.000000000000000E+000
  0.000000000000000E+000
  0.000000000000000E+000
  0.000000000000000E+000
  0.000000000000000E+000
  0.000000000000000E+000
  0.000000000000000E+000
  0.000000000000000E+000
  0.000000000000000E+000
  0.000000000000000E+000
  0.000000000000000E+000
  0.000000000000000E+000
  0.000000000000000E+000
  0.000000000000000E+000
  0.000000000000000E+000
  0.000000000000000E+000
  0.000000000000000E+000
  0.000000000000000E+000
  0.000000000000000E+000
  0.000000000000000E+000
  0.000000000000000E+000
  0.000000000000000E+000
  0.000000000000000E+000
  0.000000000000000E+000
  0.000000000000000E+000
  0.000000000000000E+000
  0.000000000000000E+000
  0.000000000000000E+000
  0.000000000000000E+000
  0.000000000000000E+000
  0.000000000000000E+000
  0.000000000000000E+000
  0.000000000000000E+000
  0.000000000000000E+000
  0.000000000000000E+000
  0.000000000000000E+000
  0.000000000000000E+000
  0.000000000000000E+000
  0.000000000000000E+000
  0.000000000000000E+000
  0.000000000000000E+000
  0.000000000000000E+000
  0.000000000000000E+000
  0.000000000000000E+000
  0.000000000000000E+000
  0.000000000000000E+000
  0.000000000000000E+000
  0.000000000000000E+000
  0.000000000000000E+000
  0.000000000000000E+000
  0.000000000000000E+000
  0.000000000000000E+000
  0.000000000000000E+000
  0.000000000000000E+000
  0.000000000000000E+000
  0.000000000000000E+000
  0.000000000000000E+000
  0.000000000000000E+000
  0.000000000000000E+000
  0.000000000000000E+000
  0.000000000000000E+000
  0.000000000000000E+000
  0.000000000000000E+000
  0.000000000000000E+000
  0.000000000000000E+000
  0.000000000000000E+000
  0.000000000000000E+000
  0.000000000000000E+000
  0.000000000000000E+000
  0.000000000000000E+000
  0.000000000000000E+000
  0.000000000000000E+000
  0.000000000000000E+000
  0.000000000000000E+000
  0.000000000000000E+000
  0.000000000000000E+000
  0.000000000000000E+000
  0.000000000000000E+000
  0.000000000000000E+000
  0.000000000000000E+000
  0.000000000000000E+000
  0.000000000000000E+000
  0.000000000000000E+000
  0.000000000000000E+000
  0.000000000000000E+000
  0.000000000000000E+000
  0.000000000000000E+000
  0.000000000000000E+000
  0.000000000000000E+000
  0.000000000000000E+000
  0.000000000000000E+000
  0.000000000000000E+000
  0.000000000000000E+000
  0.000000000000000E+000
  0.000000000000000E+000
  0.000000000000000E+000
  0.000000000000000E+000
  0.000000000000000E+000
  0.000000000000000E+000
  0.000000000000000E+000
  0.000000000000000E+000
  0.000000000000000E+000
  0.000000000000000E+000
  0.000000000000000E+000
  0.000000000000000E+000
  0.000000000000000E+000
  0.000000000000000E+000
  0.000000000000000E+000
  0.000000000000000E+000
  0.000000000000000E+000
  0.000000000000000E+000
  0.000000000000000E+000
  0.000000000000000E+000
  0.000000000000000E+000
  0.000000000000000E+000
  0.000000000000000E+000
  0.000000000000000E+000
  0.000000000000000E+000
  0.000000000000000E+000
  0.000000000000000E+000
  0.000000000000000E+000
  0.000000000000000E+000
  0.000000000000000E+000
  0.000000000000000E+000
  0.000000000000000E+000
  0.000000000000000E+000
  0.000000000000000E+000
  0.000000000000000E+000
  0.000000000000000E+000
  0.000000000000000E+000
  0.000000000000000E+000
  0.000000000000000E+000
  0.000000000000000E+000
  0.000000000000000E+000
  0.000000000000000E+000
  0.000000000000000E+000
  0.000000000000000E+000
  0.000000000000000E+000
  0.000000000000000E+000
  0.000000000000000E+000
  0.000000000000000E+000
  0.000000000000000E+000
  0.000000000000000E+000
  0.000000000000000E+000
  0.000000000000000E+000
  0.000000000000000E+000
  0.000000000000000E+000
  0.000000000000000E+000
  0.000000000000000E+000
  0.000000000000000E+000
  0.000000000000000E+000
  0.000000000000000E+000
  0.000000000000000E+000
  0.000000000000000E+000
  0.000000000000000E+000
  0.000000000000000E+000
  0.000000000000000E+000
  0.000000000000000E+000
  0.000000000000000E+000
  0.000000000000000E+000
  0.000000000000000E+000
  0.000000000000000E+000
  0.000000000000000E+000
  0.000000000000000E+000
  0.000000000000000E+000
  0.000000000000000E+000
  0.000000000000000E+000
  0.000000000000000E+000
  0.000000000000000E+000
  0.000000000000000E+000
  0.000000000000000E+000
  0.000000000000000E+000
  0.000000000000000E+000
  0.000000000000000E+000
  0.000000000000000E+000
  0.000000000000000E+000
  0.000000000000000E+000
  0.000000000000000E+000
  0.000000000000000E+000
  0.000000000000000E+000
  0.000000000000000E+000
  0.000000000000000E+000
  0.000000000000000E+000
  0.000000000000000E+000
  0.000000000000000E+000
  0.000000000000000E+000
  0.000000000000000E+000
  0.000000000000000E+000
  0.000000000000000E+000
  0.000000000000000E+000
  0.000000000000000E+000
  0.000000000000000E+000
  0.000000000000000E+000
  0.000000000000000E+000
  0.000000000000000E+000
  0.000000000000000E+000
  0.000000000000000E+000
  0.000000000000000E+000
  0.000000000000000E+000
  0.000000000000000E+000
  0.000000000000000E+000
  0.000000000000000E+000
  0.000000000000000E+000
  0.000000000000000E+000
  0.000000000000000E+000
  0.000000000000000E+000
  0.000000000000000E+000
  0.000000000000000E+000
  0.000000000000000E+000
  0.000000000000000E+000
  0.000000000000000E+000
  0.000000000000000E+000
  0.000000000000000E+000
  0.000000000000000E+000
  0.000000000000000E+000
  0.000000000000000E+000
  0.000000000000000E+000
  0.000000000000000E+000
  0.000000000000000E+000
  0.000000000000000E+000
  0.000000000000000E+000
  0.000000000000000E+000
  0.000000000000000E+000
  0.000000000000000E+000
  0.000000000000000E+000
  0.000000000000000E+000
  0.000000000000000E+000
  0.000000000000000E+000
  0.000000000000000E+000
  0.000000000000000E+000
  0.000000000000000E+000
  0.000000000000000E+000
  0.000000000000000E+000
  0.000000000000000E+000
  0.000000000000000E+000
  0.000000000000000E+000
  0.000000000000000E+000
  0.000000000000000E+000
  0.000000000000000E+000
  0.000000000000000E+000
  0.000000000000000E+000
  0.000000000000000E+000
  0.000000000000000E+000
  0.000000000000000E+000
  0.000000000000000E+000
  0.000000000000000E+000
  0.000000000000000E+000
  0.000000000000000E+000
  0.000000000000000E+000
  0.000000000000000E+000
  0.000000000000000E+000
  0.000000000000000E+000
  0.000000000000000E+000
  0.000000000000000E+000
  0.000000000000000E+000
  0.000000000000000E+000
  0.000000000000000E+000
  0.000000000000000E+000
  0.000000000000000E+000
  0.000000000000000E+000
  0.000000000000000E+000
  0.000000000000000E+000
  0.000000000000000E+000
  0.000000000000000E+000
  0.000000000000000E+000
  0.000000000000000E+000
  0.000000000000000E+000
  0.000000000000000E+000
  0.000000000000000E+000
  0.000000000000000E+000
  0.000000000000000E+000
  0.000000000000000E+000
  0.000000000000000E+000
  0.000000000000000E+000
  0.000000000000000E+000
  0.000000000000000E+000
  0.000000000000000E+000
  0.000000000000000E+000
  0.000000000000000E+000
  0.000000000000000E+000
  0.000000000000000E+000
  0.000000000000000E+000
  0.000000000000000E+000
  0.000000000000000E+000
  0.000000000000000E+000
  0.000000000000000E+000
  0.000000000000000E+000
  0.000000000000000E+000
  0.000000000000000E+000
  0.000000000000000E+000
  0.000000000000000E+000
  0.000000000000000E+000
  0.000000000000000E+000
  0.000000000000000E+000
  0.000000000000000E+000
  0.000000000000000E+000
  0.000000000000000E+000
  0.000000000000000E+000
  0.000000000000000E+000
  0.000000000000000E+000
  0.000000000000000E+000
  0.000000000000000E+000
  0.000000000000000E+000
  0.000000000000000E+000
  0.000000000000000E+000
  0.000000000000000E+000
  0.000000000000000E+000
  0.000000000000000E+000
  0.000000000000000E+000
  0.000000000000000E+000
  0.000000000000000E+000
  0.000000000000000E+000
  0.000000000000000E+000
  0.000000000000000E+000
  0.000000000000000E+000
  0.000000000000000E+000
  0.000000000000000E+000
  0.000000000000000E+000
  0.000000000000000E+000
  0.000000000000000E+000
  0.000000000000000E+000
  0.000000000000000E+000
  0.000000000000000E+000
  0.000000000000000E+000
  0.000000000000000E+000
  0.000000000000000E+000
  0.000000000000000E+000
  0.000000000000000E+000
  0.000000000000000E+000
  0.000000000000000E+000
  0.000000000000000E+000
  0.000000000000000E+000
  0.000000000000000E+000
  0.000000000000000E+000
  0.000000000000000E+000
  0.000000000000000E+000
  0.000000000000000E+000
  0.000000000000000E+000
  0.000000000000000E+000
  0.000000000000000E+000
  0.000000000000000E+000
  0.000000000000000E+000
  0.000000000000000E+000
  0.000000000000000E+000
  0.000000000000000E+000
  0.000000000000000E+000
  0.000000000000000E+000
  0.000000000000000E+000
  0.000000000000000E+000
  0.000000000000000E+000
  0.000000000000000E+000
  0.000000000000000E+000
  0.000000000000000E+000
  0.000000000000000E+000
  0.000000000000000E+000
  0.000000000000000E+000
  0.000000000000000E+000
  0.000000000000000E+000
  0.000000000000000E+000
  0.000000000000000E+000
  0.000000000000000E+000
  0.000000000000000E+000
  0.000000000000000E+000
  0.000000000000000E+000
  0.000000000000000E+000
  0.000000000000000E+000
  0.000000000000000E+000
  0.000000000000000E+000
  0.000000000000000E+000
  0.000000000000000E+000
  0.000000000000000E+000
  0.000000000000000E+000
  0.000000000000000E+000
  0.000000000000000E+000
  0.000000000000000E+000
  0.000000000000000E+000
  0.000000000000000E+000
  0.000000000000000E+000
  0.000000000000000E+000
  0.000000000000000E+000
  0.000000000000000E+000
  0.000000000000000E+000
  0.000000000000000E+000
  0.000000000000000E+000
  0.000000000000000E+000
  0.000000000000000E+000
  0.000000000000000E+000
  0.000000000000000E+000
  0.000000000000000E+000
  0.000000000000000E+000
  0.000000000000000E+000
  0.000000000000000E+000
  0.000000000000000E+000
  0.000000000000000E+000
  0.000000000000000E+000
  0.000000000000000E+000
  0.000000000000000E+000
  0.000000000000000E+000
  0.000000000000000E+000
  0.000000000000000E+000
  0.000000000000000E+000
  0.000000000000000E+000
  0.000000000000000E+000
  0.000000000000000E+000
  0.000000000000000E+000
  0.000000000000000E+000
  0.000000000000000E+000
  0.000000000000000E+000
  0.000000000000000E+000
  0.000000000000000E+000
  0.000000000000000E+000
  0.000000000000000E+000
  0.000000000000000E+000
  0.000000000000000E+000
  0.000000000000000E+000
  0.000000000000000E+000
  0.000000000000000E+000
  0.000000000000000E+000
  0.000000000000000E+000
  0.000000000000000E+000
  0.000000000000000E+000
  0.000000000000000E+000
  0.000000000000000E+000
  0.000000000000000E+000
  0.000000000000000E+000
  0.000000000000000E+000
  0.000000000000000E+000
  0.000000000000000E+000
  0.000000000000000E+000
  0.000000000000000E+000
  0.000000000000000E+000
  0.000000000000000E+000
  0.000000000000000E+000
  0.000000000000000E+000
  0.000000000000000E+000
  0.000000000000000E+000
  0.000000000000000E+000
  0.000000000000000E+000
  0.000000000000000E+000
  0.000000000000000E+000
  0.000000000000000E+000
  0.000000000000000E+000
  0.000000000000000E+000
  0.000000000000000E+000
  0.000000000000000E+000
  0.000000000000000E+000
  0.000000000000000E+000
  0.000000000000000E+000
  0.000000000000000E+000
  0.000000000000000E+000
  0.000000000000000E+000
  0.000000000000000E+000
  0.000000000000000E+000
  0.000000000000000E+000
  0.000000000000000E+000
  0.000000000000000E+000
  0.000000000000000E+000
  0.000000000000000E+000
  0.000000000000000E+000
  0.000000000000000E+000
  0.000000000000000E+000
  0.000000000000000E+000
  0.000000000000000E+000
  0.000000000000000E+000
  0.000000000000000E+000
  0.000000000000000E+000
  0.000000000000000E+000
  0.000000000000000E+000
  0.000000000000000E+000
  0.000000000000000E+000
  0.000000000000000E+000
  0.000000000000000E+000
  0.000000000000000E+000
  0.000000000000000E+000
  0.000000000000000E+000
  0.000000000000000E+000
  0.000000000000000E+000
  0.000000000000000E+000
  0.000000000000000E+000
  0.000000000000000E+000
  0.000000000000000E+000
  0.000000000000000E+000
  0.000000000000000E+000
  0.000000000000000E+000
  0.000000000000000E+000
  0.000000000000000E+000
  0.000000000000000E+000
  0.000000000000000E+000
  0.000000000000000E+000
  0.000000000000000E+000
  0.000000000000000E+000
  0.000000000000000E+000
  0.000000000000000E+000
  0.000000000000000E+000
  0.000000000000000E+000
  0.000000000000000E+000
  0.000000000000000E+000
  0.000000000000000E+000
  0.000000000000000E+000
  0.000000000000000E+000
  0.000000000000000E+000
  0.000000000000000E+000
  0.000000000000000E+000
  0.000000000000000E+000
  0.000000000000000E+000
  0.000000000000000E+000
  0.000000000000000E+000
  0.000000000000000E+000
  0.000000000000000E+000
  0.000000000000000E+000
  0.000000000000000E+000
  0.000000000000000E+000
  0.000000000000000E+000
  0.000000000000000E+000
  0.000000000000000E+000
  0.000000000000000E+000
  0.000000000000000E+000
  0.000000000000000E+000
  0.000000000000000E+000
  0.000000000000000E+000
  0.000000000000000E+000
  0.000000000000000E+000
  0.000000000000000E+000
  0.000000000000000E+000
  0.000000000000000E+000
  0.000000000000000E+000
  0.000000000000000E+000
  0.000000000000000E+000
  0.000000000000000E+000
  0.000000000000000E+000
  0.000000000000000E+000
  0.000000000000000E+000
  0.000000000000000E+000
  0.000000000000000E+000
  0.000000000000000E+000
  0.000000000000000E+000
  0.000000000000000E+000
  0.000000000000000E+000
  0.000000000000000E+000
  0.000000000000000E+000
  0.000000000000000E+000
  0.000000000000000E+000
  0.000000000000000E+000
  0.000000000000000E+000
  0.000000000000000E+000
  0.000000000000000E+000
  0.000000000000000E+000
  0.000000000000000E+000
  0.000000000000000E+000
  0.000000000000000E+000
  0.000000000000000E+000
  0.000000000000000E+000
  0.000000000000000E+000
  0.000000000000000E+000
  0.000000000000000E+000
  0.000000000000000E+000
  0.000000000000000E+000
  0.000000000000000E+000
  0.000000000000000E+000
  0.000000000000000E+000
  0.000000000000000E+000
  0.000000000000000E+000
  0.000000000000000E+000
  0.000000000000000E+000
  0.000000000000000E+000
  0.000000000000000E+000
  0.000000000000000E+000
  0.000000000000000E+000
  0.000000000000000E+000
  0.000000000000000E+000
  0.000000000000000E+000
  0.000000000000000E+000
  0.000000000000000E+000
  0.000000000000000E+000
  0.000000000000000E+000
  0.000000000000000E+000
  0.000000000000000E+000
  0.000000000000000E+000
  0.000000000000000E+000
  0.000000000000000E+000
  0.000000000000000E+000
  0.000000000000000E+000
  0.000000000000000E+000
  0.000000000000000E+000
  0.000000000000000E+000
  0.000000000000000E+000
  0.000000000000000E+000
  0.000000000000000E+000
  0.000000000000000E+000
  0.000000000000000E+000
  0.000000000000000E+000
  0.000000000000000E+000
  0.000000000000000E+000
  0.000000000000000E+000
  0.000000000000000E+000
  0.000000000000000E+000
  0.000000000000000E+000
  0.000000000000000E+000
  0.000000000000000E+000
  0.000000000000000E+000
  0.000000000000000E+000
  0.000000000000000E+000
  0.000000000000000E+000
  0.000000000000000E+000
  0.000000000000000E+000
  0.000000000000000E+000
  0.000000000000000E+000
  0.000000000000000E+000
  0.000000000000000E+000
  0.000000000000000E+000
  0.000000000000000E+000
  0.000000000000000E+000
  0.000000000000000E+000
  0.000000000000000E+000
  0.000000000000000E+000
  0.000000000000000E+000
  0.000000000000000E+000
  0.000000000000000E+000
  0.000000000000000E+000
  0.000000000000000E+000
  0.000000000000000E+000
  0.000000000000000E+000
  0.000000000000000E+000
  0.000000000000000E+000
  0.000000000000000E+000
  0.000000000000000E+000
  0.000000000000000E+000
  0.000000000000000E+000
  0.000000000000000E+000
  0.000000000000000E+000
  0.000000000000000E+000
  0.000000000000000E+000
  0.000000000000000E+000
  0.000000000000000E+000
  0.000000000000000E+000
  0.000000000000000E+000
  0.000000000000000E+000
  0.000000000000000E+000
  0.000000000000000E+000
  0.000000000000000E+000
  0.000000000000000E+000
  0.000000000000000E+000
  0.000000000000000E+000
  0.000000000000000E+000
  0.000000000000000E+000
  0.000000000000000E+000
  0.000000000000000E+000
  0.000000000000000E+000
  0.000000000000000E+000
  0.000000000000000E+000
  0.000000000000000E+000
  0.000000000000000E+000
  0.000000000000000E+000
  0.000000000000000E+000
  0.000000000000000E+000
  0.000000000000000E+000
  0.000000000000000E+000
  0.000000000000000E+000
  0.000000000000000E+000
  0.000000000000000E+000
  0.000000000000000E+000
  0.000000000000000E+000
  0.000000000000000E+000
  0.000000000000000E+000
  0.000000000000000E+000
  0.000000000000000E+000
  0.000000000000000E+000
  0.000000000000000E+000
  0.000000000000000E+000
  0.000000000000000E+000
  0.000000000000000E+000
  0.000000000000000E+000
  0.000000000000000E+000
  0.000000000000000E+000
  0.000000000000000E+000
  0.000000000000000E+000
  0.000000000000000E+000
  0.000000000000000E+000
  0.000000000000000E+000
  0.000000000000000E+000
  0.000000000000000E+000
  0.000000000000000E+000
  0.000000000000000E+000
  0.000000000000000E+000
  0.000000000000000E+000
  0.000000000000000E+000
  0.000000000000000E+000
  0.000000000000000E+000
  0.000000000000000E+000
  0.000000000000000E+000
  0.000000000000000E+000
  0.000000000000000E+000
  0.000000000000000E+000
  0.000000000000000E+000
  0.000000000000000E+000
  0.000000000000000E+000
  0.000000000000000E+000
  0.000000000000000E+000
  0.000000000000000E+000
  0.000000000000000E+000
  0.000000000000000E+000
  0.000000000000000E+000
  0.000000000000000E+000
  0.000000000000000E+000
  0.000000000000000E+000
  0.000000000000000E+000
  0.000000000000000E+000
  0.000000000000000E+000
  0.000000000000000E+000
  0.000000000000000E+000
  0.000000000000000E+000
  0.000000000000000E+000
  0.000000000000000E+000
  0.000000000000000E+000
  0.000000000000000E+000
  0.000000000000000E+000
  0.000000000000000E+000
  0.000000000000000E+000
  0.000000000000000E+000
  0.000000000000000E+000
  0.000000000000000E+000
  0.000000000000000E+000
  0.000000000000000E+000
  0.000000000000000E+000
  0.000000000000000E+000
  0.000000000000000E+000
  0.000000000000000E+000
  0.000000000000000E+000
  0.000000000000000E+000
  0.000000000000000E+000
  0.000000000000000E+000
  0.000000000000000E+000
  0.000000000000000E+000
  0.000000000000000E+000
  0.000000000000000E+000
  0.000000000000000E+000
  0.000000000000000E+000
  0.000000000000000E+000
  0.000000000000000E+000
  0.000000000000000E+000
  0.000000000000000E+000
  0.000000000000000E+000
  0.000000000000000E+000
  0.000000000000000E+000
  0.000000000000000E+000
  0.000000000000000E+000
  0.000000000000000E+000
  0.000000000000000E+000
  0.000000000000000E+000
  0.000000000000000E+000
  0.000000000000000E+000
  0.000000000000000E+000
  0.000000000000000E+000
  0.000000000000000E+000
  0.000000000000000E+000
  0.000000000000000E+000
  0.000000000000000E+000
  0.000000000000000E+000
  0.000000000000000E+000
  0.000000000000000E+000
  0.000000000000000E+000
  0.000000000000000E+000
  0.000000000000000E+000
  0.000000000000000E+000
  0.000000000000000E+000
  0.000000000000000E+000
  0.000000000000000E+000
  0.000000000000000E+000
  0.000000000000000E+000
  0.000000000000000E+000
  0.000000000000000E+000
  0.000000000000000E+000
  0.000000000000000E+000
  0.000000000000000E+000
  0.000000000000000E+000
  0.000000000000000E+000
  0.000000000000000E+000
  0.000000000000000E+000
  0.000000000000000E+000
  0.000000000000000E+000
  0.000000000000000E+000
  0.000000000000000E+000
  0.000000000000000E+000
  0.000000000000000E+000
  0.000000000000000E+000
  0.000000000000000E+000
  0.000000000000000E+000
  0.000000000000000E+000
  0.000000000000000E+000
  0.000000000000000E+000
  0.000000000000000E+000
  0.000000000000000E+000
  0.000000000000000E+000
  0.000000000000000E+000
  0.000000000000000E+000
  0.000000000000000E+000
  0.000000000000000E+000
  0.000000000000000E+000
  0.000000000000000E+000
  0.000000000000000E+000
  0.000000000000000E+000
  0.000000000000000E+000
  0.000000000000000E+000
  0.000000000000000E+000
  0.000000000000000E+000
  0.000000000000000E+000
  0.000000000000000E+000
  0.000000000000000E+000
  0.000000000000000E+000
  0.000000000000000E+000
  0.000000000000000E+000
  0.000000000000000E+000
  0.000000000000000E+000
  0.000000000000000E+000
  0.000000000000000E+000
  0.000000000000000E+000
  0.000000000000000E+000
  0.000000000000000E+000
  0.000000000000000E+000
  0.000000000000000E+000
  0.000000000000000E+000
  0.000000000000000E+000
  0.000000000000000E+000
  0.000000000000000E+000
  0.000000000000000E+000
  0.000000000000000E+000
  0.000000000000000E+000
  0.000000000000000E+000
  0.000000000000000E+000
  0.000000000000000E+000
  0.000000000000000E+000
  0.000000000000000E+000
  0.000000000000000E+000
  0.000000000000000E+000
  0.000000000000000E+000
  0.000000000000000E+000
  0.000000000000000E+000
  0.000000000000000E+000
  0.000000000000000E+000
  0.000000000000000E+000
  0.000000000000000E+000
  0.000000000000000E+000
  0.000000000000000E+000
  0.000000000000000E+000
  0.000000000000000E+000
  0.000000000000000E+000
  0.000000000000000E+000
  0.000000000000000E+000
  0.000000000000000E+000
  0.000000000000000E+000
  0.000000000000000E+000
  0.000000000000000E+000
  0.000000000000000E+000
  0.000000000000000E+000
  0.000000000000000E+000
  0.000000000000000E+000
  0.000000000000000E+000
  0.000000000000000E+000
  0.000000000000000E+000
  0.000000000000000E+000
  0.000000000000000E+000
  0.000000000000000E+000
  0.000000000000000E+000
  0.000000000000000E+000
  0.000000000000000E+000
  0.000000000000000E+000
  0.000000000000000E+000
  0.000000000000000E+000
  0.000000000000000E+000
  0.000000000000000E+000
  0.000000000000000E+000
  0.000000000000000E+000
  0.000000000000000E+000
  0.000000000000000E+000
  0.000000000000000E+000
  0.000000000000000E+000
  0.000000000000000E+000
  0.000000000000000E+000
  0.000000000000000E+000
  0.000000000000000E+000
  0.000000000000000E+000
  0.000000000000000E+000
  0.000000000000000E+000
  0.000000000000000E+000
  0.000000000000000E+000
  0.000000000000000E+000
  0.000000000000000E+000
  0.000000000000000E+000
  0.000000000000000E+000
  0.000000000000000E+000
  0.000000000000000E+000
  0.000000000000000E+000
  0.000000000000000E+000
  0.000000000000000E+000
  0.000000000000000E+000
  0.000000000000000E+000
  0.000000000000000E+000
  0.000000000000000E+000
  0.000000000000000E+000
  0.000000000000000E+000
  0.000000000000000E+000
  0.000000000000000E+000
  0.000000000000000E+000
  0.000000000000000E+000
  0.000000000000000E+000
  0.000000000000000E+000
  0.000000000000000E+000
  0.000000000000000E+000
  0.000000000000000E+000
  0.000000000000000E+000
  0.000000000000000E+000
  0.000000000000000E+000
  0.000000000000000E+000
  0.000000000000000E+000
  0.000000000000000E+000
  0.000000000000000E+000
  0.000000000000000E+000
  0.000000000000000E+000
  0.000000000000000E+000
  0.000000000000000E+000
  0.000000000000000E+000
  0.000000000000000E+000
  0.000000000000000E+000
  0.000000000000000E+000
  0.000000000000000E+000
  0.000000000000000E+000
  0.000000000000000E+000
  0.000000000000000E+000
  0.000000000000000E+000
  0.000000000000000E+000
  0.000000000000000E+000
  0.000000000000000E+000
  0.000000000000000E+000
  0.000000000000000E+000
  0.000000000000000E+000
  0.000000000000000E+000
  0.000000000000000E+000
  0.000000000000000E+000
  0.000000000000000E+000
  0.000000000000000E+000
  0.000000000000000E+000
  0.000000000000000E+000
  0.000000000000000E+000
  0.000000000000000E+000
  0.000000000000000E+000
  0.000000000000000E+000
  0.000000000000000E+000
  0.000000000000000E+000
  0.000000000000000E+000
  0.000000000000000E+000
  0.000000000000000E+000
  0.000000000000000E+000
  0.000000000000000E+000
  0.000000000000000E+000
  0.000000000000000E+000
  0.000000000000000E+000
  0.000000000000000E+000
  0.000000000000000E+000
  0.000000000000000E+000
  0.000000000000000E+000
  0.000000000000000E+000
  0.000000000000000E+000
  0.000000000000000E+000
  0.000000000000000E+000
  0.000000000000000E+000
  0.000000000000000E+000
  0.000000000000000E+000
  0.000000000000000E+000
  0.000000000000000E+000
  0.000000000000000E+000
  0.000000000000000E+000
  0.000000000000000E+000
  0.000000000000000E+000
  0.000000000000000E+000
  0.000000000000000E+000
  0.000000000000000E+000
  0.000000000000000E+000
  0.000000000000000E+000
  0.000000000000000E+000
  0.000000000000000E+000
  0.000000000000000E+000
  0.000000000000000E+000
  0.000000000000000E+000
  0.000000000000000E+000
  0.000000000000000E+000
  0.000000000000000E+000
  0.000000000000000E+000
  0.000000000000000E+000
  0.000000000000000E+000
  0.000000000000000E+000
  0.000000000000000E+000
  0.000000000000000E+000
  0.000000000000000E+000
  0.000000000000000E+000
  0.000000000000000E+000
  0.000000000000000E+000
  0.000000000000000E+000
  0.000000000000000E+000
  0.000000000000000E+000
  0.000000000000000E+000
  0.000000000000000E+000
  0.000000000000000E+000
  0.000000000000000E+000
  0.000000000000000E+000
  0.000000000000000E+000
  0.000000000000000E+000
  0.000000000000000E+000
  0.000000000000000E+000
  0.000000000000000E+000
  0.000000000000000E+000
  0.000000000000000E+000
  0.000000000000000E+000
  0.000000000000000E+000
  0.000000000000000E+000
  0.000000000000000E+000
  0.000000000000000E+000
  0.000000000000000E+000
  0.000000000000000E+000
  0.000000000000000E+000
  0.000000000000000E+000
  0.000000000000000E+000
  0.000000000000000E+000
  0.000000000000000E+000
  0.000000000000000E+000
  0.000000000000000E+000
  0.000000000000000E+000
  0.000000000000000E+000
  0.000000000000000E+000
  0.000000000000000E+000
  0.000000000000000E+000
  0.000000000000000E+000
  0.000000000000000E+000
  0.000000000000000E+000
  0.000000000000000E+000
  0.000000000000000E+000
  0.000000000000000E+000
  0.000000000000000E+000
  0.000000000000000E+000
  0.000000000000000E+000
  0.000000000000000E+000
  0.000000000000000E+000
  0.000000000000000E+000
  0.000000000000000E+000
  0.000000000000000E+000
  0.000000000000000E+000
  0.000000000000000E+000
  0.000000000000000E+000
  0.000000000000000E+000
  0.000000000000000E+000
  0.000000000000000E+000
  0.000000000000000E+000
  0.000000000000000E+000
  0.000000000000000E+000
  0.000000000000000E+000
  0.000000000000000E+000
  0.000000000000000E+000
  0.000000000000000E+000
  0.000000000000000E+000
  0.000000000000000E+000
  0.000000000000000E+000
  0.000000000000000E+000
  0.000000000000000E+000
  0.000000000000000E+000
  0.000000000000000E+000
  0.000000000000000E+000
  0.000000000000000E+000
  0.000000000000000E+000
  0.000000000000000E+000
  0.000000000000000E+000
  0.000000000000000E+000
  0.000000000000000E+000
  0.000000000000000E+000
  0.000000000000000E+000
  0.000000000000000E+000
  0.000000000000000E+000
  0.000000000000000E+000
  0.000000000000000E+000
  0.000000000000000E+000
  0.000000000000000E+000
  0.000000000000000E+000
  0.000000000000000E+000
  0.000000000000000E+000
  0.000000000000000E+000
  0.000000000000000E+000
  0.000000000000000E+000
  0.000000000000000E+000
  0.000000000000000E+000
  0.000000000000000E+000
  0.000000000000000E+000
  0.000000000000000E+000
  0.000000000000000E+000
  0.000000000000000E+000
  0.000000000000000E+000
  0.000000000000000E+000
  0.000000000000000E+000
  0.000000000000000E+000
  0.000000000000000E+000
  0.000000000000000E+000
  0.000000000000000E+000
  0.000000000000000E+000
  0.000000000000000E+000
  0.000000000000000E+000
  0.000000000000000E+000
  0.000000000000000E+000
  0.000000000000000E+000
  0.000000000000000E+000
  0.000000000000000E+000
  0.000000000000000E+000
  0.000000000000000E+000
  0.000000000000000E+000
  0.000000000000000E+000
  0.000000000000000E+000
  0.000000000000000E+000
  0.000000000000000E+000
  0.000000000000000E+000
  0.000000000000000E+000
  0.000000000000000E+000
  0.000000000000000E+000
  0.000000000000000E+000
  0.000000000000000E+000
  0.000000000000000E+000
  0.000000000000000E+000
  0.000000000000000E+000
  0.000000000000000E+000
  0.000000000000000E+000
  0.000000000000000E+000
  0.000000000000000E+000
  0.000000000000000E+000
  0.000000000000000E+000
  0.000000000000000E+000
  0.000000000000000E+000
  0.000000000000000E+000
  0.000000000000000E+000
  0.000000000000000E+000
  0.000000000000000E+000
  0.000000000000000E+000
  0.000000000000000E+000
  0.000000000000000E+000
  0.000000000000000E+000
  0.000000000000000E+000
  0.000000000000000E+000
  0.000000000000000E+000
  0.000000000000000E+000
  0.000000000000000E+000
  0.000000000000000E+000
  0.000000000000000E+000
  0.000000000000000E+000
  0.000000000000000E+000
  0.000000000000000E+000
  0.000000000000000E+000
  0.000000000000000E+000
  0.000000000000000E+000
  0.000000000000000E+000
  0.000000000000000E+000
  0.000000000000000E+000
  0.000000000000000E+000
  0.000000000000000E+000
  0.000000000000000E+000
  0.000000000000000E+000
  0.000000000000000E+000
  0.000000000000000E+000
  0.000000000000000E+000
  0.000000000000000E+000
  0.000000000000000E+000
  0.000000000000000E+000
  0.000000000000000E+000
  0.000000000000000E+000
  0.000000000000000E+000
  0.000000000000000E+000
  0.000000000000000E+000
  0.000000000000000E+000
  0.000000000000000E+000
  0.000000000000000E+000
  0.000000000000000E+000
  0.000000000000000E+000
  0.000000000000000E+000
  0.000000000000000E+000
  0.000000000000000E+000
  0.000000000000000E+000
  0.000000000000000E+000
  0.000000000000000E+000
  0.000000000000000E+000
  0.000000000000000E+000
  0.000000000000000E+000
  0.000000000000000E+000
  0.000000000000000E+000
  0.000000000000000E+000
  0.000000000000000E+000
  0.000000000000000E+000
  0.000000000000000E+000
  0.000000000000000E+000
  0.000000000000000E+000
  0.000000000000000E+000
  0.000000000000000E+000
  0.000000000000000E+000
  0.000000000000000E+000
  0.000000000000000E+000
  0.000000000000000E+000
  0.000000000000000E+000
  0.000000000000000E+000
  0.000000000000000E+000
  0.000000000000000E+000
  0.000000000000000E+000
  0.000000000000000E+000
  0.000000000000000E+000
  0.000000000000000E+000
  0.000000000000000E+000
  0.000000000000000E+000
  0.000000000000000E+000
  0.000000000000000E+000
  0.000000000000000E+000
  0.000000000000000E+000
  0.000000000000000E+000
  0.000000000000000E+000
  0.000000000000000E+000
  0.000000000000000E+000
  0.000000000000000E+000
  0.000000000000000E+000
  0.000000000000000E+000
  0.000000000000000E+000
  0.000000000000000E+000
  0.000000000000000E+000
  0.000000000000000E+000
  0.000000000000000E+000
  0.000000000000000E+000
  0.000000000000000E+000
  0.000000000000000E+000
  0.000000000000000E+000
  0.000000000000000E+000
  0.000000000000000E+000
  0.000000000000000E+000
  0.000000000000000E+000
  0.000000000000000E+000
  0.000000000000000E+000
  0.000000000000000E+000
  0.000000000000000E+000
  0.000000000000000E+000
  0.000000000000000E+000
  0.000000000000000E+000
  0.000000000000000E+000
  0.000000000000000E+000
  0.000000000000000E+000
  0.000000000000000E+000
  0.000000000000000E+000
  0.000000000000000E+000
  0.000000000000000E+000
  0.000000000000000E+000
  0.000000000000000E+000
  0.000000000000000E+000
  0.000000000000000E+000
  0.000000000000000E+000
  0.000000000000000E+000
  0.000000000000000E+000
  0.000000000000000E+000
  0.000000000000000E+000
  0.000000000000000E+000
  0.000000000000000E+000
  0.000000000000000E+000
  0.000000000000000E+000
  0.000000000000000E+000
  0.000000000000000E+000
  0.000000000000000E+000
  0.000000000000000E+000
  0.000000000000000E+000
  0.000000000000000E+000
  0.000000000000000E+000
  0.000000000000000E+000
  0.000000000000000E+000
  0.000000000000000E+000
  0.000000000000000E+000
  0.000000000000000E+000
  0.000000000000000E+000
  0.000000000000000E+000
  0.000000000000000E+000
  0.000000000000000E+000
  0.000000000000000E+000
  0.000000000000000E+000
  0.000000000000000E+000
  0.000000000000000E+000
  0.000000000000000E+000
  0.000000000000000E+000
  0.000000000000000E+000
  0.000000000000000E+000
  0.000000000000000E+000
  0.000000000000000E+000
  0.000000000000000E+000
  0.000000000000000E+000
  0.000000000000000E+000
  0.000000000000000E+000
  0.000000000000000E+000
  0.000000000000000E+000
  0.000000000000000E+000
  0.000000000000000E+000
  0.000000000000000E+000
  0.000000000000000E+000
  0.000000000000000E+000
  0.000000000000000E+000
  0.000000000000000E+000
  0.000000000000000E+000
  0.000000000000000E+000
  0.000000000000000E+000
  0.000000000000000E+000
  0.000000000000000E+000
  0.000000000000000E+000
  0.000000000000000E+000
  0.000000000000000E+000
  0.000000000000000E+000
  0.000000000000000E+000
  0.000000000000000E+000
  0.000000000000000E+000
  0.000000000000000E+000
  0.000000000000000E+000
  0.000000000000000E+000
  0.000000000000000E+000
  0.000000000000000E+000
  0.000000000000000E+000
  0.000000000000000E+000
  0.000000000000000E+000
  0.000000000000000E+000
  0.000000000000000E+000
  0.000000000000000E+000
  0.000000000000000E+000
  0.000000000000000E+000
  0.000000000000000E+000
  0.000000000000000E+000
  0.000000000000000E+000
  0.000000000000000E+000
  0.000000000000000E+000
  0.000000000000000E+000
  0.000000000000000E+000
  0.000000000000000E+000
  0.000000000000000E+000
  0.000000000000000E+000
  0.000000000000000E+000
  0.000000000000000E+000
  0.000000000000000E+000
  0.000000000000000E+000
  0.000000000000000E+000
  0.000000000000000E+000
  0.000000000000000E+000
  0.000000000000000E+000
  0.000000000000000E+000
  0.000000000000000E+000
  0.000000000000000E+000
  0.000000000000000E+000
  0.000000000000000E+000
  0.000000000000000E+000
  0.000000000000000E+000
  0.000000000000000E+000
  0.000000000000000E+000
  0.000000000000000E+000
  0.000000000000000E+000
  0.000000000000000E+000
  0.000000000000000E+000
  0.000000000000000E+000
  0.000000000000000E+000
  0.000000000000000E+000
  0.000000000000000E+000
  0.000000000000000E+000
  0.000000000000000E+000
  0.000000000000000E+000
  0.000000000000000E+000
  0.000000000000000E+000
  0.000000000000000E+000
  0.000000000000000E+000
  0.000000000000000E+000
  0.000000000000000E+000
  0.000000000000000E+000
  0.000000000000000E+000
  0.000000000000000E+000
  0.000000000000000E+000
  0.000000000000000E+000
  0.000000000000000E+000
  0.000000000000000E+000
  0.000000000000000E+000
  0.000000000000000E+000
  0.000000000000000E+000
  0.000000000000000E+000
  0.000000000000000E+000
  0.000000000000000E+000
  0.000000000000000E+000
  0.000000000000000E+000
  0.000000000000000E+000
  0.000000000000000E+000
  0.000000000000000E+000
  0.000000000000000E+000
  0.000000000000000E+000
  0.000000000000000E+000
  0.000000000000000E+000
  0.000000000000000E+000
  0.000000000000000E+000
  0.000000000000000E+000
  0.000000000000000E+000
  0.000000000000000E+000
  0.000000000000000E+000
  0.000000000000000E+000
  0.000000000000000E+000
  0.000000000000000E+000
  0.000000000000000E+000
  0.000000000000000E+000
  0.000000000000000E+000
  0.000000000000000E+000
  0.000000000000000E+000
  0.000000000000000E+000
  0.000000000000000E+000
  0.000000000000000E+000
  0.000000000000000E+000
  0.000000000000000E+000
  0.000000000000000E+000
  0.000000000000000E+000
  0.000000000000000E+000
  0.000000000000000E+000
  0.000000000000000E+000
  0.000000000000000E+000
  0.000000000000000E+000
  0.000000000000000E+000
  0.000000000000000E+000
  0.000000000000000E+000
  0.000000000000000E+000
  0.000000000000000E+000
  0.000000000000000E+000
  0.000000000000000E+000
  0.000000000000000E+000
  0.000000000000000E+000
  0.000000000000000E+000
  0.000000000000000E+000
  0.000000000000000E+000
  0.000000000000000E+000
  0.000000000000000E+000
  0.000000000000000E+000
  0.000000000000000E+000
  0.000000000000000E+000
  0.000000000000000E+000
  0.000000000000000E+000
  0.000000000000000E+000
  0.000000000000000E+000
  0.000000000000000E+000
  0.000000000000000E+000
  0.000000000000000E+000
  0.000000000000000E+000
  0.000000000000000E+000
  0.000000000000000E+000
  0.000000000000000E+000
  0.000000000000000E+000
  0.000000000000000E+000
  0.000000000000000E+000
  0.000000000000000E+000
  0.000000000000000E+000
  0.000000000000000E+000
  0.000000000000000E+000
  0.000000000000000E+000
  0.000000000000000E+000
  0.000000000000000E+000
  0.000000000000000E+000
  0.000000000000000E+000
  0.000000000000000E+000
  0.000000000000000E+000
  0.000000000000000E+000
  0.000000000000000E+000
  0.000000000000000E+000
  0.000000000000000E+000
  0.000000000000000E+000
  0.000000000000000E+000
  0.000000000000000E+000
  0.000000000000000E+000
  0.000000000000000E+000
  0.000000000000000E+000
  0.000000000000000E+000
  0.000000000000000E+000
  0.000000000000000E+000
  0.000000000000000E+000
  0.000000000000000E+000
  0.000000000000000E+000
  0.000000000000000E+000
  0.000000000000000E+000
  0.000000000000000E+000
  0.000000000000000E+000
  0.000000000000000E+000
  0.000000000000000E+000
  0.000000000000000E+000
  0.000000000000000E+000
  0.000000000000000E+000
  0.000000000000000E+000
  0.000000000000000E+000
  0.000000000000000E+000
  0.000000000000000E+000
  0.000000000000000E+000
  0.000000000000000E+000
  0.000000000000000E+000
  0.000000000000000E+000
  0.000000000000000E+000
  0.000000000000000E+000
  0.000000000000000E+000
  0.000000000000000E+000
  0.000000000000000E+000
  0.000000000000000E+000
  0.000000000000000E+000
  0.000000000000000E+000
  0.000000000000000E+000
  0.000000000000000E+000
  0.000000000000000E+000
  0.000000000000000E+000
  0.000000000000000E+000
  0.000000000000000E+000
  0.000000000000000E+000
  0.000000000000000E+000
  0.000000000000000E+000
  0.000000000000000E+000
  0.000000000000000E+000
  0.000000000000000E+000
  0.000000000000000E+000
  0.000000000000000E+000
  0.000000000000000E+000
  0.000000000000000E+000
  0.000000000000000E+000
  0.000000000000000E+000
  0.000000000000000E+000
  0.000000000000000E+000
  0.000000000000000E+000
  0.000000000000000E+000
  0.000000000000000E+000
  0.000000000000000E+000
  0.000000000000000E+000
  0.000000000000000E+000
  0.000000000000000E+000
  0.000000000000000E+000
  0.000000000000000E+000
  0.000000000000000E+000
  0.000000000000000E+000
  0.000000000000000E+000
  0.000000000000000E+000
  0.000000000000000E+000
  0.000000000000000E+000
  0.000000000000000E+000
  0.000000000000000E+000
  0.000000000000000E+000
  0.000000000000000E+000
  0.000000000000000E+000
  0.000000000000000E+000
  0.000000000000000E+000
  0.000000000000000E+000
  0.000000000000000E+000
  0.000000000000000E+000
  0.000000000000000E+000
  0.000000000000000E+000
  0.000000000000000E+000
  0.000000000000000E+000
  0.000000000000000E+000
  0.000000000000000E+000
  0.000000000000000E+000
  0.000000000000000E+000
  0.000000000000000E+000
  0.000000000000000E+000
  0.000000000000000E+000
  0.000000000000000E+000
  0.000000000000000E+000
  0.000000000000000E+000
  0.000000000000000E+000
  0.000000000000000E+000
  0.000000000000000E+000
  0.000000000000000E+000
  0.000000000000000E+000
  0.000000000000000E+000
  0.000000000000000E+000
  0.000000000000000E+000
  0.000000000000000E+000
  0.000000000000000E+000
  0.000000000000000E+000
  0.000000000000000E+000
  0.000000000000000E+000
  0.000000000000000E+000
  0.000000000000000E+000
  0.000000000000000E+000
  0.000000000000000E+000
  0.000000000000000E+000
  0.000000000000000E+000
  0.000000000000000E+000
  0.000000000000000E+000
  0.000000000000000E+000
  0.000000000000000E+000
  0.000000000000000E+000
  0.000000000000000E+000
  0.000000000000000E+000
  0.000000000000000E+000
  0.000000000000000E+000
  0.000000000000000E+000
  0.000000000000000E+000
  0.000000000000000E+000
  0.000000000000000E+000
  0.000000000000000E+000
  0.000000000000000E+000
  0.000000000000000E+000
  0.000000000000000E+000
  0.000000000000000E+000
  0.000000000000000E+000
  0.000000000000000E+000
  0.000000000000000E+000
  0.000000000000000E+000
  0.000000000000000E+000
  0.000000000000000E+000
  0.000000000000000E+000
  0.000000000000000E+000
  0.000000000000000E+000
  0.000000000000000E+000
  0.000000000000000E+000
  0.000000000000000E+000
  0.000000000000000E+000
  0.000000000000000E+000
  0.000000000000000E+000
  0.000000000000000E+000
  0.000000000000000E+000
  0.000000000000000E+000
  0.000000000000000E+000
  0.000000000000000E+000
  0.000000000000000E+000
  0.000000000000000E+000
  0.000000000000000E+000
  0.000000000000000E+000
  0.000000000000000E+000
  0.000000000000000E+000
  0.000000000000000E+000
  0.000000000000000E+000
  0.000000000000000E+000
  0.000000000000000E+000
  0.000000000000000E+000
  0.000000000000000E+000
  0.000000000000000E+000
  0.000000000000000E+000
  0.000000000000000E+000
  0.000000000000000E+000
  0.000000000000000E+000
  0.000000000000000E+000
  0.000000000000000E+000
  0.000000000000000E+000
  0.000000000000000E+000
  0.000000000000000E+000
  0.000000000000000E+000
  0.000000000000000E+000
  0.000000000000000E+000
  0.000000000000000E+000
  0.000000000000000E+000
  0.000000000000000E+000
  0.000000000000000E+000
  0.000000000000000E+000
  0.000000000000000E+000
  0.000000000000000E+000
  0.000000000000000E+000
  0.000000000000000E+000
  0.000000000000000E+000
  0.000000000000000E+000
  0.000000000000000E+000
  0.000000000000000E+000
  0.000000000000000E+000
  0.000000000000000E+000
  0.000000000000000E+000
  0.000000000000000E+000
  0.000000000000000E+000
  0.000000000000000E+000
  0.000000000000000E+000
  0.000000000000000E+000
  0.000000000000000E+000
  0.000000000000000E+000
  0.000000000000000E+000
  0.000000000000000E+000
  0.000000000000000E+000
  0.000000000000000E+000
  0.000000000000000E+000
  0.000000000000000E+000
  0.000000000000000E+000
  0.000000000000000E+000
  0.000000000000000E+000
  0.000000000000000E+000
  0.000000000000000E+000
  0.000000000000000E+000
  0.000000000000000E+000
  0.000000000000000E+000
  0.000000000000000E+000
  0.000000000000000E+000
  0.000000000000000E+000
  0.000000000000000E+000
  0.000000000000000E+000
  0.000000000000000E+000
  0.000000000000000E+000
  0.000000000000000E+000
  0.000000000000000E+000
  0.000000000000000E+000
  0.000000000000000E+000
  0.000000000000000E+000
  0.000000000000000E+000
  0.000000000000000E+000
  0.000000000000000E+000
  0.000000000000000E+000
  0.000000000000000E+000
  0.000000000000000E+000
  0.000000000000000E+000
  0.000000000000000E+000
  0.000000000000000E+000
  0.000000000000000E+000
  0.000000000000000E+000
  0.000000000000000E+000
  0.000000000000000E+000
  0.000000000000000E+000
  0.000000000000000E+000
  0.000000000000000E+000
  0.000000000000000E+000
  0.000000000000000E+000
  0.000000000000000E+000
  0.000000000000000E+000
  0.000000000000000E+000
  0.000000000000000E+000
  0.000000000000000E+000
  0.000000000000000E+000
  0.000000000000000E+000
  0.000000000000000E+000
  0.000000000000000E+000
  0.000000000000000E+000
  0.000000000000000E+000
  0.000000000000000E+000
  0.000000000000000E+000
  0.000000000000000E+000
  0.000000000000000E+000
  0.000000000000000E+000
  0.000000000000000E+000
  0.000000000000000E+000
  0.000000000000000E+000
  0.000000000000000E+000
  0.000000000000000E+000
  0.000000000000000E+000
  0.000000000000000E+000
  0.000000000000000E+000
  0.000000000000000E+000
  0.000000000000000E+000
  0.000000000000000E+000
  0.000000000000000E+000
  0.000000000000000E+000
  0.000000000000000E+000
  0.000000000000000E+000
  0.000000000000000E+000
  0.000000000000000E+000
  0.000000000000000E+000
  0.000000000000000E+000
  0.000000000000000E+000
  0.000000000000000E+000
  0.000000000000000E+000
  0.000000000000000E+000
  0.000000000000000E+000
  0.000000000000000E+000
  0.000000000000000E+000
  0.000000000000000E+000
  0.000000000000000E+000
  0.000000000000000E+000
  0.000000000000000E+000
  0.000000000000000E+000
  0.000000000000000E+000
  0.000000000000000E+000
  0.000000000000000E+000
  0.000000000000000E+000
  0.000000000000000E+000
  0.000000000000000E+000
  0.000000000000000E+000
  0.000000000000000E+000
  0.000000000000000E+000
  0.000000000000000E+000
  0.000000000000000E+000
  0.000000000000000E+000
  0.000000000000000E+000
  0.000000000000000E+000
  0.000000000000000E+000
  0.000000000000000E+000
  0.000000000000000E+000
  0.000000000000000E+000
  0.000000000000000E+000
  0.000000000000000E+000
  0.000000000000000E+000
  0.000000000000000E+000
  0.000000000000000E+000
  0.000000000000000E+000
  0.000000000000000E+000
  0.000000000000000E+000
  0.000000000000000E+000
  0.000000000000000E+000
  0.000000000000000E+000
  0.000000000000000E+000
  0.000000000000000E+000
  0.000000000000000E+000
  0.000000000000000E+000
  0.000000000000000E+000
  0.000000000000000E+000
  0.000000000000000E+000
  0.000000000000000E+000
  0.000000000000000E+000
  0.000000000000000E+000
  0.000000000000000E+000
  0.000000000000000E+000
  0.000000000000000E+000
  0.000000000000000E+000
  0.000000000000000E+000
  0.000000000000000E+000
  0.000000000000000E+000
  0.000000000000000E+000
  0.000000000000000E+000
  0.000000000000000E+000
  0.000000000000000E+000
  0.000000000000000E+000
  0.000000000000000E+000
  0.000000000000000E+000
  0.000000000000000E+000
  0.000000000000000E+000
  0.000000000000000E+000
  0.000000000000000E+000
  0.000000000000000E+000
  0.000000000000000E+000
  0.000000000000000E+000
  0.000000000000000E+000
  0.000000000000000E+000
  0.000000000000000E+000
  0.000000000000000E+000
  0.000000000000000E+000
  0.000000000000000E+000
  0.000000000000000E+000
  0.000000000000000E+000
  0.000000000000000E+000
  0.000000000000000E+000
  0.000000000000000E+000
  0.000000000000000E+000
  0.000000000000000E+000
  0.000000000000000E+000
  0.000000000000000E+000
  0.000000000000000E+000
  0.000000000000000E+000
  0.000000000000000E+000
  0.000000000000000E+000
  0.000000000000000E+000
  0.000000000000000E+000
  0.000000000000000E+000
  0.000000000000000E+000
  0.000000000000000E+000
  0.000000000000000E+000
  0.000000000000000E+000
  0.000000000000000E+000
  0.000000000000000E+000
  0.000000000000000E+000
  0.000000000000000E+000
  0.000000000000000E+000
  0.000000000000000E+000
  0.000000000000000E+000
  0.000000000000000E+000
  0.000000000000000E+000
  0.000000000000000E+000
  0.000000000000000E+000
  0.000000000000000E+000
  0.000000000000000E+000
  0.000000000000000E+000
  0.000000000000000E+000
  0.000000000000000E+000
  0.000000000000000E+000
  0.000000000000000E+000
  0.000000000000000E+000
  0.000000000000000E+000
  0.000000000000000E+000
  0.000000000000000E+000
  0.000000000000000E+000
  0.000000000000000E+000
  0.000000000000000E+000
  0.000000000000000E+000
  0.000000000000000E+000
  0.000000000000000E+000
  0.000000000000000E+000
  0.000000000000000E+000
  0.000000000000000E+000
  0.000000000000000E+000
  0.000000000000000E+000
  0.000000000000000E+000
  0.000000000000000E+000
  0.000000000000000E+000
  0.000000000000000E+000
  0.000000000000000E+000
  0.000000000000000E+000
  0.000000000000000E+000
  0.000000000000000E+000
  0.000000000000000E+000
  0.000000000000000E+000
  0.000000000000000E+000
  0.000000000000000E+000
  0.000000000000000E+000
  0.000000000000000E+000
  0.000000000000000E+000
  0.000000000000000E+000
  0.000000000000000E+000
  0.000000000000000E+000
  0.000000000000000E+000
  0.000000000000000E+000
  0.000000000000000E+000
  0.000000000000000E+000
  0.000000000000000E+000
  0.000000000000000E+000
  0.000000000000000E+000
  0.000000000000000E+000
  0.000000000000000E+000
  0.000000000000000E+000
  0.000000000000000E+000
  0.000000000000000E+000
  0.000000000000000E+000
  0.000000000000000E+000
  0.000000000000000E+000
  0.000000000000000E+000
  0.000000000000000E+000
  0.000000000000000E+000
  0.000000000000000E+000
  0.000000000000000E+000
  0.000000000000000E+000
  0.000000000000000E+000
  0.000000000000000E+000
  0.000000000000000E+000
  0.000000000000000E+000
  0.000000000000000E+000
  0.000000000000000E+000
  0.000000000000000E+000
  0.000000000000000E+000
  0.000000000000000E+000
  0.000000000000000E+000
  0.000000000000000E+000
  0.000000000000000E+000
  0.000000000000000E+000
  0.000000000000000E+000
  0.000000000000000E+000
  0.000000000000000E+000
  0.000000000000000E+000
  0.000000000000000E+000
  0.000000000000000E+000
  0.000000000000000E+000
  0.000000000000000E+000
  0.000000000000000E+000
  0.000000000000000E+000
  0.000000000000000E+000
  0.000000000000000E+000
  0.000000000000000E+000
  0.000000000000000E+000
  0.000000000000000E+000
  0.000000000000000E+000
  0.000000000000000E+000
  0.000000000000000E+000
  0.000000000000000E+000
  0.000000000000000E+000
  0.000000000000000E+000
  0.000000000000000E+000
  0.000000000000000E+000
  0.000000000000000E+000
  0.000000000000000E+000
  0.000000000000000E+000
  0.000000000000000E+000
  0.000000000000000E+000
  0.000000000000000E+000
  0.000000000000000E+000
  0.000000000000000E+000
  0.000000000000000E+000
  0.000000000000000E+000
  0.000000000000000E+000
  0.000000000000000E+000
  0.000000000000000E+000
  0.000000000000000E+000
  0.000000000000000E+000
  0.000000000000000E+000
  0.000000000000000E+000
  0.000000000000000E+000
  0.000000000000000E+000
  0.000000000000000E+000
  0.000000000000000E+000
  0.000000000000000E+000
  0.000000000000000E+000
  0.000000000000000E+000
  0.000000000000000E+000
  0.000000000000000E+000
  0.000000000000000E+000
  0.000000000000000E+000
  0.000000000000000E+000
  0.000000000000000E+000
  0.000000000000000E+000
  0.000000000000000E+000
  0.000000000000000E+000
  0.000000000000000E+000
  0.000000000000000E+000
  0.000000000000000E+000
  0.000000000000000E+000
  0.000000000000000E+000
  0.000000000000000E+000
  0.000000000000000E+000
  0.000000000000000E+000
  0.000000000000000E+000
  0.000000000000000E+000
  0.000000000000000E+000
  0.000000000000000E+000
  0.000000000000000E+000
  0.000000000000000E+000
  0.000000000000000E+000
  0.000000000000000E+000
  0.000000000000000E+000
  0.000000000000000E+000
  0.000000000000000E+000
  0.000000000000000E+000
  0.000000000000000E+000
  0.000000000000000E+000
  0.000000000000000E+000
  0.000000000000000E+000
  0.000000000000000E+000
  0.000000000000000E+000
  0.000000000000000E+000
  0.000000000000000E+000
  0.000000000000000E+000
  0.000000000000000E+000
  0.000000000000000E+000
  0.000000000000000E+000
  0.000000000000000E+000
  0.000000000000000E+000
  0.000000000000000E+000
  0.000000000000000E+000
  0.000000000000000E+000
  0.000000000000000E+000
  0.000000000000000E+000
  0.000000000000000E+000
  0.000000000000000E+000
  0.000000000000000E+000
  0.000000000000000E+000
  0.000000000000000E+000
  0.000000000000000E+000
  0.000000000000000E+000
  0.000000000000000E+000
  0.000000000000000E+000
  0.000000000000000E+000
  0.000000000000000E+000
  0.000000000000000E+000
  0.000000000000000E+000
  0.000000000000000E+000
  0.000000000000000E+000
  0.000000000000000E+000
  0.000000000000000E+000
  0.000000000000000E+000
  0.000000000000000E+000
  0.000000000000000E+000
  0.000000000000000E+000
  0.000000000000000E+000
  0.000000000000000E+000
  0.000000000000000E+000
  0.000000000000000E+000
  0.000000000000000E+000
  0.000000000000000E+000
  0.000000000000000E+000
  0.000000000000000E+000
  0.000000000000000E+000
  0.000000000000000E+000
  0.000000000000000E+000
  0.000000000000000E+000
  0.000000000000000E+000
  0.000000000000000E+000
  0.000000000000000E+000
  0.000000000000000E+000
  0.000000000000000E+000
  0.000000000000000E+000
  0.000000000000000E+000
  0.000000000000000E+000
  0.000000000000000E+000
  0.000000000000000E+000
  0.000000000000000E+000
  0.000000000000000E+000
  0.000000000000000E+000
  0.000000000000000E+000
  0.000000000000000E+000
  0.000000000000000E+000
  0.000000000000000E+000
  0.000000000000000E+000
  0.000000000000000E+000
  0.000000000000000E+000
  0.000000000000000E+000
  0.000000000000000E+000
  0.000000000000000E+000
  0.000000000000000E+000
  0.000000000000000E+000
  0.000000000000000E+000
  0.000000000000000E+000
  0.000000000000000E+000
  0.000000000000000E+000
  0.000000000000000E+000
  0.000000000000000E+000
  0.000000000000000E+000
  0.000000000000000E+000
  0.000000000000000E+000
  0.000000000000000E+000
  0.000000000000000E+000
  0.000000000000000E+000
  0.000000000000000E+000
  0.000000000000000E+000
  0.000000000000000E+000
  0.000000000000000E+000
  0.000000000000000E+000
  0.000000000000000E+000
  0.000000000000000E+000
  0.000000000000000E+000
  0.000000000000000E+000
  0.000000000000000E+000
  0.000000000000000E+000
  0.000000000000000E+000
  0.000000000000000E+000
  0.000000000000000E+000
  0.000000000000000E+000
  0.000000000000000E+000
  0.000000000000000E+000
  0.000000000000000E+000
  0.000000000000000E+000
  0.000000000000000E+000
  0.000000000000000E+000
  0.000000000000000E+000
  0.000000000000000E+000
  0.000000000000000E+000
  0.000000000000000E+000
  0.000000000000000E+000
  0.000000000000000E+000
  0.000000000000000E+000
  0.000000000000000E+000
  0.000000000000000E+000
  0.000000000000000E+000
  0.000000000000000E+000
  0.000000000000000E+000
  0.000000000000000E+000
  0.000000000000000E+000
  0.000000000000000E+000
  0.000000000000000E+000
  0.000000000000000E+000
  0.000000000000000E+000
  0.000000000000000E+000
  0.000000000000000E+000
  0.000000000000000E+000
  0.000000000000000E+000
  0.000000000000000E+000
  0.000000000000000E+000
  0.000000000000000E+000
  0.000000000000000E+000
  0.000000000000000E+000
  0.000000000000000E+000
  0.000000000000000E+000
  0.000000000000000E+000
  0.000000000000000E+000
  0.000000000000000E+000
  0.000000000000000E+000
  0.000000000000000E+000
  0.000000000000000E+000
  0.000000000000000E+000
  0.000000000000000E+000
  0.000000000000000E+000
  0.000000000000000E+000
  0.000000000000000E+000
  0.000000000000000E+000
  0.000000000000000E+000
  0.000000000000000E+000
  0.000000000000000E+000
  0.000000000000000E+000
  0.000000000000000E+000
  0.000000000000000E+000
  0.000000000000000E+000
  0.000000000000000E+000
  0.000000000000000E+000
  0.000000000000000E+000
  0.000000000000000E+000
  0.000000000000000E+000
  0.000000000000000E+000
  0.000000000000000E+000
  0.000000000000000E+000
  0.000000000000000E+000
  0.000000000000000E+000
  0.000000000000000E+000
  0.000000000000000E+000
  0.000000000000000E+000
  0.000000000000000E+000
  0.000000000000000E+000
  0.000000000000000E+000
  0.000000000000000E+000
  0.000000000000000E+000
  0.000000000000000E+000
  0.000000000000000E+000
  0.000000000000000E+000
  0.000000000000000E+000
  0.000000000000000E+000
  0.000000000000000E+000
  0.000000000000000E+000
  0.000000000000000E+000
  0.000000000000000E+000
  0.000000000000000E+000
  0.000000000000000E+000
  0.000000000000000E+000
  0.000000000000000E+000
  0.000000000000000E+000
  0.000000000000000E+000
  0.000000000000000E+000
  0.000000000000000E+000
  0.000000000000000E+000
  0.000000000000000E+000
  0.000000000000000E+000
  0.000000000000000E+000
  0.000000000000000E+000
  0.000000000000000E+000
  0.000000000000000E+000
  0.000000000000000E+000
  0.000000000000000E+000
  0.000000000000000E+000
  0.000000000000000E+000
  0.000000000000000E+000
  0.000000000000000E+000
  0.000000000000000E+000
  0.000000000000000E+000
  0.000000000000000E+000
  0.000000000000000E+000
  0.000000000000000E+000
  0.000000000000000E+000
  0.000000000000000E+000
  0.000000000000000E+000
  0.000000000000000E+000
  0.000000000000000E+000
  0.000000000000000E+000
  0.000000000000000E+000
  0.000000000000000E+000
  0.000000000000000E+000
  0.000000000000000E+000
  0.000000000000000E+000
  0.000000000000000E+000
  0.000000000000000E+000
  0.000000000000000E+000
  0.000000000000000E+000
  0.000000000000000E+000
  0.000000000000000E+000
  0.000000000000000E+000
  0.000000000000000E+000
  0.000000000000000E+000
  0.000000000000000E+000
  0.000000000000000E+000
  0.000000000000000E+000
  0.000000000000000E+000
  0.000000000000000E+000
  0.000000000000000E+000
  0.000000000000000E+000
  0.000000000000000E+000
  0.000000000000000E+000
  0.000000000000000E+000
  0.000000000000000E+000
  0.000000000000000E+000
  0.000000000000000E+000
  0.000000000000000E+000
  0.000000000000000E+000
  0.000000000000000E+000
  0.000000000000000E+000
  0.000000000000000E+000
  0.000000000000000E+000
  0.000000000000000E+000
  0.000000000000000E+000
  0.000000000000000E+000
  0.000000000000000E+000
  0.000000000000000E+000
  0.000000000000000E+000
  0.000000000000000E+000
  0.000000000000000E+000
  0.000000000000000E+000
  0.000000000000000E+000
  0.000000000000000E+000
  0.000000000000000E+000
  0.000000000000000E+000
  0.000000000000000E+000
  0.000000000000000E+000
  0.000000000000000E+000
  0.000000000000000E+000
  0.000000000000000E+000
  0.000000000000000E+000
  0.000000000000000E+000
  0.000000000000000E+000
  0.000000000000000E+000
  0.000000000000000E+000
  0.000000000000000E+000
  0.000000000000000E+000
  0.000000000000000E+000
  0.000000000000000E+000
  0.000000000000000E+000
  0.000000000000000E+000
  0.000000000000000E+000
  0.000000000000000E+000
  0.000000000000000E+000
  0.000000000000000E+000
  0.000000000000000E+000
  0.000000000000000E+000
  0.000000000000000E+000
  0.000000000000000E+000
  0.000000000000000E+000
  0.000000000000000E+000
  0.000000000000000E+000
  0.000000000000000E+000
  0.000000000000000E+000
  0.000000000000000E+000
  0.000000000000000E+000
  0.000000000000000E+000
  0.000000000000000E+000
  0.000000000000000E+000
  0.000000000000000E+000
  0.000000000000000E+000
  0.000000000000000E+000
  0.000000000000000E+000
  0.000000000000000E+000
  0.000000000000000E+000
  0.000000000000000E+000
  0.000000000000000E+000
  0.000000000000000E+000
  0.000000000000000E+000
  0.000000000000000E+000
  0.000000000000000E+000
  0.000000000000000E+000
  0.000000000000000E+000
  0.000000000000000E+000
  0.000000000000000E+000
  0.000000000000000E+000
  0.000000000000000E+000
  0.000000000000000E+000
  0.000000000000000E+000
  0.000000000000000E+000
  0.000000000000000E+000
  0.000000000000000E+000
  0.000000000000000E+000
  0.000000000000000E+000
  0.000000000000000E+000
  0.000000000000000E+000
  0.000000000000000E+000
  0.000000000000000E+000
  0.000000000000000E+000
  0.000000000000000E+000
  0.000000000000000E+000
  0.000000000000000E+000
  0.000000000000000E+000
  0.000000000000000E+000
  0.000000000000000E+000
  0.000000000000000E+000
  0.000000000000000E+000
  0.000000000000000E+000
  0.000000000000000E+000
  0.000000000000000E+000
  0.000000000000000E+000
  0.000000000000000E+000
  0.000000000000000E+000
  0.000000000000000E+000
  0.000000000000000E+000
  0.000000000000000E+000
  0.000000000000000E+000
  0.000000000000000E+000
  0.000000000000000E+000
  0.000000000000000E+000
  0.000000000000000E+000
  0.000000000000000E+000
  0.000000000000000E+000
  0.000000000000000E+000
  0.000000000000000E+000
  0.000000000000000E+000
  0.000000000000000E+000
  0.000000000000000E+000
  0.000000000000000E+000
  0.000000000000000E+000
  0.000000000000000E+000
  0.000000000000000E+000
  0.000000000000000E+000
  0.000000000000000E+000
  0.000000000000000E+000
  0.000000000000000E+000
  0.000000000000000E+000
  0.000000000000000E+000
  0.000000000000000E+000
  0.000000000000000E+000
  0.000000000000000E+000
  0.000000000000000E+000
  0.000000000000000E+000
  0.000000000000000E+000
  0.000000000000000E+000
  0.000000000000000E+000
  0.000000000000000E+000
  0.000000000000000E+000
  0.000000000000000E+000
  0.000000000000000E+000
  0.000000000000000E+000
  0.000000000000000E+000
  0.000000000000000E+000
  0.000000000000000E+000
  0.000000000000000E+000
  0.000000000000000E+000
  0.000000000000000E+000
  0.000000000000000E+000
  0.000000000000000E+000
  0.000000000000000E+000
  0.000000000000000E+000
  0.000000000000000E+000
  0.000000000000000E+000
  0.000000000000000E+000
  0.000000000000000E+000
  0.000000000000000E+000
  0.000000000000000E+000
  0.000000000000000E+000
  0.000000000000000E+000
  0.000000000000000E+000
  0.000000000000000E+000
  0.000000000000000E+000
  0.000000000000000E+000
  0.000000000000000E+000
  0.000000000000000E+000
  0.000000000000000E+000
  0.000000000000000E+000
  0.000000000000000E+000
  0.000000000000000E+000
  0.000000000000000E+000
  0.000000000000000E+000
  0.000000000000000E+000
  0.000000000000000E+000
  0.000000000000000E+000
  0.000000000000000E+000
  0.000000000000000E+000
  0.000000000000000E+000
  0.000000000000000E+000
  0.000000000000000E+000
  0.000000000000000E+000
  0.000000000000000E+000
  0.000000000000000E+000
  0.000000000000000E+000
  0.000000000000000E+000
  0.000000000000000E+000
  0.000000000000000E+000
  0.000000000000000E+000
  0.000000000000000E+000
  0.000000000000000E+000
  0.000000000000000E+000
  0.000000000000000E+000
  0.000000000000000E+000
  0.000000000000000E+000
  0.000000000000000E+000
  0.000000000000000E+000
  0.000000000000000E+000
  0.000000000000000E+000
  0.000000000000000E+000
  0.000000000000000E+000
  0.000000000000000E+000
  0.000000000000000E+000
  0.000000000000000E+000
  0.000000000000000E+000
  0.000000000000000E+000
  0.000000000000000E+000
  0.000000000000000E+000
  0.000000000000000E+000
  0.000000000000000E+000
  0.000000000000000E+000
  0.000000000000000E+000
  0.000000000000000E+000
  0.000000000000000E+000
  0.000000000000000E+000
  0.000000000000000E+000
  0.000000000000000E+000
  0.000000000000000E+000
  0.000000000000000E+000
  0.000000000000000E+000
  0.000000000000000E+000
  0.000000000000000E+000
  0.000000000000000E+000
  0.000000000000000E+000
  0.000000000000000E+000
  0.000000000000000E+000
  0.000000000000000E+000
  0.000000000000000E+000
  0.000000000000000E+000
  0.000000000000000E+000
  0.000000000000000E+000
  0.000000000000000E+000
  0.000000000000000E+000
  0.000000000000000E+000
  0.000000000000000E+000
  0.000000000000000E+000
  0.000000000000000E+000
  0.000000000000000E+000
  0.000000000000000E+000
  0.000000000000000E+000
  0.000000000000000E+000
  0.000000000000000E+000
  0.000000000000000E+000
  0.000000000000000E+000
  0.000000000000000E+000
  0.000000000000000E+000
  0.000000000000000E+000
  0.000000000000000E+000
  0.000000000000000E+000
  0.000000000000000E+000
  0.000000000000000E+000
  0.000000000000000E+000
  0.000000000000000E+000
  0.000000000000000E+000
  0.000000000000000E+000
  0.000000000000000E+000
  0.000000000000000E+000
  0.000000000000000E+000
  0.000000000000000E+000
  0.000000000000000E+000
  0.000000000000000E+000
  0.000000000000000E+000
  0.000000000000000E+000
  0.000000000000000E+000
  0.000000000000000E+000
  0.000000000000000E+000
  0.000000000000000E+000
  0.000000000000000E+000
  0.000000000000000E+000
  0.000000000000000E+000
  0.000000000000000E+000
  0.000000000000000E+000
  0.000000000000000E+000
  0.000000000000000E+000
  0.000000000000000E+000
  0.000000000000000E+000
  0.000000000000000E+000
  0.000000000000000E+000
  0.000000000000000E+000
  0.000000000000000E+000
  0.000000000000000E+000
  0.000000000000000E+000
  0.000000000000000E+000
  0.000000000000000E+000
  0.000000000000000E+000
  0.000000000000000E+000
  0.000000000000000E+000
  0.000000000000000E+000
  0.000000000000000E+000
  0.000000000000000E+000
  0.000000000000000E+000
  0.000000000000000E+000
  0.000000000000000E+000
  0.000000000000000E+000
  0.000000000000000E+000
  0.000000000000000E+000
  0.000000000000000E+000
  0.000000000000000E+000
  0.000000000000000E+000
  0.000000000000000E+000
  0.000000000000000E+000
  0.000000000000000E+000
  0.000000000000000E+000
  0.000000000000000E+000
  0.000000000000000E+000
  0.000000000000000E+000
  0.000000000000000E+000
  0.000000000000000E+000
  0.000000000000000E+000
  0.000000000000000E+000
  0.000000000000000E+000
  0.000000000000000E+000
  0.000000000000000E+000
  0.000000000000000E+000
  0.000000000000000E+000
  0.000000000000000E+000
  0.000000000000000E+000
  0.000000000000000E+000
  0.000000000000000E+000
  0.000000000000000E+000
  0.000000000000000E+000
  0.000000000000000E+000
  0.000000000000000E+000
  0.000000000000000E+000
  0.000000000000000E+000
  0.000000000000000E+000
  0.000000000000000E+000
  0.000000000000000E+000
  0.000000000000000E+000
  0.000000000000000E+000
  0.000000000000000E+000
  0.000000000000000E+000
  0.000000000000000E+000
  0.000000000000000E+000
  0.000000000000000E+000
  0.000000000000000E+000
  0.000000000000000E+000
  0.000000000000000E+000
  0.000000000000000E+000
  0.000000000000000E+000
  0.000000000000000E+000
  0.000000000000000E+000
  0.000000000000000E+000
  0.000000000000000E+000
  0.000000000000000E+000
  0.000000000000000E+000
  0.000000000000000E+000
  0.000000000000000E+000
  0.000000000000000E+000
  0.000000000000000E+000
  0.000000000000000E+000
  0.000000000000000E+000
  0.000000000000000E+000
  0.000000000000000E+000
  0.000000000000000E+000
  0.000000000000000E+000
  0.000000000000000E+000
  0.000000000000000E+000
  0.000000000000000E+000
  0.000000000000000E+000
  0.000000000000000E+000
  0.000000000000000E+000
  0.000000000000000E+000
  0.000000000000000E+000
  0.000000000000000E+000
  0.000000000000000E+000
  0.000000000000000E+000
  0.000000000000000E+000
  0.000000000000000E+000
  0.000000000000000E+000
  0.000000000000000E+000
  0.000000000000000E+000
  0.000000000000000E+000
  0.000000000000000E+000
  0.000000000000000E+000
  0.000000000000000E+000
  0.000000000000000E+000
  0.000000000000000E+000
  0.000000000000000E+000
  0.000000000000000E+000
  0.000000000000000E+000
  0.000000000000000E+000
  0.000000000000000E+000
  0.000000000000000E+000
  0.000000000000000E+000
  0.000000000000000E+000
  0.000000000000000E+000
  0.000000000000000E+000
  0.000000000000000E+000
  0.000000000000000E+000
  0.000000000000000E+000
  0.000000000000000E+000
  0.000000000000000E+000
  0.000000000000000E+000
  0.000000000000000E+000
  0.000000000000000E+000
  0.000000000000000E+000
  0.000000000000000E+000
  0.000000000000000E+000
  0.000000000000000E+000
  0.000000000000000E+000
  0.000000000000000E+000
  0.000000000000000E+000
  0.000000000000000E+000
  0.000000000000000E+000
  0.000000000000000E+000
  0.000000000000000E+000
  0.000000000000000E+000
  0.000000000000000E+000
  0.000000000000000E+000
  0.000000000000000E+000
  0.000000000000000E+000
  0.000000000000000E+000
  0.000000000000000E+000
  0.000000000000000E+000
  0.000000000000000E+000
  0.000000000000000E+000
  0.000000000000000E+000
  0.000000000000000E+000
  0.000000000000000E+000
  0.000000000000000E+000
  0.000000000000000E+000
  0.000000000000000E+000
  0.000000000000000E+000
  0.000000000000000E+000
  0.000000000000000E+000
  0.000000000000000E+000
  0.000000000000000E+000
  0.000000000000000E+000
  0.000000000000000E+000
  0.000000000000000E+000
  0.000000000000000E+000
  0.000000000000000E+000
  0.000000000000000E+000
  0.000000000000000E+000
  0.000000000000000E+000
  0.000000000000000E+000
  0.000000000000000E+000
  0.000000000000000E+000
  0.000000000000000E+000
  0.000000000000000E+000
  0.000000000000000E+000
  0.000000000000000E+000
  0.000000000000000E+000
  0.000000000000000E+000
  0.000000000000000E+000
  0.000000000000000E+000
  0.000000000000000E+000
  0.000000000000000E+000
  0.000000000000000E+000
  0.000000000000000E+000
  0.000000000000000E+000
  0.000000000000000E+000
  0.000000000000000E+000
  0.000000000000000E+000
  0.000000000000000E+000
  0.000000000000000E+000
  0.000000000000000E+000
  0.000000000000000E+000
  0.000000000000000E+000
  0.000000000000000E+000
  0.000000000000000E+000
  0.000000000000000E+000
  0.000000000000000E+000
  0.000000000000000E+000
  0.000000000000000E+000
  0.000000000000000E+000
  0.000000000000000E+000
  0.000000000000000E+000
  0.000000000000000E+000
  0.000000000000000E+000
  0.000000000000000E+000
  0.000000000000000E+000
  0.000000000000000E+000
  0.000000000000000E+000
  0.000000000000000E+000
  0.000000000000000E+000
  0.000000000000000E+000
  0.000000000000000E+000
  0.000000000000000E+000
  0.000000000000000E+000
  0.000000000000000E+000
  0.000000000000000E+000
  0.000000000000000E+000
  0.000000000000000E+000
  0.000000000000000E+000
  0.000000000000000E+000
  0.000000000000000E+000
  0.000000000000000E+000
  0.000000000000000E+000
  0.000000000000000E+000
  0.000000000000000E+000
  0.000000000000000E+000
  0.000000000000000E+000
  0.000000000000000E+000
  0.000000000000000E+000
  0.000000000000000E+000
  0.000000000000000E+000
  0.000000000000000E+000
  0.000000000000000E+000
  0.000000000000000E+000
  0.000000000000000E+000
  0.000000000000000E+000
  0.000000000000000E+000
  0.000000000000000E+000
  0.000000000000000E+000
  0.000000000000000E+000
  0.000000000000000E+000
  0.000000000000000E+000
  0.000000000000000E+000
  0.000000000000000E+000
  0.000000000000000E+000
  0.000000000000000E+000
  0.000000000000000E+000
  0.000000000000000E+000
  0.000000000000000E+000
  0.000000000000000E+000
  0.000000000000000E+000
  0.000000000000000E+000
  0.000000000000000E+000
  0.000000000000000E+000
  0.000000000000000E+000
  0.000000000000000E+000
  0.000000000000000E+000
  0.000000000000000E+000
  0.000000000000000E+000
  0.000000000000000E+000
  0.000000000000000E+000
  0.000000000000000E+000
  0.000000000000000E+000
  0.000000000000000E+000
  0.000000000000000E+000
  0.000000000000000E+000
  0.000000000000000E+000
  0.000000000000000E+000
  0.000000000000000E+000
  0.000000000000000E+000
  0.000000000000000E+000
  0.000000000000000E+000
  0.000000000000000E+000
  0.000000000000000E+000
  0.000000000000000E+000
  0.000000000000000E+000
  0.000000000000000E+000
  0.000000000000000E+000
  0.000000000000000E+000
  0.000000000000000E+000
  0.000000000000000E+000
  0.000000000000000E+000
  0.000000000000000E+000
  0.000000000000000E+000
  0.000000000000000E+000
  0.000000000000000E+000
  0.000000000000000E+000
  0.000000000000000E+000
  0.000000000000000E+000
  0.000000000000000E+000
  0.000000000000000E+000
  0.000000000000000E+000
  0.000000000000000E+000
  0.000000000000000E+000
  0.000000000000000E+000
  0.000000000000000E+000
  0.000000000000000E+000
  0.000000000000000E+000
  0.000000000000000E+000
  0.000000000000000E+000
  0.000000000000000E+000
  0.000000000000000E+000
  0.000000000000000E+000
  0.000000000000000E+000
  0.000000000000000E+000
  0.000000000000000E+000
  0.000000000000000E+000
  0.000000000000000E+000
  0.000000000000000E+000
  0.000000000000000E+000
  0.000000000000000E+000
  0.000000000000000E+000
  0.000000000000000E+000
  0.000000000000000E+000
  0.000000000000000E+000
  0.000000000000000E+000
  0.000000000000000E+000
  0.000000000000000E+000
  0.000000000000000E+000
  0.000000000000000E+000
  0.000000000000000E+000
  0.000000000000000E+000
  0.000000000000000E+000
  0.000000000000000E+000
  0.000000000000000E+000
  0.000000000000000E+000
  0.000000000000000E+000
  0.000000000000000E+000
  0.000000000000000E+000
  0.000000000000000E+000
  0.000000000000000E+000
  0.000000000000000E+000
  0.000000000000000E+000
  0.000000000000000E+000
  0.000000000000000E+000
  0.000000000000000E+000
  0.000000000000000E+000
  0.000000000000000E+000
  0.000000000000000E+000
  0.000000000000000E+000
  0.000000000000000E+000
  0.000000000000000E+000
  0.000000000000000E+000
  0.000000000000000E+000
  0.000000000000000E+000
  0.000000000000000E+000
  0.000000000000000E+000
  0.000000000000000E+000
  0.000000000000000E+000
  0.000000000000000E+000
  0.000000000000000E+000
  0.000000000000000E+000
  0.000000000000000E+000
  0.000000000000000E+000
  0.000000000000000E+000
  0.000000000000000E+000
  0.000000000000000E+000
  0.000000000000000E+000
  0.000000000000000E+000
  0.000000000000000E+000
  0.000000000000000E+000
  0.000000000000000E+000
  0.000000000000000E+000
  0.000000000000000E+000
  0.000000000000000E+000
  0.000000000000000E+000
  0.000000000000000E+000
  0.000000000000000E+000
  0.000000000000000E+000
  0.000000000000000E+000
  0.000000000000000E+000
  0.000000000000000E+000
  0.000000000000000E+000
  0.000000000000000E+000
  0.000000000000000E+000
  0.000000000000000E+000
  0.000000000000000E+000
  0.000000000000000E+000
  0.000000000000000E+000
  0.000000000000000E+000
  0.000000000000000E+000
  0.000000000000000E+000
  0.000000000000000E+000
  0.000000000000000E+000
  0.000000000000000E+000
  0.000000000000000E+000
  0.000000000000000E+000
  0.000000000000000E+000
  0.000000000000000E+000
  0.000000000000000E+000
  0.000000000000000E+000
  0.000000000000000E+000
  0.000000000000000E+000
  0.000000000000000E+000
  0.000000000000000E+000
  0.000000000000000E+000
  0.000000000000000E+000
  0.000000000000000E+000
  0.000000000000000E+000
  0.000000000000000E+000
  0.000000000000000E+000
  0.000000000000000E+000
  0.000000000000000E+000
  0.000000000000000E+000
  0.000000000000000E+000
  0.000000000000000E+000
  0.000000000000000E+000
  0.000000000000000E+000
  0.000000000000000E+000
  0.000000000000000E+000
  0.000000000000000E+000
  0.000000000000000E+000
  0.000000000000000E+000
  0.000000000000000E+000
  0.000000000000000E+000
  0.000000000000000E+000
  0.000000000000000E+000
  0.000000000000000E+000
  0.000000000000000E+000
  0.000000000000000E+000
  0.000000000000000E+000
  0.000000000000000E+000
  0.000000000000000E+000
  0.000000000000000E+000
  0.000000000000000E+000
  0.000000000000000E+000
  0.000000000000000E+000
  0.000000000000000E+000
  0.000000000000000E+000
  0.000000000000000E+000
  0.000000000000000E+000
  0.000000000000000E+000
  0.000000000000000E+000
  0.000000000000000E+000
  0.000000000000000E+000
  0.000000000000000E+000
  0.000000000000000E+000
  0.000000000000000E+000
  0.000000000000000E+000
  0.000000000000000E+000
  0.000000000000000E+000
  0.000000000000000E+000
  0.000000000000000E+000
  0.000000000000000E+000
  0.000000000000000E+000
  0.000000000000000E+000
  0.000000000000000E+000
  0.000000000000000E+000
  0.000000000000000E+000
  0.000000000000000E+000
  0.000000000000000E+000
  0.000000000000000E+000
  0.000000000000000E+000
  0.000000000000000E+000
  0.000000000000000E+000
  0.000000000000000E+000
  0.000000000000000E+000
  0.000000000000000E+000
  0.000000000000000E+000
  0.000000000000000E+000
  0.000000000000000E+000
  0.000000000000000E+000
  0.000000000000000E+000
  0.000000000000000E+000
  0.000000000000000E+000
  0.000000000000000E+000
  0.000000000000000E+000
  0.000000000000000E+000
  0.000000000000000E+000
  0.000000000000000E+000
  0.000000000000000E+000
  0.000000000000000E+000
  0.000000000000000E+000
  0.000000000000000E+000
  0.000000000000000E+000
  0.000000000000000E+000
  0.000000000000000E+000
  0.000000000000000E+000
  0.000000000000000E+000
  0.000000000000000E+000
  0.000000000000000E+000
  0.000000000000000E+000
  0.000000000000000E+000
  0.000000000000000E+000
  0.000000000000000E+000
  0.000000000000000E+000
  0.000000000000000E+000
  0.000000000000000E+000
  0.000000000000000E+000
  0.000000000000000E+000
  0.000000000000000E+000
  0.000000000000000E+000
  0.000000000000000E+000
  0.000000000000000E+000
  0.000000000000000E+000
  0.000000000000000E+000
  0.000000000000000E+000
  0.000000000000000E+000
  0.000000000000000E+000
  0.000000000000000E+000
  0.000000000000000E+000
  0.000000000000000E+000
  0.000000000000000E+000
  0.000000000000000E+000
  0.000000000000000E+000
  0.000000000000000E+000
  0.000000000000000E+000
  0.000000000000000E+000
  0.000000000000000E+000
  0.000000000000000E+000
  0.000000000000000E+000
  0.000000000000000E+000
  0.000000000000000E+000
  0.000000000000000E+000
  0.000000000000000E+000
  0.000000000000000E+000
  0.000000000000000E+000
  0.000000000000000E+000
  0.000000000000000E+000
  0.000000000000000E+000
  0.000000000000000E+000
  0.000000000000000E+000
  0.000000000000000E+000
  0.000000000000000E+000
  0.000000000000000E+000
  0.000000000000000E+000
  0.000000000000000E+000
  0.000000000000000E+000
  0.000000000000000E+000
  0.000000000000000E+000
  0.000000000000000E+000
  0.000000000000000E+000
  0.000000000000000E+000
  0.000000000000000E+000
  0.000000000000000E+000
  0.000000000000000E+000
  0.000000000000000E+000
  0.000000000000000E+000
  0.000000000000000E+000
  0.000000000000000E+000
  0.000000000000000E+000
  0.000000000000000E+000
  0.000000000000000E+000
  0.000000000000000E+000
  0.000000000000000E+000
  0.000000000000000E+000
  0.000000000000000E+000
  0.000000000000000E+000
  0.000000000000000E+000
  0.000000000000000E+000
  0.000000000000000E+000
  0.000000000000000E+000
  0.000000000000000E+000
  0.000000000000000E+000
  0.000000000000000E+000
  0.000000000000000E+000
  0.000000000000000E+000
  0.000000000000000E+000
  0.000000000000000E+000
  0.000000000000000E+000
  0.000000000000000E+000
  0.000000000000000E+000
  0.000000000000000E+000
  0.000000000000000E+000
  0.000000000000000E+000
  0.000000000000000E+000
  0.000000000000000E+000
  0.000000000000000E+000
  0.000000000000000E+000
  0.000000000000000E+000
  0.000000000000000E+000
  0.000000000000000E+000
  0.000000000000000E+000
  0.000000000000000E+000
  0.000000000000000E+000
  0.000000000000000E+000
  0.000000000000000E+000
  0.000000000000000E+000
  0.000000000000000E+000
  0.000000000000000E+000
  0.000000000000000E+000
  0.000000000000000E+000
  0.000000000000000E+000
  0.000000000000000E+000
  0.000000000000000E+000
  0.000000000000000E+000
  0.000000000000000E+000
  0.000000000000000E+000
  0.000000000000000E+000
  0.000000000000000E+000
  0.000000000000000E+000
  0.000000000000000E+000
  0.000000000000000E+000
  0.000000000000000E+000
  0.000000000000000E+000
  0.000000000000000E+000
  0.000000000000000E+000
  0.000000000000000E+000
  0.000000000000000E+000
  0.000000000000000E+000
  0.000000000000000E+000
  0.000000000000000E+000
  0.000000000000000E+000
  0.000000000000000E+000
  0.000000000000000E+000
  0.000000000000000E+000
  0.000000000000000E+000
  0.000000000000000E+000
  0.000000000000000E+000
  0.000000000000000E+000
  0.000000000000000E+000
  0.000000000000000E+000
  0.000000000000000E+000
  0.000000000000000E+000
  0.000000000000000E+000
  0.000000000000000E+000
  0.000000000000000E+000
  0.000000000000000E+000
  0.000000000000000E+000
  0.000000000000000E+000
  0.000000000000000E+000
  0.000000000000000E+000
  0.000000000000000E+000
  0.000000000000000E+000
  0.000000000000000E+000
  0.000000000000000E+000
  0.000000000000000E+000
  0.000000000000000E+000
  0.000000000000000E+000
  0.000000000000000E+000
  0.000000000000000E+000
  0.000000000000000E+000
  0.000000000000000E+000
  0.000000000000000E+000
  0.000000000000000E+000
  0.000000000000000E+000
  0.000000000000000E+000
  0.000000000000000E+000
  0.000000000000000E+000
  0.000000000000000E+000
  0.000000000000000E+000
  0.000000000000000E+000
  0.000000000000000E+000
  0.000000000000000E+000
  0.000000000000000E+000
  0.000000000000000E+000
  0.000000000000000E+000
  0.000000000000000E+000
  0.000000000000000E+000
  0.000000000000000E+000
  0.000000000000000E+000
  0.000000000000000E+000
  0.000000000000000E+000
  0.000000000000000E+000
  0.000000000000000E+000
  0.000000000000000E+000
  0.000000000000000E+000
  0.000000000000000E+000
  0.000000000000000E+000
  0.000000000000000E+000
  0.000000000000000E+000
  0.000000000000000E+000
  0.000000000000000E+000
  0.000000000000000E+000
  0.000000000000000E+000
  0.000000000000000E+000
  0.000000000000000E+000
  0.000000000000000E+000
  0.000000000000000E+000
  0.000000000000000E+000
  0.000000000000000E+000
  0.000000000000000E+000
  0.000000000000000E+000
  0.000000000000000E+000
  0.000000000000000E+000
  0.000000000000000E+000
  0.000000000000000E+000
  0.000000000000000E+000
  0.000000000000000E+000
  0.000000000000000E+000
  0.000000000000000E+000
  0.000000000000000E+000
  0.000000000000000E+000
  0.000000000000000E+000
  0.000000000000000E+000
  0.000000000000000E+000
  0.000000000000000E+000
  0.000000000000000E+000
  0.000000000000000E+000
  0.000000000000000E+000
  0.000000000000000E+000
  0.000000000000000E+000
  0.000000000000000E+000
  0.000000000000000E+000
  0.000000000000000E+000
  0.000000000000000E+000
  0.000000000000000E+000
  0.000000000000000E+000
  0.000000000000000E+000
  0.000000000000000E+000
  0.000000000000000E+000
  0.000000000000000E+000
  0.000000000000000E+000
  0.000000000000000E+000
  0.000000000000000E+000
  0.000000000000000E+000
  0.000000000000000E+000
  0.000000000000000E+000
  0.000000000000000E+000
  0.000000000000000E+000
  0.000000000000000E+000
  0.000000000000000E+000
  0.000000000000000E+000
  0.000000000000000E+000
  0.000000000000000E+000
  0.000000000000000E+000
  0.000000000000000E+000
  0.000000000000000E+000
  0.000000000000000E+000
  0.000000000000000E+000
  0.000000000000000E+000
  0.000000000000000E+000
  0.000000000000000E+000
  0.000000000000000E+000
  0.000000000000000E+000
  0.000000000000000E+000
  0.000000000000000E+000
  0.000000000000000E+000
  0.000000000000000E+000
  0.000000000000000E+000
  0.000000000000000E+000
  0.000000000000000E+000
  0.000000000000000E+000
  0.000000000000000E+000
  0.000000000000000E+000
  0.000000000000000E+000
  0.000000000000000E+000
  0.000000000000000E+000
  0.000000000000000E+000
  0.000000000000000E+000
  0.000000000000000E+000
  0.000000000000000E+000
  0.000000000000000E+000
  0.000000000000000E+000
  0.000000000000000E+000
  0.000000000000000E+000
  0.000000000000000E+000
  0.000000000000000E+000
  0.000000000000000E+000
  0.000000000000000E+000
  0.000000000000000E+000
  0.000000000000000E+000
  0.000000000000000E+000
  0.000000000000000E+000
  0.000000000000000E+000
  0.000000000000000E+000
  0.000000000000000E+000
  0.000000000000000E+000
  0.000000000000000E+000
  0.000000000000000E+000
  0.000000000000000E+000
  0.000000000000000E+000
  0.000000000000000E+000
  0.000000000000000E+000
  0.000000000000000E+000
  0.000000000000000E+000
  0.000000000000000E+000
  0.000000000000000E+000
  0.000000000000000E+000
  0.000000000000000E+000
  0.000000000000000E+000
  0.000000000000000E+000
  0.000000000000000E+000
  0.000000000000000E+000
  0.000000000000000E+000
  0.000000000000000E+000
  0.000000000000000E+000
  0.000000000000000E+000
  0.000000000000000E+000
  0.000000000000000E+000
  0.000000000000000E+000
  0.000000000000000E+000
  0.000000000000000E+000
  0.000000000000000E+000
  0.000000000000000E+000
  0.000000000000000E+000
  0.000000000000000E+000
  0.000000000000000E+000
  0.000000000000000E+000
  0.000000000000000E+000
  0.000000000000000E+000
  0.000000000000000E+000
  0.000000000000000E+000
  0.000000000000000E+000
  0.000000000000000E+000
  0.000000000000000E+000
  0.000000000000000E+000
  0.000000000000000E+000
  0.000000000000000E+000
  0.000000000000000E+000
  0.000000000000000E+000
  0.000000000000000E+000
  0.000000000000000E+000
  0.000000000000000E+000
  0.000000000000000E+000
  0.000000000000000E+000
  0.000000000000000E+000
  0.000000000000000E+000
  0.000000000000000E+000
  0.000000000000000E+000
  0.000000000000000E+000
  0.000000000000000E+000
  0.000000000000000E+000
  0.000000000000000E+000
  0.000000000000000E+000
  0.000000000000000E+000
  0.000000000000000E+000
  0.000000000000000E+000
  0.000000000000000E+000
  0.000000000000000E+000
  0.000000000000000E+000
  0.000000000000000E+000
  0.000000000000000E+000
  0.000000000000000E+000
  0.000000000000000E+000
  0.000000000000000E+000
  0.000000000000000E+000
  0.000000000000000E+000
  0.000000000000000E+000
  0.000000000000000E+000
  0.000000000000000E+000
  0.000000000000000E+000
  0.000000000000000E+000
  0.000000000000000E+000
  0.000000000000000E+000
  0.000000000000000E+000
  0.000000000000000E+000
  0.000000000000000E+000
  0.000000000000000E+000
  0.000000000000000E+000
  0.000000000000000E+000
  0.000000000000000E+000
  0.000000000000000E+000
  0.000000000000000E+000
  0.000000000000000E+000
  0.000000000000000E+000
  0.000000000000000E+000
  0.000000000000000E+000
  0.000000000000000E+000
  0.000000000000000E+000
  0.000000000000000E+000
  0.000000000000000E+000
  0.000000000000000E+000
  0.000000000000000E+000
  0.000000000000000E+000
  0.000000000000000E+000
  0.000000000000000E+000
  0.000000000000000E+000
  0.000000000000000E+000
  0.000000000000000E+000
  0.000000000000000E+000
  0.000000000000000E+000
  0.000000000000000E+000
  0.000000000000000E+000
  0.000000000000000E+000
  0.000000000000000E+000
  0.000000000000000E+000
  0.000000000000000E+000
  0.000000000000000E+000
  0.000000000000000E+000
  0.000000000000000E+000
  0.000000000000000E+000
  0.000000000000000E+000
  0.000000000000000E+000
  0.000000000000000E+000
  0.000000000000000E+000
  0.000000000000000E+000
  0.000000000000000E+000
  0.000000000000000E+000
  0.000000000000000E+000
  0.000000000000000E+000
  0.000000000000000E+000
  0.000000000000000E+000
  0.000000000000000E+000
  0.000000000000000E+000
  0.000000000000000E+000
  0.000000000000000E+000
  0.000000000000000E+000
  0.000000000000000E+000
  0.000000000000000E+000
  0.000000000000000E+000
  0.000000000000000E+000
  0.000000000000000E+000
  0.000000000000000E+000
  0.000000000000000E+000
  0.000000000000000E+000
  0.000000000000000E+000
  0.000000000000000E+000
  0.000000000000000E+000
  0.000000000000000E+000
  0.000000000000000E+000
  0.000000000000000E+000
  0.000000000000000E+000
  0.000000000000000E+000
  0.000000000000000E+000
  0.000000000000000E+000
  0.000000000000000E+000
  0.000000000000000E+000
  0.000000000000000E+000
  0.000000000000000E+000
  0.000000000000000E+000
  0.000000000000000E+000
  0.000000000000000E+000
  0.000000000000000E+000
  0.000000000000000E+000
  0.000000000000000E+000
  0.000000000000000E+000
  0.000000000000000E+000
  0.000000000000000E+000
  0.000000000000000E+000
  0.000000000000000E+000
  0.000000000000000E+000
  0.000000000000000E+000
  0.000000000000000E+000
  0.000000000000000E+000
  0.000000000000000E+000
  0.000000000000000E+000
  0.000000000000000E+000
  0.000000000000000E+000
  0.000000000000000E+000
  0.000000000000000E+000
  0.000000000000000E+000
  0.000000000000000E+000
  0.000000000000000E+000
  0.000000000000000E+000
  0.000000000000000E+000
  0.000000000000000E+000
  0.000000000000000E+000
  0.000000000000000E+000
  0.000000000000000E+000
  0.000000000000000E+000
  0.000000000000000E+000
  0.000000000000000E+000
  0.000000000000000E+000
  0.000000000000000E+000
  0.000000000000000E+000
  0.000000000000000E+000
  0.000000000000000E+000
  0.000000000000000E+000
  0.000000000000000E+000
  0.000000000000000E+000
  0.000000000000000E+000
  0.000000000000000E+000
  0.000000000000000E+000
  0.000000000000000E+000
  0.000000000000000E+000
  0.000000000000000E+000
  0.000000000000000E+000
  0.000000000000000E+000
  0.000000000000000E+000
  0.000000000000000E+000
  0.000000000000000E+000
  0.000000000000000E+000
  0.000000000000000E+000
  0.000000000000000E+000
  0.000000000000000E+000
  0.000000000000000E+000
  0.000000000000000E+000
  0.000000000000000E+000
  0.000000000000000E+000
  0.000000000000000E+000
  0.000000000000000E+000
  0.000000000000000E+000
  0.000000000000000E+000
  0.000000000000000E+000
  0.000000000000000E+000
  0.000000000000000E+000
  0.000000000000000E+000
  0.000000000000000E+000
  0.000000000000000E+000
  0.000000000000000E+000
  0.000000000000000E+000
  0.000000000000000E+000
  0.000000000000000E+000
  0.000000000000000E+000
  0.000000000000000E+000
  0.000000000000000E+000
  0.000000000000000E+000
  0.000000000000000E+000
  0.000000000000000E+000
  0.000000000000000E+000
  0.000000000000000E+000
  0.000000000000000E+000
  0.000000000000000E+000
  0.000000000000000E+000
  0.000000000000000E+000
  0.000000000000000E+000
  0.000000000000000E+000
  0.000000000000000E+000
  0.000000000000000E+000
  0.000000000000000E+000
  0.000000000000000E+000
  0.000000000000000E+000
  0.000000000000000E+000
  0.000000000000000E+000
  0.000000000000000E+000
  0.000000000000000E+000
  0.000000000000000E+000
  0.000000000000000E+000
  0.000000000000000E+000
  0.000000000000000E+000
  0.000000000000000E+000
  0.000000000000000E+000
  0.000000000000000E+000
  0.000000000000000E+000
  0.000000000000000E+000
  0.000000000000000E+000
  0.000000000000000E+000
  0.000000000000000E+000
  0.000000000000000E+000
  0.000000000000000E+000
  0.000000000000000E+000
  0.000000000000000E+000
  0.000000000000000E+000
  0.000000000000000E+000
  0.000000000000000E+000
  0.000000000000000E+000
  0.000000000000000E+000
  0.000000000000000E+000
  0.000000000000000E+000
  0.000000000000000E+000
  0.000000000000000E+000
  0.000000000000000E+000
  0.000000000000000E+000
  0.000000000000000E+000
  0.000000000000000E+000
  0.000000000000000E+000
  0.000000000000000E+000
  0.000000000000000E+000
  0.000000000000000E+000
  0.000000000000000E+000
  0.000000000000000E+000
  0.000000000000000E+000
  0.000000000000000E+000
  0.000000000000000E+000
  0.000000000000000E+000
  0.000000000000000E+000
  0.000000000000000E+000
  0.000000000000000E+000
  0.000000000000000E+000
  0.000000000000000E+000
  0.000000000000000E+000
  0.000000000000000E+000
  0.000000000000000E+000
  0.000000000000000E+000
  0.000000000000000E+000
  0.000000000000000E+000
  0.000000000000000E+000
  0.000000000000000E+000
  0.000000000000000E+000
  0.000000000000000E+000
  0.000000000000000E+000
  0.000000000000000E+000
  0.000000000000000E+000
  0.000000000000000E+000
  0.000000000000000E+000
  0.000000000000000E+000
  0.000000000000000E+000
  0.000000000000000E+000
  0.000000000000000E+000
  0.000000000000000E+000
  0.000000000000000E+000
  0.000000000000000E+000
  0.000000000000000E+000
  0.000000000000000E+000
  0.000000000000000E+000
  0.000000000000000E+000
  0.000000000000000E+000
  0.000000000000000E+000
  0.000000000000000E+000
  0.000000000000000E+000
  0.000000000000000E+000
  0.000000000000000E+000
  0.000000000000000E+000
  0.000000000000000E+000
  0.000000000000000E+000
  0.000000000000000E+000
  0.000000000000000E+000
  0.000000000000000E+000
  0.000000000000000E+000
  0.000000000000000E+000
  0.000000000000000E+000
  0.000000000000000E+000
  0.000000000000000E+000
  0.000000000000000E+000
  0.000000000000000E+000
  0.000000000000000E+000
  0.000000000000000E+000
  0.000000000000000E+000
  0.000000000000000E+000
  0.000000000000000E+000
  0.000000000000000E+000
  0.000000000000000E+000
  0.000000000000000E+000
  0.000000000000000E+000
  0.000000000000000E+000
  0.000000000000000E+000
  0.000000000000000E+000
  0.000000000000000E+000
  0.000000000000000E+000
  0.000000000000000E+000
  0.000000000000000E+000
  0.000000000000000E+000
  0.000000000000000E+000
  0.000000000000000E+000
  0.000000000000000E+000
  0.000000000000000E+000
  0.000000000000000E+000
  0.000000000000000E+000
  0.000000000000000E+000
  0.000000000000000E+000
  0.000000000000000E+000
  0.000000000000000E+000
  0.000000000000000E+000
  0.000000000000000E+000
  0.000000000000000E+000
  0.000000000000000E+000
  0.000000000000000E+000
  0.000000000000000E+000
  0.000000000000000E+000
  0.000000000000000E+000
  0.000000000000000E+000
  0.000000000000000E+000
  0.000000000000000E+000
  0.000000000000000E+000
  0.000000000000000E+000
  0.000000000000000E+000
  0.000000000000000E+000
  0.000000000000000E+000
  0.000000000000000E+000
  0.000000000000000E+000
  0.000000000000000E+000
  0.000000000000000E+000
  0.000000000000000E+000
  0.000000000000000E+000
  0.000000000000000E+000
  0.000000000000000E+000
  0.000000000000000E+000
  0.000000000000000E+000
  0.000000000000000E+000
  0.000000000000000E+000
  0.000000000000000E+000
  0.000000000000000E+000
  0.000000000000000E+000
  0.000000000000000E+000
  0.000000000000000E+000
  0.000000000000000E+000
  0.000000000000000E+000
  0.000000000000000E+000
  0.000000000000000E+000
  0.000000000000000E+000
  0.000000000000000E+000
  0.000000000000000E+000
  0.000000000000000E+000
  0.000000000000000E+000
  0.000000000000000E+000
  0.000000000000000E+000
  0.000000000000000E+000
  0.000000000000000E+000
  0.000000000000000E+000
  0.000000000000000E+000
  0.000000000000000E+000
  0.000000000000000E+000
  0.000000000000000E+000
  0.000000000000000E+000
  0.000000000000000E+000
  0.000000000000000E+000
  0.000000000000000E+000
  0.000000000000000E+000
  0.000000000000000E+000
  0.000000000000000E+000
  0.000000000000000E+000
  0.000000000000000E+000
  0.000000000000000E+000
  0.000000000000000E+000
  0.000000000000000E+000
  0.000000000000000E+000
  0.000000000000000E+000
  0.000000000000000E+000
  0.000000000000000E+000
  0.000000000000000E+000
  0.000000000000000E+000
  0.000000000000000E+000
  0.000000000000000E+000
  0.000000000000000E+000
  0.000000000000000E+000
  0.000000000000000E+000
  0.000000000000000E+000
  0.000000000000000E+000
  0.000000000000000E+000
  0.000000000000000E+000
  0.000000000000000E+000
  0.000000000000000E+000
  0.000000000000000E+000
  0.000000000000000E+000
  0.000000000000000E+000
  0.000000000000000E+000
  0.000000000000000E+000
  0.000000000000000E+000
  0.000000000000000E+000
  0.000000000000000E+000
  0.000000000000000E+000
  0.000000000000000E+000
  0.000000000000000E+000
  0.000000000000000E+000
  0.000000000000000E+000
  0.000000000000000E+000
  0.000000000000000E+000
  0.000000000000000E+000
  0.000000000000000E+000
  0.000000000000000E+000
  0.000000000000000E+000
  0.000000000000000E+000
  0.000000000000000E+000
  0.000000000000000E+000
  0.000000000000000E+000
  0.000000000000000E+000
  0.000000000000000E+000
  0.000000000000000E+000
  0.000000000000000E+000
  0.000000000000000E+000
  0.000000000000000E+000
  0.000000000000000E+000
  0.000000000000000E+000
  0.000000000000000E+000
  0.000000000000000E+000
  0.000000000000000E+000
  0.000000000000000E+000
  0.000000000000000E+000
  0.000000000000000E+000
  0.000000000000000E+000
  0.000000000000000E+000
  0.000000000000000E+000
  0.000000000000000E+000
  0.000000000000000E+000
  0.000000000000000E+000
  0.000000000000000E+000
  0.000000000000000E+000
  0.000000000000000E+000
  0.000000000000000E+000
  0.000000000000000E+000
  0.000000000000000E+000
  0.000000000000000E+000
  0.000000000000000E+000
  0.000000000000000E+000
  0.000000000000000E+000
  0.000000000000000E+000
  0.000000000000000E+000
  0.000000000000000E+000
  0.000000000000000E+000
  0.000000000000000E+000
  0.000000000000000E+000
  0.000000000000000E+000
  0.000000000000000E+000
  0.000000000000000E+000
  0.000000000000000E+000
  0.000000000000000E+000
  0.000000000000000E+000
  0.000000000000000E+000
  0.000000000000000E+000
  0.000000000000000E+000
  0.000000000000000E+000
  0.000000000000000E+000
  0.000000000000000E+000
  0.000000000000000E+000
  0.000000000000000E+000
  0.000000000000000E+000
  0.000000000000000E+000
  0.000000000000000E+000
  0.000000000000000E+000
  0.000000000000000E+000
  0.000000000000000E+000
  0.000000000000000E+000
  0.000000000000000E+000
  0.000000000000000E+000
  0.000000000000000E+000
  0.000000000000000E+000
  0.000000000000000E+000
  0.000000000000000E+000
  0.000000000000000E+000
  0.000000000000000E+000
  0.000000000000000E+000
  0.000000000000000E+000
  0.000000000000000E+000
  0.000000000000000E+000
  0.000000000000000E+000
  0.000000000000000E+000
  0.000000000000000E+000
  0.000000000000000E+000
  0.000000000000000E+000
  0.000000000000000E+000
  0.000000000000000E+000
  0.000000000000000E+000
  0.000000000000000E+000
  0.000000000000000E+000
  0.000000000000000E+000
  0.000000000000000E+000
  0.000000000000000E+000
  0.000000000000000E+000
  0.000000000000000E+000
  0.000000000000000E+000
  0.000000000000000E+000
  0.000000000000000E+000
  0.000000000000000E+000
  0.000000000000000E+000
  0.000000000000000E+000
  0.000000000000000E+000
  0.000000000000000E+000
  0.000000000000000E+000
  0.000000000000000E+000
  0.000000000000000E+000
  0.000000000000000E+000
  0.000000000000000E+000
  0.000000000000000E+000
  0.000000000000000E+000
  0.000000000000000E+000
  0.000000000000000E+000
  0.000000000000000E+000
  0.000000000000000E+000
  0.000000000000000E+000
  0.000000000000000E+000
  0.000000000000000E+000
  0.000000000000000E+000
  0.000000000000000E+000
  0.000000000000000E+000
  0.000000000000000E+000
  0.000000000000000E+000
  0.000000000000000E+000
  0.000000000000000E+000
  0.000000000000000E+000
  0.000000000000000E+000
  0.000000000000000E+000
  0.000000000000000E+000
  0.000000000000000E+000
  0.000000000000000E+000
  0.000000000000000E+000
  0.000000000000000E+000
  0.000000000000000E+000
  0.000000000000000E+000
  0.000000000000000E+000
  0.000000000000000E+000
  0.000000000000000E+000
  0.000000000000000E+000
  0.000000000000000E+000
  0.000000000000000E+000
  0.000000000000000E+000
  0.000000000000000E+000
  0.000000000000000E+000
  0.000000000000000E+000
  0.000000000000000E+000
  0.000000000000000E+000
  0.000000000000000E+000
  0.000000000000000E+000
  0.000000000000000E+000
  0.000000000000000E+000
  0.000000000000000E+000
  0.000000000000000E+000
  0.000000000000000E+000
  0.000000000000000E+000
  0.000000000000000E+000
  0.000000000000000E+000
  0.000000000000000E+000
  0.000000000000000E+000
  0.000000000000000E+000
  0.000000000000000E+000
  0.000000000000000E+000
  0.000000000000000E+000
  0.000000000000000E+000
  0.000000000000000E+000
  0.000000000000000E+000
  0.000000000000000E+000
  0.000000000000000E+000
  0.000000000000000E+000
  0.000000000000000E+000
  0.000000000000000E+000
  0.000000000000000E+000
  0.000000000000000E+000
  0.000000000000000E+000
  0.000000000000000E+000
  0.000000000000000E+000
  0.000000000000000E+000
  0.000000000000000E+000
  0.000000000000000E+000
  0.000000000000000E+000
  0.000000000000000E+000
  0.000000000000000E+000
  0.000000000000000E+000
  0.000000000000000E+000
  0.000000000000000E+000
  0.000000000000000E+000
  0.000000000000000E+000
  0.000000000000000E+000
  0.000000000000000E+000
  0.000000000000000E+000
  0.000000000000000E+000
  0.000000000000000E+000
  0.000000000000000E+000
  0.000000000000000E+000
  0.000000000000000E+000
  0.000000000000000E+000
  0.000000000000000E+000
  0.000000000000000E+000
  0.000000000000000E+000
  0.000000000000000E+000
  0.000000000000000E+000
  0.000000000000000E+000
  0.000000000000000E+000
  0.000000000000000E+000
  0.000000000000000E+000
  0.000000000000000E+000
  0.000000000000000E+000
  0.000000000000000E+000
  0.000000000000000E+000
  0.000000000000000E+000
  0.000000000000000E+000
  0.000000000000000E+000
  0.000000000000000E+000
  0.000000000000000E+000
  0.000000000000000E+000
  0.000000000000000E+000
  0.000000000000000E+000
  0.000000000000000E+000
  0.000000000000000E+000
  0.000000000000000E+000
  0.000000000000000E+000
  0.000000000000000E+000
  0.000000000000000E+000
  0.000000000000000E+000
  0.000000000000000E+000
  0.000000000000000E+000
  0.000000000000000E+000
  0.000000000000000E+000
  0.000000000000000E+000
  0.000000000000000E+000
  0.000000000000000E+000
  0.000000000000000E+000
  0.000000000000000E+000
  0.000000000000000E+000
  0.000000000000000E+000
  0.000000000000000E+000
  0.000000000000000E+000
  0.000000000000000E+000
  0.000000000000000E+000
  0.000000000000000E+000
  0.000000000000000E+000
  0.000000000000000E+000
  0.000000000000000E+000
  0.000000000000000E+000
  0.000000000000000E+000
  0.000000000000000E+000
  0.000000000000000E+000
  0.000000000000000E+000
  0.000000000000000E+000
  0.000000000000000E+000
  0.000000000000000E+000
  0.000000000000000E+000
  0.000000000000000E+000
  0.000000000000000E+000
  0.000000000000000E+000
  0.000000000000000E+000
  0.000000000000000E+000
  0.000000000000000E+000
  0.000000000000000E+000
  0.000000000000000E+000
  0.000000000000000E+000
  0.000000000000000E+000
  0.000000000000000E+000
  0.000000000000000E+000
  0.000000000000000E+000
  0.000000000000000E+000
  0.000000000000000E+000
  0.000000000000000E+000
  0.000000000000000E+000
  0.000000000000000E+000
  0.000000000000000E+000
  0.000000000000000E+000
  0.000000000000000E+000
  0.000000000000000E+000
  0.000000000000000E+000
  0.000000000000000E+000
  0.000000000000000E+000
  0.000000000000000E+000
  0.000000000000000E+000
  0.000000000000000E+000
  0.000000000000000E+000
  0.000000000000000E+000
  0.000000000000000E+000
  0.000000000000000E+000
  0.000000000000000E+000
  0.000000000000000E+000
  0.000000000000000E+000
  0.000000000000000E+000
  0.000000000000000E+000
  0.000000000000000E+000
  0.000000000000000E+000
  0.000000000000000E+000
  0.000000000000000E+000
  0.000000000000000E+000
  0.000000000000000E+000
  0.000000000000000E+000
  0.000000000000000E+000
  0.000000000000000E+000
  0.000000000000000E+000
  0.000000000000000E+000
  0.000000000000000E+000
  0.000000000000000E+000
  0.000000000000000E+000
  0.000000000000000E+000
  0.000000000000000E+000
  0.000000000000000E+000
  0.000000000000000E+000
  0.000000000000000E+000
  0.000000000000000E+000
  0.000000000000000E+000
  0.000000000000000E+000
  0.000000000000000E+000
  0.000000000000000E+000
  0.000000000000000E+000
  0.000000000000000E+000
  0.000000000000000E+000
  0.000000000000000E+000
  0.000000000000000E+000
  0.000000000000000E+000
  0.000000000000000E+000
  0.000000000000000E+000
  0.000000000000000E+000
  0.000000000000000E+000
  0.000000000000000E+000
  0.000000000000000E+000
  0.000000000000000E+000
  0.000000000000000E+000
  0.000000000000000E+000
  0.000000000000000E+000
  0.000000000000000E+000
  0.000000000000000E+000
  0.000000000000000E+000
  0.000000000000000E+000
  0.000000000000000E+000
  0.000000000000000E+000
  0.000000000000000E+000
  0.000000000000000E+000
  0.000000000000000E+000
  0.000000000000000E+000
  0.000000000000000E+000
  0.000000000000000E+000
  0.000000000000000E+000
  0.000000000000000E+000
  0.000000000000000E+000
  0.000000000000000E+000
  0.000000000000000E+000
  0.000000000000000E+000
  0.000000000000000E+000
  0.000000000000000E+000
  0.000000000000000E+000
  0.000000000000000E+000
  0.000000000000000E+000
  0.000000000000000E+000
  0.000000000000000E+000
  0.000000000000000E+000
  0.000000000000000E+000
  0.000000000000000E+000
  0.000000000000000E+000
  0.000000000000000E+000
  0.000000000000000E+000
  0.000000000000000E+000
  0.000000000000000E+000
  0.000000000000000E+000
  0.000000000000000E+000
  0.000000000000000E+000
  0.000000000000000E+000
  0.000000000000000E+000
  0.000000000000000E+000
  0.000000000000000E+000
  0.000000000000000E+000
  0.000000000000000E+000
  0.000000000000000E+000
  0.000000000000000E+000
  0.000000000000000E+000
  0.000000000000000E+000
  0.000000000000000E+000
  0.000000000000000E+000
  0.000000000000000E+000
  0.000000000000000E+000
  0.000000000000000E+000
  0.000000000000000E+000
  0.000000000000000E+000
  0.000000000000000E+000
  0.000000000000000E+000
  0.000000000000000E+000
  0.000000000000000E+000
  0.000000000000000E+000
  0.000000000000000E+000
  0.000000000000000E+000
  0.000000000000000E+000
  0.000000000000000E+000
  0.000000000000000E+000
  0.000000000000000E+000
  0.000000000000000E+000
  0.000000000000000E+000
  0.000000000000000E+000
  0.000000000000000E+000
  0.000000000000000E+000
  0.000000000000000E+000
  0.000000000000000E+000
  0.000000000000000E+000
  0.000000000000000E+000
  0.000000000000000E+000
  0.000000000000000E+000
  0.000000000000000E+000
  0.000000000000000E+000
  0.000000000000000E+000
  0.000000000000000E+000
  0.000000000000000E+000
  0.000000000000000E+000
  0.000000000000000E+000
  0.000000000000000E+000
  0.000000000000000E+000
  0.000000000000000E+000
  0.000000000000000E+000
  0.000000000000000E+000
  0.000000000000000E+000
  0.000000000000000E+000
  0.000000000000000E+000
  0.000000000000000E+000
  0.000000000000000E+000
  0.000000000000000E+000
  0.000000000000000E+000
  0.000000000000000E+000
  0.000000000000000E+000
  0.000000000000000E+000
  0.000000000000000E+000
  0.000000000000000E+000
  0.000000000000000E+000
  0.000000000000000E+000
  0.000000000000000E+000
  0.000000000000000E+000
  0.000000000000000E+000
  0.000000000000000E+000
  0.000000000000000E+000
  0.000000000000000E+000
  0.000000000000000E+000
  0.000000000000000E+000
  0.000000000000000E+000
  0.000000000000000E+000
  0.000000000000000E+000
  0.000000000000000E+000
  0.000000000000000E+000
  0.000000000000000E+000
  0.000000000000000E+000
  0.000000000000000E+000
  0.000000000000000E+000
  0.000000000000000E+000
  0.000000000000000E+000
  0.000000000000000E+000
  0.000000000000000E+000
  0.000000000000000E+000
  0.000000000000000E+000
  0.000000000000000E+000
  0.000000000000000E+000
  0.000000000000000E+000
  0.000000000000000E+000
  0.000000000000000E+000
  0.000000000000000E+000
  0.000000000000000E+000
  0.000000000000000E+000
  0.000000000000000E+000
  0.000000000000000E+000
  0.000000000000000E+000
  0.000000000000000E+000
  0.000000000000000E+000
  0.000000000000000E+000
  0.000000000000000E+000
  0.000000000000000E+000
  0.000000000000000E+000
  0.000000000000000E+000
  0.000000000000000E+000
  0.000000000000000E+000
  0.000000000000000E+000
  0.000000000000000E+000
  0.000000000000000E+000
  0.000000000000000E+000
  0.000000000000000E+000
  0.000000000000000E+000
  0.000000000000000E+000
  0.000000000000000E+000
  0.000000000000000E+000
  0.000000000000000E+000
  0.000000000000000E+000
  0.000000000000000E+000
  0.000000000000000E+000
  0.000000000000000E+000
  0.000000000000000E+000
  0.000000000000000E+000
  0.000000000000000E+000
  0.000000000000000E+000
  0.000000000000000E+000
  0.000000000000000E+000
  0.000000000000000E+000
  0.000000000000000E+000
  0.000000000000000E+000
  0.000000000000000E+000
  0.000000000000000E+000
  0.000000000000000E+000
  0.000000000000000E+000
  0.000000000000000E+000
  0.000000000000000E+000
  0.000000000000000E+000
  0.000000000000000E+000
  0.000000000000000E+000
  0.000000000000000E+000
  0.000000000000000E+000
  0.000000000000000E+000
  0.000000000000000E+000
  0.000000000000000E+000
  0.000000000000000E+000
  0.000000000000000E+000
  0.000000000000000E+000
  0.000000000000000E+000
  0.000000000000000E+000
  0.000000000000000E+000
  0.000000000000000E+000
  0.000000000000000E+000
  0.000000000000000E+000
  0.000000000000000E+000
  0.000000000000000E+000
  0.000000000000000E+000
  0.000000000000000E+000
  0.000000000000000E+000
  0.000000000000000E+000
  0.000000000000000E+000
  0.000000000000000E+000
  0.000000000000000E+000
  0.000000000000000E+000
  0.000000000000000E+000
  0.000000000000000E+000
  0.000000000000000E+000
  0.000000000000000E+000
  0.000000000000000E+000
  0.000000000000000E+000
  0.000000000000000E+000
  0.000000000000000E+000
  0.000000000000000E+000
  0.000000000000000E+000
  0.000000000000000E+000
  0.000000000000000E+000
  0.000000000000000E+000
  0.000000000000000E+000
  0.000000000000000E+000
  0.000000000000000E+000
  0.000000000000000E+000
  0.000000000000000E+000
  0.000000000000000E+000
  0.000000000000000E+000
  0.000000000000000E+000
  0.000000000000000E+000
  0.000000000000000E+000
  0.000000000000000E+000
  0.000000000000000E+000
  0.000000000000000E+000
  0.000000000000000E+000
  0.000000000000000E+000
  0.000000000000000E+000
  0.000000000000000E+000
  0.000000000000000E+000
  0.000000000000000E+000
  0.000000000000000E+000
  0.000000000000000E+000
  0.000000000000000E+000
  0.000000000000000E+000
  0.000000000000000E+000
  0.000000000000000E+000
  0.000000000000000E+000
  0.000000000000000E+000
  0.000000000000000E+000
  0.000000000000000E+000
  0.000000000000000E+000
  0.000000000000000E+000
  0.000000000000000E+000
  0.000000000000000E+000
  0.000000000000000E+000
  0.000000000000000E+000
  0.000000000000000E+000
  0.000000000000000E+000
  0.000000000000000E+000
  0.000000000000000E+000
  0.000000000000000E+000
  0.000000000000000E+000
  0.000000000000000E+000
  0.000000000000000E+000
  0.000000000000000E+000
  0.000000000000000E+000
  0.000000000000000E+000
  0.000000000000000E+000
  0.000000000000000E+000
  0.000000000000000E+000
  0.000000000000000E+000
  0.000000000000000E+000
  0.000000000000000E+000
  0.000000000000000E+000
  0.000000000000000E+000
  0.000000000000000E+000
  0.000000000000000E+000
  0.000000000000000E+000
  0.000000000000000E+000
  0.000000000000000E+000
  0.000000000000000E+000
  0.000000000000000E+000
  0.000000000000000E+000
  0.000000000000000E+000
  0.000000000000000E+000
  0.000000000000000E+000
  0.000000000000000E+000
  0.000000000000000E+000
  0.000000000000000E+000
  0.000000000000000E+000
  0.000000000000000E+000
  0.000000000000000E+000
  0.000000000000000E+000
  0.000000000000000E+000
  0.000000000000000E+000
  0.000000000000000E+000
  0.000000000000000E+000
  0.000000000000000E+000
  0.000000000000000E+000
  0.000000000000000E+000
  0.000000000000000E+000
  0.000000000000000E+000
  0.000000000000000E+000
  0.000000000000000E+000
  0.000000000000000E+000
  0.000000000000000E+000
  0.000000000000000E+000
  0.000000000000000E+000
  0.000000000000000E+000
  0.000000000000000E+000
  0.000000000000000E+000
  0.000000000000000E+000
  0.000000000000000E+000
  0.000000000000000E+000
  0.000000000000000E+000
  0.000000000000000E+000
  0.000000000000000E+000
  0.000000000000000E+000
  0.000000000000000E+000
  0.000000000000000E+000
  0.000000000000000E+000
  0.000000000000000E+000
  0.000000000000000E+000
  0.000000000000000E+000
  0.000000000000000E+000
  0.000000000000000E+000
  0.000000000000000E+000
  0.000000000000000E+000
  0.000000000000000E+000
  0.000000000000000E+000
  0.000000000000000E+000
  0.000000000000000E+000
  0.000000000000000E+000
  0.000000000000000E+000
  0.000000000000000E+000
  0.000000000000000E+000
  0.000000000000000E+000
  0.000000000000000E+000
  0.000000000000000E+000
  0.000000000000000E+000
  0.000000000000000E+000
  0.000000000000000E+000
  0.000000000000000E+000
  0.000000000000000E+000
  0.000000000000000E+000
  0.000000000000000E+000
  0.000000000000000E+000
  0.000000000000000E+000
  0.000000000000000E+000
  0.000000000000000E+000
  0.000000000000000E+000
  0.000000000000000E+000
  0.000000000000000E+000
  0.000000000000000E+000
  0.000000000000000E+000
  0.000000000000000E+000
  0.000000000000000E+000
  0.000000000000000E+000
  0.000000000000000E+000
  0.000000000000000E+000
  0.000000000000000E+000
  0.000000000000000E+000
  0.000000000000000E+000
  0.000000000000000E+000
  0.000000000000000E+000
  0.000000000000000E+000
  0.000000000000000E+000
  0.000000000000000E+000
  0.000000000000000E+000
  0.000000000000000E+000
  0.000000000000000E+000
  0.000000000000000E+000
  0.000000000000000E+000
  0.000000000000000E+000
  0.000000000000000E+000
  0.000000000000000E+000
  0.000000000000000E+000
  0.000000000000000E+000
  0.000000000000000E+000
  0.000000000000000E+000
  0.000000000000000E+000
  0.000000000000000E+000
  0.000000000000000E+000
  0.000000000000000E+000
  0.000000000000000E+000
  0.000000000000000E+000
  0.000000000000000E+000
  0.000000000000000E+000
  0.000000000000000E+000
  0.000000000000000E+000
  0.000000000000000E+000
  0.000000000000000E+000
  0.000000000000000E+000
  0.000000000000000E+000
  0.000000000000000E+000
  0.000000000000000E+000
  0.000000000000000E+000
  0.000000000000000E+000
  0.000000000000000E+000
  0.000000000000000E+000
  0.000000000000000E+000
  0.000000000000000E+000
  0.000000000000000E+000
  0.000000000000000E+000
  0.000000000000000E+000
  0.000000000000000E+000
  0.000000000000000E+000
  0.000000000000000E+000
  0.000000000000000E+000
  0.000000000000000E+000
  0.000000000000000E+000
  0.000000000000000E+000
  0.000000000000000E+000
  0.000000000000000E+000
  0.000000000000000E+000
  0.000000000000000E+000
  0.000000000000000E+000
  0.000000000000000E+000
  0.000000000000000E+000
  0.000000000000000E+000
  0.000000000000000E+000
  0.000000000000000E+000
  0.000000000000000E+000
  0.000000000000000E+000
  0.000000000000000E+000
  0.000000000000000E+000
  0.000000000000000E+000
  0.000000000000000E+000
  0.000000000000000E+000
  0.000000000000000E+000
  0.000000000000000E+000
  0.000000000000000E+000
  0.000000000000000E+000
  0.000000000000000E+000
  0.000000000000000E+000
  0.000000000000000E+000
  0.000000000000000E+000
  0.000000000000000E+000
  0.000000000000000E+000
  0.000000000000000E+000
  0.000000000000000E+000
  0.000000000000000E+000
  0.000000000000000E+000
  0.000000000000000E+000
  0.000000000000000E+000
  0.000000000000000E+000
  0.000000000000000E+000
  0.000000000000000E+000
  0.000000000000000E+000
  0.000000000000000E+000
  0.000000000000000E+000
  0.000000000000000E+000
  0.000000000000000E+000
  0.000000000000000E+000
  0.000000000000000E+000
  0.000000000000000E+000
  0.000000000000000E+000
  0.000000000000000E+000
  0.000000000000000E+000
  0.000000000000000E+000
  0.000000000000000E+000
  0.000000000000000E+000
  0.000000000000000E+000
  0.000000000000000E+000
  0.000000000000000E+000
  0.000000000000000E+000
  0.000000000000000E+000
  0.000000000000000E+000
  0.000000000000000E+000
  0.000000000000000E+000
  0.000000000000000E+000
  0.000000000000000E+000
  0.000000000000000E+000
  0.000000000000000E+000
  0.000000000000000E+000
  0.000000000000000E+000
  0.000000000000000E+000
  0.000000000000000E+000
  0.000000000000000E+000
  0.000000000000000E+000
  0.000000000000000E+000
  0.000000000000000E+000
  0.000000000000000E+000
  0.000000000000000E+000
  0.000000000000000E+000
  0.000000000000000E+000
  0.000000000000000E+000
  0.000000000000000E+000
  0.000000000000000E+000
  0.000000000000000E+000
  0.000000000000000E+000
  0.000000000000000E+000
  0.000000000000000E+000
  0.000000000000000E+000
  0.000000000000000E+000
  0.000000000000000E+000
  0.000000000000000E+000
  0.000000000000000E+000
  0.000000000000000E+000
  0.000000000000000E+000
  0.000000000000000E+000
  0.000000000000000E+000
  0.000000000000000E+000
  0.000000000000000E+000
  0.000000000000000E+000
  0.000000000000000E+000
  0.000000000000000E+000
  0.000000000000000E+000
  0.000000000000000E+000
  0.000000000000000E+000
  0.000000000000000E+000
  0.000000000000000E+000
  0.000000000000000E+000
  0.000000000000000E+000
  0.000000000000000E+000
  0.000000000000000E+000
  0.000000000000000E+000
  0.000000000000000E+000
  0.000000000000000E+000
  0.000000000000000E+000
  0.000000000000000E+000
  0.000000000000000E+000
  0.000000000000000E+000
  0.000000000000000E+000
  0.000000000000000E+000
  0.000000000000000E+000
  0.000000000000000E+000
  0.000000000000000E+000
  0.000000000000000E+000
  0.000000000000000E+000
  0.000000000000000E+000
  0.000000000000000E+000
  0.000000000000000E+000
  0.000000000000000E+000
  0.000000000000000E+000
  0.000000000000000E+000
  0.000000000000000E+000
  0.000000000000000E+000
  0.000000000000000E+000
  0.000000000000000E+000
  0.000000000000000E+000
  0.000000000000000E+000
  0.000000000000000E+000
  0.000000000000000E+000
  0.000000000000000E+000
  0.000000000000000E+000
  0.000000000000000E+000
  0.000000000000000E+000
  0.000000000000000E+000
  0.000000000000000E+000
  0.000000000000000E+000
  0.000000000000000E+000
  0.000000000000000E+000
  0.000000000000000E+000
  0.000000000000000E+000
  0.000000000000000E+000
  0.000000000000000E+000
  0.000000000000000E+000
  0.000000000000000E+000
  0.000000000000000E+000
  0.000000000000000E+000
  0.000000000000000E+000
  0.000000000000000E+000
  0.000000000000000E+000
  0.000000000000000E+000
  0.000000000000000E+000
  0.000000000000000E+000
  0.000000000000000E+000
  0.000000000000000E+000
  0.000000000000000E+000
  0.000000000000000E+000
  0.000000000000000E+000
  0.000000000000000E+000
  0.000000000000000E+000
  0.000000000000000E+000
  0.000000000000000E+000
  0.000000000000000E+000
  0.000000000000000E+000
  0.000000000000000E+000
  0.000000000000000E+000
  0.000000000000000E+000
  0.000000000000000E+000
  0.000000000000000E+000
  0.000000000000000E+000
  0.000000000000000E+000
  0.000000000000000E+000
  0.000000000000000E+000
  0.000000000000000E+000
  0.000000000000000E+000
  0.000000000000000E+000
  0.000000000000000E+000
  0.000000000000000E+000
  0.000000000000000E+000
  0.000000000000000E+000
  0.000000000000000E+000
  0.000000000000000E+000
  0.000000000000000E+000
  0.000000000000000E+000
  0.000000000000000E+000
  0.000000000000000E+000
  0.000000000000000E+000
  0.000000000000000E+000
  0.000000000000000E+000
  0.000000000000000E+000
  0.000000000000000E+000
  0.000000000000000E+000
  0.000000000000000E+000
  0.000000000000000E+000
  0.000000000000000E+000
  0.000000000000000E+000
  0.000000000000000E+000
  0.000000000000000E+000
  0.000000000000000E+000
  0.000000000000000E+000
  0.000000000000000E+000
  0.000000000000000E+000
  0.000000000000000E+000
  0.000000000000000E+000
  0.000000000000000E+000
  0.000000000000000E+000
  0.000000000000000E+000
  0.000000000000000E+000
  0.000000000000000E+000
  0.000000000000000E+000
  0.000000000000000E+000
  0.000000000000000E+000
  0.000000000000000E+000
  0.000000000000000E+000
  0.000000000000000E+000
  0.000000000000000E+000
  0.000000000000000E+000
  0.000000000000000E+000
  0.000000000000000E+000
  0.000000000000000E+000
  0.000000000000000E+000
  0.000000000000000E+000
  0.000000000000000E+000
  0.000000000000000E+000
  0.000000000000000E+000
  0.000000000000000E+000
  0.000000000000000E+000
  0.000000000000000E+000
  0.000000000000000E+000
  0.000000000000000E+000
  0.000000000000000E+000
  0.000000000000000E+000
  0.000000000000000E+000
  0.000000000000000E+000
  0.000000000000000E+000
  0.000000000000000E+000
  0.000000000000000E+000
  0.000000000000000E+000
  0.000000000000000E+000
  0.000000000000000E+000
  0.000000000000000E+000
  0.000000000000000E+000
  0.000000000000000E+000
  0.000000000000000E+000
  0.000000000000000E+000
  0.000000000000000E+000
  0.000000000000000E+000
