# vtk DataFile Version 3.0
vtk output
ASCII
DATASET UNSTRUCTURED_GRID
POINTS      5151 double 
  0.00000000E+00  1.00000000E+02  0.00000000E+00
  0.00000000E+00  9.80000000E+01  0.00000000E+00
  0.00000000E+00  9.60000000E+01  0.00000000E+00
  0.00000000E+00  9.40000000E+01  0.00000000E+00
  0.00000000E+00  9.20000000E+01  0.00000000E+00
  0.00000000E+00  9.00000000E+01  0.00000000E+00
  0.00000000E+00  8.80000000E+01  0.00000000E+00
  0.00000000E+00  8.60000000E+01  0.00000000E+00
  0.00000000E+00  8.40000000E+01  0.00000000E+00
  0.00000000E+00  8.20000000E+01  0.00000000E+00
  0.00000000E+00  8.00000000E+01  0.00000000E+00
  0.00000000E+00  7.80000000E+01  0.00000000E+00
  0.00000000E+00  7.60000000E+01  0.00000000E+00
  0.00000000E+00  7.40000000E+01  0.00000000E+00
  0.00000000E+00  7.20000000E+01  0.00000000E+00
  0.00000000E+00  7.00000000E+01  0.00000000E+00
  0.00000000E+00  6.80000000E+01  0.00000000E+00
  0.00000000E+00  6.60000000E+01  0.00000000E+00
  0.00000000E+00  6.40000000E+01  0.00000000E+00
  0.00000000E+00  6.20000000E+01  0.00000000E+00
  0.00000000E+00  6.00000000E+01  0.00000000E+00
  0.00000000E+00  5.80000000E+01  0.00000000E+00
  0.00000000E+00  5.60000000E+01  0.00000000E+00
  0.00000000E+00  5.40000000E+01  0.00000000E+00
  0.00000000E+00  5.20000000E+01  0.00000000E+00
  0.00000000E+00  5.00000000E+01  0.00000000E+00
  0.00000000E+00  4.80000000E+01  0.00000000E+00
  0.00000000E+00  4.60000000E+01  0.00000000E+00
  0.00000000E+00  4.40000000E+01  0.00000000E+00
  0.00000000E+00  4.20000000E+01  0.00000000E+00
  0.00000000E+00  4.00000000E+01  0.00000000E+00
  0.00000000E+00  3.80000000E+01  0.00000000E+00
  0.00000000E+00  3.60000000E+01  0.00000000E+00
  0.00000000E+00  3.40000000E+01  0.00000000E+00
  0.00000000E+00  3.20000000E+01  0.00000000E+00
  0.00000000E+00  3.00000000E+01  0.00000000E+00
  0.00000000E+00  2.80000000E+01  0.00000000E+00
  0.00000000E+00  2.60000000E+01  0.00000000E+00
  0.00000000E+00  2.40000000E+01  0.00000000E+00
  0.00000000E+00  2.20000000E+01  0.00000000E+00
  0.00000000E+00  2.00000000E+01  0.00000000E+00
  0.00000000E+00  1.80000000E+01  0.00000000E+00
  0.00000000E+00  1.60000000E+01  0.00000000E+00
  0.00000000E+00  1.40000000E+01  0.00000000E+00
  0.00000000E+00  1.20000000E+01  0.00000000E+00
  0.00000000E+00  1.00000000E+01  0.00000000E+00
  0.00000000E+00  8.00000000E+00  0.00000000E+00
  0.00000000E+00  6.00000000E+00  0.00000000E+00
  0.00000000E+00  4.00000000E+00  0.00000000E+00
  0.00000000E+00  2.00000000E+00  0.00000000E+00
  0.00000000E+00 -3.33066907E-14  0.00000000E+00
  1.00000000E+01  1.00000000E+02  0.00000000E+00
  1.00000000E+01  9.80000000E+01  0.00000000E+00
  1.00000000E+01  9.60000000E+01  0.00000000E+00
  1.00000000E+01  9.40000000E+01  0.00000000E+00
  1.00000000E+01  9.20000000E+01  0.00000000E+00
  1.00000000E+01  9.00000000E+01  0.00000000E+00
  1.00000000E+01  8.80000000E+01  0.00000000E+00
  1.00000000E+01  8.60000000E+01  0.00000000E+00
  1.00000000E+01  8.40000000E+01  0.00000000E+00
  1.00000000E+01  8.20000000E+01  0.00000000E+00
  1.00000000E+01  8.00000000E+01  0.00000000E+00
  1.00000000E+01  7.80000000E+01  0.00000000E+00
  1.00000000E+01  7.60000000E+01  0.00000000E+00
  1.00000000E+01  7.40000000E+01  0.00000000E+00
  1.00000000E+01  7.20000000E+01  0.00000000E+00
  1.00000000E+01  7.00000000E+01  0.00000000E+00
  1.00000000E+01  6.80000000E+01  0.00000000E+00
  1.00000000E+01  6.60000000E+01  0.00000000E+00
  1.00000000E+01  6.40000000E+01  0.00000000E+00
  1.00000000E+01  6.20000000E+01  0.00000000E+00
  1.00000000E+01  6.00000000E+01  0.00000000E+00
  1.00000000E+01  5.80000000E+01  0.00000000E+00
  1.00000000E+01  5.60000000E+01  0.00000000E+00
  1.00000000E+01  5.40000000E+01  0.00000000E+00
  1.00000000E+01  5.20000000E+01  0.00000000E+00
  1.00000000E+01  5.00000000E+01  0.00000000E+00
  1.00000000E+01  4.80000000E+01  0.00000000E+00
  1.00000000E+01  4.60000000E+01  0.00000000E+00
  1.00000000E+01  4.40000000E+01  0.00000000E+00
  1.00000000E+01  4.20000000E+01  0.00000000E+00
  1.00000000E+01  4.00000000E+01  0.00000000E+00
  1.00000000E+01  3.80000000E+01  0.00000000E+00
  1.00000000E+01  3.60000000E+01  0.00000000E+00
  1.00000000E+01  3.40000000E+01  0.00000000E+00
  1.00000000E+01  3.20000000E+01  0.00000000E+00
  1.00000000E+01  3.00000000E+01  0.00000000E+00
  1.00000000E+01  2.80000000E+01  0.00000000E+00
  1.00000000E+01  2.60000000E+01  0.00000000E+00
  1.00000000E+01  2.40000000E+01  0.00000000E+00
  1.00000000E+01  2.20000000E+01  0.00000000E+00
  1.00000000E+01  2.00000000E+01  0.00000000E+00
  1.00000000E+01  1.80000000E+01  0.00000000E+00
  1.00000000E+01  1.60000000E+01  0.00000000E+00
  1.00000000E+01  1.40000000E+01  0.00000000E+00
  1.00000000E+01  1.20000000E+01  0.00000000E+00
  1.00000000E+01  1.00000000E+01  0.00000000E+00
  1.00000000E+01  8.00000000E+00  0.00000000E+00
  1.00000000E+01  6.00000000E+00  0.00000000E+00
  1.00000000E+01  4.00000000E+00  0.00000000E+00
  1.00000000E+01  2.00000000E+00  0.00000000E+00
  1.00000000E+01 -3.33066907E-14  0.00000000E+00
  2.00000000E+01  1.00000000E+02  0.00000000E+00
  2.00000000E+01  9.80000000E+01  0.00000000E+00
  2.00000000E+01  9.60000000E+01  0.00000000E+00
  2.00000000E+01  9.40000000E+01  0.00000000E+00
  2.00000000E+01  9.20000000E+01  0.00000000E+00
  2.00000000E+01  9.00000000E+01  0.00000000E+00
  2.00000000E+01  8.80000000E+01  0.00000000E+00
  2.00000000E+01  8.60000000E+01  0.00000000E+00
  2.00000000E+01  8.40000000E+01  0.00000000E+00
  2.00000000E+01  8.20000000E+01  0.00000000E+00
  2.00000000E+01  8.00000000E+01  0.00000000E+00
  2.00000000E+01  7.80000000E+01  0.00000000E+00
  2.00000000E+01  7.60000000E+01  0.00000000E+00
  2.00000000E+01  7.40000000E+01  0.00000000E+00
  2.00000000E+01  7.20000000E+01  0.00000000E+00
  2.00000000E+01  7.00000000E+01  0.00000000E+00
  2.00000000E+01  6.80000000E+01  0.00000000E+00
  2.00000000E+01  6.60000000E+01  0.00000000E+00
  2.00000000E+01  6.40000000E+01  0.00000000E+00
  2.00000000E+01  6.20000000E+01  0.00000000E+00
  2.00000000E+01  6.00000000E+01  0.00000000E+00
  2.00000000E+01  5.80000000E+01  0.00000000E+00
  2.00000000E+01  5.60000000E+01  0.00000000E+00
  2.00000000E+01  5.40000000E+01  0.00000000E+00
  2.00000000E+01  5.20000000E+01  0.00000000E+00
  2.00000000E+01  5.00000000E+01  0.00000000E+00
  2.00000000E+01  4.80000000E+01  0.00000000E+00
  2.00000000E+01  4.60000000E+01  0.00000000E+00
  2.00000000E+01  4.40000000E+01  0.00000000E+00
  2.00000000E+01  4.20000000E+01  0.00000000E+00
  2.00000000E+01  4.00000000E+01  0.00000000E+00
  2.00000000E+01  3.80000000E+01  0.00000000E+00
  2.00000000E+01  3.60000000E+01  0.00000000E+00
  2.00000000E+01  3.40000000E+01  0.00000000E+00
  2.00000000E+01  3.20000000E+01  0.00000000E+00
  2.00000000E+01  3.00000000E+01  0.00000000E+00
  2.00000000E+01  2.80000000E+01  0.00000000E+00
  2.00000000E+01  2.60000000E+01  0.00000000E+00
  2.00000000E+01  2.40000000E+01  0.00000000E+00
  2.00000000E+01  2.20000000E+01  0.00000000E+00
  2.00000000E+01  2.00000000E+01  0.00000000E+00
  2.00000000E+01  1.80000000E+01  0.00000000E+00
  2.00000000E+01  1.60000000E+01  0.00000000E+00
  2.00000000E+01  1.40000000E+01  0.00000000E+00
  2.00000000E+01  1.20000000E+01  0.00000000E+00
  2.00000000E+01  1.00000000E+01  0.00000000E+00
  2.00000000E+01  8.00000000E+00  0.00000000E+00
  2.00000000E+01  6.00000000E+00  0.00000000E+00
  2.00000000E+01  4.00000000E+00  0.00000000E+00
  2.00000000E+01  2.00000000E+00  0.00000000E+00
  2.00000000E+01 -3.33066907E-14  0.00000000E+00
  3.00000000E+01  1.00000000E+02  0.00000000E+00
  3.00000000E+01  9.80000000E+01  0.00000000E+00
  3.00000000E+01  9.60000000E+01  0.00000000E+00
  3.00000000E+01  9.40000000E+01  0.00000000E+00
  3.00000000E+01  9.20000000E+01  0.00000000E+00
  3.00000000E+01  9.00000000E+01  0.00000000E+00
  3.00000000E+01  8.80000000E+01  0.00000000E+00
  3.00000000E+01  8.60000000E+01  0.00000000E+00
  3.00000000E+01  8.40000000E+01  0.00000000E+00
  3.00000000E+01  8.20000000E+01  0.00000000E+00
  3.00000000E+01  8.00000000E+01  0.00000000E+00
  3.00000000E+01  7.80000000E+01  0.00000000E+00
  3.00000000E+01  7.60000000E+01  0.00000000E+00
  3.00000000E+01  7.40000000E+01  0.00000000E+00
  3.00000000E+01  7.20000000E+01  0.00000000E+00
  3.00000000E+01  7.00000000E+01  0.00000000E+00
  3.00000000E+01  6.80000000E+01  0.00000000E+00
  3.00000000E+01  6.60000000E+01  0.00000000E+00
  3.00000000E+01  6.40000000E+01  0.00000000E+00
  3.00000000E+01  6.20000000E+01  0.00000000E+00
  3.00000000E+01  6.00000000E+01  0.00000000E+00
  3.00000000E+01  5.80000000E+01  0.00000000E+00
  3.00000000E+01  5.60000000E+01  0.00000000E+00
  3.00000000E+01  5.40000000E+01  0.00000000E+00
  3.00000000E+01  5.20000000E+01  0.00000000E+00
  3.00000000E+01  5.00000000E+01  0.00000000E+00
  3.00000000E+01  4.80000000E+01  0.00000000E+00
  3.00000000E+01  4.60000000E+01  0.00000000E+00
  3.00000000E+01  4.40000000E+01  0.00000000E+00
  3.00000000E+01  4.20000000E+01  0.00000000E+00
  3.00000000E+01  4.00000000E+01  0.00000000E+00
  3.00000000E+01  3.80000000E+01  0.00000000E+00
  3.00000000E+01  3.60000000E+01  0.00000000E+00
  3.00000000E+01  3.40000000E+01  0.00000000E+00
  3.00000000E+01  3.20000000E+01  0.00000000E+00
  3.00000000E+01  3.00000000E+01  0.00000000E+00
  3.00000000E+01  2.80000000E+01  0.00000000E+00
  3.00000000E+01  2.60000000E+01  0.00000000E+00
  3.00000000E+01  2.40000000E+01  0.00000000E+00
  3.00000000E+01  2.20000000E+01  0.00000000E+00
  3.00000000E+01  2.00000000E+01  0.00000000E+00
  3.00000000E+01  1.80000000E+01  0.00000000E+00
  3.00000000E+01  1.60000000E+01  0.00000000E+00
  3.00000000E+01  1.40000000E+01  0.00000000E+00
  3.00000000E+01  1.20000000E+01  0.00000000E+00
  3.00000000E+01  1.00000000E+01  0.00000000E+00
  3.00000000E+01  8.00000000E+00  0.00000000E+00
  3.00000000E+01  6.00000000E+00  0.00000000E+00
  3.00000000E+01  4.00000000E+00  0.00000000E+00
  3.00000000E+01  2.00000000E+00  0.00000000E+00
  3.00000000E+01 -3.33066907E-14  0.00000000E+00
  4.00000000E+01  1.00000000E+02  0.00000000E+00
  4.00000000E+01  9.80000000E+01  0.00000000E+00
  4.00000000E+01  9.60000000E+01  0.00000000E+00
  4.00000000E+01  9.40000000E+01  0.00000000E+00
  4.00000000E+01  9.20000000E+01  0.00000000E+00
  4.00000000E+01  9.00000000E+01  0.00000000E+00
  4.00000000E+01  8.80000000E+01  0.00000000E+00
  4.00000000E+01  8.60000000E+01  0.00000000E+00
  4.00000000E+01  8.40000000E+01  0.00000000E+00
  4.00000000E+01  8.20000000E+01  0.00000000E+00
  4.00000000E+01  8.00000000E+01  0.00000000E+00
  4.00000000E+01  7.80000000E+01  0.00000000E+00
  4.00000000E+01  7.60000000E+01  0.00000000E+00
  4.00000000E+01  7.40000000E+01  0.00000000E+00
  4.00000000E+01  7.20000000E+01  0.00000000E+00
  4.00000000E+01  7.00000000E+01  0.00000000E+00
  4.00000000E+01  6.80000000E+01  0.00000000E+00
  4.00000000E+01  6.60000000E+01  0.00000000E+00
  4.00000000E+01  6.40000000E+01  0.00000000E+00
  4.00000000E+01  6.20000000E+01  0.00000000E+00
  4.00000000E+01  6.00000000E+01  0.00000000E+00
  4.00000000E+01  5.80000000E+01  0.00000000E+00
  4.00000000E+01  5.60000000E+01  0.00000000E+00
  4.00000000E+01  5.40000000E+01  0.00000000E+00
  4.00000000E+01  5.20000000E+01  0.00000000E+00
  4.00000000E+01  5.00000000E+01  0.00000000E+00
  4.00000000E+01  4.80000000E+01  0.00000000E+00
  4.00000000E+01  4.60000000E+01  0.00000000E+00
  4.00000000E+01  4.40000000E+01  0.00000000E+00
  4.00000000E+01  4.20000000E+01  0.00000000E+00
  4.00000000E+01  4.00000000E+01  0.00000000E+00
  4.00000000E+01  3.80000000E+01  0.00000000E+00
  4.00000000E+01  3.60000000E+01  0.00000000E+00
  4.00000000E+01  3.40000000E+01  0.00000000E+00
  4.00000000E+01  3.20000000E+01  0.00000000E+00
  4.00000000E+01  3.00000000E+01  0.00000000E+00
  4.00000000E+01  2.80000000E+01  0.00000000E+00
  4.00000000E+01  2.60000000E+01  0.00000000E+00
  4.00000000E+01  2.40000000E+01  0.00000000E+00
  4.00000000E+01  2.20000000E+01  0.00000000E+00
  4.00000000E+01  2.00000000E+01  0.00000000E+00
  4.00000000E+01  1.80000000E+01  0.00000000E+00
  4.00000000E+01  1.60000000E+01  0.00000000E+00
  4.00000000E+01  1.40000000E+01  0.00000000E+00
  4.00000000E+01  1.20000000E+01  0.00000000E+00
  4.00000000E+01  1.00000000E+01  0.00000000E+00
  4.00000000E+01  8.00000000E+00  0.00000000E+00
  4.00000000E+01  6.00000000E+00  0.00000000E+00
  4.00000000E+01  4.00000000E+00  0.00000000E+00
  4.00000000E+01  2.00000000E+00  0.00000000E+00
  4.00000000E+01 -3.33066907E-14  0.00000000E+00
  5.00000000E+01  1.00000000E+02  0.00000000E+00
  5.00000000E+01  9.80000000E+01  0.00000000E+00
  5.00000000E+01  9.60000000E+01  0.00000000E+00
  5.00000000E+01  9.40000000E+01  0.00000000E+00
  5.00000000E+01  9.20000000E+01  0.00000000E+00
  5.00000000E+01  9.00000000E+01  0.00000000E+00
  5.00000000E+01  8.80000000E+01  0.00000000E+00
  5.00000000E+01  8.60000000E+01  0.00000000E+00
  5.00000000E+01  8.40000000E+01  0.00000000E+00
  5.00000000E+01  8.20000000E+01  0.00000000E+00
  5.00000000E+01  8.00000000E+01  0.00000000E+00
  5.00000000E+01  7.80000000E+01  0.00000000E+00
  5.00000000E+01  7.60000000E+01  0.00000000E+00
  5.00000000E+01  7.40000000E+01  0.00000000E+00
  5.00000000E+01  7.20000000E+01  0.00000000E+00
  5.00000000E+01  7.00000000E+01  0.00000000E+00
  5.00000000E+01  6.80000000E+01  0.00000000E+00
  5.00000000E+01  6.60000000E+01  0.00000000E+00
  5.00000000E+01  6.40000000E+01  0.00000000E+00
  5.00000000E+01  6.20000000E+01  0.00000000E+00
  5.00000000E+01  6.00000000E+01  0.00000000E+00
  5.00000000E+01  5.80000000E+01  0.00000000E+00
  5.00000000E+01  5.60000000E+01  0.00000000E+00
  5.00000000E+01  5.40000000E+01  0.00000000E+00
  5.00000000E+01  5.20000000E+01  0.00000000E+00
  5.00000000E+01  5.00000000E+01  0.00000000E+00
  5.00000000E+01  4.80000000E+01  0.00000000E+00
  5.00000000E+01  4.60000000E+01  0.00000000E+00
  5.00000000E+01  4.40000000E+01  0.00000000E+00
  5.00000000E+01  4.20000000E+01  0.00000000E+00
  5.00000000E+01  4.00000000E+01  0.00000000E+00
  5.00000000E+01  3.80000000E+01  0.00000000E+00
  5.00000000E+01  3.60000000E+01  0.00000000E+00
  5.00000000E+01  3.40000000E+01  0.00000000E+00
  5.00000000E+01  3.20000000E+01  0.00000000E+00
  5.00000000E+01  3.00000000E+01  0.00000000E+00
  5.00000000E+01  2.80000000E+01  0.00000000E+00
  5.00000000E+01  2.60000000E+01  0.00000000E+00
  5.00000000E+01  2.40000000E+01  0.00000000E+00
  5.00000000E+01  2.20000000E+01  0.00000000E+00
  5.00000000E+01  2.00000000E+01  0.00000000E+00
  5.00000000E+01  1.80000000E+01  0.00000000E+00
  5.00000000E+01  1.60000000E+01  0.00000000E+00
  5.00000000E+01  1.40000000E+01  0.00000000E+00
  5.00000000E+01  1.20000000E+01  0.00000000E+00
  5.00000000E+01  1.00000000E+01  0.00000000E+00
  5.00000000E+01  8.00000000E+00  0.00000000E+00
  5.00000000E+01  6.00000000E+00  0.00000000E+00
  5.00000000E+01  4.00000000E+00  0.00000000E+00
  5.00000000E+01  2.00000000E+00  0.00000000E+00
  5.00000000E+01 -3.33066907E-14  0.00000000E+00
  6.00000000E+01  1.00000000E+02  0.00000000E+00
  6.00000000E+01  9.80000000E+01  0.00000000E+00
  6.00000000E+01  9.60000000E+01  0.00000000E+00
  6.00000000E+01  9.40000000E+01  0.00000000E+00
  6.00000000E+01  9.20000000E+01  0.00000000E+00
  6.00000000E+01  9.00000000E+01  0.00000000E+00
  6.00000000E+01  8.80000000E+01  0.00000000E+00
  6.00000000E+01  8.60000000E+01  0.00000000E+00
  6.00000000E+01  8.40000000E+01  0.00000000E+00
  6.00000000E+01  8.20000000E+01  0.00000000E+00
  6.00000000E+01  8.00000000E+01  0.00000000E+00
  6.00000000E+01  7.80000000E+01  0.00000000E+00
  6.00000000E+01  7.60000000E+01  0.00000000E+00
  6.00000000E+01  7.40000000E+01  0.00000000E+00
  6.00000000E+01  7.20000000E+01  0.00000000E+00
  6.00000000E+01  7.00000000E+01  0.00000000E+00
  6.00000000E+01  6.80000000E+01  0.00000000E+00
  6.00000000E+01  6.60000000E+01  0.00000000E+00
  6.00000000E+01  6.40000000E+01  0.00000000E+00
  6.00000000E+01  6.20000000E+01  0.00000000E+00
  6.00000000E+01  6.00000000E+01  0.00000000E+00
  6.00000000E+01  5.80000000E+01  0.00000000E+00
  6.00000000E+01  5.60000000E+01  0.00000000E+00
  6.00000000E+01  5.40000000E+01  0.00000000E+00
  6.00000000E+01  5.20000000E+01  0.00000000E+00
  6.00000000E+01  5.00000000E+01  0.00000000E+00
  6.00000000E+01  4.80000000E+01  0.00000000E+00
  6.00000000E+01  4.60000000E+01  0.00000000E+00
  6.00000000E+01  4.40000000E+01  0.00000000E+00
  6.00000000E+01  4.20000000E+01  0.00000000E+00
  6.00000000E+01  4.00000000E+01  0.00000000E+00
  6.00000000E+01  3.80000000E+01  0.00000000E+00
  6.00000000E+01  3.60000000E+01  0.00000000E+00
  6.00000000E+01  3.40000000E+01  0.00000000E+00
  6.00000000E+01  3.20000000E+01  0.00000000E+00
  6.00000000E+01  3.00000000E+01  0.00000000E+00
  6.00000000E+01  2.80000000E+01  0.00000000E+00
  6.00000000E+01  2.60000000E+01  0.00000000E+00
  6.00000000E+01  2.40000000E+01  0.00000000E+00
  6.00000000E+01  2.20000000E+01  0.00000000E+00
  6.00000000E+01  2.00000000E+01  0.00000000E+00
  6.00000000E+01  1.80000000E+01  0.00000000E+00
  6.00000000E+01  1.60000000E+01  0.00000000E+00
  6.00000000E+01  1.40000000E+01  0.00000000E+00
  6.00000000E+01  1.20000000E+01  0.00000000E+00
  6.00000000E+01  1.00000000E+01  0.00000000E+00
  6.00000000E+01  8.00000000E+00  0.00000000E+00
  6.00000000E+01  6.00000000E+00  0.00000000E+00
  6.00000000E+01  4.00000000E+00  0.00000000E+00
  6.00000000E+01  2.00000000E+00  0.00000000E+00
  6.00000000E+01 -3.33066907E-14  0.00000000E+00
  7.00000000E+01  1.00000000E+02  0.00000000E+00
  7.00000000E+01  9.80000000E+01  0.00000000E+00
  7.00000000E+01  9.60000000E+01  0.00000000E+00
  7.00000000E+01  9.40000000E+01  0.00000000E+00
  7.00000000E+01  9.20000000E+01  0.00000000E+00
  7.00000000E+01  9.00000000E+01  0.00000000E+00
  7.00000000E+01  8.80000000E+01  0.00000000E+00
  7.00000000E+01  8.60000000E+01  0.00000000E+00
  7.00000000E+01  8.40000000E+01  0.00000000E+00
  7.00000000E+01  8.20000000E+01  0.00000000E+00
  7.00000000E+01  8.00000000E+01  0.00000000E+00
  7.00000000E+01  7.80000000E+01  0.00000000E+00
  7.00000000E+01  7.60000000E+01  0.00000000E+00
  7.00000000E+01  7.40000000E+01  0.00000000E+00
  7.00000000E+01  7.20000000E+01  0.00000000E+00
  7.00000000E+01  7.00000000E+01  0.00000000E+00
  7.00000000E+01  6.80000000E+01  0.00000000E+00
  7.00000000E+01  6.60000000E+01  0.00000000E+00
  7.00000000E+01  6.40000000E+01  0.00000000E+00
  7.00000000E+01  6.20000000E+01  0.00000000E+00
  7.00000000E+01  6.00000000E+01  0.00000000E+00
  7.00000000E+01  5.80000000E+01  0.00000000E+00
  7.00000000E+01  5.60000000E+01  0.00000000E+00
  7.00000000E+01  5.40000000E+01  0.00000000E+00
  7.00000000E+01  5.20000000E+01  0.00000000E+00
  7.00000000E+01  5.00000000E+01  0.00000000E+00
  7.00000000E+01  4.80000000E+01  0.00000000E+00
  7.00000000E+01  4.60000000E+01  0.00000000E+00
  7.00000000E+01  4.40000000E+01  0.00000000E+00
  7.00000000E+01  4.20000000E+01  0.00000000E+00
  7.00000000E+01  4.00000000E+01  0.00000000E+00
  7.00000000E+01  3.80000000E+01  0.00000000E+00
  7.00000000E+01  3.60000000E+01  0.00000000E+00
  7.00000000E+01  3.40000000E+01  0.00000000E+00
  7.00000000E+01  3.20000000E+01  0.00000000E+00
  7.00000000E+01  3.00000000E+01  0.00000000E+00
  7.00000000E+01  2.80000000E+01  0.00000000E+00
  7.00000000E+01  2.60000000E+01  0.00000000E+00
  7.00000000E+01  2.40000000E+01  0.00000000E+00
  7.00000000E+01  2.20000000E+01  0.00000000E+00
  7.00000000E+01  2.00000000E+01  0.00000000E+00
  7.00000000E+01  1.80000000E+01  0.00000000E+00
  7.00000000E+01  1.60000000E+01  0.00000000E+00
  7.00000000E+01  1.40000000E+01  0.00000000E+00
  7.00000000E+01  1.20000000E+01  0.00000000E+00
  7.00000000E+01  1.00000000E+01  0.00000000E+00
  7.00000000E+01  8.00000000E+00  0.00000000E+00
  7.00000000E+01  6.00000000E+00  0.00000000E+00
  7.00000000E+01  4.00000000E+00  0.00000000E+00
  7.00000000E+01  2.00000000E+00  0.00000000E+00
  7.00000000E+01 -3.33066907E-14  0.00000000E+00
  8.00000000E+01  1.00000000E+02  0.00000000E+00
  8.00000000E+01  9.80000000E+01  0.00000000E+00
  8.00000000E+01  9.60000000E+01  0.00000000E+00
  8.00000000E+01  9.40000000E+01  0.00000000E+00
  8.00000000E+01  9.20000000E+01  0.00000000E+00
  8.00000000E+01  9.00000000E+01  0.00000000E+00
  8.00000000E+01  8.80000000E+01  0.00000000E+00
  8.00000000E+01  8.60000000E+01  0.00000000E+00
  8.00000000E+01  8.40000000E+01  0.00000000E+00
  8.00000000E+01  8.20000000E+01  0.00000000E+00
  8.00000000E+01  8.00000000E+01  0.00000000E+00
  8.00000000E+01  7.80000000E+01  0.00000000E+00
  8.00000000E+01  7.60000000E+01  0.00000000E+00
  8.00000000E+01  7.40000000E+01  0.00000000E+00
  8.00000000E+01  7.20000000E+01  0.00000000E+00
  8.00000000E+01  7.00000000E+01  0.00000000E+00
  8.00000000E+01  6.80000000E+01  0.00000000E+00
  8.00000000E+01  6.60000000E+01  0.00000000E+00
  8.00000000E+01  6.40000000E+01  0.00000000E+00
  8.00000000E+01  6.20000000E+01  0.00000000E+00
  8.00000000E+01  6.00000000E+01  0.00000000E+00
  8.00000000E+01  5.80000000E+01  0.00000000E+00
  8.00000000E+01  5.60000000E+01  0.00000000E+00
  8.00000000E+01  5.40000000E+01  0.00000000E+00
  8.00000000E+01  5.20000000E+01  0.00000000E+00
  8.00000000E+01  5.00000000E+01  0.00000000E+00
  8.00000000E+01  4.80000000E+01  0.00000000E+00
  8.00000000E+01  4.60000000E+01  0.00000000E+00
  8.00000000E+01  4.40000000E+01  0.00000000E+00
  8.00000000E+01  4.20000000E+01  0.00000000E+00
  8.00000000E+01  4.00000000E+01  0.00000000E+00
  8.00000000E+01  3.80000000E+01  0.00000000E+00
  8.00000000E+01  3.60000000E+01  0.00000000E+00
  8.00000000E+01  3.40000000E+01  0.00000000E+00
  8.00000000E+01  3.20000000E+01  0.00000000E+00
  8.00000000E+01  3.00000000E+01  0.00000000E+00
  8.00000000E+01  2.80000000E+01  0.00000000E+00
  8.00000000E+01  2.60000000E+01  0.00000000E+00
  8.00000000E+01  2.40000000E+01  0.00000000E+00
  8.00000000E+01  2.20000000E+01  0.00000000E+00
  8.00000000E+01  2.00000000E+01  0.00000000E+00
  8.00000000E+01  1.80000000E+01  0.00000000E+00
  8.00000000E+01  1.60000000E+01  0.00000000E+00
  8.00000000E+01  1.40000000E+01  0.00000000E+00
  8.00000000E+01  1.20000000E+01  0.00000000E+00
  8.00000000E+01  1.00000000E+01  0.00000000E+00
  8.00000000E+01  8.00000000E+00  0.00000000E+00
  8.00000000E+01  6.00000000E+00  0.00000000E+00
  8.00000000E+01  4.00000000E+00  0.00000000E+00
  8.00000000E+01  2.00000000E+00  0.00000000E+00
  8.00000000E+01 -3.33066907E-14  0.00000000E+00
  9.00000000E+01  1.00000000E+02  0.00000000E+00
  9.00000000E+01  9.80000000E+01  0.00000000E+00
  9.00000000E+01  9.60000000E+01  0.00000000E+00
  9.00000000E+01  9.40000000E+01  0.00000000E+00
  9.00000000E+01  9.20000000E+01  0.00000000E+00
  9.00000000E+01  9.00000000E+01  0.00000000E+00
  9.00000000E+01  8.80000000E+01  0.00000000E+00
  9.00000000E+01  8.60000000E+01  0.00000000E+00
  9.00000000E+01  8.40000000E+01  0.00000000E+00
  9.00000000E+01  8.20000000E+01  0.00000000E+00
  9.00000000E+01  8.00000000E+01  0.00000000E+00
  9.00000000E+01  7.80000000E+01  0.00000000E+00
  9.00000000E+01  7.60000000E+01  0.00000000E+00
  9.00000000E+01  7.40000000E+01  0.00000000E+00
  9.00000000E+01  7.20000000E+01  0.00000000E+00
  9.00000000E+01  7.00000000E+01  0.00000000E+00
  9.00000000E+01  6.80000000E+01  0.00000000E+00
  9.00000000E+01  6.60000000E+01  0.00000000E+00
  9.00000000E+01  6.40000000E+01  0.00000000E+00
  9.00000000E+01  6.20000000E+01  0.00000000E+00
  9.00000000E+01  6.00000000E+01  0.00000000E+00
  9.00000000E+01  5.80000000E+01  0.00000000E+00
  9.00000000E+01  5.60000000E+01  0.00000000E+00
  9.00000000E+01  5.40000000E+01  0.00000000E+00
  9.00000000E+01  5.20000000E+01  0.00000000E+00
  9.00000000E+01  5.00000000E+01  0.00000000E+00
  9.00000000E+01  4.80000000E+01  0.00000000E+00
  9.00000000E+01  4.60000000E+01  0.00000000E+00
  9.00000000E+01  4.40000000E+01  0.00000000E+00
  9.00000000E+01  4.20000000E+01  0.00000000E+00
  9.00000000E+01  4.00000000E+01  0.00000000E+00
  9.00000000E+01  3.80000000E+01  0.00000000E+00
  9.00000000E+01  3.60000000E+01  0.00000000E+00
  9.00000000E+01  3.40000000E+01  0.00000000E+00
  9.00000000E+01  3.20000000E+01  0.00000000E+00
  9.00000000E+01  3.00000000E+01  0.00000000E+00
  9.00000000E+01  2.80000000E+01  0.00000000E+00
  9.00000000E+01  2.60000000E+01  0.00000000E+00
  9.00000000E+01  2.40000000E+01  0.00000000E+00
  9.00000000E+01  2.20000000E+01  0.00000000E+00
  9.00000000E+01  2.00000000E+01  0.00000000E+00
  9.00000000E+01  1.80000000E+01  0.00000000E+00
  9.00000000E+01  1.60000000E+01  0.00000000E+00
  9.00000000E+01  1.40000000E+01  0.00000000E+00
  9.00000000E+01  1.20000000E+01  0.00000000E+00
  9.00000000E+01  1.00000000E+01  0.00000000E+00
  9.00000000E+01  8.00000000E+00  0.00000000E+00
  9.00000000E+01  6.00000000E+00  0.00000000E+00
  9.00000000E+01  4.00000000E+00  0.00000000E+00
  9.00000000E+01  2.00000000E+00  0.00000000E+00
  9.00000000E+01 -3.33066907E-14  0.00000000E+00
  1.00000000E+02  1.00000000E+02  0.00000000E+00
  1.00000000E+02  9.80000000E+01  0.00000000E+00
  1.00000000E+02  9.60000000E+01  0.00000000E+00
  1.00000000E+02  9.40000000E+01  0.00000000E+00
  1.00000000E+02  9.20000000E+01  0.00000000E+00
  1.00000000E+02  9.00000000E+01  0.00000000E+00
  1.00000000E+02  8.80000000E+01  0.00000000E+00
  1.00000000E+02  8.60000000E+01  0.00000000E+00
  1.00000000E+02  8.40000000E+01  0.00000000E+00
  1.00000000E+02  8.20000000E+01  0.00000000E+00
  1.00000000E+02  8.00000000E+01  0.00000000E+00
  1.00000000E+02  7.80000000E+01  0.00000000E+00
  1.00000000E+02  7.60000000E+01  0.00000000E+00
  1.00000000E+02  7.40000000E+01  0.00000000E+00
  1.00000000E+02  7.20000000E+01  0.00000000E+00
  1.00000000E+02  7.00000000E+01  0.00000000E+00
  1.00000000E+02  6.80000000E+01  0.00000000E+00
  1.00000000E+02  6.60000000E+01  0.00000000E+00
  1.00000000E+02  6.40000000E+01  0.00000000E+00
  1.00000000E+02  6.20000000E+01  0.00000000E+00
  1.00000000E+02  6.00000000E+01  0.00000000E+00
  1.00000000E+02  5.80000000E+01  0.00000000E+00
  1.00000000E+02  5.60000000E+01  0.00000000E+00
  1.00000000E+02  5.40000000E+01  0.00000000E+00
  1.00000000E+02  5.20000000E+01  0.00000000E+00
  1.00000000E+02  5.00000000E+01  0.00000000E+00
  1.00000000E+02  4.80000000E+01  0.00000000E+00
  1.00000000E+02  4.60000000E+01  0.00000000E+00
  1.00000000E+02  4.40000000E+01  0.00000000E+00
  1.00000000E+02  4.20000000E+01  0.00000000E+00
  1.00000000E+02  4.00000000E+01  0.00000000E+00
  1.00000000E+02  3.80000000E+01  0.00000000E+00
  1.00000000E+02  3.60000000E+01  0.00000000E+00
  1.00000000E+02  3.40000000E+01  0.00000000E+00
  1.00000000E+02  3.20000000E+01  0.00000000E+00
  1.00000000E+02  3.00000000E+01  0.00000000E+00
  1.00000000E+02  2.80000000E+01  0.00000000E+00
  1.00000000E+02  2.60000000E+01  0.00000000E+00
  1.00000000E+02  2.40000000E+01  0.00000000E+00
  1.00000000E+02  2.20000000E+01  0.00000000E+00
  1.00000000E+02  2.00000000E+01  0.00000000E+00
  1.00000000E+02  1.80000000E+01  0.00000000E+00
  1.00000000E+02  1.60000000E+01  0.00000000E+00
  1.00000000E+02  1.40000000E+01  0.00000000E+00
  1.00000000E+02  1.20000000E+01  0.00000000E+00
  1.00000000E+02  1.00000000E+01  0.00000000E+00
  1.00000000E+02  8.00000000E+00  0.00000000E+00
  1.00000000E+02  6.00000000E+00  0.00000000E+00
  1.00000000E+02  4.00000000E+00  0.00000000E+00
  1.00000000E+02  2.00000000E+00  0.00000000E+00
  1.00000000E+02 -3.33066907E-14  0.00000000E+00
  1.10000000E+02  1.00000000E+02  0.00000000E+00
  1.10000000E+02  9.80000000E+01  0.00000000E+00
  1.10000000E+02  9.60000000E+01  0.00000000E+00
  1.10000000E+02  9.40000000E+01  0.00000000E+00
  1.10000000E+02  9.20000000E+01  0.00000000E+00
  1.10000000E+02  9.00000000E+01  0.00000000E+00
  1.10000000E+02  8.80000000E+01  0.00000000E+00
  1.10000000E+02  8.60000000E+01  0.00000000E+00
  1.10000000E+02  8.40000000E+01  0.00000000E+00
  1.10000000E+02  8.20000000E+01  0.00000000E+00
  1.10000000E+02  8.00000000E+01  0.00000000E+00
  1.10000000E+02  7.80000000E+01  0.00000000E+00
  1.10000000E+02  7.60000000E+01  0.00000000E+00
  1.10000000E+02  7.40000000E+01  0.00000000E+00
  1.10000000E+02  7.20000000E+01  0.00000000E+00
  1.10000000E+02  7.00000000E+01  0.00000000E+00
  1.10000000E+02  6.80000000E+01  0.00000000E+00
  1.10000000E+02  6.60000000E+01  0.00000000E+00
  1.10000000E+02  6.40000000E+01  0.00000000E+00
  1.10000000E+02  6.20000000E+01  0.00000000E+00
  1.10000000E+02  6.00000000E+01  0.00000000E+00
  1.10000000E+02  5.80000000E+01  0.00000000E+00
  1.10000000E+02  5.60000000E+01  0.00000000E+00
  1.10000000E+02  5.40000000E+01  0.00000000E+00
  1.10000000E+02  5.20000000E+01  0.00000000E+00
  1.10000000E+02  5.00000000E+01  0.00000000E+00
  1.10000000E+02  4.80000000E+01  0.00000000E+00
  1.10000000E+02  4.60000000E+01  0.00000000E+00
  1.10000000E+02  4.40000000E+01  0.00000000E+00
  1.10000000E+02  4.20000000E+01  0.00000000E+00
  1.10000000E+02  4.00000000E+01  0.00000000E+00
  1.10000000E+02  3.80000000E+01  0.00000000E+00
  1.10000000E+02  3.60000000E+01  0.00000000E+00
  1.10000000E+02  3.40000000E+01  0.00000000E+00
  1.10000000E+02  3.20000000E+01  0.00000000E+00
  1.10000000E+02  3.00000000E+01  0.00000000E+00
  1.10000000E+02  2.80000000E+01  0.00000000E+00
  1.10000000E+02  2.60000000E+01  0.00000000E+00
  1.10000000E+02  2.40000000E+01  0.00000000E+00
  1.10000000E+02  2.20000000E+01  0.00000000E+00
  1.10000000E+02  2.00000000E+01  0.00000000E+00
  1.10000000E+02  1.80000000E+01  0.00000000E+00
  1.10000000E+02  1.60000000E+01  0.00000000E+00
  1.10000000E+02  1.40000000E+01  0.00000000E+00
  1.10000000E+02  1.20000000E+01  0.00000000E+00
  1.10000000E+02  1.00000000E+01  0.00000000E+00
  1.10000000E+02  8.00000000E+00  0.00000000E+00
  1.10000000E+02  6.00000000E+00  0.00000000E+00
  1.10000000E+02  4.00000000E+00  0.00000000E+00
  1.10000000E+02  2.00000000E+00  0.00000000E+00
  1.10000000E+02 -3.33066907E-14  0.00000000E+00
  1.20000000E+02  1.00000000E+02  0.00000000E+00
  1.20000000E+02  9.80000000E+01  0.00000000E+00
  1.20000000E+02  9.60000000E+01  0.00000000E+00
  1.20000000E+02  9.40000000E+01  0.00000000E+00
  1.20000000E+02  9.20000000E+01  0.00000000E+00
  1.20000000E+02  9.00000000E+01  0.00000000E+00
  1.20000000E+02  8.80000000E+01  0.00000000E+00
  1.20000000E+02  8.60000000E+01  0.00000000E+00
  1.20000000E+02  8.40000000E+01  0.00000000E+00
  1.20000000E+02  8.20000000E+01  0.00000000E+00
  1.20000000E+02  8.00000000E+01  0.00000000E+00
  1.20000000E+02  7.80000000E+01  0.00000000E+00
  1.20000000E+02  7.60000000E+01  0.00000000E+00
  1.20000000E+02  7.40000000E+01  0.00000000E+00
  1.20000000E+02  7.20000000E+01  0.00000000E+00
  1.20000000E+02  7.00000000E+01  0.00000000E+00
  1.20000000E+02  6.80000000E+01  0.00000000E+00
  1.20000000E+02  6.60000000E+01  0.00000000E+00
  1.20000000E+02  6.40000000E+01  0.00000000E+00
  1.20000000E+02  6.20000000E+01  0.00000000E+00
  1.20000000E+02  6.00000000E+01  0.00000000E+00
  1.20000000E+02  5.80000000E+01  0.00000000E+00
  1.20000000E+02  5.60000000E+01  0.00000000E+00
  1.20000000E+02  5.40000000E+01  0.00000000E+00
  1.20000000E+02  5.20000000E+01  0.00000000E+00
  1.20000000E+02  5.00000000E+01  0.00000000E+00
  1.20000000E+02  4.80000000E+01  0.00000000E+00
  1.20000000E+02  4.60000000E+01  0.00000000E+00
  1.20000000E+02  4.40000000E+01  0.00000000E+00
  1.20000000E+02  4.20000000E+01  0.00000000E+00
  1.20000000E+02  4.00000000E+01  0.00000000E+00
  1.20000000E+02  3.80000000E+01  0.00000000E+00
  1.20000000E+02  3.60000000E+01  0.00000000E+00
  1.20000000E+02  3.40000000E+01  0.00000000E+00
  1.20000000E+02  3.20000000E+01  0.00000000E+00
  1.20000000E+02  3.00000000E+01  0.00000000E+00
  1.20000000E+02  2.80000000E+01  0.00000000E+00
  1.20000000E+02  2.60000000E+01  0.00000000E+00
  1.20000000E+02  2.40000000E+01  0.00000000E+00
  1.20000000E+02  2.20000000E+01  0.00000000E+00
  1.20000000E+02  2.00000000E+01  0.00000000E+00
  1.20000000E+02  1.80000000E+01  0.00000000E+00
  1.20000000E+02  1.60000000E+01  0.00000000E+00
  1.20000000E+02  1.40000000E+01  0.00000000E+00
  1.20000000E+02  1.20000000E+01  0.00000000E+00
  1.20000000E+02  1.00000000E+01  0.00000000E+00
  1.20000000E+02  8.00000000E+00  0.00000000E+00
  1.20000000E+02  6.00000000E+00  0.00000000E+00
  1.20000000E+02  4.00000000E+00  0.00000000E+00
  1.20000000E+02  2.00000000E+00  0.00000000E+00
  1.20000000E+02 -3.33066907E-14  0.00000000E+00
  1.30000000E+02  1.00000000E+02  0.00000000E+00
  1.30000000E+02  9.80000000E+01  0.00000000E+00
  1.30000000E+02  9.60000000E+01  0.00000000E+00
  1.30000000E+02  9.40000000E+01  0.00000000E+00
  1.30000000E+02  9.20000000E+01  0.00000000E+00
  1.30000000E+02  9.00000000E+01  0.00000000E+00
  1.30000000E+02  8.80000000E+01  0.00000000E+00
  1.30000000E+02  8.60000000E+01  0.00000000E+00
  1.30000000E+02  8.40000000E+01  0.00000000E+00
  1.30000000E+02  8.20000000E+01  0.00000000E+00
  1.30000000E+02  8.00000000E+01  0.00000000E+00
  1.30000000E+02  7.80000000E+01  0.00000000E+00
  1.30000000E+02  7.60000000E+01  0.00000000E+00
  1.30000000E+02  7.40000000E+01  0.00000000E+00
  1.30000000E+02  7.20000000E+01  0.00000000E+00
  1.30000000E+02  7.00000000E+01  0.00000000E+00
  1.30000000E+02  6.80000000E+01  0.00000000E+00
  1.30000000E+02  6.60000000E+01  0.00000000E+00
  1.30000000E+02  6.40000000E+01  0.00000000E+00
  1.30000000E+02  6.20000000E+01  0.00000000E+00
  1.30000000E+02  6.00000000E+01  0.00000000E+00
  1.30000000E+02  5.80000000E+01  0.00000000E+00
  1.30000000E+02  5.60000000E+01  0.00000000E+00
  1.30000000E+02  5.40000000E+01  0.00000000E+00
  1.30000000E+02  5.20000000E+01  0.00000000E+00
  1.30000000E+02  5.00000000E+01  0.00000000E+00
  1.30000000E+02  4.80000000E+01  0.00000000E+00
  1.30000000E+02  4.60000000E+01  0.00000000E+00
  1.30000000E+02  4.40000000E+01  0.00000000E+00
  1.30000000E+02  4.20000000E+01  0.00000000E+00
  1.30000000E+02  4.00000000E+01  0.00000000E+00
  1.30000000E+02  3.80000000E+01  0.00000000E+00
  1.30000000E+02  3.60000000E+01  0.00000000E+00
  1.30000000E+02  3.40000000E+01  0.00000000E+00
  1.30000000E+02  3.20000000E+01  0.00000000E+00
  1.30000000E+02  3.00000000E+01  0.00000000E+00
  1.30000000E+02  2.80000000E+01  0.00000000E+00
  1.30000000E+02  2.60000000E+01  0.00000000E+00
  1.30000000E+02  2.40000000E+01  0.00000000E+00
  1.30000000E+02  2.20000000E+01  0.00000000E+00
  1.30000000E+02  2.00000000E+01  0.00000000E+00
  1.30000000E+02  1.80000000E+01  0.00000000E+00
  1.30000000E+02  1.60000000E+01  0.00000000E+00
  1.30000000E+02  1.40000000E+01  0.00000000E+00
  1.30000000E+02  1.20000000E+01  0.00000000E+00
  1.30000000E+02  1.00000000E+01  0.00000000E+00
  1.30000000E+02  8.00000000E+00  0.00000000E+00
  1.30000000E+02  6.00000000E+00  0.00000000E+00
  1.30000000E+02  4.00000000E+00  0.00000000E+00
  1.30000000E+02  2.00000000E+00  0.00000000E+00
  1.30000000E+02 -3.33066907E-14  0.00000000E+00
  1.40000000E+02  1.00000000E+02  0.00000000E+00
  1.40000000E+02  9.80000000E+01  0.00000000E+00
  1.40000000E+02  9.60000000E+01  0.00000000E+00
  1.40000000E+02  9.40000000E+01  0.00000000E+00
  1.40000000E+02  9.20000000E+01  0.00000000E+00
  1.40000000E+02  9.00000000E+01  0.00000000E+00
  1.40000000E+02  8.80000000E+01  0.00000000E+00
  1.40000000E+02  8.60000000E+01  0.00000000E+00
  1.40000000E+02  8.40000000E+01  0.00000000E+00
  1.40000000E+02  8.20000000E+01  0.00000000E+00
  1.40000000E+02  8.00000000E+01  0.00000000E+00
  1.40000000E+02  7.80000000E+01  0.00000000E+00
  1.40000000E+02  7.60000000E+01  0.00000000E+00
  1.40000000E+02  7.40000000E+01  0.00000000E+00
  1.40000000E+02  7.20000000E+01  0.00000000E+00
  1.40000000E+02  7.00000000E+01  0.00000000E+00
  1.40000000E+02  6.80000000E+01  0.00000000E+00
  1.40000000E+02  6.60000000E+01  0.00000000E+00
  1.40000000E+02  6.40000000E+01  0.00000000E+00
  1.40000000E+02  6.20000000E+01  0.00000000E+00
  1.40000000E+02  6.00000000E+01  0.00000000E+00
  1.40000000E+02  5.80000000E+01  0.00000000E+00
  1.40000000E+02  5.60000000E+01  0.00000000E+00
  1.40000000E+02  5.40000000E+01  0.00000000E+00
  1.40000000E+02  5.20000000E+01  0.00000000E+00
  1.40000000E+02  5.00000000E+01  0.00000000E+00
  1.40000000E+02  4.80000000E+01  0.00000000E+00
  1.40000000E+02  4.60000000E+01  0.00000000E+00
  1.40000000E+02  4.40000000E+01  0.00000000E+00
  1.40000000E+02  4.20000000E+01  0.00000000E+00
  1.40000000E+02  4.00000000E+01  0.00000000E+00
  1.40000000E+02  3.80000000E+01  0.00000000E+00
  1.40000000E+02  3.60000000E+01  0.00000000E+00
  1.40000000E+02  3.40000000E+01  0.00000000E+00
  1.40000000E+02  3.20000000E+01  0.00000000E+00
  1.40000000E+02  3.00000000E+01  0.00000000E+00
  1.40000000E+02  2.80000000E+01  0.00000000E+00
  1.40000000E+02  2.60000000E+01  0.00000000E+00
  1.40000000E+02  2.40000000E+01  0.00000000E+00
  1.40000000E+02  2.20000000E+01  0.00000000E+00
  1.40000000E+02  2.00000000E+01  0.00000000E+00
  1.40000000E+02  1.80000000E+01  0.00000000E+00
  1.40000000E+02  1.60000000E+01  0.00000000E+00
  1.40000000E+02  1.40000000E+01  0.00000000E+00
  1.40000000E+02  1.20000000E+01  0.00000000E+00
  1.40000000E+02  1.00000000E+01  0.00000000E+00
  1.40000000E+02  8.00000000E+00  0.00000000E+00
  1.40000000E+02  6.00000000E+00  0.00000000E+00
  1.40000000E+02  4.00000000E+00  0.00000000E+00
  1.40000000E+02  2.00000000E+00  0.00000000E+00
  1.40000000E+02 -3.33066907E-14  0.00000000E+00
  1.50000000E+02  1.00000000E+02  0.00000000E+00
  1.50000000E+02  9.80000000E+01  0.00000000E+00
  1.50000000E+02  9.60000000E+01  0.00000000E+00
  1.50000000E+02  9.40000000E+01  0.00000000E+00
  1.50000000E+02  9.20000000E+01  0.00000000E+00
  1.50000000E+02  9.00000000E+01  0.00000000E+00
  1.50000000E+02  8.80000000E+01  0.00000000E+00
  1.50000000E+02  8.60000000E+01  0.00000000E+00
  1.50000000E+02  8.40000000E+01  0.00000000E+00
  1.50000000E+02  8.20000000E+01  0.00000000E+00
  1.50000000E+02  8.00000000E+01  0.00000000E+00
  1.50000000E+02  7.80000000E+01  0.00000000E+00
  1.50000000E+02  7.60000000E+01  0.00000000E+00
  1.50000000E+02  7.40000000E+01  0.00000000E+00
  1.50000000E+02  7.20000000E+01  0.00000000E+00
  1.50000000E+02  7.00000000E+01  0.00000000E+00
  1.50000000E+02  6.80000000E+01  0.00000000E+00
  1.50000000E+02  6.60000000E+01  0.00000000E+00
  1.50000000E+02  6.40000000E+01  0.00000000E+00
  1.50000000E+02  6.20000000E+01  0.00000000E+00
  1.50000000E+02  6.00000000E+01  0.00000000E+00
  1.50000000E+02  5.80000000E+01  0.00000000E+00
  1.50000000E+02  5.60000000E+01  0.00000000E+00
  1.50000000E+02  5.40000000E+01  0.00000000E+00
  1.50000000E+02  5.20000000E+01  0.00000000E+00
  1.50000000E+02  5.00000000E+01  0.00000000E+00
  1.50000000E+02  4.80000000E+01  0.00000000E+00
  1.50000000E+02  4.60000000E+01  0.00000000E+00
  1.50000000E+02  4.40000000E+01  0.00000000E+00
  1.50000000E+02  4.20000000E+01  0.00000000E+00
  1.50000000E+02  4.00000000E+01  0.00000000E+00
  1.50000000E+02  3.80000000E+01  0.00000000E+00
  1.50000000E+02  3.60000000E+01  0.00000000E+00
  1.50000000E+02  3.40000000E+01  0.00000000E+00
  1.50000000E+02  3.20000000E+01  0.00000000E+00
  1.50000000E+02  3.00000000E+01  0.00000000E+00
  1.50000000E+02  2.80000000E+01  0.00000000E+00
  1.50000000E+02  2.60000000E+01  0.00000000E+00
  1.50000000E+02  2.40000000E+01  0.00000000E+00
  1.50000000E+02  2.20000000E+01  0.00000000E+00
  1.50000000E+02  2.00000000E+01  0.00000000E+00
  1.50000000E+02  1.80000000E+01  0.00000000E+00
  1.50000000E+02  1.60000000E+01  0.00000000E+00
  1.50000000E+02  1.40000000E+01  0.00000000E+00
  1.50000000E+02  1.20000000E+01  0.00000000E+00
  1.50000000E+02  1.00000000E+01  0.00000000E+00
  1.50000000E+02  8.00000000E+00  0.00000000E+00
  1.50000000E+02  6.00000000E+00  0.00000000E+00
  1.50000000E+02  4.00000000E+00  0.00000000E+00
  1.50000000E+02  2.00000000E+00  0.00000000E+00
  1.50000000E+02 -3.33066907E-14  0.00000000E+00
  1.60000000E+02  1.00000000E+02  0.00000000E+00
  1.60000000E+02  9.80000000E+01  0.00000000E+00
  1.60000000E+02  9.60000000E+01  0.00000000E+00
  1.60000000E+02  9.40000000E+01  0.00000000E+00
  1.60000000E+02  9.20000000E+01  0.00000000E+00
  1.60000000E+02  9.00000000E+01  0.00000000E+00
  1.60000000E+02  8.80000000E+01  0.00000000E+00
  1.60000000E+02  8.60000000E+01  0.00000000E+00
  1.60000000E+02  8.40000000E+01  0.00000000E+00
  1.60000000E+02  8.20000000E+01  0.00000000E+00
  1.60000000E+02  8.00000000E+01  0.00000000E+00
  1.60000000E+02  7.80000000E+01  0.00000000E+00
  1.60000000E+02  7.60000000E+01  0.00000000E+00
  1.60000000E+02  7.40000000E+01  0.00000000E+00
  1.60000000E+02  7.20000000E+01  0.00000000E+00
  1.60000000E+02  7.00000000E+01  0.00000000E+00
  1.60000000E+02  6.80000000E+01  0.00000000E+00
  1.60000000E+02  6.60000000E+01  0.00000000E+00
  1.60000000E+02  6.40000000E+01  0.00000000E+00
  1.60000000E+02  6.20000000E+01  0.00000000E+00
  1.60000000E+02  6.00000000E+01  0.00000000E+00
  1.60000000E+02  5.80000000E+01  0.00000000E+00
  1.60000000E+02  5.60000000E+01  0.00000000E+00
  1.60000000E+02  5.40000000E+01  0.00000000E+00
  1.60000000E+02  5.20000000E+01  0.00000000E+00
  1.60000000E+02  5.00000000E+01  0.00000000E+00
  1.60000000E+02  4.80000000E+01  0.00000000E+00
  1.60000000E+02  4.60000000E+01  0.00000000E+00
  1.60000000E+02  4.40000000E+01  0.00000000E+00
  1.60000000E+02  4.20000000E+01  0.00000000E+00
  1.60000000E+02  4.00000000E+01  0.00000000E+00
  1.60000000E+02  3.80000000E+01  0.00000000E+00
  1.60000000E+02  3.60000000E+01  0.00000000E+00
  1.60000000E+02  3.40000000E+01  0.00000000E+00
  1.60000000E+02  3.20000000E+01  0.00000000E+00
  1.60000000E+02  3.00000000E+01  0.00000000E+00
  1.60000000E+02  2.80000000E+01  0.00000000E+00
  1.60000000E+02  2.60000000E+01  0.00000000E+00
  1.60000000E+02  2.40000000E+01  0.00000000E+00
  1.60000000E+02  2.20000000E+01  0.00000000E+00
  1.60000000E+02  2.00000000E+01  0.00000000E+00
  1.60000000E+02  1.80000000E+01  0.00000000E+00
  1.60000000E+02  1.60000000E+01  0.00000000E+00
  1.60000000E+02  1.40000000E+01  0.00000000E+00
  1.60000000E+02  1.20000000E+01  0.00000000E+00
  1.60000000E+02  1.00000000E+01  0.00000000E+00
  1.60000000E+02  8.00000000E+00  0.00000000E+00
  1.60000000E+02  6.00000000E+00  0.00000000E+00
  1.60000000E+02  4.00000000E+00  0.00000000E+00
  1.60000000E+02  2.00000000E+00  0.00000000E+00
  1.60000000E+02 -3.33066907E-14  0.00000000E+00
  1.70000000E+02  1.00000000E+02  0.00000000E+00
  1.70000000E+02  9.80000000E+01  0.00000000E+00
  1.70000000E+02  9.60000000E+01  0.00000000E+00
  1.70000000E+02  9.40000000E+01  0.00000000E+00
  1.70000000E+02  9.20000000E+01  0.00000000E+00
  1.70000000E+02  9.00000000E+01  0.00000000E+00
  1.70000000E+02  8.80000000E+01  0.00000000E+00
  1.70000000E+02  8.60000000E+01  0.00000000E+00
  1.70000000E+02  8.40000000E+01  0.00000000E+00
  1.70000000E+02  8.20000000E+01  0.00000000E+00
  1.70000000E+02  8.00000000E+01  0.00000000E+00
  1.70000000E+02  7.80000000E+01  0.00000000E+00
  1.70000000E+02  7.60000000E+01  0.00000000E+00
  1.70000000E+02  7.40000000E+01  0.00000000E+00
  1.70000000E+02  7.20000000E+01  0.00000000E+00
  1.70000000E+02  7.00000000E+01  0.00000000E+00
  1.70000000E+02  6.80000000E+01  0.00000000E+00
  1.70000000E+02  6.60000000E+01  0.00000000E+00
  1.70000000E+02  6.40000000E+01  0.00000000E+00
  1.70000000E+02  6.20000000E+01  0.00000000E+00
  1.70000000E+02  6.00000000E+01  0.00000000E+00
  1.70000000E+02  5.80000000E+01  0.00000000E+00
  1.70000000E+02  5.60000000E+01  0.00000000E+00
  1.70000000E+02  5.40000000E+01  0.00000000E+00
  1.70000000E+02  5.20000000E+01  0.00000000E+00
  1.70000000E+02  5.00000000E+01  0.00000000E+00
  1.70000000E+02  4.80000000E+01  0.00000000E+00
  1.70000000E+02  4.60000000E+01  0.00000000E+00
  1.70000000E+02  4.40000000E+01  0.00000000E+00
  1.70000000E+02  4.20000000E+01  0.00000000E+00
  1.70000000E+02  4.00000000E+01  0.00000000E+00
  1.70000000E+02  3.80000000E+01  0.00000000E+00
  1.70000000E+02  3.60000000E+01  0.00000000E+00
  1.70000000E+02  3.40000000E+01  0.00000000E+00
  1.70000000E+02  3.20000000E+01  0.00000000E+00
  1.70000000E+02  3.00000000E+01  0.00000000E+00
  1.70000000E+02  2.80000000E+01  0.00000000E+00
  1.70000000E+02  2.60000000E+01  0.00000000E+00
  1.70000000E+02  2.40000000E+01  0.00000000E+00
  1.70000000E+02  2.20000000E+01  0.00000000E+00
  1.70000000E+02  2.00000000E+01  0.00000000E+00
  1.70000000E+02  1.80000000E+01  0.00000000E+00
  1.70000000E+02  1.60000000E+01  0.00000000E+00
  1.70000000E+02  1.40000000E+01  0.00000000E+00
  1.70000000E+02  1.20000000E+01  0.00000000E+00
  1.70000000E+02  1.00000000E+01  0.00000000E+00
  1.70000000E+02  8.00000000E+00  0.00000000E+00
  1.70000000E+02  6.00000000E+00  0.00000000E+00
  1.70000000E+02  4.00000000E+00  0.00000000E+00
  1.70000000E+02  2.00000000E+00  0.00000000E+00
  1.70000000E+02 -3.33066907E-14  0.00000000E+00
  1.80000000E+02  1.00000000E+02  0.00000000E+00
  1.80000000E+02  9.80000000E+01  0.00000000E+00
  1.80000000E+02  9.60000000E+01  0.00000000E+00
  1.80000000E+02  9.40000000E+01  0.00000000E+00
  1.80000000E+02  9.20000000E+01  0.00000000E+00
  1.80000000E+02  9.00000000E+01  0.00000000E+00
  1.80000000E+02  8.80000000E+01  0.00000000E+00
  1.80000000E+02  8.60000000E+01  0.00000000E+00
  1.80000000E+02  8.40000000E+01  0.00000000E+00
  1.80000000E+02  8.20000000E+01  0.00000000E+00
  1.80000000E+02  8.00000000E+01  0.00000000E+00
  1.80000000E+02  7.80000000E+01  0.00000000E+00
  1.80000000E+02  7.60000000E+01  0.00000000E+00
  1.80000000E+02  7.40000000E+01  0.00000000E+00
  1.80000000E+02  7.20000000E+01  0.00000000E+00
  1.80000000E+02  7.00000000E+01  0.00000000E+00
  1.80000000E+02  6.80000000E+01  0.00000000E+00
  1.80000000E+02  6.60000000E+01  0.00000000E+00
  1.80000000E+02  6.40000000E+01  0.00000000E+00
  1.80000000E+02  6.20000000E+01  0.00000000E+00
  1.80000000E+02  6.00000000E+01  0.00000000E+00
  1.80000000E+02  5.80000000E+01  0.00000000E+00
  1.80000000E+02  5.60000000E+01  0.00000000E+00
  1.80000000E+02  5.40000000E+01  0.00000000E+00
  1.80000000E+02  5.20000000E+01  0.00000000E+00
  1.80000000E+02  5.00000000E+01  0.00000000E+00
  1.80000000E+02  4.80000000E+01  0.00000000E+00
  1.80000000E+02  4.60000000E+01  0.00000000E+00
  1.80000000E+02  4.40000000E+01  0.00000000E+00
  1.80000000E+02  4.20000000E+01  0.00000000E+00
  1.80000000E+02  4.00000000E+01  0.00000000E+00
  1.80000000E+02  3.80000000E+01  0.00000000E+00
  1.80000000E+02  3.60000000E+01  0.00000000E+00
  1.80000000E+02  3.40000000E+01  0.00000000E+00
  1.80000000E+02  3.20000000E+01  0.00000000E+00
  1.80000000E+02  3.00000000E+01  0.00000000E+00
  1.80000000E+02  2.80000000E+01  0.00000000E+00
  1.80000000E+02  2.60000000E+01  0.00000000E+00
  1.80000000E+02  2.40000000E+01  0.00000000E+00
  1.80000000E+02  2.20000000E+01  0.00000000E+00
  1.80000000E+02  2.00000000E+01  0.00000000E+00
  1.80000000E+02  1.80000000E+01  0.00000000E+00
  1.80000000E+02  1.60000000E+01  0.00000000E+00
  1.80000000E+02  1.40000000E+01  0.00000000E+00
  1.80000000E+02  1.20000000E+01  0.00000000E+00
  1.80000000E+02  1.00000000E+01  0.00000000E+00
  1.80000000E+02  8.00000000E+00  0.00000000E+00
  1.80000000E+02  6.00000000E+00  0.00000000E+00
  1.80000000E+02  4.00000000E+00  0.00000000E+00
  1.80000000E+02  2.00000000E+00  0.00000000E+00
  1.80000000E+02 -3.33066907E-14  0.00000000E+00
  1.90000000E+02  1.00000000E+02  0.00000000E+00
  1.90000000E+02  9.80000000E+01  0.00000000E+00
  1.90000000E+02  9.60000000E+01  0.00000000E+00
  1.90000000E+02  9.40000000E+01  0.00000000E+00
  1.90000000E+02  9.20000000E+01  0.00000000E+00
  1.90000000E+02  9.00000000E+01  0.00000000E+00
  1.90000000E+02  8.80000000E+01  0.00000000E+00
  1.90000000E+02  8.60000000E+01  0.00000000E+00
  1.90000000E+02  8.40000000E+01  0.00000000E+00
  1.90000000E+02  8.20000000E+01  0.00000000E+00
  1.90000000E+02  8.00000000E+01  0.00000000E+00
  1.90000000E+02  7.80000000E+01  0.00000000E+00
  1.90000000E+02  7.60000000E+01  0.00000000E+00
  1.90000000E+02  7.40000000E+01  0.00000000E+00
  1.90000000E+02  7.20000000E+01  0.00000000E+00
  1.90000000E+02  7.00000000E+01  0.00000000E+00
  1.90000000E+02  6.80000000E+01  0.00000000E+00
  1.90000000E+02  6.60000000E+01  0.00000000E+00
  1.90000000E+02  6.40000000E+01  0.00000000E+00
  1.90000000E+02  6.20000000E+01  0.00000000E+00
  1.90000000E+02  6.00000000E+01  0.00000000E+00
  1.90000000E+02  5.80000000E+01  0.00000000E+00
  1.90000000E+02  5.60000000E+01  0.00000000E+00
  1.90000000E+02  5.40000000E+01  0.00000000E+00
  1.90000000E+02  5.20000000E+01  0.00000000E+00
  1.90000000E+02  5.00000000E+01  0.00000000E+00
  1.90000000E+02  4.80000000E+01  0.00000000E+00
  1.90000000E+02  4.60000000E+01  0.00000000E+00
  1.90000000E+02  4.40000000E+01  0.00000000E+00
  1.90000000E+02  4.20000000E+01  0.00000000E+00
  1.90000000E+02  4.00000000E+01  0.00000000E+00
  1.90000000E+02  3.80000000E+01  0.00000000E+00
  1.90000000E+02  3.60000000E+01  0.00000000E+00
  1.90000000E+02  3.40000000E+01  0.00000000E+00
  1.90000000E+02  3.20000000E+01  0.00000000E+00
  1.90000000E+02  3.00000000E+01  0.00000000E+00
  1.90000000E+02  2.80000000E+01  0.00000000E+00
  1.90000000E+02  2.60000000E+01  0.00000000E+00
  1.90000000E+02  2.40000000E+01  0.00000000E+00
  1.90000000E+02  2.20000000E+01  0.00000000E+00
  1.90000000E+02  2.00000000E+01  0.00000000E+00
  1.90000000E+02  1.80000000E+01  0.00000000E+00
  1.90000000E+02  1.60000000E+01  0.00000000E+00
  1.90000000E+02  1.40000000E+01  0.00000000E+00
  1.90000000E+02  1.20000000E+01  0.00000000E+00
  1.90000000E+02  1.00000000E+01  0.00000000E+00
  1.90000000E+02  8.00000000E+00  0.00000000E+00
  1.90000000E+02  6.00000000E+00  0.00000000E+00
  1.90000000E+02  4.00000000E+00  0.00000000E+00
  1.90000000E+02  2.00000000E+00  0.00000000E+00
  1.90000000E+02 -3.33066907E-14  0.00000000E+00
  2.00000000E+02  1.00000000E+02  0.00000000E+00
  2.00000000E+02  9.80000000E+01  0.00000000E+00
  2.00000000E+02  9.60000000E+01  0.00000000E+00
  2.00000000E+02  9.40000000E+01  0.00000000E+00
  2.00000000E+02  9.20000000E+01  0.00000000E+00
  2.00000000E+02  9.00000000E+01  0.00000000E+00
  2.00000000E+02  8.80000000E+01  0.00000000E+00
  2.00000000E+02  8.60000000E+01  0.00000000E+00
  2.00000000E+02  8.40000000E+01  0.00000000E+00
  2.00000000E+02  8.20000000E+01  0.00000000E+00
  2.00000000E+02  8.00000000E+01  0.00000000E+00
  2.00000000E+02  7.80000000E+01  0.00000000E+00
  2.00000000E+02  7.60000000E+01  0.00000000E+00
  2.00000000E+02  7.40000000E+01  0.00000000E+00
  2.00000000E+02  7.20000000E+01  0.00000000E+00
  2.00000000E+02  7.00000000E+01  0.00000000E+00
  2.00000000E+02  6.80000000E+01  0.00000000E+00
  2.00000000E+02  6.60000000E+01  0.00000000E+00
  2.00000000E+02  6.40000000E+01  0.00000000E+00
  2.00000000E+02  6.20000000E+01  0.00000000E+00
  2.00000000E+02  6.00000000E+01  0.00000000E+00
  2.00000000E+02  5.80000000E+01  0.00000000E+00
  2.00000000E+02  5.60000000E+01  0.00000000E+00
  2.00000000E+02  5.40000000E+01  0.00000000E+00
  2.00000000E+02  5.20000000E+01  0.00000000E+00
  2.00000000E+02  5.00000000E+01  0.00000000E+00
  2.00000000E+02  4.80000000E+01  0.00000000E+00
  2.00000000E+02  4.60000000E+01  0.00000000E+00
  2.00000000E+02  4.40000000E+01  0.00000000E+00
  2.00000000E+02  4.20000000E+01  0.00000000E+00
  2.00000000E+02  4.00000000E+01  0.00000000E+00
  2.00000000E+02  3.80000000E+01  0.00000000E+00
  2.00000000E+02  3.60000000E+01  0.00000000E+00
  2.00000000E+02  3.40000000E+01  0.00000000E+00
  2.00000000E+02  3.20000000E+01  0.00000000E+00
  2.00000000E+02  3.00000000E+01  0.00000000E+00
  2.00000000E+02  2.80000000E+01  0.00000000E+00
  2.00000000E+02  2.60000000E+01  0.00000000E+00
  2.00000000E+02  2.40000000E+01  0.00000000E+00
  2.00000000E+02  2.20000000E+01  0.00000000E+00
  2.00000000E+02  2.00000000E+01  0.00000000E+00
  2.00000000E+02  1.80000000E+01  0.00000000E+00
  2.00000000E+02  1.60000000E+01  0.00000000E+00
  2.00000000E+02  1.40000000E+01  0.00000000E+00
  2.00000000E+02  1.20000000E+01  0.00000000E+00
  2.00000000E+02  1.00000000E+01  0.00000000E+00
  2.00000000E+02  8.00000000E+00  0.00000000E+00
  2.00000000E+02  6.00000000E+00  0.00000000E+00
  2.00000000E+02  4.00000000E+00  0.00000000E+00
  2.00000000E+02  2.00000000E+00  0.00000000E+00
  2.00000000E+02 -3.33066907E-14  0.00000000E+00
  2.10000000E+02  1.00000000E+02  0.00000000E+00
  2.10000000E+02  9.80000000E+01  0.00000000E+00
  2.10000000E+02  9.60000000E+01  0.00000000E+00
  2.10000000E+02  9.40000000E+01  0.00000000E+00
  2.10000000E+02  9.20000000E+01  0.00000000E+00
  2.10000000E+02  9.00000000E+01  0.00000000E+00
  2.10000000E+02  8.80000000E+01  0.00000000E+00
  2.10000000E+02  8.60000000E+01  0.00000000E+00
  2.10000000E+02  8.40000000E+01  0.00000000E+00
  2.10000000E+02  8.20000000E+01  0.00000000E+00
  2.10000000E+02  8.00000000E+01  0.00000000E+00
  2.10000000E+02  7.80000000E+01  0.00000000E+00
  2.10000000E+02  7.60000000E+01  0.00000000E+00
  2.10000000E+02  7.40000000E+01  0.00000000E+00
  2.10000000E+02  7.20000000E+01  0.00000000E+00
  2.10000000E+02  7.00000000E+01  0.00000000E+00
  2.10000000E+02  6.80000000E+01  0.00000000E+00
  2.10000000E+02  6.60000000E+01  0.00000000E+00
  2.10000000E+02  6.40000000E+01  0.00000000E+00
  2.10000000E+02  6.20000000E+01  0.00000000E+00
  2.10000000E+02  6.00000000E+01  0.00000000E+00
  2.10000000E+02  5.80000000E+01  0.00000000E+00
  2.10000000E+02  5.60000000E+01  0.00000000E+00
  2.10000000E+02  5.40000000E+01  0.00000000E+00
  2.10000000E+02  5.20000000E+01  0.00000000E+00
  2.10000000E+02  5.00000000E+01  0.00000000E+00
  2.10000000E+02  4.80000000E+01  0.00000000E+00
  2.10000000E+02  4.60000000E+01  0.00000000E+00
  2.10000000E+02  4.40000000E+01  0.00000000E+00
  2.10000000E+02  4.20000000E+01  0.00000000E+00
  2.10000000E+02  4.00000000E+01  0.00000000E+00
  2.10000000E+02  3.80000000E+01  0.00000000E+00
  2.10000000E+02  3.60000000E+01  0.00000000E+00
  2.10000000E+02  3.40000000E+01  0.00000000E+00
  2.10000000E+02  3.20000000E+01  0.00000000E+00
  2.10000000E+02  3.00000000E+01  0.00000000E+00
  2.10000000E+02  2.80000000E+01  0.00000000E+00
  2.10000000E+02  2.60000000E+01  0.00000000E+00
  2.10000000E+02  2.40000000E+01  0.00000000E+00
  2.10000000E+02  2.20000000E+01  0.00000000E+00
  2.10000000E+02  2.00000000E+01  0.00000000E+00
  2.10000000E+02  1.80000000E+01  0.00000000E+00
  2.10000000E+02  1.60000000E+01  0.00000000E+00
  2.10000000E+02  1.40000000E+01  0.00000000E+00
  2.10000000E+02  1.20000000E+01  0.00000000E+00
  2.10000000E+02  1.00000000E+01  0.00000000E+00
  2.10000000E+02  8.00000000E+00  0.00000000E+00
  2.10000000E+02  6.00000000E+00  0.00000000E+00
  2.10000000E+02  4.00000000E+00  0.00000000E+00
  2.10000000E+02  2.00000000E+00  0.00000000E+00
  2.10000000E+02 -3.33066907E-14  0.00000000E+00
  2.20000000E+02  1.00000000E+02  0.00000000E+00
  2.20000000E+02  9.80000000E+01  0.00000000E+00
  2.20000000E+02  9.60000000E+01  0.00000000E+00
  2.20000000E+02  9.40000000E+01  0.00000000E+00
  2.20000000E+02  9.20000000E+01  0.00000000E+00
  2.20000000E+02  9.00000000E+01  0.00000000E+00
  2.20000000E+02  8.80000000E+01  0.00000000E+00
  2.20000000E+02  8.60000000E+01  0.00000000E+00
  2.20000000E+02  8.40000000E+01  0.00000000E+00
  2.20000000E+02  8.20000000E+01  0.00000000E+00
  2.20000000E+02  8.00000000E+01  0.00000000E+00
  2.20000000E+02  7.80000000E+01  0.00000000E+00
  2.20000000E+02  7.60000000E+01  0.00000000E+00
  2.20000000E+02  7.40000000E+01  0.00000000E+00
  2.20000000E+02  7.20000000E+01  0.00000000E+00
  2.20000000E+02  7.00000000E+01  0.00000000E+00
  2.20000000E+02  6.80000000E+01  0.00000000E+00
  2.20000000E+02  6.60000000E+01  0.00000000E+00
  2.20000000E+02  6.40000000E+01  0.00000000E+00
  2.20000000E+02  6.20000000E+01  0.00000000E+00
  2.20000000E+02  6.00000000E+01  0.00000000E+00
  2.20000000E+02  5.80000000E+01  0.00000000E+00
  2.20000000E+02  5.60000000E+01  0.00000000E+00
  2.20000000E+02  5.40000000E+01  0.00000000E+00
  2.20000000E+02  5.20000000E+01  0.00000000E+00
  2.20000000E+02  5.00000000E+01  0.00000000E+00
  2.20000000E+02  4.80000000E+01  0.00000000E+00
  2.20000000E+02  4.60000000E+01  0.00000000E+00
  2.20000000E+02  4.40000000E+01  0.00000000E+00
  2.20000000E+02  4.20000000E+01  0.00000000E+00
  2.20000000E+02  4.00000000E+01  0.00000000E+00
  2.20000000E+02  3.80000000E+01  0.00000000E+00
  2.20000000E+02  3.60000000E+01  0.00000000E+00
  2.20000000E+02  3.40000000E+01  0.00000000E+00
  2.20000000E+02  3.20000000E+01  0.00000000E+00
  2.20000000E+02  3.00000000E+01  0.00000000E+00
  2.20000000E+02  2.80000000E+01  0.00000000E+00
  2.20000000E+02  2.60000000E+01  0.00000000E+00
  2.20000000E+02  2.40000000E+01  0.00000000E+00
  2.20000000E+02  2.20000000E+01  0.00000000E+00
  2.20000000E+02  2.00000000E+01  0.00000000E+00
  2.20000000E+02  1.80000000E+01  0.00000000E+00
  2.20000000E+02  1.60000000E+01  0.00000000E+00
  2.20000000E+02  1.40000000E+01  0.00000000E+00
  2.20000000E+02  1.20000000E+01  0.00000000E+00
  2.20000000E+02  1.00000000E+01  0.00000000E+00
  2.20000000E+02  8.00000000E+00  0.00000000E+00
  2.20000000E+02  6.00000000E+00  0.00000000E+00
  2.20000000E+02  4.00000000E+00  0.00000000E+00
  2.20000000E+02  2.00000000E+00  0.00000000E+00
  2.20000000E+02 -3.33066907E-14  0.00000000E+00
  2.30000000E+02  1.00000000E+02  0.00000000E+00
  2.30000000E+02  9.80000000E+01  0.00000000E+00
  2.30000000E+02  9.60000000E+01  0.00000000E+00
  2.30000000E+02  9.40000000E+01  0.00000000E+00
  2.30000000E+02  9.20000000E+01  0.00000000E+00
  2.30000000E+02  9.00000000E+01  0.00000000E+00
  2.30000000E+02  8.80000000E+01  0.00000000E+00
  2.30000000E+02  8.60000000E+01  0.00000000E+00
  2.30000000E+02  8.40000000E+01  0.00000000E+00
  2.30000000E+02  8.20000000E+01  0.00000000E+00
  2.30000000E+02  8.00000000E+01  0.00000000E+00
  2.30000000E+02  7.80000000E+01  0.00000000E+00
  2.30000000E+02  7.60000000E+01  0.00000000E+00
  2.30000000E+02  7.40000000E+01  0.00000000E+00
  2.30000000E+02  7.20000000E+01  0.00000000E+00
  2.30000000E+02  7.00000000E+01  0.00000000E+00
  2.30000000E+02  6.80000000E+01  0.00000000E+00
  2.30000000E+02  6.60000000E+01  0.00000000E+00
  2.30000000E+02  6.40000000E+01  0.00000000E+00
  2.30000000E+02  6.20000000E+01  0.00000000E+00
  2.30000000E+02  6.00000000E+01  0.00000000E+00
  2.30000000E+02  5.80000000E+01  0.00000000E+00
  2.30000000E+02  5.60000000E+01  0.00000000E+00
  2.30000000E+02  5.40000000E+01  0.00000000E+00
  2.30000000E+02  5.20000000E+01  0.00000000E+00
  2.30000000E+02  5.00000000E+01  0.00000000E+00
  2.30000000E+02  4.80000000E+01  0.00000000E+00
  2.30000000E+02  4.60000000E+01  0.00000000E+00
  2.30000000E+02  4.40000000E+01  0.00000000E+00
  2.30000000E+02  4.20000000E+01  0.00000000E+00
  2.30000000E+02  4.00000000E+01  0.00000000E+00
  2.30000000E+02  3.80000000E+01  0.00000000E+00
  2.30000000E+02  3.60000000E+01  0.00000000E+00
  2.30000000E+02  3.40000000E+01  0.00000000E+00
  2.30000000E+02  3.20000000E+01  0.00000000E+00
  2.30000000E+02  3.00000000E+01  0.00000000E+00
  2.30000000E+02  2.80000000E+01  0.00000000E+00
  2.30000000E+02  2.60000000E+01  0.00000000E+00
  2.30000000E+02  2.40000000E+01  0.00000000E+00
  2.30000000E+02  2.20000000E+01  0.00000000E+00
  2.30000000E+02  2.00000000E+01  0.00000000E+00
  2.30000000E+02  1.80000000E+01  0.00000000E+00
  2.30000000E+02  1.60000000E+01  0.00000000E+00
  2.30000000E+02  1.40000000E+01  0.00000000E+00
  2.30000000E+02  1.20000000E+01  0.00000000E+00
  2.30000000E+02  1.00000000E+01  0.00000000E+00
  2.30000000E+02  8.00000000E+00  0.00000000E+00
  2.30000000E+02  6.00000000E+00  0.00000000E+00
  2.30000000E+02  4.00000000E+00  0.00000000E+00
  2.30000000E+02  2.00000000E+00  0.00000000E+00
  2.30000000E+02 -3.33066907E-14  0.00000000E+00
  2.40000000E+02  1.00000000E+02  0.00000000E+00
  2.40000000E+02  9.80000000E+01  0.00000000E+00
  2.40000000E+02  9.60000000E+01  0.00000000E+00
  2.40000000E+02  9.40000000E+01  0.00000000E+00
  2.40000000E+02  9.20000000E+01  0.00000000E+00
  2.40000000E+02  9.00000000E+01  0.00000000E+00
  2.40000000E+02  8.80000000E+01  0.00000000E+00
  2.40000000E+02  8.60000000E+01  0.00000000E+00
  2.40000000E+02  8.40000000E+01  0.00000000E+00
  2.40000000E+02  8.20000000E+01  0.00000000E+00
  2.40000000E+02  8.00000000E+01  0.00000000E+00
  2.40000000E+02  7.80000000E+01  0.00000000E+00
  2.40000000E+02  7.60000000E+01  0.00000000E+00
  2.40000000E+02  7.40000000E+01  0.00000000E+00
  2.40000000E+02  7.20000000E+01  0.00000000E+00
  2.40000000E+02  7.00000000E+01  0.00000000E+00
  2.40000000E+02  6.80000000E+01  0.00000000E+00
  2.40000000E+02  6.60000000E+01  0.00000000E+00
  2.40000000E+02  6.40000000E+01  0.00000000E+00
  2.40000000E+02  6.20000000E+01  0.00000000E+00
  2.40000000E+02  6.00000000E+01  0.00000000E+00
  2.40000000E+02  5.80000000E+01  0.00000000E+00
  2.40000000E+02  5.60000000E+01  0.00000000E+00
  2.40000000E+02  5.40000000E+01  0.00000000E+00
  2.40000000E+02  5.20000000E+01  0.00000000E+00
  2.40000000E+02  5.00000000E+01  0.00000000E+00
  2.40000000E+02  4.80000000E+01  0.00000000E+00
  2.40000000E+02  4.60000000E+01  0.00000000E+00
  2.40000000E+02  4.40000000E+01  0.00000000E+00
  2.40000000E+02  4.20000000E+01  0.00000000E+00
  2.40000000E+02  4.00000000E+01  0.00000000E+00
  2.40000000E+02  3.80000000E+01  0.00000000E+00
  2.40000000E+02  3.60000000E+01  0.00000000E+00
  2.40000000E+02  3.40000000E+01  0.00000000E+00
  2.40000000E+02  3.20000000E+01  0.00000000E+00
  2.40000000E+02  3.00000000E+01  0.00000000E+00
  2.40000000E+02  2.80000000E+01  0.00000000E+00
  2.40000000E+02  2.60000000E+01  0.00000000E+00
  2.40000000E+02  2.40000000E+01  0.00000000E+00
  2.40000000E+02  2.20000000E+01  0.00000000E+00
  2.40000000E+02  2.00000000E+01  0.00000000E+00
  2.40000000E+02  1.80000000E+01  0.00000000E+00
  2.40000000E+02  1.60000000E+01  0.00000000E+00
  2.40000000E+02  1.40000000E+01  0.00000000E+00
  2.40000000E+02  1.20000000E+01  0.00000000E+00
  2.40000000E+02  1.00000000E+01  0.00000000E+00
  2.40000000E+02  8.00000000E+00  0.00000000E+00
  2.40000000E+02  6.00000000E+00  0.00000000E+00
  2.40000000E+02  4.00000000E+00  0.00000000E+00
  2.40000000E+02  2.00000000E+00  0.00000000E+00
  2.40000000E+02 -3.33066907E-14  0.00000000E+00
  2.50000000E+02  1.00000000E+02  0.00000000E+00
  2.50000000E+02  9.80000000E+01  0.00000000E+00
  2.50000000E+02  9.60000000E+01  0.00000000E+00
  2.50000000E+02  9.40000000E+01  0.00000000E+00
  2.50000000E+02  9.20000000E+01  0.00000000E+00
  2.50000000E+02  9.00000000E+01  0.00000000E+00
  2.50000000E+02  8.80000000E+01  0.00000000E+00
  2.50000000E+02  8.60000000E+01  0.00000000E+00
  2.50000000E+02  8.40000000E+01  0.00000000E+00
  2.50000000E+02  8.20000000E+01  0.00000000E+00
  2.50000000E+02  8.00000000E+01  0.00000000E+00
  2.50000000E+02  7.80000000E+01  0.00000000E+00
  2.50000000E+02  7.60000000E+01  0.00000000E+00
  2.50000000E+02  7.40000000E+01  0.00000000E+00
  2.50000000E+02  7.20000000E+01  0.00000000E+00
  2.50000000E+02  7.00000000E+01  0.00000000E+00
  2.50000000E+02  6.80000000E+01  0.00000000E+00
  2.50000000E+02  6.60000000E+01  0.00000000E+00
  2.50000000E+02  6.40000000E+01  0.00000000E+00
  2.50000000E+02  6.20000000E+01  0.00000000E+00
  2.50000000E+02  6.00000000E+01  0.00000000E+00
  2.50000000E+02  5.80000000E+01  0.00000000E+00
  2.50000000E+02  5.60000000E+01  0.00000000E+00
  2.50000000E+02  5.40000000E+01  0.00000000E+00
  2.50000000E+02  5.20000000E+01  0.00000000E+00
  2.50000000E+02  5.00000000E+01  0.00000000E+00
  2.50000000E+02  4.80000000E+01  0.00000000E+00
  2.50000000E+02  4.60000000E+01  0.00000000E+00
  2.50000000E+02  4.40000000E+01  0.00000000E+00
  2.50000000E+02  4.20000000E+01  0.00000000E+00
  2.50000000E+02  4.00000000E+01  0.00000000E+00
  2.50000000E+02  3.80000000E+01  0.00000000E+00
  2.50000000E+02  3.60000000E+01  0.00000000E+00
  2.50000000E+02  3.40000000E+01  0.00000000E+00
  2.50000000E+02  3.20000000E+01  0.00000000E+00
  2.50000000E+02  3.00000000E+01  0.00000000E+00
  2.50000000E+02  2.80000000E+01  0.00000000E+00
  2.50000000E+02  2.60000000E+01  0.00000000E+00
  2.50000000E+02  2.40000000E+01  0.00000000E+00
  2.50000000E+02  2.20000000E+01  0.00000000E+00
  2.50000000E+02  2.00000000E+01  0.00000000E+00
  2.50000000E+02  1.80000000E+01  0.00000000E+00
  2.50000000E+02  1.60000000E+01  0.00000000E+00
  2.50000000E+02  1.40000000E+01  0.00000000E+00
  2.50000000E+02  1.20000000E+01  0.00000000E+00
  2.50000000E+02  1.00000000E+01  0.00000000E+00
  2.50000000E+02  8.00000000E+00  0.00000000E+00
  2.50000000E+02  6.00000000E+00  0.00000000E+00
  2.50000000E+02  4.00000000E+00  0.00000000E+00
  2.50000000E+02  2.00000000E+00  0.00000000E+00
  2.50000000E+02 -3.33066907E-14  0.00000000E+00
  2.60000000E+02  1.00000000E+02  0.00000000E+00
  2.60000000E+02  9.80000000E+01  0.00000000E+00
  2.60000000E+02  9.60000000E+01  0.00000000E+00
  2.60000000E+02  9.40000000E+01  0.00000000E+00
  2.60000000E+02  9.20000000E+01  0.00000000E+00
  2.60000000E+02  9.00000000E+01  0.00000000E+00
  2.60000000E+02  8.80000000E+01  0.00000000E+00
  2.60000000E+02  8.60000000E+01  0.00000000E+00
  2.60000000E+02  8.40000000E+01  0.00000000E+00
  2.60000000E+02  8.20000000E+01  0.00000000E+00
  2.60000000E+02  8.00000000E+01  0.00000000E+00
  2.60000000E+02  7.80000000E+01  0.00000000E+00
  2.60000000E+02  7.60000000E+01  0.00000000E+00
  2.60000000E+02  7.40000000E+01  0.00000000E+00
  2.60000000E+02  7.20000000E+01  0.00000000E+00
  2.60000000E+02  7.00000000E+01  0.00000000E+00
  2.60000000E+02  6.80000000E+01  0.00000000E+00
  2.60000000E+02  6.60000000E+01  0.00000000E+00
  2.60000000E+02  6.40000000E+01  0.00000000E+00
  2.60000000E+02  6.20000000E+01  0.00000000E+00
  2.60000000E+02  6.00000000E+01  0.00000000E+00
  2.60000000E+02  5.80000000E+01  0.00000000E+00
  2.60000000E+02  5.60000000E+01  0.00000000E+00
  2.60000000E+02  5.40000000E+01  0.00000000E+00
  2.60000000E+02  5.20000000E+01  0.00000000E+00
  2.60000000E+02  5.00000000E+01  0.00000000E+00
  2.60000000E+02  4.80000000E+01  0.00000000E+00
  2.60000000E+02  4.60000000E+01  0.00000000E+00
  2.60000000E+02  4.40000000E+01  0.00000000E+00
  2.60000000E+02  4.20000000E+01  0.00000000E+00
  2.60000000E+02  4.00000000E+01  0.00000000E+00
  2.60000000E+02  3.80000000E+01  0.00000000E+00
  2.60000000E+02  3.60000000E+01  0.00000000E+00
  2.60000000E+02  3.40000000E+01  0.00000000E+00
  2.60000000E+02  3.20000000E+01  0.00000000E+00
  2.60000000E+02  3.00000000E+01  0.00000000E+00
  2.60000000E+02  2.80000000E+01  0.00000000E+00
  2.60000000E+02  2.60000000E+01  0.00000000E+00
  2.60000000E+02  2.40000000E+01  0.00000000E+00
  2.60000000E+02  2.20000000E+01  0.00000000E+00
  2.60000000E+02  2.00000000E+01  0.00000000E+00
  2.60000000E+02  1.80000000E+01  0.00000000E+00
  2.60000000E+02  1.60000000E+01  0.00000000E+00
  2.60000000E+02  1.40000000E+01  0.00000000E+00
  2.60000000E+02  1.20000000E+01  0.00000000E+00
  2.60000000E+02  1.00000000E+01  0.00000000E+00
  2.60000000E+02  8.00000000E+00  0.00000000E+00
  2.60000000E+02  6.00000000E+00  0.00000000E+00
  2.60000000E+02  4.00000000E+00  0.00000000E+00
  2.60000000E+02  2.00000000E+00  0.00000000E+00
  2.60000000E+02 -3.33066907E-14  0.00000000E+00
  2.70000000E+02  1.00000000E+02  0.00000000E+00
  2.70000000E+02  9.80000000E+01  0.00000000E+00
  2.70000000E+02  9.60000000E+01  0.00000000E+00
  2.70000000E+02  9.40000000E+01  0.00000000E+00
  2.70000000E+02  9.20000000E+01  0.00000000E+00
  2.70000000E+02  9.00000000E+01  0.00000000E+00
  2.70000000E+02  8.80000000E+01  0.00000000E+00
  2.70000000E+02  8.60000000E+01  0.00000000E+00
  2.70000000E+02  8.40000000E+01  0.00000000E+00
  2.70000000E+02  8.20000000E+01  0.00000000E+00
  2.70000000E+02  8.00000000E+01  0.00000000E+00
  2.70000000E+02  7.80000000E+01  0.00000000E+00
  2.70000000E+02  7.60000000E+01  0.00000000E+00
  2.70000000E+02  7.40000000E+01  0.00000000E+00
  2.70000000E+02  7.20000000E+01  0.00000000E+00
  2.70000000E+02  7.00000000E+01  0.00000000E+00
  2.70000000E+02  6.80000000E+01  0.00000000E+00
  2.70000000E+02  6.60000000E+01  0.00000000E+00
  2.70000000E+02  6.40000000E+01  0.00000000E+00
  2.70000000E+02  6.20000000E+01  0.00000000E+00
  2.70000000E+02  6.00000000E+01  0.00000000E+00
  2.70000000E+02  5.80000000E+01  0.00000000E+00
  2.70000000E+02  5.60000000E+01  0.00000000E+00
  2.70000000E+02  5.40000000E+01  0.00000000E+00
  2.70000000E+02  5.20000000E+01  0.00000000E+00
  2.70000000E+02  5.00000000E+01  0.00000000E+00
  2.70000000E+02  4.80000000E+01  0.00000000E+00
  2.70000000E+02  4.60000000E+01  0.00000000E+00
  2.70000000E+02  4.40000000E+01  0.00000000E+00
  2.70000000E+02  4.20000000E+01  0.00000000E+00
  2.70000000E+02  4.00000000E+01  0.00000000E+00
  2.70000000E+02  3.80000000E+01  0.00000000E+00
  2.70000000E+02  3.60000000E+01  0.00000000E+00
  2.70000000E+02  3.40000000E+01  0.00000000E+00
  2.70000000E+02  3.20000000E+01  0.00000000E+00
  2.70000000E+02  3.00000000E+01  0.00000000E+00
  2.70000000E+02  2.80000000E+01  0.00000000E+00
  2.70000000E+02  2.60000000E+01  0.00000000E+00
  2.70000000E+02  2.40000000E+01  0.00000000E+00
  2.70000000E+02  2.20000000E+01  0.00000000E+00
  2.70000000E+02  2.00000000E+01  0.00000000E+00
  2.70000000E+02  1.80000000E+01  0.00000000E+00
  2.70000000E+02  1.60000000E+01  0.00000000E+00
  2.70000000E+02  1.40000000E+01  0.00000000E+00
  2.70000000E+02  1.20000000E+01  0.00000000E+00
  2.70000000E+02  1.00000000E+01  0.00000000E+00
  2.70000000E+02  8.00000000E+00  0.00000000E+00
  2.70000000E+02  6.00000000E+00  0.00000000E+00
  2.70000000E+02  4.00000000E+00  0.00000000E+00
  2.70000000E+02  2.00000000E+00  0.00000000E+00
  2.70000000E+02 -3.33066907E-14  0.00000000E+00
  2.80000000E+02  1.00000000E+02  0.00000000E+00
  2.80000000E+02  9.80000000E+01  0.00000000E+00
  2.80000000E+02  9.60000000E+01  0.00000000E+00
  2.80000000E+02  9.40000000E+01  0.00000000E+00
  2.80000000E+02  9.20000000E+01  0.00000000E+00
  2.80000000E+02  9.00000000E+01  0.00000000E+00
  2.80000000E+02  8.80000000E+01  0.00000000E+00
  2.80000000E+02  8.60000000E+01  0.00000000E+00
  2.80000000E+02  8.40000000E+01  0.00000000E+00
  2.80000000E+02  8.20000000E+01  0.00000000E+00
  2.80000000E+02  8.00000000E+01  0.00000000E+00
  2.80000000E+02  7.80000000E+01  0.00000000E+00
  2.80000000E+02  7.60000000E+01  0.00000000E+00
  2.80000000E+02  7.40000000E+01  0.00000000E+00
  2.80000000E+02  7.20000000E+01  0.00000000E+00
  2.80000000E+02  7.00000000E+01  0.00000000E+00
  2.80000000E+02  6.80000000E+01  0.00000000E+00
  2.80000000E+02  6.60000000E+01  0.00000000E+00
  2.80000000E+02  6.40000000E+01  0.00000000E+00
  2.80000000E+02  6.20000000E+01  0.00000000E+00
  2.80000000E+02  6.00000000E+01  0.00000000E+00
  2.80000000E+02  5.80000000E+01  0.00000000E+00
  2.80000000E+02  5.60000000E+01  0.00000000E+00
  2.80000000E+02  5.40000000E+01  0.00000000E+00
  2.80000000E+02  5.20000000E+01  0.00000000E+00
  2.80000000E+02  5.00000000E+01  0.00000000E+00
  2.80000000E+02  4.80000000E+01  0.00000000E+00
  2.80000000E+02  4.60000000E+01  0.00000000E+00
  2.80000000E+02  4.40000000E+01  0.00000000E+00
  2.80000000E+02  4.20000000E+01  0.00000000E+00
  2.80000000E+02  4.00000000E+01  0.00000000E+00
  2.80000000E+02  3.80000000E+01  0.00000000E+00
  2.80000000E+02  3.60000000E+01  0.00000000E+00
  2.80000000E+02  3.40000000E+01  0.00000000E+00
  2.80000000E+02  3.20000000E+01  0.00000000E+00
  2.80000000E+02  3.00000000E+01  0.00000000E+00
  2.80000000E+02  2.80000000E+01  0.00000000E+00
  2.80000000E+02  2.60000000E+01  0.00000000E+00
  2.80000000E+02  2.40000000E+01  0.00000000E+00
  2.80000000E+02  2.20000000E+01  0.00000000E+00
  2.80000000E+02  2.00000000E+01  0.00000000E+00
  2.80000000E+02  1.80000000E+01  0.00000000E+00
  2.80000000E+02  1.60000000E+01  0.00000000E+00
  2.80000000E+02  1.40000000E+01  0.00000000E+00
  2.80000000E+02  1.20000000E+01  0.00000000E+00
  2.80000000E+02  1.00000000E+01  0.00000000E+00
  2.80000000E+02  8.00000000E+00  0.00000000E+00
  2.80000000E+02  6.00000000E+00  0.00000000E+00
  2.80000000E+02  4.00000000E+00  0.00000000E+00
  2.80000000E+02  2.00000000E+00  0.00000000E+00
  2.80000000E+02 -3.33066907E-14  0.00000000E+00
  2.90000000E+02  1.00000000E+02  0.00000000E+00
  2.90000000E+02  9.80000000E+01  0.00000000E+00
  2.90000000E+02  9.60000000E+01  0.00000000E+00
  2.90000000E+02  9.40000000E+01  0.00000000E+00
  2.90000000E+02  9.20000000E+01  0.00000000E+00
  2.90000000E+02  9.00000000E+01  0.00000000E+00
  2.90000000E+02  8.80000000E+01  0.00000000E+00
  2.90000000E+02  8.60000000E+01  0.00000000E+00
  2.90000000E+02  8.40000000E+01  0.00000000E+00
  2.90000000E+02  8.20000000E+01  0.00000000E+00
  2.90000000E+02  8.00000000E+01  0.00000000E+00
  2.90000000E+02  7.80000000E+01  0.00000000E+00
  2.90000000E+02  7.60000000E+01  0.00000000E+00
  2.90000000E+02  7.40000000E+01  0.00000000E+00
  2.90000000E+02  7.20000000E+01  0.00000000E+00
  2.90000000E+02  7.00000000E+01  0.00000000E+00
  2.90000000E+02  6.80000000E+01  0.00000000E+00
  2.90000000E+02  6.60000000E+01  0.00000000E+00
  2.90000000E+02  6.40000000E+01  0.00000000E+00
  2.90000000E+02  6.20000000E+01  0.00000000E+00
  2.90000000E+02  6.00000000E+01  0.00000000E+00
  2.90000000E+02  5.80000000E+01  0.00000000E+00
  2.90000000E+02  5.60000000E+01  0.00000000E+00
  2.90000000E+02  5.40000000E+01  0.00000000E+00
  2.90000000E+02  5.20000000E+01  0.00000000E+00
  2.90000000E+02  5.00000000E+01  0.00000000E+00
  2.90000000E+02  4.80000000E+01  0.00000000E+00
  2.90000000E+02  4.60000000E+01  0.00000000E+00
  2.90000000E+02  4.40000000E+01  0.00000000E+00
  2.90000000E+02  4.20000000E+01  0.00000000E+00
  2.90000000E+02  4.00000000E+01  0.00000000E+00
  2.90000000E+02  3.80000000E+01  0.00000000E+00
  2.90000000E+02  3.60000000E+01  0.00000000E+00
  2.90000000E+02  3.40000000E+01  0.00000000E+00
  2.90000000E+02  3.20000000E+01  0.00000000E+00
  2.90000000E+02  3.00000000E+01  0.00000000E+00
  2.90000000E+02  2.80000000E+01  0.00000000E+00
  2.90000000E+02  2.60000000E+01  0.00000000E+00
  2.90000000E+02  2.40000000E+01  0.00000000E+00
  2.90000000E+02  2.20000000E+01  0.00000000E+00
  2.90000000E+02  2.00000000E+01  0.00000000E+00
  2.90000000E+02  1.80000000E+01  0.00000000E+00
  2.90000000E+02  1.60000000E+01  0.00000000E+00
  2.90000000E+02  1.40000000E+01  0.00000000E+00
  2.90000000E+02  1.20000000E+01  0.00000000E+00
  2.90000000E+02  1.00000000E+01  0.00000000E+00
  2.90000000E+02  8.00000000E+00  0.00000000E+00
  2.90000000E+02  6.00000000E+00  0.00000000E+00
  2.90000000E+02  4.00000000E+00  0.00000000E+00
  2.90000000E+02  2.00000000E+00  0.00000000E+00
  2.90000000E+02 -3.33066907E-14  0.00000000E+00
  3.00000000E+02  1.00000000E+02  0.00000000E+00
  3.00000000E+02  9.80000000E+01  0.00000000E+00
  3.00000000E+02  9.60000000E+01  0.00000000E+00
  3.00000000E+02  9.40000000E+01  0.00000000E+00
  3.00000000E+02  9.20000000E+01  0.00000000E+00
  3.00000000E+02  9.00000000E+01  0.00000000E+00
  3.00000000E+02  8.80000000E+01  0.00000000E+00
  3.00000000E+02  8.60000000E+01  0.00000000E+00
  3.00000000E+02  8.40000000E+01  0.00000000E+00
  3.00000000E+02  8.20000000E+01  0.00000000E+00
  3.00000000E+02  8.00000000E+01  0.00000000E+00
  3.00000000E+02  7.80000000E+01  0.00000000E+00
  3.00000000E+02  7.60000000E+01  0.00000000E+00
  3.00000000E+02  7.40000000E+01  0.00000000E+00
  3.00000000E+02  7.20000000E+01  0.00000000E+00
  3.00000000E+02  7.00000000E+01  0.00000000E+00
  3.00000000E+02  6.80000000E+01  0.00000000E+00
  3.00000000E+02  6.60000000E+01  0.00000000E+00
  3.00000000E+02  6.40000000E+01  0.00000000E+00
  3.00000000E+02  6.20000000E+01  0.00000000E+00
  3.00000000E+02  6.00000000E+01  0.00000000E+00
  3.00000000E+02  5.80000000E+01  0.00000000E+00
  3.00000000E+02  5.60000000E+01  0.00000000E+00
  3.00000000E+02  5.40000000E+01  0.00000000E+00
  3.00000000E+02  5.20000000E+01  0.00000000E+00
  3.00000000E+02  5.00000000E+01  0.00000000E+00
  3.00000000E+02  4.80000000E+01  0.00000000E+00
  3.00000000E+02  4.60000000E+01  0.00000000E+00
  3.00000000E+02  4.40000000E+01  0.00000000E+00
  3.00000000E+02  4.20000000E+01  0.00000000E+00
  3.00000000E+02  4.00000000E+01  0.00000000E+00
  3.00000000E+02  3.80000000E+01  0.00000000E+00
  3.00000000E+02  3.60000000E+01  0.00000000E+00
  3.00000000E+02  3.40000000E+01  0.00000000E+00
  3.00000000E+02  3.20000000E+01  0.00000000E+00
  3.00000000E+02  3.00000000E+01  0.00000000E+00
  3.00000000E+02  2.80000000E+01  0.00000000E+00
  3.00000000E+02  2.60000000E+01  0.00000000E+00
  3.00000000E+02  2.40000000E+01  0.00000000E+00
  3.00000000E+02  2.20000000E+01  0.00000000E+00
  3.00000000E+02  2.00000000E+01  0.00000000E+00
  3.00000000E+02  1.80000000E+01  0.00000000E+00
  3.00000000E+02  1.60000000E+01  0.00000000E+00
  3.00000000E+02  1.40000000E+01  0.00000000E+00
  3.00000000E+02  1.20000000E+01  0.00000000E+00
  3.00000000E+02  1.00000000E+01  0.00000000E+00
  3.00000000E+02  8.00000000E+00  0.00000000E+00
  3.00000000E+02  6.00000000E+00  0.00000000E+00
  3.00000000E+02  4.00000000E+00  0.00000000E+00
  3.00000000E+02  2.00000000E+00  0.00000000E+00
  3.00000000E+02 -3.33066907E-14  0.00000000E+00
  3.10000000E+02  1.00000000E+02  0.00000000E+00
  3.10000000E+02  9.80000000E+01  0.00000000E+00
  3.10000000E+02  9.60000000E+01  0.00000000E+00
  3.10000000E+02  9.40000000E+01  0.00000000E+00
  3.10000000E+02  9.20000000E+01  0.00000000E+00
  3.10000000E+02  9.00000000E+01  0.00000000E+00
  3.10000000E+02  8.80000000E+01  0.00000000E+00
  3.10000000E+02  8.60000000E+01  0.00000000E+00
  3.10000000E+02  8.40000000E+01  0.00000000E+00
  3.10000000E+02  8.20000000E+01  0.00000000E+00
  3.10000000E+02  8.00000000E+01  0.00000000E+00
  3.10000000E+02  7.80000000E+01  0.00000000E+00
  3.10000000E+02  7.60000000E+01  0.00000000E+00
  3.10000000E+02  7.40000000E+01  0.00000000E+00
  3.10000000E+02  7.20000000E+01  0.00000000E+00
  3.10000000E+02  7.00000000E+01  0.00000000E+00
  3.10000000E+02  6.80000000E+01  0.00000000E+00
  3.10000000E+02  6.60000000E+01  0.00000000E+00
  3.10000000E+02  6.40000000E+01  0.00000000E+00
  3.10000000E+02  6.20000000E+01  0.00000000E+00
  3.10000000E+02  6.00000000E+01  0.00000000E+00
  3.10000000E+02  5.80000000E+01  0.00000000E+00
  3.10000000E+02  5.60000000E+01  0.00000000E+00
  3.10000000E+02  5.40000000E+01  0.00000000E+00
  3.10000000E+02  5.20000000E+01  0.00000000E+00
  3.10000000E+02  5.00000000E+01  0.00000000E+00
  3.10000000E+02  4.80000000E+01  0.00000000E+00
  3.10000000E+02  4.60000000E+01  0.00000000E+00
  3.10000000E+02  4.40000000E+01  0.00000000E+00
  3.10000000E+02  4.20000000E+01  0.00000000E+00
  3.10000000E+02  4.00000000E+01  0.00000000E+00
  3.10000000E+02  3.80000000E+01  0.00000000E+00
  3.10000000E+02  3.60000000E+01  0.00000000E+00
  3.10000000E+02  3.40000000E+01  0.00000000E+00
  3.10000000E+02  3.20000000E+01  0.00000000E+00
  3.10000000E+02  3.00000000E+01  0.00000000E+00
  3.10000000E+02  2.80000000E+01  0.00000000E+00
  3.10000000E+02  2.60000000E+01  0.00000000E+00
  3.10000000E+02  2.40000000E+01  0.00000000E+00
  3.10000000E+02  2.20000000E+01  0.00000000E+00
  3.10000000E+02  2.00000000E+01  0.00000000E+00
  3.10000000E+02  1.80000000E+01  0.00000000E+00
  3.10000000E+02  1.60000000E+01  0.00000000E+00
  3.10000000E+02  1.40000000E+01  0.00000000E+00
  3.10000000E+02  1.20000000E+01  0.00000000E+00
  3.10000000E+02  1.00000000E+01  0.00000000E+00
  3.10000000E+02  8.00000000E+00  0.00000000E+00
  3.10000000E+02  6.00000000E+00  0.00000000E+00
  3.10000000E+02  4.00000000E+00  0.00000000E+00
  3.10000000E+02  2.00000000E+00  0.00000000E+00
  3.10000000E+02 -3.33066907E-14  0.00000000E+00
  3.20000000E+02  1.00000000E+02  0.00000000E+00
  3.20000000E+02  9.80000000E+01  0.00000000E+00
  3.20000000E+02  9.60000000E+01  0.00000000E+00
  3.20000000E+02  9.40000000E+01  0.00000000E+00
  3.20000000E+02  9.20000000E+01  0.00000000E+00
  3.20000000E+02  9.00000000E+01  0.00000000E+00
  3.20000000E+02  8.80000000E+01  0.00000000E+00
  3.20000000E+02  8.60000000E+01  0.00000000E+00
  3.20000000E+02  8.40000000E+01  0.00000000E+00
  3.20000000E+02  8.20000000E+01  0.00000000E+00
  3.20000000E+02  8.00000000E+01  0.00000000E+00
  3.20000000E+02  7.80000000E+01  0.00000000E+00
  3.20000000E+02  7.60000000E+01  0.00000000E+00
  3.20000000E+02  7.40000000E+01  0.00000000E+00
  3.20000000E+02  7.20000000E+01  0.00000000E+00
  3.20000000E+02  7.00000000E+01  0.00000000E+00
  3.20000000E+02  6.80000000E+01  0.00000000E+00
  3.20000000E+02  6.60000000E+01  0.00000000E+00
  3.20000000E+02  6.40000000E+01  0.00000000E+00
  3.20000000E+02  6.20000000E+01  0.00000000E+00
  3.20000000E+02  6.00000000E+01  0.00000000E+00
  3.20000000E+02  5.80000000E+01  0.00000000E+00
  3.20000000E+02  5.60000000E+01  0.00000000E+00
  3.20000000E+02  5.40000000E+01  0.00000000E+00
  3.20000000E+02  5.20000000E+01  0.00000000E+00
  3.20000000E+02  5.00000000E+01  0.00000000E+00
  3.20000000E+02  4.80000000E+01  0.00000000E+00
  3.20000000E+02  4.60000000E+01  0.00000000E+00
  3.20000000E+02  4.40000000E+01  0.00000000E+00
  3.20000000E+02  4.20000000E+01  0.00000000E+00
  3.20000000E+02  4.00000000E+01  0.00000000E+00
  3.20000000E+02  3.80000000E+01  0.00000000E+00
  3.20000000E+02  3.60000000E+01  0.00000000E+00
  3.20000000E+02  3.40000000E+01  0.00000000E+00
  3.20000000E+02  3.20000000E+01  0.00000000E+00
  3.20000000E+02  3.00000000E+01  0.00000000E+00
  3.20000000E+02  2.80000000E+01  0.00000000E+00
  3.20000000E+02  2.60000000E+01  0.00000000E+00
  3.20000000E+02  2.40000000E+01  0.00000000E+00
  3.20000000E+02  2.20000000E+01  0.00000000E+00
  3.20000000E+02  2.00000000E+01  0.00000000E+00
  3.20000000E+02  1.80000000E+01  0.00000000E+00
  3.20000000E+02  1.60000000E+01  0.00000000E+00
  3.20000000E+02  1.40000000E+01  0.00000000E+00
  3.20000000E+02  1.20000000E+01  0.00000000E+00
  3.20000000E+02  1.00000000E+01  0.00000000E+00
  3.20000000E+02  8.00000000E+00  0.00000000E+00
  3.20000000E+02  6.00000000E+00  0.00000000E+00
  3.20000000E+02  4.00000000E+00  0.00000000E+00
  3.20000000E+02  2.00000000E+00  0.00000000E+00
  3.20000000E+02 -3.33066907E-14  0.00000000E+00
  3.30000000E+02  1.00000000E+02  0.00000000E+00
  3.30000000E+02  9.80000000E+01  0.00000000E+00
  3.30000000E+02  9.60000000E+01  0.00000000E+00
  3.30000000E+02  9.40000000E+01  0.00000000E+00
  3.30000000E+02  9.20000000E+01  0.00000000E+00
  3.30000000E+02  9.00000000E+01  0.00000000E+00
  3.30000000E+02  8.80000000E+01  0.00000000E+00
  3.30000000E+02  8.60000000E+01  0.00000000E+00
  3.30000000E+02  8.40000000E+01  0.00000000E+00
  3.30000000E+02  8.20000000E+01  0.00000000E+00
  3.30000000E+02  8.00000000E+01  0.00000000E+00
  3.30000000E+02  7.80000000E+01  0.00000000E+00
  3.30000000E+02  7.60000000E+01  0.00000000E+00
  3.30000000E+02  7.40000000E+01  0.00000000E+00
  3.30000000E+02  7.20000000E+01  0.00000000E+00
  3.30000000E+02  7.00000000E+01  0.00000000E+00
  3.30000000E+02  6.80000000E+01  0.00000000E+00
  3.30000000E+02  6.60000000E+01  0.00000000E+00
  3.30000000E+02  6.40000000E+01  0.00000000E+00
  3.30000000E+02  6.20000000E+01  0.00000000E+00
  3.30000000E+02  6.00000000E+01  0.00000000E+00
  3.30000000E+02  5.80000000E+01  0.00000000E+00
  3.30000000E+02  5.60000000E+01  0.00000000E+00
  3.30000000E+02  5.40000000E+01  0.00000000E+00
  3.30000000E+02  5.20000000E+01  0.00000000E+00
  3.30000000E+02  5.00000000E+01  0.00000000E+00
  3.30000000E+02  4.80000000E+01  0.00000000E+00
  3.30000000E+02  4.60000000E+01  0.00000000E+00
  3.30000000E+02  4.40000000E+01  0.00000000E+00
  3.30000000E+02  4.20000000E+01  0.00000000E+00
  3.30000000E+02  4.00000000E+01  0.00000000E+00
  3.30000000E+02  3.80000000E+01  0.00000000E+00
  3.30000000E+02  3.60000000E+01  0.00000000E+00
  3.30000000E+02  3.40000000E+01  0.00000000E+00
  3.30000000E+02  3.20000000E+01  0.00000000E+00
  3.30000000E+02  3.00000000E+01  0.00000000E+00
  3.30000000E+02  2.80000000E+01  0.00000000E+00
  3.30000000E+02  2.60000000E+01  0.00000000E+00
  3.30000000E+02  2.40000000E+01  0.00000000E+00
  3.30000000E+02  2.20000000E+01  0.00000000E+00
  3.30000000E+02  2.00000000E+01  0.00000000E+00
  3.30000000E+02  1.80000000E+01  0.00000000E+00
  3.30000000E+02  1.60000000E+01  0.00000000E+00
  3.30000000E+02  1.40000000E+01  0.00000000E+00
  3.30000000E+02  1.20000000E+01  0.00000000E+00
  3.30000000E+02  1.00000000E+01  0.00000000E+00
  3.30000000E+02  8.00000000E+00  0.00000000E+00
  3.30000000E+02  6.00000000E+00  0.00000000E+00
  3.30000000E+02  4.00000000E+00  0.00000000E+00
  3.30000000E+02  2.00000000E+00  0.00000000E+00
  3.30000000E+02 -3.33066907E-14  0.00000000E+00
  3.40000000E+02  1.00000000E+02  0.00000000E+00
  3.40000000E+02  9.80000000E+01  0.00000000E+00
  3.40000000E+02  9.60000000E+01  0.00000000E+00
  3.40000000E+02  9.40000000E+01  0.00000000E+00
  3.40000000E+02  9.20000000E+01  0.00000000E+00
  3.40000000E+02  9.00000000E+01  0.00000000E+00
  3.40000000E+02  8.80000000E+01  0.00000000E+00
  3.40000000E+02  8.60000000E+01  0.00000000E+00
  3.40000000E+02  8.40000000E+01  0.00000000E+00
  3.40000000E+02  8.20000000E+01  0.00000000E+00
  3.40000000E+02  8.00000000E+01  0.00000000E+00
  3.40000000E+02  7.80000000E+01  0.00000000E+00
  3.40000000E+02  7.60000000E+01  0.00000000E+00
  3.40000000E+02  7.40000000E+01  0.00000000E+00
  3.40000000E+02  7.20000000E+01  0.00000000E+00
  3.40000000E+02  7.00000000E+01  0.00000000E+00
  3.40000000E+02  6.80000000E+01  0.00000000E+00
  3.40000000E+02  6.60000000E+01  0.00000000E+00
  3.40000000E+02  6.40000000E+01  0.00000000E+00
  3.40000000E+02  6.20000000E+01  0.00000000E+00
  3.40000000E+02  6.00000000E+01  0.00000000E+00
  3.40000000E+02  5.80000000E+01  0.00000000E+00
  3.40000000E+02  5.60000000E+01  0.00000000E+00
  3.40000000E+02  5.40000000E+01  0.00000000E+00
  3.40000000E+02  5.20000000E+01  0.00000000E+00
  3.40000000E+02  5.00000000E+01  0.00000000E+00
  3.40000000E+02  4.80000000E+01  0.00000000E+00
  3.40000000E+02  4.60000000E+01  0.00000000E+00
  3.40000000E+02  4.40000000E+01  0.00000000E+00
  3.40000000E+02  4.20000000E+01  0.00000000E+00
  3.40000000E+02  4.00000000E+01  0.00000000E+00
  3.40000000E+02  3.80000000E+01  0.00000000E+00
  3.40000000E+02  3.60000000E+01  0.00000000E+00
  3.40000000E+02  3.40000000E+01  0.00000000E+00
  3.40000000E+02  3.20000000E+01  0.00000000E+00
  3.40000000E+02  3.00000000E+01  0.00000000E+00
  3.40000000E+02  2.80000000E+01  0.00000000E+00
  3.40000000E+02  2.60000000E+01  0.00000000E+00
  3.40000000E+02  2.40000000E+01  0.00000000E+00
  3.40000000E+02  2.20000000E+01  0.00000000E+00
  3.40000000E+02  2.00000000E+01  0.00000000E+00
  3.40000000E+02  1.80000000E+01  0.00000000E+00
  3.40000000E+02  1.60000000E+01  0.00000000E+00
  3.40000000E+02  1.40000000E+01  0.00000000E+00
  3.40000000E+02  1.20000000E+01  0.00000000E+00
  3.40000000E+02  1.00000000E+01  0.00000000E+00
  3.40000000E+02  8.00000000E+00  0.00000000E+00
  3.40000000E+02  6.00000000E+00  0.00000000E+00
  3.40000000E+02  4.00000000E+00  0.00000000E+00
  3.40000000E+02  2.00000000E+00  0.00000000E+00
  3.40000000E+02 -3.33066907E-14  0.00000000E+00
  3.50000000E+02  1.00000000E+02  0.00000000E+00
  3.50000000E+02  9.80000000E+01  0.00000000E+00
  3.50000000E+02  9.60000000E+01  0.00000000E+00
  3.50000000E+02  9.40000000E+01  0.00000000E+00
  3.50000000E+02  9.20000000E+01  0.00000000E+00
  3.50000000E+02  9.00000000E+01  0.00000000E+00
  3.50000000E+02  8.80000000E+01  0.00000000E+00
  3.50000000E+02  8.60000000E+01  0.00000000E+00
  3.50000000E+02  8.40000000E+01  0.00000000E+00
  3.50000000E+02  8.20000000E+01  0.00000000E+00
  3.50000000E+02  8.00000000E+01  0.00000000E+00
  3.50000000E+02  7.80000000E+01  0.00000000E+00
  3.50000000E+02  7.60000000E+01  0.00000000E+00
  3.50000000E+02  7.40000000E+01  0.00000000E+00
  3.50000000E+02  7.20000000E+01  0.00000000E+00
  3.50000000E+02  7.00000000E+01  0.00000000E+00
  3.50000000E+02  6.80000000E+01  0.00000000E+00
  3.50000000E+02  6.60000000E+01  0.00000000E+00
  3.50000000E+02  6.40000000E+01  0.00000000E+00
  3.50000000E+02  6.20000000E+01  0.00000000E+00
  3.50000000E+02  6.00000000E+01  0.00000000E+00
  3.50000000E+02  5.80000000E+01  0.00000000E+00
  3.50000000E+02  5.60000000E+01  0.00000000E+00
  3.50000000E+02  5.40000000E+01  0.00000000E+00
  3.50000000E+02  5.20000000E+01  0.00000000E+00
  3.50000000E+02  5.00000000E+01  0.00000000E+00
  3.50000000E+02  4.80000000E+01  0.00000000E+00
  3.50000000E+02  4.60000000E+01  0.00000000E+00
  3.50000000E+02  4.40000000E+01  0.00000000E+00
  3.50000000E+02  4.20000000E+01  0.00000000E+00
  3.50000000E+02  4.00000000E+01  0.00000000E+00
  3.50000000E+02  3.80000000E+01  0.00000000E+00
  3.50000000E+02  3.60000000E+01  0.00000000E+00
  3.50000000E+02  3.40000000E+01  0.00000000E+00
  3.50000000E+02  3.20000000E+01  0.00000000E+00
  3.50000000E+02  3.00000000E+01  0.00000000E+00
  3.50000000E+02  2.80000000E+01  0.00000000E+00
  3.50000000E+02  2.60000000E+01  0.00000000E+00
  3.50000000E+02  2.40000000E+01  0.00000000E+00
  3.50000000E+02  2.20000000E+01  0.00000000E+00
  3.50000000E+02  2.00000000E+01  0.00000000E+00
  3.50000000E+02  1.80000000E+01  0.00000000E+00
  3.50000000E+02  1.60000000E+01  0.00000000E+00
  3.50000000E+02  1.40000000E+01  0.00000000E+00
  3.50000000E+02  1.20000000E+01  0.00000000E+00
  3.50000000E+02  1.00000000E+01  0.00000000E+00
  3.50000000E+02  8.00000000E+00  0.00000000E+00
  3.50000000E+02  6.00000000E+00  0.00000000E+00
  3.50000000E+02  4.00000000E+00  0.00000000E+00
  3.50000000E+02  2.00000000E+00  0.00000000E+00
  3.50000000E+02 -3.33066907E-14  0.00000000E+00
  3.60000000E+02  1.00000000E+02  0.00000000E+00
  3.60000000E+02  9.80000000E+01  0.00000000E+00
  3.60000000E+02  9.60000000E+01  0.00000000E+00
  3.60000000E+02  9.40000000E+01  0.00000000E+00
  3.60000000E+02  9.20000000E+01  0.00000000E+00
  3.60000000E+02  9.00000000E+01  0.00000000E+00
  3.60000000E+02  8.80000000E+01  0.00000000E+00
  3.60000000E+02  8.60000000E+01  0.00000000E+00
  3.60000000E+02  8.40000000E+01  0.00000000E+00
  3.60000000E+02  8.20000000E+01  0.00000000E+00
  3.60000000E+02  8.00000000E+01  0.00000000E+00
  3.60000000E+02  7.80000000E+01  0.00000000E+00
  3.60000000E+02  7.60000000E+01  0.00000000E+00
  3.60000000E+02  7.40000000E+01  0.00000000E+00
  3.60000000E+02  7.20000000E+01  0.00000000E+00
  3.60000000E+02  7.00000000E+01  0.00000000E+00
  3.60000000E+02  6.80000000E+01  0.00000000E+00
  3.60000000E+02  6.60000000E+01  0.00000000E+00
  3.60000000E+02  6.40000000E+01  0.00000000E+00
  3.60000000E+02  6.20000000E+01  0.00000000E+00
  3.60000000E+02  6.00000000E+01  0.00000000E+00
  3.60000000E+02  5.80000000E+01  0.00000000E+00
  3.60000000E+02  5.60000000E+01  0.00000000E+00
  3.60000000E+02  5.40000000E+01  0.00000000E+00
  3.60000000E+02  5.20000000E+01  0.00000000E+00
  3.60000000E+02  5.00000000E+01  0.00000000E+00
  3.60000000E+02  4.80000000E+01  0.00000000E+00
  3.60000000E+02  4.60000000E+01  0.00000000E+00
  3.60000000E+02  4.40000000E+01  0.00000000E+00
  3.60000000E+02  4.20000000E+01  0.00000000E+00
  3.60000000E+02  4.00000000E+01  0.00000000E+00
  3.60000000E+02  3.80000000E+01  0.00000000E+00
  3.60000000E+02  3.60000000E+01  0.00000000E+00
  3.60000000E+02  3.40000000E+01  0.00000000E+00
  3.60000000E+02  3.20000000E+01  0.00000000E+00
  3.60000000E+02  3.00000000E+01  0.00000000E+00
  3.60000000E+02  2.80000000E+01  0.00000000E+00
  3.60000000E+02  2.60000000E+01  0.00000000E+00
  3.60000000E+02  2.40000000E+01  0.00000000E+00
  3.60000000E+02  2.20000000E+01  0.00000000E+00
  3.60000000E+02  2.00000000E+01  0.00000000E+00
  3.60000000E+02  1.80000000E+01  0.00000000E+00
  3.60000000E+02  1.60000000E+01  0.00000000E+00
  3.60000000E+02  1.40000000E+01  0.00000000E+00
  3.60000000E+02  1.20000000E+01  0.00000000E+00
  3.60000000E+02  1.00000000E+01  0.00000000E+00
  3.60000000E+02  8.00000000E+00  0.00000000E+00
  3.60000000E+02  6.00000000E+00  0.00000000E+00
  3.60000000E+02  4.00000000E+00  0.00000000E+00
  3.60000000E+02  2.00000000E+00  0.00000000E+00
  3.60000000E+02 -3.33066907E-14  0.00000000E+00
  3.70000000E+02  1.00000000E+02  0.00000000E+00
  3.70000000E+02  9.80000000E+01  0.00000000E+00
  3.70000000E+02  9.60000000E+01  0.00000000E+00
  3.70000000E+02  9.40000000E+01  0.00000000E+00
  3.70000000E+02  9.20000000E+01  0.00000000E+00
  3.70000000E+02  9.00000000E+01  0.00000000E+00
  3.70000000E+02  8.80000000E+01  0.00000000E+00
  3.70000000E+02  8.60000000E+01  0.00000000E+00
  3.70000000E+02  8.40000000E+01  0.00000000E+00
  3.70000000E+02  8.20000000E+01  0.00000000E+00
  3.70000000E+02  8.00000000E+01  0.00000000E+00
  3.70000000E+02  7.80000000E+01  0.00000000E+00
  3.70000000E+02  7.60000000E+01  0.00000000E+00
  3.70000000E+02  7.40000000E+01  0.00000000E+00
  3.70000000E+02  7.20000000E+01  0.00000000E+00
  3.70000000E+02  7.00000000E+01  0.00000000E+00
  3.70000000E+02  6.80000000E+01  0.00000000E+00
  3.70000000E+02  6.60000000E+01  0.00000000E+00
  3.70000000E+02  6.40000000E+01  0.00000000E+00
  3.70000000E+02  6.20000000E+01  0.00000000E+00
  3.70000000E+02  6.00000000E+01  0.00000000E+00
  3.70000000E+02  5.80000000E+01  0.00000000E+00
  3.70000000E+02  5.60000000E+01  0.00000000E+00
  3.70000000E+02  5.40000000E+01  0.00000000E+00
  3.70000000E+02  5.20000000E+01  0.00000000E+00
  3.70000000E+02  5.00000000E+01  0.00000000E+00
  3.70000000E+02  4.80000000E+01  0.00000000E+00
  3.70000000E+02  4.60000000E+01  0.00000000E+00
  3.70000000E+02  4.40000000E+01  0.00000000E+00
  3.70000000E+02  4.20000000E+01  0.00000000E+00
  3.70000000E+02  4.00000000E+01  0.00000000E+00
  3.70000000E+02  3.80000000E+01  0.00000000E+00
  3.70000000E+02  3.60000000E+01  0.00000000E+00
  3.70000000E+02  3.40000000E+01  0.00000000E+00
  3.70000000E+02  3.20000000E+01  0.00000000E+00
  3.70000000E+02  3.00000000E+01  0.00000000E+00
  3.70000000E+02  2.80000000E+01  0.00000000E+00
  3.70000000E+02  2.60000000E+01  0.00000000E+00
  3.70000000E+02  2.40000000E+01  0.00000000E+00
  3.70000000E+02  2.20000000E+01  0.00000000E+00
  3.70000000E+02  2.00000000E+01  0.00000000E+00
  3.70000000E+02  1.80000000E+01  0.00000000E+00
  3.70000000E+02  1.60000000E+01  0.00000000E+00
  3.70000000E+02  1.40000000E+01  0.00000000E+00
  3.70000000E+02  1.20000000E+01  0.00000000E+00
  3.70000000E+02  1.00000000E+01  0.00000000E+00
  3.70000000E+02  8.00000000E+00  0.00000000E+00
  3.70000000E+02  6.00000000E+00  0.00000000E+00
  3.70000000E+02  4.00000000E+00  0.00000000E+00
  3.70000000E+02  2.00000000E+00  0.00000000E+00
  3.70000000E+02 -3.33066907E-14  0.00000000E+00
  3.80000000E+02  1.00000000E+02  0.00000000E+00
  3.80000000E+02  9.80000000E+01  0.00000000E+00
  3.80000000E+02  9.60000000E+01  0.00000000E+00
  3.80000000E+02  9.40000000E+01  0.00000000E+00
  3.80000000E+02  9.20000000E+01  0.00000000E+00
  3.80000000E+02  9.00000000E+01  0.00000000E+00
  3.80000000E+02  8.80000000E+01  0.00000000E+00
  3.80000000E+02  8.60000000E+01  0.00000000E+00
  3.80000000E+02  8.40000000E+01  0.00000000E+00
  3.80000000E+02  8.20000000E+01  0.00000000E+00
  3.80000000E+02  8.00000000E+01  0.00000000E+00
  3.80000000E+02  7.80000000E+01  0.00000000E+00
  3.80000000E+02  7.60000000E+01  0.00000000E+00
  3.80000000E+02  7.40000000E+01  0.00000000E+00
  3.80000000E+02  7.20000000E+01  0.00000000E+00
  3.80000000E+02  7.00000000E+01  0.00000000E+00
  3.80000000E+02  6.80000000E+01  0.00000000E+00
  3.80000000E+02  6.60000000E+01  0.00000000E+00
  3.80000000E+02  6.40000000E+01  0.00000000E+00
  3.80000000E+02  6.20000000E+01  0.00000000E+00
  3.80000000E+02  6.00000000E+01  0.00000000E+00
  3.80000000E+02  5.80000000E+01  0.00000000E+00
  3.80000000E+02  5.60000000E+01  0.00000000E+00
  3.80000000E+02  5.40000000E+01  0.00000000E+00
  3.80000000E+02  5.20000000E+01  0.00000000E+00
  3.80000000E+02  5.00000000E+01  0.00000000E+00
  3.80000000E+02  4.80000000E+01  0.00000000E+00
  3.80000000E+02  4.60000000E+01  0.00000000E+00
  3.80000000E+02  4.40000000E+01  0.00000000E+00
  3.80000000E+02  4.20000000E+01  0.00000000E+00
  3.80000000E+02  4.00000000E+01  0.00000000E+00
  3.80000000E+02  3.80000000E+01  0.00000000E+00
  3.80000000E+02  3.60000000E+01  0.00000000E+00
  3.80000000E+02  3.40000000E+01  0.00000000E+00
  3.80000000E+02  3.20000000E+01  0.00000000E+00
  3.80000000E+02  3.00000000E+01  0.00000000E+00
  3.80000000E+02  2.80000000E+01  0.00000000E+00
  3.80000000E+02  2.60000000E+01  0.00000000E+00
  3.80000000E+02  2.40000000E+01  0.00000000E+00
  3.80000000E+02  2.20000000E+01  0.00000000E+00
  3.80000000E+02  2.00000000E+01  0.00000000E+00
  3.80000000E+02  1.80000000E+01  0.00000000E+00
  3.80000000E+02  1.60000000E+01  0.00000000E+00
  3.80000000E+02  1.40000000E+01  0.00000000E+00
  3.80000000E+02  1.20000000E+01  0.00000000E+00
  3.80000000E+02  1.00000000E+01  0.00000000E+00
  3.80000000E+02  8.00000000E+00  0.00000000E+00
  3.80000000E+02  6.00000000E+00  0.00000000E+00
  3.80000000E+02  4.00000000E+00  0.00000000E+00
  3.80000000E+02  2.00000000E+00  0.00000000E+00
  3.80000000E+02 -3.33066907E-14  0.00000000E+00
  3.90000000E+02  1.00000000E+02  0.00000000E+00
  3.90000000E+02  9.80000000E+01  0.00000000E+00
  3.90000000E+02  9.60000000E+01  0.00000000E+00
  3.90000000E+02  9.40000000E+01  0.00000000E+00
  3.90000000E+02  9.20000000E+01  0.00000000E+00
  3.90000000E+02  9.00000000E+01  0.00000000E+00
  3.90000000E+02  8.80000000E+01  0.00000000E+00
  3.90000000E+02  8.60000000E+01  0.00000000E+00
  3.90000000E+02  8.40000000E+01  0.00000000E+00
  3.90000000E+02  8.20000000E+01  0.00000000E+00
  3.90000000E+02  8.00000000E+01  0.00000000E+00
  3.90000000E+02  7.80000000E+01  0.00000000E+00
  3.90000000E+02  7.60000000E+01  0.00000000E+00
  3.90000000E+02  7.40000000E+01  0.00000000E+00
  3.90000000E+02  7.20000000E+01  0.00000000E+00
  3.90000000E+02  7.00000000E+01  0.00000000E+00
  3.90000000E+02  6.80000000E+01  0.00000000E+00
  3.90000000E+02  6.60000000E+01  0.00000000E+00
  3.90000000E+02  6.40000000E+01  0.00000000E+00
  3.90000000E+02  6.20000000E+01  0.00000000E+00
  3.90000000E+02  6.00000000E+01  0.00000000E+00
  3.90000000E+02  5.80000000E+01  0.00000000E+00
  3.90000000E+02  5.60000000E+01  0.00000000E+00
  3.90000000E+02  5.40000000E+01  0.00000000E+00
  3.90000000E+02  5.20000000E+01  0.00000000E+00
  3.90000000E+02  5.00000000E+01  0.00000000E+00
  3.90000000E+02  4.80000000E+01  0.00000000E+00
  3.90000000E+02  4.60000000E+01  0.00000000E+00
  3.90000000E+02  4.40000000E+01  0.00000000E+00
  3.90000000E+02  4.20000000E+01  0.00000000E+00
  3.90000000E+02  4.00000000E+01  0.00000000E+00
  3.90000000E+02  3.80000000E+01  0.00000000E+00
  3.90000000E+02  3.60000000E+01  0.00000000E+00
  3.90000000E+02  3.40000000E+01  0.00000000E+00
  3.90000000E+02  3.20000000E+01  0.00000000E+00
  3.90000000E+02  3.00000000E+01  0.00000000E+00
  3.90000000E+02  2.80000000E+01  0.00000000E+00
  3.90000000E+02  2.60000000E+01  0.00000000E+00
  3.90000000E+02  2.40000000E+01  0.00000000E+00
  3.90000000E+02  2.20000000E+01  0.00000000E+00
  3.90000000E+02  2.00000000E+01  0.00000000E+00
  3.90000000E+02  1.80000000E+01  0.00000000E+00
  3.90000000E+02  1.60000000E+01  0.00000000E+00
  3.90000000E+02  1.40000000E+01  0.00000000E+00
  3.90000000E+02  1.20000000E+01  0.00000000E+00
  3.90000000E+02  1.00000000E+01  0.00000000E+00
  3.90000000E+02  8.00000000E+00  0.00000000E+00
  3.90000000E+02  6.00000000E+00  0.00000000E+00
  3.90000000E+02  4.00000000E+00  0.00000000E+00
  3.90000000E+02  2.00000000E+00  0.00000000E+00
  3.90000000E+02 -3.33066907E-14  0.00000000E+00
  4.00000000E+02  1.00000000E+02  0.00000000E+00
  4.00000000E+02  9.80000000E+01  0.00000000E+00
  4.00000000E+02  9.60000000E+01  0.00000000E+00
  4.00000000E+02  9.40000000E+01  0.00000000E+00
  4.00000000E+02  9.20000000E+01  0.00000000E+00
  4.00000000E+02  9.00000000E+01  0.00000000E+00
  4.00000000E+02  8.80000000E+01  0.00000000E+00
  4.00000000E+02  8.60000000E+01  0.00000000E+00
  4.00000000E+02  8.40000000E+01  0.00000000E+00
  4.00000000E+02  8.20000000E+01  0.00000000E+00
  4.00000000E+02  8.00000000E+01  0.00000000E+00
  4.00000000E+02  7.80000000E+01  0.00000000E+00
  4.00000000E+02  7.60000000E+01  0.00000000E+00
  4.00000000E+02  7.40000000E+01  0.00000000E+00
  4.00000000E+02  7.20000000E+01  0.00000000E+00
  4.00000000E+02  7.00000000E+01  0.00000000E+00
  4.00000000E+02  6.80000000E+01  0.00000000E+00
  4.00000000E+02  6.60000000E+01  0.00000000E+00
  4.00000000E+02  6.40000000E+01  0.00000000E+00
  4.00000000E+02  6.20000000E+01  0.00000000E+00
  4.00000000E+02  6.00000000E+01  0.00000000E+00
  4.00000000E+02  5.80000000E+01  0.00000000E+00
  4.00000000E+02  5.60000000E+01  0.00000000E+00
  4.00000000E+02  5.40000000E+01  0.00000000E+00
  4.00000000E+02  5.20000000E+01  0.00000000E+00
  4.00000000E+02  5.00000000E+01  0.00000000E+00
  4.00000000E+02  4.80000000E+01  0.00000000E+00
  4.00000000E+02  4.60000000E+01  0.00000000E+00
  4.00000000E+02  4.40000000E+01  0.00000000E+00
  4.00000000E+02  4.20000000E+01  0.00000000E+00
  4.00000000E+02  4.00000000E+01  0.00000000E+00
  4.00000000E+02  3.80000000E+01  0.00000000E+00
  4.00000000E+02  3.60000000E+01  0.00000000E+00
  4.00000000E+02  3.40000000E+01  0.00000000E+00
  4.00000000E+02  3.20000000E+01  0.00000000E+00
  4.00000000E+02  3.00000000E+01  0.00000000E+00
  4.00000000E+02  2.80000000E+01  0.00000000E+00
  4.00000000E+02  2.60000000E+01  0.00000000E+00
  4.00000000E+02  2.40000000E+01  0.00000000E+00
  4.00000000E+02  2.20000000E+01  0.00000000E+00
  4.00000000E+02  2.00000000E+01  0.00000000E+00
  4.00000000E+02  1.80000000E+01  0.00000000E+00
  4.00000000E+02  1.60000000E+01  0.00000000E+00
  4.00000000E+02  1.40000000E+01  0.00000000E+00
  4.00000000E+02  1.20000000E+01  0.00000000E+00
  4.00000000E+02  1.00000000E+01  0.00000000E+00
  4.00000000E+02  8.00000000E+00  0.00000000E+00
  4.00000000E+02  6.00000000E+00  0.00000000E+00
  4.00000000E+02  4.00000000E+00  0.00000000E+00
  4.00000000E+02  2.00000000E+00  0.00000000E+00
  4.00000000E+02 -3.33066907E-14  0.00000000E+00
  4.10000000E+02  1.00000000E+02  0.00000000E+00
  4.10000000E+02  9.80000000E+01  0.00000000E+00
  4.10000000E+02  9.60000000E+01  0.00000000E+00
  4.10000000E+02  9.40000000E+01  0.00000000E+00
  4.10000000E+02  9.20000000E+01  0.00000000E+00
  4.10000000E+02  9.00000000E+01  0.00000000E+00
  4.10000000E+02  8.80000000E+01  0.00000000E+00
  4.10000000E+02  8.60000000E+01  0.00000000E+00
  4.10000000E+02  8.40000000E+01  0.00000000E+00
  4.10000000E+02  8.20000000E+01  0.00000000E+00
  4.10000000E+02  8.00000000E+01  0.00000000E+00
  4.10000000E+02  7.80000000E+01  0.00000000E+00
  4.10000000E+02  7.60000000E+01  0.00000000E+00
  4.10000000E+02  7.40000000E+01  0.00000000E+00
  4.10000000E+02  7.20000000E+01  0.00000000E+00
  4.10000000E+02  7.00000000E+01  0.00000000E+00
  4.10000000E+02  6.80000000E+01  0.00000000E+00
  4.10000000E+02  6.60000000E+01  0.00000000E+00
  4.10000000E+02  6.40000000E+01  0.00000000E+00
  4.10000000E+02  6.20000000E+01  0.00000000E+00
  4.10000000E+02  6.00000000E+01  0.00000000E+00
  4.10000000E+02  5.80000000E+01  0.00000000E+00
  4.10000000E+02  5.60000000E+01  0.00000000E+00
  4.10000000E+02  5.40000000E+01  0.00000000E+00
  4.10000000E+02  5.20000000E+01  0.00000000E+00
  4.10000000E+02  5.00000000E+01  0.00000000E+00
  4.10000000E+02  4.80000000E+01  0.00000000E+00
  4.10000000E+02  4.60000000E+01  0.00000000E+00
  4.10000000E+02  4.40000000E+01  0.00000000E+00
  4.10000000E+02  4.20000000E+01  0.00000000E+00
  4.10000000E+02  4.00000000E+01  0.00000000E+00
  4.10000000E+02  3.80000000E+01  0.00000000E+00
  4.10000000E+02  3.60000000E+01  0.00000000E+00
  4.10000000E+02  3.40000000E+01  0.00000000E+00
  4.10000000E+02  3.20000000E+01  0.00000000E+00
  4.10000000E+02  3.00000000E+01  0.00000000E+00
  4.10000000E+02  2.80000000E+01  0.00000000E+00
  4.10000000E+02  2.60000000E+01  0.00000000E+00
  4.10000000E+02  2.40000000E+01  0.00000000E+00
  4.10000000E+02  2.20000000E+01  0.00000000E+00
  4.10000000E+02  2.00000000E+01  0.00000000E+00
  4.10000000E+02  1.80000000E+01  0.00000000E+00
  4.10000000E+02  1.60000000E+01  0.00000000E+00
  4.10000000E+02  1.40000000E+01  0.00000000E+00
  4.10000000E+02  1.20000000E+01  0.00000000E+00
  4.10000000E+02  1.00000000E+01  0.00000000E+00
  4.10000000E+02  8.00000000E+00  0.00000000E+00
  4.10000000E+02  6.00000000E+00  0.00000000E+00
  4.10000000E+02  4.00000000E+00  0.00000000E+00
  4.10000000E+02  2.00000000E+00  0.00000000E+00
  4.10000000E+02 -3.33066907E-14  0.00000000E+00
  4.20000000E+02  1.00000000E+02  0.00000000E+00
  4.20000000E+02  9.80000000E+01  0.00000000E+00
  4.20000000E+02  9.60000000E+01  0.00000000E+00
  4.20000000E+02  9.40000000E+01  0.00000000E+00
  4.20000000E+02  9.20000000E+01  0.00000000E+00
  4.20000000E+02  9.00000000E+01  0.00000000E+00
  4.20000000E+02  8.80000000E+01  0.00000000E+00
  4.20000000E+02  8.60000000E+01  0.00000000E+00
  4.20000000E+02  8.40000000E+01  0.00000000E+00
  4.20000000E+02  8.20000000E+01  0.00000000E+00
  4.20000000E+02  8.00000000E+01  0.00000000E+00
  4.20000000E+02  7.80000000E+01  0.00000000E+00
  4.20000000E+02  7.60000000E+01  0.00000000E+00
  4.20000000E+02  7.40000000E+01  0.00000000E+00
  4.20000000E+02  7.20000000E+01  0.00000000E+00
  4.20000000E+02  7.00000000E+01  0.00000000E+00
  4.20000000E+02  6.80000000E+01  0.00000000E+00
  4.20000000E+02  6.60000000E+01  0.00000000E+00
  4.20000000E+02  6.40000000E+01  0.00000000E+00
  4.20000000E+02  6.20000000E+01  0.00000000E+00
  4.20000000E+02  6.00000000E+01  0.00000000E+00
  4.20000000E+02  5.80000000E+01  0.00000000E+00
  4.20000000E+02  5.60000000E+01  0.00000000E+00
  4.20000000E+02  5.40000000E+01  0.00000000E+00
  4.20000000E+02  5.20000000E+01  0.00000000E+00
  4.20000000E+02  5.00000000E+01  0.00000000E+00
  4.20000000E+02  4.80000000E+01  0.00000000E+00
  4.20000000E+02  4.60000000E+01  0.00000000E+00
  4.20000000E+02  4.40000000E+01  0.00000000E+00
  4.20000000E+02  4.20000000E+01  0.00000000E+00
  4.20000000E+02  4.00000000E+01  0.00000000E+00
  4.20000000E+02  3.80000000E+01  0.00000000E+00
  4.20000000E+02  3.60000000E+01  0.00000000E+00
  4.20000000E+02  3.40000000E+01  0.00000000E+00
  4.20000000E+02  3.20000000E+01  0.00000000E+00
  4.20000000E+02  3.00000000E+01  0.00000000E+00
  4.20000000E+02  2.80000000E+01  0.00000000E+00
  4.20000000E+02  2.60000000E+01  0.00000000E+00
  4.20000000E+02  2.40000000E+01  0.00000000E+00
  4.20000000E+02  2.20000000E+01  0.00000000E+00
  4.20000000E+02  2.00000000E+01  0.00000000E+00
  4.20000000E+02  1.80000000E+01  0.00000000E+00
  4.20000000E+02  1.60000000E+01  0.00000000E+00
  4.20000000E+02  1.40000000E+01  0.00000000E+00
  4.20000000E+02  1.20000000E+01  0.00000000E+00
  4.20000000E+02  1.00000000E+01  0.00000000E+00
  4.20000000E+02  8.00000000E+00  0.00000000E+00
  4.20000000E+02  6.00000000E+00  0.00000000E+00
  4.20000000E+02  4.00000000E+00  0.00000000E+00
  4.20000000E+02  2.00000000E+00  0.00000000E+00
  4.20000000E+02 -3.33066907E-14  0.00000000E+00
  4.30000000E+02  1.00000000E+02  0.00000000E+00
  4.30000000E+02  9.80000000E+01  0.00000000E+00
  4.30000000E+02  9.60000000E+01  0.00000000E+00
  4.30000000E+02  9.40000000E+01  0.00000000E+00
  4.30000000E+02  9.20000000E+01  0.00000000E+00
  4.30000000E+02  9.00000000E+01  0.00000000E+00
  4.30000000E+02  8.80000000E+01  0.00000000E+00
  4.30000000E+02  8.60000000E+01  0.00000000E+00
  4.30000000E+02  8.40000000E+01  0.00000000E+00
  4.30000000E+02  8.20000000E+01  0.00000000E+00
  4.30000000E+02  8.00000000E+01  0.00000000E+00
  4.30000000E+02  7.80000000E+01  0.00000000E+00
  4.30000000E+02  7.60000000E+01  0.00000000E+00
  4.30000000E+02  7.40000000E+01  0.00000000E+00
  4.30000000E+02  7.20000000E+01  0.00000000E+00
  4.30000000E+02  7.00000000E+01  0.00000000E+00
  4.30000000E+02  6.80000000E+01  0.00000000E+00
  4.30000000E+02  6.60000000E+01  0.00000000E+00
  4.30000000E+02  6.40000000E+01  0.00000000E+00
  4.30000000E+02  6.20000000E+01  0.00000000E+00
  4.30000000E+02  6.00000000E+01  0.00000000E+00
  4.30000000E+02  5.80000000E+01  0.00000000E+00
  4.30000000E+02  5.60000000E+01  0.00000000E+00
  4.30000000E+02  5.40000000E+01  0.00000000E+00
  4.30000000E+02  5.20000000E+01  0.00000000E+00
  4.30000000E+02  5.00000000E+01  0.00000000E+00
  4.30000000E+02  4.80000000E+01  0.00000000E+00
  4.30000000E+02  4.60000000E+01  0.00000000E+00
  4.30000000E+02  4.40000000E+01  0.00000000E+00
  4.30000000E+02  4.20000000E+01  0.00000000E+00
  4.30000000E+02  4.00000000E+01  0.00000000E+00
  4.30000000E+02  3.80000000E+01  0.00000000E+00
  4.30000000E+02  3.60000000E+01  0.00000000E+00
  4.30000000E+02  3.40000000E+01  0.00000000E+00
  4.30000000E+02  3.20000000E+01  0.00000000E+00
  4.30000000E+02  3.00000000E+01  0.00000000E+00
  4.30000000E+02  2.80000000E+01  0.00000000E+00
  4.30000000E+02  2.60000000E+01  0.00000000E+00
  4.30000000E+02  2.40000000E+01  0.00000000E+00
  4.30000000E+02  2.20000000E+01  0.00000000E+00
  4.30000000E+02  2.00000000E+01  0.00000000E+00
  4.30000000E+02  1.80000000E+01  0.00000000E+00
  4.30000000E+02  1.60000000E+01  0.00000000E+00
  4.30000000E+02  1.40000000E+01  0.00000000E+00
  4.30000000E+02  1.20000000E+01  0.00000000E+00
  4.30000000E+02  1.00000000E+01  0.00000000E+00
  4.30000000E+02  8.00000000E+00  0.00000000E+00
  4.30000000E+02  6.00000000E+00  0.00000000E+00
  4.30000000E+02  4.00000000E+00  0.00000000E+00
  4.30000000E+02  2.00000000E+00  0.00000000E+00
  4.30000000E+02 -3.33066907E-14  0.00000000E+00
  4.40000000E+02  1.00000000E+02  0.00000000E+00
  4.40000000E+02  9.80000000E+01  0.00000000E+00
  4.40000000E+02  9.60000000E+01  0.00000000E+00
  4.40000000E+02  9.40000000E+01  0.00000000E+00
  4.40000000E+02  9.20000000E+01  0.00000000E+00
  4.40000000E+02  9.00000000E+01  0.00000000E+00
  4.40000000E+02  8.80000000E+01  0.00000000E+00
  4.40000000E+02  8.60000000E+01  0.00000000E+00
  4.40000000E+02  8.40000000E+01  0.00000000E+00
  4.40000000E+02  8.20000000E+01  0.00000000E+00
  4.40000000E+02  8.00000000E+01  0.00000000E+00
  4.40000000E+02  7.80000000E+01  0.00000000E+00
  4.40000000E+02  7.60000000E+01  0.00000000E+00
  4.40000000E+02  7.40000000E+01  0.00000000E+00
  4.40000000E+02  7.20000000E+01  0.00000000E+00
  4.40000000E+02  7.00000000E+01  0.00000000E+00
  4.40000000E+02  6.80000000E+01  0.00000000E+00
  4.40000000E+02  6.60000000E+01  0.00000000E+00
  4.40000000E+02  6.40000000E+01  0.00000000E+00
  4.40000000E+02  6.20000000E+01  0.00000000E+00
  4.40000000E+02  6.00000000E+01  0.00000000E+00
  4.40000000E+02  5.80000000E+01  0.00000000E+00
  4.40000000E+02  5.60000000E+01  0.00000000E+00
  4.40000000E+02  5.40000000E+01  0.00000000E+00
  4.40000000E+02  5.20000000E+01  0.00000000E+00
  4.40000000E+02  5.00000000E+01  0.00000000E+00
  4.40000000E+02  4.80000000E+01  0.00000000E+00
  4.40000000E+02  4.60000000E+01  0.00000000E+00
  4.40000000E+02  4.40000000E+01  0.00000000E+00
  4.40000000E+02  4.20000000E+01  0.00000000E+00
  4.40000000E+02  4.00000000E+01  0.00000000E+00
  4.40000000E+02  3.80000000E+01  0.00000000E+00
  4.40000000E+02  3.60000000E+01  0.00000000E+00
  4.40000000E+02  3.40000000E+01  0.00000000E+00
  4.40000000E+02  3.20000000E+01  0.00000000E+00
  4.40000000E+02  3.00000000E+01  0.00000000E+00
  4.40000000E+02  2.80000000E+01  0.00000000E+00
  4.40000000E+02  2.60000000E+01  0.00000000E+00
  4.40000000E+02  2.40000000E+01  0.00000000E+00
  4.40000000E+02  2.20000000E+01  0.00000000E+00
  4.40000000E+02  2.00000000E+01  0.00000000E+00
  4.40000000E+02  1.80000000E+01  0.00000000E+00
  4.40000000E+02  1.60000000E+01  0.00000000E+00
  4.40000000E+02  1.40000000E+01  0.00000000E+00
  4.40000000E+02  1.20000000E+01  0.00000000E+00
  4.40000000E+02  1.00000000E+01  0.00000000E+00
  4.40000000E+02  8.00000000E+00  0.00000000E+00
  4.40000000E+02  6.00000000E+00  0.00000000E+00
  4.40000000E+02  4.00000000E+00  0.00000000E+00
  4.40000000E+02  2.00000000E+00  0.00000000E+00
  4.40000000E+02 -3.33066907E-14  0.00000000E+00
  4.50000000E+02  1.00000000E+02  0.00000000E+00
  4.50000000E+02  9.80000000E+01  0.00000000E+00
  4.50000000E+02  9.60000000E+01  0.00000000E+00
  4.50000000E+02  9.40000000E+01  0.00000000E+00
  4.50000000E+02  9.20000000E+01  0.00000000E+00
  4.50000000E+02  9.00000000E+01  0.00000000E+00
  4.50000000E+02  8.80000000E+01  0.00000000E+00
  4.50000000E+02  8.60000000E+01  0.00000000E+00
  4.50000000E+02  8.40000000E+01  0.00000000E+00
  4.50000000E+02  8.20000000E+01  0.00000000E+00
  4.50000000E+02  8.00000000E+01  0.00000000E+00
  4.50000000E+02  7.80000000E+01  0.00000000E+00
  4.50000000E+02  7.60000000E+01  0.00000000E+00
  4.50000000E+02  7.40000000E+01  0.00000000E+00
  4.50000000E+02  7.20000000E+01  0.00000000E+00
  4.50000000E+02  7.00000000E+01  0.00000000E+00
  4.50000000E+02  6.80000000E+01  0.00000000E+00
  4.50000000E+02  6.60000000E+01  0.00000000E+00
  4.50000000E+02  6.40000000E+01  0.00000000E+00
  4.50000000E+02  6.20000000E+01  0.00000000E+00
  4.50000000E+02  6.00000000E+01  0.00000000E+00
  4.50000000E+02  5.80000000E+01  0.00000000E+00
  4.50000000E+02  5.60000000E+01  0.00000000E+00
  4.50000000E+02  5.40000000E+01  0.00000000E+00
  4.50000000E+02  5.20000000E+01  0.00000000E+00
  4.50000000E+02  5.00000000E+01  0.00000000E+00
  4.50000000E+02  4.80000000E+01  0.00000000E+00
  4.50000000E+02  4.60000000E+01  0.00000000E+00
  4.50000000E+02  4.40000000E+01  0.00000000E+00
  4.50000000E+02  4.20000000E+01  0.00000000E+00
  4.50000000E+02  4.00000000E+01  0.00000000E+00
  4.50000000E+02  3.80000000E+01  0.00000000E+00
  4.50000000E+02  3.60000000E+01  0.00000000E+00
  4.50000000E+02  3.40000000E+01  0.00000000E+00
  4.50000000E+02  3.20000000E+01  0.00000000E+00
  4.50000000E+02  3.00000000E+01  0.00000000E+00
  4.50000000E+02  2.80000000E+01  0.00000000E+00
  4.50000000E+02  2.60000000E+01  0.00000000E+00
  4.50000000E+02  2.40000000E+01  0.00000000E+00
  4.50000000E+02  2.20000000E+01  0.00000000E+00
  4.50000000E+02  2.00000000E+01  0.00000000E+00
  4.50000000E+02  1.80000000E+01  0.00000000E+00
  4.50000000E+02  1.60000000E+01  0.00000000E+00
  4.50000000E+02  1.40000000E+01  0.00000000E+00
  4.50000000E+02  1.20000000E+01  0.00000000E+00
  4.50000000E+02  1.00000000E+01  0.00000000E+00
  4.50000000E+02  8.00000000E+00  0.00000000E+00
  4.50000000E+02  6.00000000E+00  0.00000000E+00
  4.50000000E+02  4.00000000E+00  0.00000000E+00
  4.50000000E+02  2.00000000E+00  0.00000000E+00
  4.50000000E+02 -3.33066907E-14  0.00000000E+00
  4.60000000E+02  1.00000000E+02  0.00000000E+00
  4.60000000E+02  9.80000000E+01  0.00000000E+00
  4.60000000E+02  9.60000000E+01  0.00000000E+00
  4.60000000E+02  9.40000000E+01  0.00000000E+00
  4.60000000E+02  9.20000000E+01  0.00000000E+00
  4.60000000E+02  9.00000000E+01  0.00000000E+00
  4.60000000E+02  8.80000000E+01  0.00000000E+00
  4.60000000E+02  8.60000000E+01  0.00000000E+00
  4.60000000E+02  8.40000000E+01  0.00000000E+00
  4.60000000E+02  8.20000000E+01  0.00000000E+00
  4.60000000E+02  8.00000000E+01  0.00000000E+00
  4.60000000E+02  7.80000000E+01  0.00000000E+00
  4.60000000E+02  7.60000000E+01  0.00000000E+00
  4.60000000E+02  7.40000000E+01  0.00000000E+00
  4.60000000E+02  7.20000000E+01  0.00000000E+00
  4.60000000E+02  7.00000000E+01  0.00000000E+00
  4.60000000E+02  6.80000000E+01  0.00000000E+00
  4.60000000E+02  6.60000000E+01  0.00000000E+00
  4.60000000E+02  6.40000000E+01  0.00000000E+00
  4.60000000E+02  6.20000000E+01  0.00000000E+00
  4.60000000E+02  6.00000000E+01  0.00000000E+00
  4.60000000E+02  5.80000000E+01  0.00000000E+00
  4.60000000E+02  5.60000000E+01  0.00000000E+00
  4.60000000E+02  5.40000000E+01  0.00000000E+00
  4.60000000E+02  5.20000000E+01  0.00000000E+00
  4.60000000E+02  5.00000000E+01  0.00000000E+00
  4.60000000E+02  4.80000000E+01  0.00000000E+00
  4.60000000E+02  4.60000000E+01  0.00000000E+00
  4.60000000E+02  4.40000000E+01  0.00000000E+00
  4.60000000E+02  4.20000000E+01  0.00000000E+00
  4.60000000E+02  4.00000000E+01  0.00000000E+00
  4.60000000E+02  3.80000000E+01  0.00000000E+00
  4.60000000E+02  3.60000000E+01  0.00000000E+00
  4.60000000E+02  3.40000000E+01  0.00000000E+00
  4.60000000E+02  3.20000000E+01  0.00000000E+00
  4.60000000E+02  3.00000000E+01  0.00000000E+00
  4.60000000E+02  2.80000000E+01  0.00000000E+00
  4.60000000E+02  2.60000000E+01  0.00000000E+00
  4.60000000E+02  2.40000000E+01  0.00000000E+00
  4.60000000E+02  2.20000000E+01  0.00000000E+00
  4.60000000E+02  2.00000000E+01  0.00000000E+00
  4.60000000E+02  1.80000000E+01  0.00000000E+00
  4.60000000E+02  1.60000000E+01  0.00000000E+00
  4.60000000E+02  1.40000000E+01  0.00000000E+00
  4.60000000E+02  1.20000000E+01  0.00000000E+00
  4.60000000E+02  1.00000000E+01  0.00000000E+00
  4.60000000E+02  8.00000000E+00  0.00000000E+00
  4.60000000E+02  6.00000000E+00  0.00000000E+00
  4.60000000E+02  4.00000000E+00  0.00000000E+00
  4.60000000E+02  2.00000000E+00  0.00000000E+00
  4.60000000E+02 -3.33066907E-14  0.00000000E+00
  4.70000000E+02  1.00000000E+02  0.00000000E+00
  4.70000000E+02  9.80000000E+01  0.00000000E+00
  4.70000000E+02  9.60000000E+01  0.00000000E+00
  4.70000000E+02  9.40000000E+01  0.00000000E+00
  4.70000000E+02  9.20000000E+01  0.00000000E+00
  4.70000000E+02  9.00000000E+01  0.00000000E+00
  4.70000000E+02  8.80000000E+01  0.00000000E+00
  4.70000000E+02  8.60000000E+01  0.00000000E+00
  4.70000000E+02  8.40000000E+01  0.00000000E+00
  4.70000000E+02  8.20000000E+01  0.00000000E+00
  4.70000000E+02  8.00000000E+01  0.00000000E+00
  4.70000000E+02  7.80000000E+01  0.00000000E+00
  4.70000000E+02  7.60000000E+01  0.00000000E+00
  4.70000000E+02  7.40000000E+01  0.00000000E+00
  4.70000000E+02  7.20000000E+01  0.00000000E+00
  4.70000000E+02  7.00000000E+01  0.00000000E+00
  4.70000000E+02  6.80000000E+01  0.00000000E+00
  4.70000000E+02  6.60000000E+01  0.00000000E+00
  4.70000000E+02  6.40000000E+01  0.00000000E+00
  4.70000000E+02  6.20000000E+01  0.00000000E+00
  4.70000000E+02  6.00000000E+01  0.00000000E+00
  4.70000000E+02  5.80000000E+01  0.00000000E+00
  4.70000000E+02  5.60000000E+01  0.00000000E+00
  4.70000000E+02  5.40000000E+01  0.00000000E+00
  4.70000000E+02  5.20000000E+01  0.00000000E+00
  4.70000000E+02  5.00000000E+01  0.00000000E+00
  4.70000000E+02  4.80000000E+01  0.00000000E+00
  4.70000000E+02  4.60000000E+01  0.00000000E+00
  4.70000000E+02  4.40000000E+01  0.00000000E+00
  4.70000000E+02  4.20000000E+01  0.00000000E+00
  4.70000000E+02  4.00000000E+01  0.00000000E+00
  4.70000000E+02  3.80000000E+01  0.00000000E+00
  4.70000000E+02  3.60000000E+01  0.00000000E+00
  4.70000000E+02  3.40000000E+01  0.00000000E+00
  4.70000000E+02  3.20000000E+01  0.00000000E+00
  4.70000000E+02  3.00000000E+01  0.00000000E+00
  4.70000000E+02  2.80000000E+01  0.00000000E+00
  4.70000000E+02  2.60000000E+01  0.00000000E+00
  4.70000000E+02  2.40000000E+01  0.00000000E+00
  4.70000000E+02  2.20000000E+01  0.00000000E+00
  4.70000000E+02  2.00000000E+01  0.00000000E+00
  4.70000000E+02  1.80000000E+01  0.00000000E+00
  4.70000000E+02  1.60000000E+01  0.00000000E+00
  4.70000000E+02  1.40000000E+01  0.00000000E+00
  4.70000000E+02  1.20000000E+01  0.00000000E+00
  4.70000000E+02  1.00000000E+01  0.00000000E+00
  4.70000000E+02  8.00000000E+00  0.00000000E+00
  4.70000000E+02  6.00000000E+00  0.00000000E+00
  4.70000000E+02  4.00000000E+00  0.00000000E+00
  4.70000000E+02  2.00000000E+00  0.00000000E+00
  4.70000000E+02 -3.33066907E-14  0.00000000E+00
  4.80000000E+02  1.00000000E+02  0.00000000E+00
  4.80000000E+02  9.80000000E+01  0.00000000E+00
  4.80000000E+02  9.60000000E+01  0.00000000E+00
  4.80000000E+02  9.40000000E+01  0.00000000E+00
  4.80000000E+02  9.20000000E+01  0.00000000E+00
  4.80000000E+02  9.00000000E+01  0.00000000E+00
  4.80000000E+02  8.80000000E+01  0.00000000E+00
  4.80000000E+02  8.60000000E+01  0.00000000E+00
  4.80000000E+02  8.40000000E+01  0.00000000E+00
  4.80000000E+02  8.20000000E+01  0.00000000E+00
  4.80000000E+02  8.00000000E+01  0.00000000E+00
  4.80000000E+02  7.80000000E+01  0.00000000E+00
  4.80000000E+02  7.60000000E+01  0.00000000E+00
  4.80000000E+02  7.40000000E+01  0.00000000E+00
  4.80000000E+02  7.20000000E+01  0.00000000E+00
  4.80000000E+02  7.00000000E+01  0.00000000E+00
  4.80000000E+02  6.80000000E+01  0.00000000E+00
  4.80000000E+02  6.60000000E+01  0.00000000E+00
  4.80000000E+02  6.40000000E+01  0.00000000E+00
  4.80000000E+02  6.20000000E+01  0.00000000E+00
  4.80000000E+02  6.00000000E+01  0.00000000E+00
  4.80000000E+02  5.80000000E+01  0.00000000E+00
  4.80000000E+02  5.60000000E+01  0.00000000E+00
  4.80000000E+02  5.40000000E+01  0.00000000E+00
  4.80000000E+02  5.20000000E+01  0.00000000E+00
  4.80000000E+02  5.00000000E+01  0.00000000E+00
  4.80000000E+02  4.80000000E+01  0.00000000E+00
  4.80000000E+02  4.60000000E+01  0.00000000E+00
  4.80000000E+02  4.40000000E+01  0.00000000E+00
  4.80000000E+02  4.20000000E+01  0.00000000E+00
  4.80000000E+02  4.00000000E+01  0.00000000E+00
  4.80000000E+02  3.80000000E+01  0.00000000E+00
  4.80000000E+02  3.60000000E+01  0.00000000E+00
  4.80000000E+02  3.40000000E+01  0.00000000E+00
  4.80000000E+02  3.20000000E+01  0.00000000E+00
  4.80000000E+02  3.00000000E+01  0.00000000E+00
  4.80000000E+02  2.80000000E+01  0.00000000E+00
  4.80000000E+02  2.60000000E+01  0.00000000E+00
  4.80000000E+02  2.40000000E+01  0.00000000E+00
  4.80000000E+02  2.20000000E+01  0.00000000E+00
  4.80000000E+02  2.00000000E+01  0.00000000E+00
  4.80000000E+02  1.80000000E+01  0.00000000E+00
  4.80000000E+02  1.60000000E+01  0.00000000E+00
  4.80000000E+02  1.40000000E+01  0.00000000E+00
  4.80000000E+02  1.20000000E+01  0.00000000E+00
  4.80000000E+02  1.00000000E+01  0.00000000E+00
  4.80000000E+02  8.00000000E+00  0.00000000E+00
  4.80000000E+02  6.00000000E+00  0.00000000E+00
  4.80000000E+02  4.00000000E+00  0.00000000E+00
  4.80000000E+02  2.00000000E+00  0.00000000E+00
  4.80000000E+02 -3.33066907E-14  0.00000000E+00
  4.90000000E+02  1.00000000E+02  0.00000000E+00
  4.90000000E+02  9.80000000E+01  0.00000000E+00
  4.90000000E+02  9.60000000E+01  0.00000000E+00
  4.90000000E+02  9.40000000E+01  0.00000000E+00
  4.90000000E+02  9.20000000E+01  0.00000000E+00
  4.90000000E+02  9.00000000E+01  0.00000000E+00
  4.90000000E+02  8.80000000E+01  0.00000000E+00
  4.90000000E+02  8.60000000E+01  0.00000000E+00
  4.90000000E+02  8.40000000E+01  0.00000000E+00
  4.90000000E+02  8.20000000E+01  0.00000000E+00
  4.90000000E+02  8.00000000E+01  0.00000000E+00
  4.90000000E+02  7.80000000E+01  0.00000000E+00
  4.90000000E+02  7.60000000E+01  0.00000000E+00
  4.90000000E+02  7.40000000E+01  0.00000000E+00
  4.90000000E+02  7.20000000E+01  0.00000000E+00
  4.90000000E+02  7.00000000E+01  0.00000000E+00
  4.90000000E+02  6.80000000E+01  0.00000000E+00
  4.90000000E+02  6.60000000E+01  0.00000000E+00
  4.90000000E+02  6.40000000E+01  0.00000000E+00
  4.90000000E+02  6.20000000E+01  0.00000000E+00
  4.90000000E+02  6.00000000E+01  0.00000000E+00
  4.90000000E+02  5.80000000E+01  0.00000000E+00
  4.90000000E+02  5.60000000E+01  0.00000000E+00
  4.90000000E+02  5.40000000E+01  0.00000000E+00
  4.90000000E+02  5.20000000E+01  0.00000000E+00
  4.90000000E+02  5.00000000E+01  0.00000000E+00
  4.90000000E+02  4.80000000E+01  0.00000000E+00
  4.90000000E+02  4.60000000E+01  0.00000000E+00
  4.90000000E+02  4.40000000E+01  0.00000000E+00
  4.90000000E+02  4.20000000E+01  0.00000000E+00
  4.90000000E+02  4.00000000E+01  0.00000000E+00
  4.90000000E+02  3.80000000E+01  0.00000000E+00
  4.90000000E+02  3.60000000E+01  0.00000000E+00
  4.90000000E+02  3.40000000E+01  0.00000000E+00
  4.90000000E+02  3.20000000E+01  0.00000000E+00
  4.90000000E+02  3.00000000E+01  0.00000000E+00
  4.90000000E+02  2.80000000E+01  0.00000000E+00
  4.90000000E+02  2.60000000E+01  0.00000000E+00
  4.90000000E+02  2.40000000E+01  0.00000000E+00
  4.90000000E+02  2.20000000E+01  0.00000000E+00
  4.90000000E+02  2.00000000E+01  0.00000000E+00
  4.90000000E+02  1.80000000E+01  0.00000000E+00
  4.90000000E+02  1.60000000E+01  0.00000000E+00
  4.90000000E+02  1.40000000E+01  0.00000000E+00
  4.90000000E+02  1.20000000E+01  0.00000000E+00
  4.90000000E+02  1.00000000E+01  0.00000000E+00
  4.90000000E+02  8.00000000E+00  0.00000000E+00
  4.90000000E+02  6.00000000E+00  0.00000000E+00
  4.90000000E+02  4.00000000E+00  0.00000000E+00
  4.90000000E+02  2.00000000E+00  0.00000000E+00
  4.90000000E+02 -3.33066907E-14  0.00000000E+00
  5.00000000E+02  1.00000000E+02  0.00000000E+00
  5.00000000E+02  9.80000000E+01  0.00000000E+00
  5.00000000E+02  9.60000000E+01  0.00000000E+00
  5.00000000E+02  9.40000000E+01  0.00000000E+00
  5.00000000E+02  9.20000000E+01  0.00000000E+00
  5.00000000E+02  9.00000000E+01  0.00000000E+00
  5.00000000E+02  8.80000000E+01  0.00000000E+00
  5.00000000E+02  8.60000000E+01  0.00000000E+00
  5.00000000E+02  8.40000000E+01  0.00000000E+00
  5.00000000E+02  8.20000000E+01  0.00000000E+00
  5.00000000E+02  8.00000000E+01  0.00000000E+00
  5.00000000E+02  7.80000000E+01  0.00000000E+00
  5.00000000E+02  7.60000000E+01  0.00000000E+00
  5.00000000E+02  7.40000000E+01  0.00000000E+00
  5.00000000E+02  7.20000000E+01  0.00000000E+00
  5.00000000E+02  7.00000000E+01  0.00000000E+00
  5.00000000E+02  6.80000000E+01  0.00000000E+00
  5.00000000E+02  6.60000000E+01  0.00000000E+00
  5.00000000E+02  6.40000000E+01  0.00000000E+00
  5.00000000E+02  6.20000000E+01  0.00000000E+00
  5.00000000E+02  6.00000000E+01  0.00000000E+00
  5.00000000E+02  5.80000000E+01  0.00000000E+00
  5.00000000E+02  5.60000000E+01  0.00000000E+00
  5.00000000E+02  5.40000000E+01  0.00000000E+00
  5.00000000E+02  5.20000000E+01  0.00000000E+00
  5.00000000E+02  5.00000000E+01  0.00000000E+00
  5.00000000E+02  4.80000000E+01  0.00000000E+00
  5.00000000E+02  4.60000000E+01  0.00000000E+00
  5.00000000E+02  4.40000000E+01  0.00000000E+00
  5.00000000E+02  4.20000000E+01  0.00000000E+00
  5.00000000E+02  4.00000000E+01  0.00000000E+00
  5.00000000E+02  3.80000000E+01  0.00000000E+00
  5.00000000E+02  3.60000000E+01  0.00000000E+00
  5.00000000E+02  3.40000000E+01  0.00000000E+00
  5.00000000E+02  3.20000000E+01  0.00000000E+00
  5.00000000E+02  3.00000000E+01  0.00000000E+00
  5.00000000E+02  2.80000000E+01  0.00000000E+00
  5.00000000E+02  2.60000000E+01  0.00000000E+00
  5.00000000E+02  2.40000000E+01  0.00000000E+00
  5.00000000E+02  2.20000000E+01  0.00000000E+00
  5.00000000E+02  2.00000000E+01  0.00000000E+00
  5.00000000E+02  1.80000000E+01  0.00000000E+00
  5.00000000E+02  1.60000000E+01  0.00000000E+00
  5.00000000E+02  1.40000000E+01  0.00000000E+00
  5.00000000E+02  1.20000000E+01  0.00000000E+00
  5.00000000E+02  1.00000000E+01  0.00000000E+00
  5.00000000E+02  8.00000000E+00  0.00000000E+00
  5.00000000E+02  6.00000000E+00  0.00000000E+00
  5.00000000E+02  4.00000000E+00  0.00000000E+00
  5.00000000E+02  2.00000000E+00  0.00000000E+00
  5.00000000E+02 -3.33066907E-14  0.00000000E+00
  5.10000000E+02  1.00000000E+02  0.00000000E+00
  5.10000000E+02  9.80000000E+01  0.00000000E+00
  5.10000000E+02  9.60000000E+01  0.00000000E+00
  5.10000000E+02  9.40000000E+01  0.00000000E+00
  5.10000000E+02  9.20000000E+01  0.00000000E+00
  5.10000000E+02  9.00000000E+01  0.00000000E+00
  5.10000000E+02  8.80000000E+01  0.00000000E+00
  5.10000000E+02  8.60000000E+01  0.00000000E+00
  5.10000000E+02  8.40000000E+01  0.00000000E+00
  5.10000000E+02  8.20000000E+01  0.00000000E+00
  5.10000000E+02  8.00000000E+01  0.00000000E+00
  5.10000000E+02  7.80000000E+01  0.00000000E+00
  5.10000000E+02  7.60000000E+01  0.00000000E+00
  5.10000000E+02  7.40000000E+01  0.00000000E+00
  5.10000000E+02  7.20000000E+01  0.00000000E+00
  5.10000000E+02  7.00000000E+01  0.00000000E+00
  5.10000000E+02  6.80000000E+01  0.00000000E+00
  5.10000000E+02  6.60000000E+01  0.00000000E+00
  5.10000000E+02  6.40000000E+01  0.00000000E+00
  5.10000000E+02  6.20000000E+01  0.00000000E+00
  5.10000000E+02  6.00000000E+01  0.00000000E+00
  5.10000000E+02  5.80000000E+01  0.00000000E+00
  5.10000000E+02  5.60000000E+01  0.00000000E+00
  5.10000000E+02  5.40000000E+01  0.00000000E+00
  5.10000000E+02  5.20000000E+01  0.00000000E+00
  5.10000000E+02  5.00000000E+01  0.00000000E+00
  5.10000000E+02  4.80000000E+01  0.00000000E+00
  5.10000000E+02  4.60000000E+01  0.00000000E+00
  5.10000000E+02  4.40000000E+01  0.00000000E+00
  5.10000000E+02  4.20000000E+01  0.00000000E+00
  5.10000000E+02  4.00000000E+01  0.00000000E+00
  5.10000000E+02  3.80000000E+01  0.00000000E+00
  5.10000000E+02  3.60000000E+01  0.00000000E+00
  5.10000000E+02  3.40000000E+01  0.00000000E+00
  5.10000000E+02  3.20000000E+01  0.00000000E+00
  5.10000000E+02  3.00000000E+01  0.00000000E+00
  5.10000000E+02  2.80000000E+01  0.00000000E+00
  5.10000000E+02  2.60000000E+01  0.00000000E+00
  5.10000000E+02  2.40000000E+01  0.00000000E+00
  5.10000000E+02  2.20000000E+01  0.00000000E+00
  5.10000000E+02  2.00000000E+01  0.00000000E+00
  5.10000000E+02  1.80000000E+01  0.00000000E+00
  5.10000000E+02  1.60000000E+01  0.00000000E+00
  5.10000000E+02  1.40000000E+01  0.00000000E+00
  5.10000000E+02  1.20000000E+01  0.00000000E+00
  5.10000000E+02  1.00000000E+01  0.00000000E+00
  5.10000000E+02  8.00000000E+00  0.00000000E+00
  5.10000000E+02  6.00000000E+00  0.00000000E+00
  5.10000000E+02  4.00000000E+00  0.00000000E+00
  5.10000000E+02  2.00000000E+00  0.00000000E+00
  5.10000000E+02 -3.33066907E-14  0.00000000E+00
  5.20000000E+02  1.00000000E+02  0.00000000E+00
  5.20000000E+02  9.80000000E+01  0.00000000E+00
  5.20000000E+02  9.60000000E+01  0.00000000E+00
  5.20000000E+02  9.40000000E+01  0.00000000E+00
  5.20000000E+02  9.20000000E+01  0.00000000E+00
  5.20000000E+02  9.00000000E+01  0.00000000E+00
  5.20000000E+02  8.80000000E+01  0.00000000E+00
  5.20000000E+02  8.60000000E+01  0.00000000E+00
  5.20000000E+02  8.40000000E+01  0.00000000E+00
  5.20000000E+02  8.20000000E+01  0.00000000E+00
  5.20000000E+02  8.00000000E+01  0.00000000E+00
  5.20000000E+02  7.80000000E+01  0.00000000E+00
  5.20000000E+02  7.60000000E+01  0.00000000E+00
  5.20000000E+02  7.40000000E+01  0.00000000E+00
  5.20000000E+02  7.20000000E+01  0.00000000E+00
  5.20000000E+02  7.00000000E+01  0.00000000E+00
  5.20000000E+02  6.80000000E+01  0.00000000E+00
  5.20000000E+02  6.60000000E+01  0.00000000E+00
  5.20000000E+02  6.40000000E+01  0.00000000E+00
  5.20000000E+02  6.20000000E+01  0.00000000E+00
  5.20000000E+02  6.00000000E+01  0.00000000E+00
  5.20000000E+02  5.80000000E+01  0.00000000E+00
  5.20000000E+02  5.60000000E+01  0.00000000E+00
  5.20000000E+02  5.40000000E+01  0.00000000E+00
  5.20000000E+02  5.20000000E+01  0.00000000E+00
  5.20000000E+02  5.00000000E+01  0.00000000E+00
  5.20000000E+02  4.80000000E+01  0.00000000E+00
  5.20000000E+02  4.60000000E+01  0.00000000E+00
  5.20000000E+02  4.40000000E+01  0.00000000E+00
  5.20000000E+02  4.20000000E+01  0.00000000E+00
  5.20000000E+02  4.00000000E+01  0.00000000E+00
  5.20000000E+02  3.80000000E+01  0.00000000E+00
  5.20000000E+02  3.60000000E+01  0.00000000E+00
  5.20000000E+02  3.40000000E+01  0.00000000E+00
  5.20000000E+02  3.20000000E+01  0.00000000E+00
  5.20000000E+02  3.00000000E+01  0.00000000E+00
  5.20000000E+02  2.80000000E+01  0.00000000E+00
  5.20000000E+02  2.60000000E+01  0.00000000E+00
  5.20000000E+02  2.40000000E+01  0.00000000E+00
  5.20000000E+02  2.20000000E+01  0.00000000E+00
  5.20000000E+02  2.00000000E+01  0.00000000E+00
  5.20000000E+02  1.80000000E+01  0.00000000E+00
  5.20000000E+02  1.60000000E+01  0.00000000E+00
  5.20000000E+02  1.40000000E+01  0.00000000E+00
  5.20000000E+02  1.20000000E+01  0.00000000E+00
  5.20000000E+02  1.00000000E+01  0.00000000E+00
  5.20000000E+02  8.00000000E+00  0.00000000E+00
  5.20000000E+02  6.00000000E+00  0.00000000E+00
  5.20000000E+02  4.00000000E+00  0.00000000E+00
  5.20000000E+02  2.00000000E+00  0.00000000E+00
  5.20000000E+02 -3.33066907E-14  0.00000000E+00
  5.30000000E+02  1.00000000E+02  0.00000000E+00
  5.30000000E+02  9.80000000E+01  0.00000000E+00
  5.30000000E+02  9.60000000E+01  0.00000000E+00
  5.30000000E+02  9.40000000E+01  0.00000000E+00
  5.30000000E+02  9.20000000E+01  0.00000000E+00
  5.30000000E+02  9.00000000E+01  0.00000000E+00
  5.30000000E+02  8.80000000E+01  0.00000000E+00
  5.30000000E+02  8.60000000E+01  0.00000000E+00
  5.30000000E+02  8.40000000E+01  0.00000000E+00
  5.30000000E+02  8.20000000E+01  0.00000000E+00
  5.30000000E+02  8.00000000E+01  0.00000000E+00
  5.30000000E+02  7.80000000E+01  0.00000000E+00
  5.30000000E+02  7.60000000E+01  0.00000000E+00
  5.30000000E+02  7.40000000E+01  0.00000000E+00
  5.30000000E+02  7.20000000E+01  0.00000000E+00
  5.30000000E+02  7.00000000E+01  0.00000000E+00
  5.30000000E+02  6.80000000E+01  0.00000000E+00
  5.30000000E+02  6.60000000E+01  0.00000000E+00
  5.30000000E+02  6.40000000E+01  0.00000000E+00
  5.30000000E+02  6.20000000E+01  0.00000000E+00
  5.30000000E+02  6.00000000E+01  0.00000000E+00
  5.30000000E+02  5.80000000E+01  0.00000000E+00
  5.30000000E+02  5.60000000E+01  0.00000000E+00
  5.30000000E+02  5.40000000E+01  0.00000000E+00
  5.30000000E+02  5.20000000E+01  0.00000000E+00
  5.30000000E+02  5.00000000E+01  0.00000000E+00
  5.30000000E+02  4.80000000E+01  0.00000000E+00
  5.30000000E+02  4.60000000E+01  0.00000000E+00
  5.30000000E+02  4.40000000E+01  0.00000000E+00
  5.30000000E+02  4.20000000E+01  0.00000000E+00
  5.30000000E+02  4.00000000E+01  0.00000000E+00
  5.30000000E+02  3.80000000E+01  0.00000000E+00
  5.30000000E+02  3.60000000E+01  0.00000000E+00
  5.30000000E+02  3.40000000E+01  0.00000000E+00
  5.30000000E+02  3.20000000E+01  0.00000000E+00
  5.30000000E+02  3.00000000E+01  0.00000000E+00
  5.30000000E+02  2.80000000E+01  0.00000000E+00
  5.30000000E+02  2.60000000E+01  0.00000000E+00
  5.30000000E+02  2.40000000E+01  0.00000000E+00
  5.30000000E+02  2.20000000E+01  0.00000000E+00
  5.30000000E+02  2.00000000E+01  0.00000000E+00
  5.30000000E+02  1.80000000E+01  0.00000000E+00
  5.30000000E+02  1.60000000E+01  0.00000000E+00
  5.30000000E+02  1.40000000E+01  0.00000000E+00
  5.30000000E+02  1.20000000E+01  0.00000000E+00
  5.30000000E+02  1.00000000E+01  0.00000000E+00
  5.30000000E+02  8.00000000E+00  0.00000000E+00
  5.30000000E+02  6.00000000E+00  0.00000000E+00
  5.30000000E+02  4.00000000E+00  0.00000000E+00
  5.30000000E+02  2.00000000E+00  0.00000000E+00
  5.30000000E+02 -3.33066907E-14  0.00000000E+00
  5.40000000E+02  1.00000000E+02  0.00000000E+00
  5.40000000E+02  9.80000000E+01  0.00000000E+00
  5.40000000E+02  9.60000000E+01  0.00000000E+00
  5.40000000E+02  9.40000000E+01  0.00000000E+00
  5.40000000E+02  9.20000000E+01  0.00000000E+00
  5.40000000E+02  9.00000000E+01  0.00000000E+00
  5.40000000E+02  8.80000000E+01  0.00000000E+00
  5.40000000E+02  8.60000000E+01  0.00000000E+00
  5.40000000E+02  8.40000000E+01  0.00000000E+00
  5.40000000E+02  8.20000000E+01  0.00000000E+00
  5.40000000E+02  8.00000000E+01  0.00000000E+00
  5.40000000E+02  7.80000000E+01  0.00000000E+00
  5.40000000E+02  7.60000000E+01  0.00000000E+00
  5.40000000E+02  7.40000000E+01  0.00000000E+00
  5.40000000E+02  7.20000000E+01  0.00000000E+00
  5.40000000E+02  7.00000000E+01  0.00000000E+00
  5.40000000E+02  6.80000000E+01  0.00000000E+00
  5.40000000E+02  6.60000000E+01  0.00000000E+00
  5.40000000E+02  6.40000000E+01  0.00000000E+00
  5.40000000E+02  6.20000000E+01  0.00000000E+00
  5.40000000E+02  6.00000000E+01  0.00000000E+00
  5.40000000E+02  5.80000000E+01  0.00000000E+00
  5.40000000E+02  5.60000000E+01  0.00000000E+00
  5.40000000E+02  5.40000000E+01  0.00000000E+00
  5.40000000E+02  5.20000000E+01  0.00000000E+00
  5.40000000E+02  5.00000000E+01  0.00000000E+00
  5.40000000E+02  4.80000000E+01  0.00000000E+00
  5.40000000E+02  4.60000000E+01  0.00000000E+00
  5.40000000E+02  4.40000000E+01  0.00000000E+00
  5.40000000E+02  4.20000000E+01  0.00000000E+00
  5.40000000E+02  4.00000000E+01  0.00000000E+00
  5.40000000E+02  3.80000000E+01  0.00000000E+00
  5.40000000E+02  3.60000000E+01  0.00000000E+00
  5.40000000E+02  3.40000000E+01  0.00000000E+00
  5.40000000E+02  3.20000000E+01  0.00000000E+00
  5.40000000E+02  3.00000000E+01  0.00000000E+00
  5.40000000E+02  2.80000000E+01  0.00000000E+00
  5.40000000E+02  2.60000000E+01  0.00000000E+00
  5.40000000E+02  2.40000000E+01  0.00000000E+00
  5.40000000E+02  2.20000000E+01  0.00000000E+00
  5.40000000E+02  2.00000000E+01  0.00000000E+00
  5.40000000E+02  1.80000000E+01  0.00000000E+00
  5.40000000E+02  1.60000000E+01  0.00000000E+00
  5.40000000E+02  1.40000000E+01  0.00000000E+00
  5.40000000E+02  1.20000000E+01  0.00000000E+00
  5.40000000E+02  1.00000000E+01  0.00000000E+00
  5.40000000E+02  8.00000000E+00  0.00000000E+00
  5.40000000E+02  6.00000000E+00  0.00000000E+00
  5.40000000E+02  4.00000000E+00  0.00000000E+00
  5.40000000E+02  2.00000000E+00  0.00000000E+00
  5.40000000E+02 -3.33066907E-14  0.00000000E+00
  5.50000000E+02  1.00000000E+02  0.00000000E+00
  5.50000000E+02  9.80000000E+01  0.00000000E+00
  5.50000000E+02  9.60000000E+01  0.00000000E+00
  5.50000000E+02  9.40000000E+01  0.00000000E+00
  5.50000000E+02  9.20000000E+01  0.00000000E+00
  5.50000000E+02  9.00000000E+01  0.00000000E+00
  5.50000000E+02  8.80000000E+01  0.00000000E+00
  5.50000000E+02  8.60000000E+01  0.00000000E+00
  5.50000000E+02  8.40000000E+01  0.00000000E+00
  5.50000000E+02  8.20000000E+01  0.00000000E+00
  5.50000000E+02  8.00000000E+01  0.00000000E+00
  5.50000000E+02  7.80000000E+01  0.00000000E+00
  5.50000000E+02  7.60000000E+01  0.00000000E+00
  5.50000000E+02  7.40000000E+01  0.00000000E+00
  5.50000000E+02  7.20000000E+01  0.00000000E+00
  5.50000000E+02  7.00000000E+01  0.00000000E+00
  5.50000000E+02  6.80000000E+01  0.00000000E+00
  5.50000000E+02  6.60000000E+01  0.00000000E+00
  5.50000000E+02  6.40000000E+01  0.00000000E+00
  5.50000000E+02  6.20000000E+01  0.00000000E+00
  5.50000000E+02  6.00000000E+01  0.00000000E+00
  5.50000000E+02  5.80000000E+01  0.00000000E+00
  5.50000000E+02  5.60000000E+01  0.00000000E+00
  5.50000000E+02  5.40000000E+01  0.00000000E+00
  5.50000000E+02  5.20000000E+01  0.00000000E+00
  5.50000000E+02  5.00000000E+01  0.00000000E+00
  5.50000000E+02  4.80000000E+01  0.00000000E+00
  5.50000000E+02  4.60000000E+01  0.00000000E+00
  5.50000000E+02  4.40000000E+01  0.00000000E+00
  5.50000000E+02  4.20000000E+01  0.00000000E+00
  5.50000000E+02  4.00000000E+01  0.00000000E+00
  5.50000000E+02  3.80000000E+01  0.00000000E+00
  5.50000000E+02  3.60000000E+01  0.00000000E+00
  5.50000000E+02  3.40000000E+01  0.00000000E+00
  5.50000000E+02  3.20000000E+01  0.00000000E+00
  5.50000000E+02  3.00000000E+01  0.00000000E+00
  5.50000000E+02  2.80000000E+01  0.00000000E+00
  5.50000000E+02  2.60000000E+01  0.00000000E+00
  5.50000000E+02  2.40000000E+01  0.00000000E+00
  5.50000000E+02  2.20000000E+01  0.00000000E+00
  5.50000000E+02  2.00000000E+01  0.00000000E+00
  5.50000000E+02  1.80000000E+01  0.00000000E+00
  5.50000000E+02  1.60000000E+01  0.00000000E+00
  5.50000000E+02  1.40000000E+01  0.00000000E+00
  5.50000000E+02  1.20000000E+01  0.00000000E+00
  5.50000000E+02  1.00000000E+01  0.00000000E+00
  5.50000000E+02  8.00000000E+00  0.00000000E+00
  5.50000000E+02  6.00000000E+00  0.00000000E+00
  5.50000000E+02  4.00000000E+00  0.00000000E+00
  5.50000000E+02  2.00000000E+00  0.00000000E+00
  5.50000000E+02 -3.33066907E-14  0.00000000E+00
  5.60000000E+02  1.00000000E+02  0.00000000E+00
  5.60000000E+02  9.80000000E+01  0.00000000E+00
  5.60000000E+02  9.60000000E+01  0.00000000E+00
  5.60000000E+02  9.40000000E+01  0.00000000E+00
  5.60000000E+02  9.20000000E+01  0.00000000E+00
  5.60000000E+02  9.00000000E+01  0.00000000E+00
  5.60000000E+02  8.80000000E+01  0.00000000E+00
  5.60000000E+02  8.60000000E+01  0.00000000E+00
  5.60000000E+02  8.40000000E+01  0.00000000E+00
  5.60000000E+02  8.20000000E+01  0.00000000E+00
  5.60000000E+02  8.00000000E+01  0.00000000E+00
  5.60000000E+02  7.80000000E+01  0.00000000E+00
  5.60000000E+02  7.60000000E+01  0.00000000E+00
  5.60000000E+02  7.40000000E+01  0.00000000E+00
  5.60000000E+02  7.20000000E+01  0.00000000E+00
  5.60000000E+02  7.00000000E+01  0.00000000E+00
  5.60000000E+02  6.80000000E+01  0.00000000E+00
  5.60000000E+02  6.60000000E+01  0.00000000E+00
  5.60000000E+02  6.40000000E+01  0.00000000E+00
  5.60000000E+02  6.20000000E+01  0.00000000E+00
  5.60000000E+02  6.00000000E+01  0.00000000E+00
  5.60000000E+02  5.80000000E+01  0.00000000E+00
  5.60000000E+02  5.60000000E+01  0.00000000E+00
  5.60000000E+02  5.40000000E+01  0.00000000E+00
  5.60000000E+02  5.20000000E+01  0.00000000E+00
  5.60000000E+02  5.00000000E+01  0.00000000E+00
  5.60000000E+02  4.80000000E+01  0.00000000E+00
  5.60000000E+02  4.60000000E+01  0.00000000E+00
  5.60000000E+02  4.40000000E+01  0.00000000E+00
  5.60000000E+02  4.20000000E+01  0.00000000E+00
  5.60000000E+02  4.00000000E+01  0.00000000E+00
  5.60000000E+02  3.80000000E+01  0.00000000E+00
  5.60000000E+02  3.60000000E+01  0.00000000E+00
  5.60000000E+02  3.40000000E+01  0.00000000E+00
  5.60000000E+02  3.20000000E+01  0.00000000E+00
  5.60000000E+02  3.00000000E+01  0.00000000E+00
  5.60000000E+02  2.80000000E+01  0.00000000E+00
  5.60000000E+02  2.60000000E+01  0.00000000E+00
  5.60000000E+02  2.40000000E+01  0.00000000E+00
  5.60000000E+02  2.20000000E+01  0.00000000E+00
  5.60000000E+02  2.00000000E+01  0.00000000E+00
  5.60000000E+02  1.80000000E+01  0.00000000E+00
  5.60000000E+02  1.60000000E+01  0.00000000E+00
  5.60000000E+02  1.40000000E+01  0.00000000E+00
  5.60000000E+02  1.20000000E+01  0.00000000E+00
  5.60000000E+02  1.00000000E+01  0.00000000E+00
  5.60000000E+02  8.00000000E+00  0.00000000E+00
  5.60000000E+02  6.00000000E+00  0.00000000E+00
  5.60000000E+02  4.00000000E+00  0.00000000E+00
  5.60000000E+02  2.00000000E+00  0.00000000E+00
  5.60000000E+02 -3.33066907E-14  0.00000000E+00
  5.70000000E+02  1.00000000E+02  0.00000000E+00
  5.70000000E+02  9.80000000E+01  0.00000000E+00
  5.70000000E+02  9.60000000E+01  0.00000000E+00
  5.70000000E+02  9.40000000E+01  0.00000000E+00
  5.70000000E+02  9.20000000E+01  0.00000000E+00
  5.70000000E+02  9.00000000E+01  0.00000000E+00
  5.70000000E+02  8.80000000E+01  0.00000000E+00
  5.70000000E+02  8.60000000E+01  0.00000000E+00
  5.70000000E+02  8.40000000E+01  0.00000000E+00
  5.70000000E+02  8.20000000E+01  0.00000000E+00
  5.70000000E+02  8.00000000E+01  0.00000000E+00
  5.70000000E+02  7.80000000E+01  0.00000000E+00
  5.70000000E+02  7.60000000E+01  0.00000000E+00
  5.70000000E+02  7.40000000E+01  0.00000000E+00
  5.70000000E+02  7.20000000E+01  0.00000000E+00
  5.70000000E+02  7.00000000E+01  0.00000000E+00
  5.70000000E+02  6.80000000E+01  0.00000000E+00
  5.70000000E+02  6.60000000E+01  0.00000000E+00
  5.70000000E+02  6.40000000E+01  0.00000000E+00
  5.70000000E+02  6.20000000E+01  0.00000000E+00
  5.70000000E+02  6.00000000E+01  0.00000000E+00
  5.70000000E+02  5.80000000E+01  0.00000000E+00
  5.70000000E+02  5.60000000E+01  0.00000000E+00
  5.70000000E+02  5.40000000E+01  0.00000000E+00
  5.70000000E+02  5.20000000E+01  0.00000000E+00
  5.70000000E+02  5.00000000E+01  0.00000000E+00
  5.70000000E+02  4.80000000E+01  0.00000000E+00
  5.70000000E+02  4.60000000E+01  0.00000000E+00
  5.70000000E+02  4.40000000E+01  0.00000000E+00
  5.70000000E+02  4.20000000E+01  0.00000000E+00
  5.70000000E+02  4.00000000E+01  0.00000000E+00
  5.70000000E+02  3.80000000E+01  0.00000000E+00
  5.70000000E+02  3.60000000E+01  0.00000000E+00
  5.70000000E+02  3.40000000E+01  0.00000000E+00
  5.70000000E+02  3.20000000E+01  0.00000000E+00
  5.70000000E+02  3.00000000E+01  0.00000000E+00
  5.70000000E+02  2.80000000E+01  0.00000000E+00
  5.70000000E+02  2.60000000E+01  0.00000000E+00
  5.70000000E+02  2.40000000E+01  0.00000000E+00
  5.70000000E+02  2.20000000E+01  0.00000000E+00
  5.70000000E+02  2.00000000E+01  0.00000000E+00
  5.70000000E+02  1.80000000E+01  0.00000000E+00
  5.70000000E+02  1.60000000E+01  0.00000000E+00
  5.70000000E+02  1.40000000E+01  0.00000000E+00
  5.70000000E+02  1.20000000E+01  0.00000000E+00
  5.70000000E+02  1.00000000E+01  0.00000000E+00
  5.70000000E+02  8.00000000E+00  0.00000000E+00
  5.70000000E+02  6.00000000E+00  0.00000000E+00
  5.70000000E+02  4.00000000E+00  0.00000000E+00
  5.70000000E+02  2.00000000E+00  0.00000000E+00
  5.70000000E+02 -3.33066907E-14  0.00000000E+00
  5.80000000E+02  1.00000000E+02  0.00000000E+00
  5.80000000E+02  9.80000000E+01  0.00000000E+00
  5.80000000E+02  9.60000000E+01  0.00000000E+00
  5.80000000E+02  9.40000000E+01  0.00000000E+00
  5.80000000E+02  9.20000000E+01  0.00000000E+00
  5.80000000E+02  9.00000000E+01  0.00000000E+00
  5.80000000E+02  8.80000000E+01  0.00000000E+00
  5.80000000E+02  8.60000000E+01  0.00000000E+00
  5.80000000E+02  8.40000000E+01  0.00000000E+00
  5.80000000E+02  8.20000000E+01  0.00000000E+00
  5.80000000E+02  8.00000000E+01  0.00000000E+00
  5.80000000E+02  7.80000000E+01  0.00000000E+00
  5.80000000E+02  7.60000000E+01  0.00000000E+00
  5.80000000E+02  7.40000000E+01  0.00000000E+00
  5.80000000E+02  7.20000000E+01  0.00000000E+00
  5.80000000E+02  7.00000000E+01  0.00000000E+00
  5.80000000E+02  6.80000000E+01  0.00000000E+00
  5.80000000E+02  6.60000000E+01  0.00000000E+00
  5.80000000E+02  6.40000000E+01  0.00000000E+00
  5.80000000E+02  6.20000000E+01  0.00000000E+00
  5.80000000E+02  6.00000000E+01  0.00000000E+00
  5.80000000E+02  5.80000000E+01  0.00000000E+00
  5.80000000E+02  5.60000000E+01  0.00000000E+00
  5.80000000E+02  5.40000000E+01  0.00000000E+00
  5.80000000E+02  5.20000000E+01  0.00000000E+00
  5.80000000E+02  5.00000000E+01  0.00000000E+00
  5.80000000E+02  4.80000000E+01  0.00000000E+00
  5.80000000E+02  4.60000000E+01  0.00000000E+00
  5.80000000E+02  4.40000000E+01  0.00000000E+00
  5.80000000E+02  4.20000000E+01  0.00000000E+00
  5.80000000E+02  4.00000000E+01  0.00000000E+00
  5.80000000E+02  3.80000000E+01  0.00000000E+00
  5.80000000E+02  3.60000000E+01  0.00000000E+00
  5.80000000E+02  3.40000000E+01  0.00000000E+00
  5.80000000E+02  3.20000000E+01  0.00000000E+00
  5.80000000E+02  3.00000000E+01  0.00000000E+00
  5.80000000E+02  2.80000000E+01  0.00000000E+00
  5.80000000E+02  2.60000000E+01  0.00000000E+00
  5.80000000E+02  2.40000000E+01  0.00000000E+00
  5.80000000E+02  2.20000000E+01  0.00000000E+00
  5.80000000E+02  2.00000000E+01  0.00000000E+00
  5.80000000E+02  1.80000000E+01  0.00000000E+00
  5.80000000E+02  1.60000000E+01  0.00000000E+00
  5.80000000E+02  1.40000000E+01  0.00000000E+00
  5.80000000E+02  1.20000000E+01  0.00000000E+00
  5.80000000E+02  1.00000000E+01  0.00000000E+00
  5.80000000E+02  8.00000000E+00  0.00000000E+00
  5.80000000E+02  6.00000000E+00  0.00000000E+00
  5.80000000E+02  4.00000000E+00  0.00000000E+00
  5.80000000E+02  2.00000000E+00  0.00000000E+00
  5.80000000E+02 -3.33066907E-14  0.00000000E+00
  5.90000000E+02  1.00000000E+02  0.00000000E+00
  5.90000000E+02  9.80000000E+01  0.00000000E+00
  5.90000000E+02  9.60000000E+01  0.00000000E+00
  5.90000000E+02  9.40000000E+01  0.00000000E+00
  5.90000000E+02  9.20000000E+01  0.00000000E+00
  5.90000000E+02  9.00000000E+01  0.00000000E+00
  5.90000000E+02  8.80000000E+01  0.00000000E+00
  5.90000000E+02  8.60000000E+01  0.00000000E+00
  5.90000000E+02  8.40000000E+01  0.00000000E+00
  5.90000000E+02  8.20000000E+01  0.00000000E+00
  5.90000000E+02  8.00000000E+01  0.00000000E+00
  5.90000000E+02  7.80000000E+01  0.00000000E+00
  5.90000000E+02  7.60000000E+01  0.00000000E+00
  5.90000000E+02  7.40000000E+01  0.00000000E+00
  5.90000000E+02  7.20000000E+01  0.00000000E+00
  5.90000000E+02  7.00000000E+01  0.00000000E+00
  5.90000000E+02  6.80000000E+01  0.00000000E+00
  5.90000000E+02  6.60000000E+01  0.00000000E+00
  5.90000000E+02  6.40000000E+01  0.00000000E+00
  5.90000000E+02  6.20000000E+01  0.00000000E+00
  5.90000000E+02  6.00000000E+01  0.00000000E+00
  5.90000000E+02  5.80000000E+01  0.00000000E+00
  5.90000000E+02  5.60000000E+01  0.00000000E+00
  5.90000000E+02  5.40000000E+01  0.00000000E+00
  5.90000000E+02  5.20000000E+01  0.00000000E+00
  5.90000000E+02  5.00000000E+01  0.00000000E+00
  5.90000000E+02  4.80000000E+01  0.00000000E+00
  5.90000000E+02  4.60000000E+01  0.00000000E+00
  5.90000000E+02  4.40000000E+01  0.00000000E+00
  5.90000000E+02  4.20000000E+01  0.00000000E+00
  5.90000000E+02  4.00000000E+01  0.00000000E+00
  5.90000000E+02  3.80000000E+01  0.00000000E+00
  5.90000000E+02  3.60000000E+01  0.00000000E+00
  5.90000000E+02  3.40000000E+01  0.00000000E+00
  5.90000000E+02  3.20000000E+01  0.00000000E+00
  5.90000000E+02  3.00000000E+01  0.00000000E+00
  5.90000000E+02  2.80000000E+01  0.00000000E+00
  5.90000000E+02  2.60000000E+01  0.00000000E+00
  5.90000000E+02  2.40000000E+01  0.00000000E+00
  5.90000000E+02  2.20000000E+01  0.00000000E+00
  5.90000000E+02  2.00000000E+01  0.00000000E+00
  5.90000000E+02  1.80000000E+01  0.00000000E+00
  5.90000000E+02  1.60000000E+01  0.00000000E+00
  5.90000000E+02  1.40000000E+01  0.00000000E+00
  5.90000000E+02  1.20000000E+01  0.00000000E+00
  5.90000000E+02  1.00000000E+01  0.00000000E+00
  5.90000000E+02  8.00000000E+00  0.00000000E+00
  5.90000000E+02  6.00000000E+00  0.00000000E+00
  5.90000000E+02  4.00000000E+00  0.00000000E+00
  5.90000000E+02  2.00000000E+00  0.00000000E+00
  5.90000000E+02 -3.33066907E-14  0.00000000E+00
  6.00000000E+02  1.00000000E+02  0.00000000E+00
  6.00000000E+02  9.80000000E+01  0.00000000E+00
  6.00000000E+02  9.60000000E+01  0.00000000E+00
  6.00000000E+02  9.40000000E+01  0.00000000E+00
  6.00000000E+02  9.20000000E+01  0.00000000E+00
  6.00000000E+02  9.00000000E+01  0.00000000E+00
  6.00000000E+02  8.80000000E+01  0.00000000E+00
  6.00000000E+02  8.60000000E+01  0.00000000E+00
  6.00000000E+02  8.40000000E+01  0.00000000E+00
  6.00000000E+02  8.20000000E+01  0.00000000E+00
  6.00000000E+02  8.00000000E+01  0.00000000E+00
  6.00000000E+02  7.80000000E+01  0.00000000E+00
  6.00000000E+02  7.60000000E+01  0.00000000E+00
  6.00000000E+02  7.40000000E+01  0.00000000E+00
  6.00000000E+02  7.20000000E+01  0.00000000E+00
  6.00000000E+02  7.00000000E+01  0.00000000E+00
  6.00000000E+02  6.80000000E+01  0.00000000E+00
  6.00000000E+02  6.60000000E+01  0.00000000E+00
  6.00000000E+02  6.40000000E+01  0.00000000E+00
  6.00000000E+02  6.20000000E+01  0.00000000E+00
  6.00000000E+02  6.00000000E+01  0.00000000E+00
  6.00000000E+02  5.80000000E+01  0.00000000E+00
  6.00000000E+02  5.60000000E+01  0.00000000E+00
  6.00000000E+02  5.40000000E+01  0.00000000E+00
  6.00000000E+02  5.20000000E+01  0.00000000E+00
  6.00000000E+02  5.00000000E+01  0.00000000E+00
  6.00000000E+02  4.80000000E+01  0.00000000E+00
  6.00000000E+02  4.60000000E+01  0.00000000E+00
  6.00000000E+02  4.40000000E+01  0.00000000E+00
  6.00000000E+02  4.20000000E+01  0.00000000E+00
  6.00000000E+02  4.00000000E+01  0.00000000E+00
  6.00000000E+02  3.80000000E+01  0.00000000E+00
  6.00000000E+02  3.60000000E+01  0.00000000E+00
  6.00000000E+02  3.40000000E+01  0.00000000E+00
  6.00000000E+02  3.20000000E+01  0.00000000E+00
  6.00000000E+02  3.00000000E+01  0.00000000E+00
  6.00000000E+02  2.80000000E+01  0.00000000E+00
  6.00000000E+02  2.60000000E+01  0.00000000E+00
  6.00000000E+02  2.40000000E+01  0.00000000E+00
  6.00000000E+02  2.20000000E+01  0.00000000E+00
  6.00000000E+02  2.00000000E+01  0.00000000E+00
  6.00000000E+02  1.80000000E+01  0.00000000E+00
  6.00000000E+02  1.60000000E+01  0.00000000E+00
  6.00000000E+02  1.40000000E+01  0.00000000E+00
  6.00000000E+02  1.20000000E+01  0.00000000E+00
  6.00000000E+02  1.00000000E+01  0.00000000E+00
  6.00000000E+02  8.00000000E+00  0.00000000E+00
  6.00000000E+02  6.00000000E+00  0.00000000E+00
  6.00000000E+02  4.00000000E+00  0.00000000E+00
  6.00000000E+02  2.00000000E+00  0.00000000E+00
  6.00000000E+02 -3.33066907E-14  0.00000000E+00
  6.10000000E+02  1.00000000E+02  0.00000000E+00
  6.10000000E+02  9.80000000E+01  0.00000000E+00
  6.10000000E+02  9.60000000E+01  0.00000000E+00
  6.10000000E+02  9.40000000E+01  0.00000000E+00
  6.10000000E+02  9.20000000E+01  0.00000000E+00
  6.10000000E+02  9.00000000E+01  0.00000000E+00
  6.10000000E+02  8.80000000E+01  0.00000000E+00
  6.10000000E+02  8.60000000E+01  0.00000000E+00
  6.10000000E+02  8.40000000E+01  0.00000000E+00
  6.10000000E+02  8.20000000E+01  0.00000000E+00
  6.10000000E+02  8.00000000E+01  0.00000000E+00
  6.10000000E+02  7.80000000E+01  0.00000000E+00
  6.10000000E+02  7.60000000E+01  0.00000000E+00
  6.10000000E+02  7.40000000E+01  0.00000000E+00
  6.10000000E+02  7.20000000E+01  0.00000000E+00
  6.10000000E+02  7.00000000E+01  0.00000000E+00
  6.10000000E+02  6.80000000E+01  0.00000000E+00
  6.10000000E+02  6.60000000E+01  0.00000000E+00
  6.10000000E+02  6.40000000E+01  0.00000000E+00
  6.10000000E+02  6.20000000E+01  0.00000000E+00
  6.10000000E+02  6.00000000E+01  0.00000000E+00
  6.10000000E+02  5.80000000E+01  0.00000000E+00
  6.10000000E+02  5.60000000E+01  0.00000000E+00
  6.10000000E+02  5.40000000E+01  0.00000000E+00
  6.10000000E+02  5.20000000E+01  0.00000000E+00
  6.10000000E+02  5.00000000E+01  0.00000000E+00
  6.10000000E+02  4.80000000E+01  0.00000000E+00
  6.10000000E+02  4.60000000E+01  0.00000000E+00
  6.10000000E+02  4.40000000E+01  0.00000000E+00
  6.10000000E+02  4.20000000E+01  0.00000000E+00
  6.10000000E+02  4.00000000E+01  0.00000000E+00
  6.10000000E+02  3.80000000E+01  0.00000000E+00
  6.10000000E+02  3.60000000E+01  0.00000000E+00
  6.10000000E+02  3.40000000E+01  0.00000000E+00
  6.10000000E+02  3.20000000E+01  0.00000000E+00
  6.10000000E+02  3.00000000E+01  0.00000000E+00
  6.10000000E+02  2.80000000E+01  0.00000000E+00
  6.10000000E+02  2.60000000E+01  0.00000000E+00
  6.10000000E+02  2.40000000E+01  0.00000000E+00
  6.10000000E+02  2.20000000E+01  0.00000000E+00
  6.10000000E+02  2.00000000E+01  0.00000000E+00
  6.10000000E+02  1.80000000E+01  0.00000000E+00
  6.10000000E+02  1.60000000E+01  0.00000000E+00
  6.10000000E+02  1.40000000E+01  0.00000000E+00
  6.10000000E+02  1.20000000E+01  0.00000000E+00
  6.10000000E+02  1.00000000E+01  0.00000000E+00
  6.10000000E+02  8.00000000E+00  0.00000000E+00
  6.10000000E+02  6.00000000E+00  0.00000000E+00
  6.10000000E+02  4.00000000E+00  0.00000000E+00
  6.10000000E+02  2.00000000E+00  0.00000000E+00
  6.10000000E+02 -3.33066907E-14  0.00000000E+00
  6.20000000E+02  1.00000000E+02  0.00000000E+00
  6.20000000E+02  9.80000000E+01  0.00000000E+00
  6.20000000E+02  9.60000000E+01  0.00000000E+00
  6.20000000E+02  9.40000000E+01  0.00000000E+00
  6.20000000E+02  9.20000000E+01  0.00000000E+00
  6.20000000E+02  9.00000000E+01  0.00000000E+00
  6.20000000E+02  8.80000000E+01  0.00000000E+00
  6.20000000E+02  8.60000000E+01  0.00000000E+00
  6.20000000E+02  8.40000000E+01  0.00000000E+00
  6.20000000E+02  8.20000000E+01  0.00000000E+00
  6.20000000E+02  8.00000000E+01  0.00000000E+00
  6.20000000E+02  7.80000000E+01  0.00000000E+00
  6.20000000E+02  7.60000000E+01  0.00000000E+00
  6.20000000E+02  7.40000000E+01  0.00000000E+00
  6.20000000E+02  7.20000000E+01  0.00000000E+00
  6.20000000E+02  7.00000000E+01  0.00000000E+00
  6.20000000E+02  6.80000000E+01  0.00000000E+00
  6.20000000E+02  6.60000000E+01  0.00000000E+00
  6.20000000E+02  6.40000000E+01  0.00000000E+00
  6.20000000E+02  6.20000000E+01  0.00000000E+00
  6.20000000E+02  6.00000000E+01  0.00000000E+00
  6.20000000E+02  5.80000000E+01  0.00000000E+00
  6.20000000E+02  5.60000000E+01  0.00000000E+00
  6.20000000E+02  5.40000000E+01  0.00000000E+00
  6.20000000E+02  5.20000000E+01  0.00000000E+00
  6.20000000E+02  5.00000000E+01  0.00000000E+00
  6.20000000E+02  4.80000000E+01  0.00000000E+00
  6.20000000E+02  4.60000000E+01  0.00000000E+00
  6.20000000E+02  4.40000000E+01  0.00000000E+00
  6.20000000E+02  4.20000000E+01  0.00000000E+00
  6.20000000E+02  4.00000000E+01  0.00000000E+00
  6.20000000E+02  3.80000000E+01  0.00000000E+00
  6.20000000E+02  3.60000000E+01  0.00000000E+00
  6.20000000E+02  3.40000000E+01  0.00000000E+00
  6.20000000E+02  3.20000000E+01  0.00000000E+00
  6.20000000E+02  3.00000000E+01  0.00000000E+00
  6.20000000E+02  2.80000000E+01  0.00000000E+00
  6.20000000E+02  2.60000000E+01  0.00000000E+00
  6.20000000E+02  2.40000000E+01  0.00000000E+00
  6.20000000E+02  2.20000000E+01  0.00000000E+00
  6.20000000E+02  2.00000000E+01  0.00000000E+00
  6.20000000E+02  1.80000000E+01  0.00000000E+00
  6.20000000E+02  1.60000000E+01  0.00000000E+00
  6.20000000E+02  1.40000000E+01  0.00000000E+00
  6.20000000E+02  1.20000000E+01  0.00000000E+00
  6.20000000E+02  1.00000000E+01  0.00000000E+00
  6.20000000E+02  8.00000000E+00  0.00000000E+00
  6.20000000E+02  6.00000000E+00  0.00000000E+00
  6.20000000E+02  4.00000000E+00  0.00000000E+00
  6.20000000E+02  2.00000000E+00  0.00000000E+00
  6.20000000E+02 -3.33066907E-14  0.00000000E+00
  6.30000000E+02  1.00000000E+02  0.00000000E+00
  6.30000000E+02  9.80000000E+01  0.00000000E+00
  6.30000000E+02  9.60000000E+01  0.00000000E+00
  6.30000000E+02  9.40000000E+01  0.00000000E+00
  6.30000000E+02  9.20000000E+01  0.00000000E+00
  6.30000000E+02  9.00000000E+01  0.00000000E+00
  6.30000000E+02  8.80000000E+01  0.00000000E+00
  6.30000000E+02  8.60000000E+01  0.00000000E+00
  6.30000000E+02  8.40000000E+01  0.00000000E+00
  6.30000000E+02  8.20000000E+01  0.00000000E+00
  6.30000000E+02  8.00000000E+01  0.00000000E+00
  6.30000000E+02  7.80000000E+01  0.00000000E+00
  6.30000000E+02  7.60000000E+01  0.00000000E+00
  6.30000000E+02  7.40000000E+01  0.00000000E+00
  6.30000000E+02  7.20000000E+01  0.00000000E+00
  6.30000000E+02  7.00000000E+01  0.00000000E+00
  6.30000000E+02  6.80000000E+01  0.00000000E+00
  6.30000000E+02  6.60000000E+01  0.00000000E+00
  6.30000000E+02  6.40000000E+01  0.00000000E+00
  6.30000000E+02  6.20000000E+01  0.00000000E+00
  6.30000000E+02  6.00000000E+01  0.00000000E+00
  6.30000000E+02  5.80000000E+01  0.00000000E+00
  6.30000000E+02  5.60000000E+01  0.00000000E+00
  6.30000000E+02  5.40000000E+01  0.00000000E+00
  6.30000000E+02  5.20000000E+01  0.00000000E+00
  6.30000000E+02  5.00000000E+01  0.00000000E+00
  6.30000000E+02  4.80000000E+01  0.00000000E+00
  6.30000000E+02  4.60000000E+01  0.00000000E+00
  6.30000000E+02  4.40000000E+01  0.00000000E+00
  6.30000000E+02  4.20000000E+01  0.00000000E+00
  6.30000000E+02  4.00000000E+01  0.00000000E+00
  6.30000000E+02  3.80000000E+01  0.00000000E+00
  6.30000000E+02  3.60000000E+01  0.00000000E+00
  6.30000000E+02  3.40000000E+01  0.00000000E+00
  6.30000000E+02  3.20000000E+01  0.00000000E+00
  6.30000000E+02  3.00000000E+01  0.00000000E+00
  6.30000000E+02  2.80000000E+01  0.00000000E+00
  6.30000000E+02  2.60000000E+01  0.00000000E+00
  6.30000000E+02  2.40000000E+01  0.00000000E+00
  6.30000000E+02  2.20000000E+01  0.00000000E+00
  6.30000000E+02  2.00000000E+01  0.00000000E+00
  6.30000000E+02  1.80000000E+01  0.00000000E+00
  6.30000000E+02  1.60000000E+01  0.00000000E+00
  6.30000000E+02  1.40000000E+01  0.00000000E+00
  6.30000000E+02  1.20000000E+01  0.00000000E+00
  6.30000000E+02  1.00000000E+01  0.00000000E+00
  6.30000000E+02  8.00000000E+00  0.00000000E+00
  6.30000000E+02  6.00000000E+00  0.00000000E+00
  6.30000000E+02  4.00000000E+00  0.00000000E+00
  6.30000000E+02  2.00000000E+00  0.00000000E+00
  6.30000000E+02 -3.33066907E-14  0.00000000E+00
  6.40000000E+02  1.00000000E+02  0.00000000E+00
  6.40000000E+02  9.80000000E+01  0.00000000E+00
  6.40000000E+02  9.60000000E+01  0.00000000E+00
  6.40000000E+02  9.40000000E+01  0.00000000E+00
  6.40000000E+02  9.20000000E+01  0.00000000E+00
  6.40000000E+02  9.00000000E+01  0.00000000E+00
  6.40000000E+02  8.80000000E+01  0.00000000E+00
  6.40000000E+02  8.60000000E+01  0.00000000E+00
  6.40000000E+02  8.40000000E+01  0.00000000E+00
  6.40000000E+02  8.20000000E+01  0.00000000E+00
  6.40000000E+02  8.00000000E+01  0.00000000E+00
  6.40000000E+02  7.80000000E+01  0.00000000E+00
  6.40000000E+02  7.60000000E+01  0.00000000E+00
  6.40000000E+02  7.40000000E+01  0.00000000E+00
  6.40000000E+02  7.20000000E+01  0.00000000E+00
  6.40000000E+02  7.00000000E+01  0.00000000E+00
  6.40000000E+02  6.80000000E+01  0.00000000E+00
  6.40000000E+02  6.60000000E+01  0.00000000E+00
  6.40000000E+02  6.40000000E+01  0.00000000E+00
  6.40000000E+02  6.20000000E+01  0.00000000E+00
  6.40000000E+02  6.00000000E+01  0.00000000E+00
  6.40000000E+02  5.80000000E+01  0.00000000E+00
  6.40000000E+02  5.60000000E+01  0.00000000E+00
  6.40000000E+02  5.40000000E+01  0.00000000E+00
  6.40000000E+02  5.20000000E+01  0.00000000E+00
  6.40000000E+02  5.00000000E+01  0.00000000E+00
  6.40000000E+02  4.80000000E+01  0.00000000E+00
  6.40000000E+02  4.60000000E+01  0.00000000E+00
  6.40000000E+02  4.40000000E+01  0.00000000E+00
  6.40000000E+02  4.20000000E+01  0.00000000E+00
  6.40000000E+02  4.00000000E+01  0.00000000E+00
  6.40000000E+02  3.80000000E+01  0.00000000E+00
  6.40000000E+02  3.60000000E+01  0.00000000E+00
  6.40000000E+02  3.40000000E+01  0.00000000E+00
  6.40000000E+02  3.20000000E+01  0.00000000E+00
  6.40000000E+02  3.00000000E+01  0.00000000E+00
  6.40000000E+02  2.80000000E+01  0.00000000E+00
  6.40000000E+02  2.60000000E+01  0.00000000E+00
  6.40000000E+02  2.40000000E+01  0.00000000E+00
  6.40000000E+02  2.20000000E+01  0.00000000E+00
  6.40000000E+02  2.00000000E+01  0.00000000E+00
  6.40000000E+02  1.80000000E+01  0.00000000E+00
  6.40000000E+02  1.60000000E+01  0.00000000E+00
  6.40000000E+02  1.40000000E+01  0.00000000E+00
  6.40000000E+02  1.20000000E+01  0.00000000E+00
  6.40000000E+02  1.00000000E+01  0.00000000E+00
  6.40000000E+02  8.00000000E+00  0.00000000E+00
  6.40000000E+02  6.00000000E+00  0.00000000E+00
  6.40000000E+02  4.00000000E+00  0.00000000E+00
  6.40000000E+02  2.00000000E+00  0.00000000E+00
  6.40000000E+02 -3.33066907E-14  0.00000000E+00
  6.50000000E+02  1.00000000E+02  0.00000000E+00
  6.50000000E+02  9.80000000E+01  0.00000000E+00
  6.50000000E+02  9.60000000E+01  0.00000000E+00
  6.50000000E+02  9.40000000E+01  0.00000000E+00
  6.50000000E+02  9.20000000E+01  0.00000000E+00
  6.50000000E+02  9.00000000E+01  0.00000000E+00
  6.50000000E+02  8.80000000E+01  0.00000000E+00
  6.50000000E+02  8.60000000E+01  0.00000000E+00
  6.50000000E+02  8.40000000E+01  0.00000000E+00
  6.50000000E+02  8.20000000E+01  0.00000000E+00
  6.50000000E+02  8.00000000E+01  0.00000000E+00
  6.50000000E+02  7.80000000E+01  0.00000000E+00
  6.50000000E+02  7.60000000E+01  0.00000000E+00
  6.50000000E+02  7.40000000E+01  0.00000000E+00
  6.50000000E+02  7.20000000E+01  0.00000000E+00
  6.50000000E+02  7.00000000E+01  0.00000000E+00
  6.50000000E+02  6.80000000E+01  0.00000000E+00
  6.50000000E+02  6.60000000E+01  0.00000000E+00
  6.50000000E+02  6.40000000E+01  0.00000000E+00
  6.50000000E+02  6.20000000E+01  0.00000000E+00
  6.50000000E+02  6.00000000E+01  0.00000000E+00
  6.50000000E+02  5.80000000E+01  0.00000000E+00
  6.50000000E+02  5.60000000E+01  0.00000000E+00
  6.50000000E+02  5.40000000E+01  0.00000000E+00
  6.50000000E+02  5.20000000E+01  0.00000000E+00
  6.50000000E+02  5.00000000E+01  0.00000000E+00
  6.50000000E+02  4.80000000E+01  0.00000000E+00
  6.50000000E+02  4.60000000E+01  0.00000000E+00
  6.50000000E+02  4.40000000E+01  0.00000000E+00
  6.50000000E+02  4.20000000E+01  0.00000000E+00
  6.50000000E+02  4.00000000E+01  0.00000000E+00
  6.50000000E+02  3.80000000E+01  0.00000000E+00
  6.50000000E+02  3.60000000E+01  0.00000000E+00
  6.50000000E+02  3.40000000E+01  0.00000000E+00
  6.50000000E+02  3.20000000E+01  0.00000000E+00
  6.50000000E+02  3.00000000E+01  0.00000000E+00
  6.50000000E+02  2.80000000E+01  0.00000000E+00
  6.50000000E+02  2.60000000E+01  0.00000000E+00
  6.50000000E+02  2.40000000E+01  0.00000000E+00
  6.50000000E+02  2.20000000E+01  0.00000000E+00
  6.50000000E+02  2.00000000E+01  0.00000000E+00
  6.50000000E+02  1.80000000E+01  0.00000000E+00
  6.50000000E+02  1.60000000E+01  0.00000000E+00
  6.50000000E+02  1.40000000E+01  0.00000000E+00
  6.50000000E+02  1.20000000E+01  0.00000000E+00
  6.50000000E+02  1.00000000E+01  0.00000000E+00
  6.50000000E+02  8.00000000E+00  0.00000000E+00
  6.50000000E+02  6.00000000E+00  0.00000000E+00
  6.50000000E+02  4.00000000E+00  0.00000000E+00
  6.50000000E+02  2.00000000E+00  0.00000000E+00
  6.50000000E+02 -3.33066907E-14  0.00000000E+00
  6.60000000E+02  1.00000000E+02  0.00000000E+00
  6.60000000E+02  9.80000000E+01  0.00000000E+00
  6.60000000E+02  9.60000000E+01  0.00000000E+00
  6.60000000E+02  9.40000000E+01  0.00000000E+00
  6.60000000E+02  9.20000000E+01  0.00000000E+00
  6.60000000E+02  9.00000000E+01  0.00000000E+00
  6.60000000E+02  8.80000000E+01  0.00000000E+00
  6.60000000E+02  8.60000000E+01  0.00000000E+00
  6.60000000E+02  8.40000000E+01  0.00000000E+00
  6.60000000E+02  8.20000000E+01  0.00000000E+00
  6.60000000E+02  8.00000000E+01  0.00000000E+00
  6.60000000E+02  7.80000000E+01  0.00000000E+00
  6.60000000E+02  7.60000000E+01  0.00000000E+00
  6.60000000E+02  7.40000000E+01  0.00000000E+00
  6.60000000E+02  7.20000000E+01  0.00000000E+00
  6.60000000E+02  7.00000000E+01  0.00000000E+00
  6.60000000E+02  6.80000000E+01  0.00000000E+00
  6.60000000E+02  6.60000000E+01  0.00000000E+00
  6.60000000E+02  6.40000000E+01  0.00000000E+00
  6.60000000E+02  6.20000000E+01  0.00000000E+00
  6.60000000E+02  6.00000000E+01  0.00000000E+00
  6.60000000E+02  5.80000000E+01  0.00000000E+00
  6.60000000E+02  5.60000000E+01  0.00000000E+00
  6.60000000E+02  5.40000000E+01  0.00000000E+00
  6.60000000E+02  5.20000000E+01  0.00000000E+00
  6.60000000E+02  5.00000000E+01  0.00000000E+00
  6.60000000E+02  4.80000000E+01  0.00000000E+00
  6.60000000E+02  4.60000000E+01  0.00000000E+00
  6.60000000E+02  4.40000000E+01  0.00000000E+00
  6.60000000E+02  4.20000000E+01  0.00000000E+00
  6.60000000E+02  4.00000000E+01  0.00000000E+00
  6.60000000E+02  3.80000000E+01  0.00000000E+00
  6.60000000E+02  3.60000000E+01  0.00000000E+00
  6.60000000E+02  3.40000000E+01  0.00000000E+00
  6.60000000E+02  3.20000000E+01  0.00000000E+00
  6.60000000E+02  3.00000000E+01  0.00000000E+00
  6.60000000E+02  2.80000000E+01  0.00000000E+00
  6.60000000E+02  2.60000000E+01  0.00000000E+00
  6.60000000E+02  2.40000000E+01  0.00000000E+00
  6.60000000E+02  2.20000000E+01  0.00000000E+00
  6.60000000E+02  2.00000000E+01  0.00000000E+00
  6.60000000E+02  1.80000000E+01  0.00000000E+00
  6.60000000E+02  1.60000000E+01  0.00000000E+00
  6.60000000E+02  1.40000000E+01  0.00000000E+00
  6.60000000E+02  1.20000000E+01  0.00000000E+00
  6.60000000E+02  1.00000000E+01  0.00000000E+00
  6.60000000E+02  8.00000000E+00  0.00000000E+00
  6.60000000E+02  6.00000000E+00  0.00000000E+00
  6.60000000E+02  4.00000000E+00  0.00000000E+00
  6.60000000E+02  2.00000000E+00  0.00000000E+00
  6.60000000E+02 -3.33066907E-14  0.00000000E+00
  6.70000000E+02  1.00000000E+02  0.00000000E+00
  6.70000000E+02  9.80000000E+01  0.00000000E+00
  6.70000000E+02  9.60000000E+01  0.00000000E+00
  6.70000000E+02  9.40000000E+01  0.00000000E+00
  6.70000000E+02  9.20000000E+01  0.00000000E+00
  6.70000000E+02  9.00000000E+01  0.00000000E+00
  6.70000000E+02  8.80000000E+01  0.00000000E+00
  6.70000000E+02  8.60000000E+01  0.00000000E+00
  6.70000000E+02  8.40000000E+01  0.00000000E+00
  6.70000000E+02  8.20000000E+01  0.00000000E+00
  6.70000000E+02  8.00000000E+01  0.00000000E+00
  6.70000000E+02  7.80000000E+01  0.00000000E+00
  6.70000000E+02  7.60000000E+01  0.00000000E+00
  6.70000000E+02  7.40000000E+01  0.00000000E+00
  6.70000000E+02  7.20000000E+01  0.00000000E+00
  6.70000000E+02  7.00000000E+01  0.00000000E+00
  6.70000000E+02  6.80000000E+01  0.00000000E+00
  6.70000000E+02  6.60000000E+01  0.00000000E+00
  6.70000000E+02  6.40000000E+01  0.00000000E+00
  6.70000000E+02  6.20000000E+01  0.00000000E+00
  6.70000000E+02  6.00000000E+01  0.00000000E+00
  6.70000000E+02  5.80000000E+01  0.00000000E+00
  6.70000000E+02  5.60000000E+01  0.00000000E+00
  6.70000000E+02  5.40000000E+01  0.00000000E+00
  6.70000000E+02  5.20000000E+01  0.00000000E+00
  6.70000000E+02  5.00000000E+01  0.00000000E+00
  6.70000000E+02  4.80000000E+01  0.00000000E+00
  6.70000000E+02  4.60000000E+01  0.00000000E+00
  6.70000000E+02  4.40000000E+01  0.00000000E+00
  6.70000000E+02  4.20000000E+01  0.00000000E+00
  6.70000000E+02  4.00000000E+01  0.00000000E+00
  6.70000000E+02  3.80000000E+01  0.00000000E+00
  6.70000000E+02  3.60000000E+01  0.00000000E+00
  6.70000000E+02  3.40000000E+01  0.00000000E+00
  6.70000000E+02  3.20000000E+01  0.00000000E+00
  6.70000000E+02  3.00000000E+01  0.00000000E+00
  6.70000000E+02  2.80000000E+01  0.00000000E+00
  6.70000000E+02  2.60000000E+01  0.00000000E+00
  6.70000000E+02  2.40000000E+01  0.00000000E+00
  6.70000000E+02  2.20000000E+01  0.00000000E+00
  6.70000000E+02  2.00000000E+01  0.00000000E+00
  6.70000000E+02  1.80000000E+01  0.00000000E+00
  6.70000000E+02  1.60000000E+01  0.00000000E+00
  6.70000000E+02  1.40000000E+01  0.00000000E+00
  6.70000000E+02  1.20000000E+01  0.00000000E+00
  6.70000000E+02  1.00000000E+01  0.00000000E+00
  6.70000000E+02  8.00000000E+00  0.00000000E+00
  6.70000000E+02  6.00000000E+00  0.00000000E+00
  6.70000000E+02  4.00000000E+00  0.00000000E+00
  6.70000000E+02  2.00000000E+00  0.00000000E+00
  6.70000000E+02 -3.33066907E-14  0.00000000E+00
  6.80000000E+02  1.00000000E+02  0.00000000E+00
  6.80000000E+02  9.80000000E+01  0.00000000E+00
  6.80000000E+02  9.60000000E+01  0.00000000E+00
  6.80000000E+02  9.40000000E+01  0.00000000E+00
  6.80000000E+02  9.20000000E+01  0.00000000E+00
  6.80000000E+02  9.00000000E+01  0.00000000E+00
  6.80000000E+02  8.80000000E+01  0.00000000E+00
  6.80000000E+02  8.60000000E+01  0.00000000E+00
  6.80000000E+02  8.40000000E+01  0.00000000E+00
  6.80000000E+02  8.20000000E+01  0.00000000E+00
  6.80000000E+02  8.00000000E+01  0.00000000E+00
  6.80000000E+02  7.80000000E+01  0.00000000E+00
  6.80000000E+02  7.60000000E+01  0.00000000E+00
  6.80000000E+02  7.40000000E+01  0.00000000E+00
  6.80000000E+02  7.20000000E+01  0.00000000E+00
  6.80000000E+02  7.00000000E+01  0.00000000E+00
  6.80000000E+02  6.80000000E+01  0.00000000E+00
  6.80000000E+02  6.60000000E+01  0.00000000E+00
  6.80000000E+02  6.40000000E+01  0.00000000E+00
  6.80000000E+02  6.20000000E+01  0.00000000E+00
  6.80000000E+02  6.00000000E+01  0.00000000E+00
  6.80000000E+02  5.80000000E+01  0.00000000E+00
  6.80000000E+02  5.60000000E+01  0.00000000E+00
  6.80000000E+02  5.40000000E+01  0.00000000E+00
  6.80000000E+02  5.20000000E+01  0.00000000E+00
  6.80000000E+02  5.00000000E+01  0.00000000E+00
  6.80000000E+02  4.80000000E+01  0.00000000E+00
  6.80000000E+02  4.60000000E+01  0.00000000E+00
  6.80000000E+02  4.40000000E+01  0.00000000E+00
  6.80000000E+02  4.20000000E+01  0.00000000E+00
  6.80000000E+02  4.00000000E+01  0.00000000E+00
  6.80000000E+02  3.80000000E+01  0.00000000E+00
  6.80000000E+02  3.60000000E+01  0.00000000E+00
  6.80000000E+02  3.40000000E+01  0.00000000E+00
  6.80000000E+02  3.20000000E+01  0.00000000E+00
  6.80000000E+02  3.00000000E+01  0.00000000E+00
  6.80000000E+02  2.80000000E+01  0.00000000E+00
  6.80000000E+02  2.60000000E+01  0.00000000E+00
  6.80000000E+02  2.40000000E+01  0.00000000E+00
  6.80000000E+02  2.20000000E+01  0.00000000E+00
  6.80000000E+02  2.00000000E+01  0.00000000E+00
  6.80000000E+02  1.80000000E+01  0.00000000E+00
  6.80000000E+02  1.60000000E+01  0.00000000E+00
  6.80000000E+02  1.40000000E+01  0.00000000E+00
  6.80000000E+02  1.20000000E+01  0.00000000E+00
  6.80000000E+02  1.00000000E+01  0.00000000E+00
  6.80000000E+02  8.00000000E+00  0.00000000E+00
  6.80000000E+02  6.00000000E+00  0.00000000E+00
  6.80000000E+02  4.00000000E+00  0.00000000E+00
  6.80000000E+02  2.00000000E+00  0.00000000E+00
  6.80000000E+02 -3.33066907E-14  0.00000000E+00
  6.90000000E+02  1.00000000E+02  0.00000000E+00
  6.90000000E+02  9.80000000E+01  0.00000000E+00
  6.90000000E+02  9.60000000E+01  0.00000000E+00
  6.90000000E+02  9.40000000E+01  0.00000000E+00
  6.90000000E+02  9.20000000E+01  0.00000000E+00
  6.90000000E+02  9.00000000E+01  0.00000000E+00
  6.90000000E+02  8.80000000E+01  0.00000000E+00
  6.90000000E+02  8.60000000E+01  0.00000000E+00
  6.90000000E+02  8.40000000E+01  0.00000000E+00
  6.90000000E+02  8.20000000E+01  0.00000000E+00
  6.90000000E+02  8.00000000E+01  0.00000000E+00
  6.90000000E+02  7.80000000E+01  0.00000000E+00
  6.90000000E+02  7.60000000E+01  0.00000000E+00
  6.90000000E+02  7.40000000E+01  0.00000000E+00
  6.90000000E+02  7.20000000E+01  0.00000000E+00
  6.90000000E+02  7.00000000E+01  0.00000000E+00
  6.90000000E+02  6.80000000E+01  0.00000000E+00
  6.90000000E+02  6.60000000E+01  0.00000000E+00
  6.90000000E+02  6.40000000E+01  0.00000000E+00
  6.90000000E+02  6.20000000E+01  0.00000000E+00
  6.90000000E+02  6.00000000E+01  0.00000000E+00
  6.90000000E+02  5.80000000E+01  0.00000000E+00
  6.90000000E+02  5.60000000E+01  0.00000000E+00
  6.90000000E+02  5.40000000E+01  0.00000000E+00
  6.90000000E+02  5.20000000E+01  0.00000000E+00
  6.90000000E+02  5.00000000E+01  0.00000000E+00
  6.90000000E+02  4.80000000E+01  0.00000000E+00
  6.90000000E+02  4.60000000E+01  0.00000000E+00
  6.90000000E+02  4.40000000E+01  0.00000000E+00
  6.90000000E+02  4.20000000E+01  0.00000000E+00
  6.90000000E+02  4.00000000E+01  0.00000000E+00
  6.90000000E+02  3.80000000E+01  0.00000000E+00
  6.90000000E+02  3.60000000E+01  0.00000000E+00
  6.90000000E+02  3.40000000E+01  0.00000000E+00
  6.90000000E+02  3.20000000E+01  0.00000000E+00
  6.90000000E+02  3.00000000E+01  0.00000000E+00
  6.90000000E+02  2.80000000E+01  0.00000000E+00
  6.90000000E+02  2.60000000E+01  0.00000000E+00
  6.90000000E+02  2.40000000E+01  0.00000000E+00
  6.90000000E+02  2.20000000E+01  0.00000000E+00
  6.90000000E+02  2.00000000E+01  0.00000000E+00
  6.90000000E+02  1.80000000E+01  0.00000000E+00
  6.90000000E+02  1.60000000E+01  0.00000000E+00
  6.90000000E+02  1.40000000E+01  0.00000000E+00
  6.90000000E+02  1.20000000E+01  0.00000000E+00
  6.90000000E+02  1.00000000E+01  0.00000000E+00
  6.90000000E+02  8.00000000E+00  0.00000000E+00
  6.90000000E+02  6.00000000E+00  0.00000000E+00
  6.90000000E+02  4.00000000E+00  0.00000000E+00
  6.90000000E+02  2.00000000E+00  0.00000000E+00
  6.90000000E+02 -3.33066907E-14  0.00000000E+00
  7.00000000E+02  1.00000000E+02  0.00000000E+00
  7.00000000E+02  9.80000000E+01  0.00000000E+00
  7.00000000E+02  9.60000000E+01  0.00000000E+00
  7.00000000E+02  9.40000000E+01  0.00000000E+00
  7.00000000E+02  9.20000000E+01  0.00000000E+00
  7.00000000E+02  9.00000000E+01  0.00000000E+00
  7.00000000E+02  8.80000000E+01  0.00000000E+00
  7.00000000E+02  8.60000000E+01  0.00000000E+00
  7.00000000E+02  8.40000000E+01  0.00000000E+00
  7.00000000E+02  8.20000000E+01  0.00000000E+00
  7.00000000E+02  8.00000000E+01  0.00000000E+00
  7.00000000E+02  7.80000000E+01  0.00000000E+00
  7.00000000E+02  7.60000000E+01  0.00000000E+00
  7.00000000E+02  7.40000000E+01  0.00000000E+00
  7.00000000E+02  7.20000000E+01  0.00000000E+00
  7.00000000E+02  7.00000000E+01  0.00000000E+00
  7.00000000E+02  6.80000000E+01  0.00000000E+00
  7.00000000E+02  6.60000000E+01  0.00000000E+00
  7.00000000E+02  6.40000000E+01  0.00000000E+00
  7.00000000E+02  6.20000000E+01  0.00000000E+00
  7.00000000E+02  6.00000000E+01  0.00000000E+00
  7.00000000E+02  5.80000000E+01  0.00000000E+00
  7.00000000E+02  5.60000000E+01  0.00000000E+00
  7.00000000E+02  5.40000000E+01  0.00000000E+00
  7.00000000E+02  5.20000000E+01  0.00000000E+00
  7.00000000E+02  5.00000000E+01  0.00000000E+00
  7.00000000E+02  4.80000000E+01  0.00000000E+00
  7.00000000E+02  4.60000000E+01  0.00000000E+00
  7.00000000E+02  4.40000000E+01  0.00000000E+00
  7.00000000E+02  4.20000000E+01  0.00000000E+00
  7.00000000E+02  4.00000000E+01  0.00000000E+00
  7.00000000E+02  3.80000000E+01  0.00000000E+00
  7.00000000E+02  3.60000000E+01  0.00000000E+00
  7.00000000E+02  3.40000000E+01  0.00000000E+00
  7.00000000E+02  3.20000000E+01  0.00000000E+00
  7.00000000E+02  3.00000000E+01  0.00000000E+00
  7.00000000E+02  2.80000000E+01  0.00000000E+00
  7.00000000E+02  2.60000000E+01  0.00000000E+00
  7.00000000E+02  2.40000000E+01  0.00000000E+00
  7.00000000E+02  2.20000000E+01  0.00000000E+00
  7.00000000E+02  2.00000000E+01  0.00000000E+00
  7.00000000E+02  1.80000000E+01  0.00000000E+00
  7.00000000E+02  1.60000000E+01  0.00000000E+00
  7.00000000E+02  1.40000000E+01  0.00000000E+00
  7.00000000E+02  1.20000000E+01  0.00000000E+00
  7.00000000E+02  1.00000000E+01  0.00000000E+00
  7.00000000E+02  8.00000000E+00  0.00000000E+00
  7.00000000E+02  6.00000000E+00  0.00000000E+00
  7.00000000E+02  4.00000000E+00  0.00000000E+00
  7.00000000E+02  2.00000000E+00  0.00000000E+00
  7.00000000E+02 -3.33066907E-14  0.00000000E+00
  7.10000000E+02  1.00000000E+02  0.00000000E+00
  7.10000000E+02  9.80000000E+01  0.00000000E+00
  7.10000000E+02  9.60000000E+01  0.00000000E+00
  7.10000000E+02  9.40000000E+01  0.00000000E+00
  7.10000000E+02  9.20000000E+01  0.00000000E+00
  7.10000000E+02  9.00000000E+01  0.00000000E+00
  7.10000000E+02  8.80000000E+01  0.00000000E+00
  7.10000000E+02  8.60000000E+01  0.00000000E+00
  7.10000000E+02  8.40000000E+01  0.00000000E+00
  7.10000000E+02  8.20000000E+01  0.00000000E+00
  7.10000000E+02  8.00000000E+01  0.00000000E+00
  7.10000000E+02  7.80000000E+01  0.00000000E+00
  7.10000000E+02  7.60000000E+01  0.00000000E+00
  7.10000000E+02  7.40000000E+01  0.00000000E+00
  7.10000000E+02  7.20000000E+01  0.00000000E+00
  7.10000000E+02  7.00000000E+01  0.00000000E+00
  7.10000000E+02  6.80000000E+01  0.00000000E+00
  7.10000000E+02  6.60000000E+01  0.00000000E+00
  7.10000000E+02  6.40000000E+01  0.00000000E+00
  7.10000000E+02  6.20000000E+01  0.00000000E+00
  7.10000000E+02  6.00000000E+01  0.00000000E+00
  7.10000000E+02  5.80000000E+01  0.00000000E+00
  7.10000000E+02  5.60000000E+01  0.00000000E+00
  7.10000000E+02  5.40000000E+01  0.00000000E+00
  7.10000000E+02  5.20000000E+01  0.00000000E+00
  7.10000000E+02  5.00000000E+01  0.00000000E+00
  7.10000000E+02  4.80000000E+01  0.00000000E+00
  7.10000000E+02  4.60000000E+01  0.00000000E+00
  7.10000000E+02  4.40000000E+01  0.00000000E+00
  7.10000000E+02  4.20000000E+01  0.00000000E+00
  7.10000000E+02  4.00000000E+01  0.00000000E+00
  7.10000000E+02  3.80000000E+01  0.00000000E+00
  7.10000000E+02  3.60000000E+01  0.00000000E+00
  7.10000000E+02  3.40000000E+01  0.00000000E+00
  7.10000000E+02  3.20000000E+01  0.00000000E+00
  7.10000000E+02  3.00000000E+01  0.00000000E+00
  7.10000000E+02  2.80000000E+01  0.00000000E+00
  7.10000000E+02  2.60000000E+01  0.00000000E+00
  7.10000000E+02  2.40000000E+01  0.00000000E+00
  7.10000000E+02  2.20000000E+01  0.00000000E+00
  7.10000000E+02  2.00000000E+01  0.00000000E+00
  7.10000000E+02  1.80000000E+01  0.00000000E+00
  7.10000000E+02  1.60000000E+01  0.00000000E+00
  7.10000000E+02  1.40000000E+01  0.00000000E+00
  7.10000000E+02  1.20000000E+01  0.00000000E+00
  7.10000000E+02  1.00000000E+01  0.00000000E+00
  7.10000000E+02  8.00000000E+00  0.00000000E+00
  7.10000000E+02  6.00000000E+00  0.00000000E+00
  7.10000000E+02  4.00000000E+00  0.00000000E+00
  7.10000000E+02  2.00000000E+00  0.00000000E+00
  7.10000000E+02 -3.33066907E-14  0.00000000E+00
  7.20000000E+02  1.00000000E+02  0.00000000E+00
  7.20000000E+02  9.80000000E+01  0.00000000E+00
  7.20000000E+02  9.60000000E+01  0.00000000E+00
  7.20000000E+02  9.40000000E+01  0.00000000E+00
  7.20000000E+02  9.20000000E+01  0.00000000E+00
  7.20000000E+02  9.00000000E+01  0.00000000E+00
  7.20000000E+02  8.80000000E+01  0.00000000E+00
  7.20000000E+02  8.60000000E+01  0.00000000E+00
  7.20000000E+02  8.40000000E+01  0.00000000E+00
  7.20000000E+02  8.20000000E+01  0.00000000E+00
  7.20000000E+02  8.00000000E+01  0.00000000E+00
  7.20000000E+02  7.80000000E+01  0.00000000E+00
  7.20000000E+02  7.60000000E+01  0.00000000E+00
  7.20000000E+02  7.40000000E+01  0.00000000E+00
  7.20000000E+02  7.20000000E+01  0.00000000E+00
  7.20000000E+02  7.00000000E+01  0.00000000E+00
  7.20000000E+02  6.80000000E+01  0.00000000E+00
  7.20000000E+02  6.60000000E+01  0.00000000E+00
  7.20000000E+02  6.40000000E+01  0.00000000E+00
  7.20000000E+02  6.20000000E+01  0.00000000E+00
  7.20000000E+02  6.00000000E+01  0.00000000E+00
  7.20000000E+02  5.80000000E+01  0.00000000E+00
  7.20000000E+02  5.60000000E+01  0.00000000E+00
  7.20000000E+02  5.40000000E+01  0.00000000E+00
  7.20000000E+02  5.20000000E+01  0.00000000E+00
  7.20000000E+02  5.00000000E+01  0.00000000E+00
  7.20000000E+02  4.80000000E+01  0.00000000E+00
  7.20000000E+02  4.60000000E+01  0.00000000E+00
  7.20000000E+02  4.40000000E+01  0.00000000E+00
  7.20000000E+02  4.20000000E+01  0.00000000E+00
  7.20000000E+02  4.00000000E+01  0.00000000E+00
  7.20000000E+02  3.80000000E+01  0.00000000E+00
  7.20000000E+02  3.60000000E+01  0.00000000E+00
  7.20000000E+02  3.40000000E+01  0.00000000E+00
  7.20000000E+02  3.20000000E+01  0.00000000E+00
  7.20000000E+02  3.00000000E+01  0.00000000E+00
  7.20000000E+02  2.80000000E+01  0.00000000E+00
  7.20000000E+02  2.60000000E+01  0.00000000E+00
  7.20000000E+02  2.40000000E+01  0.00000000E+00
  7.20000000E+02  2.20000000E+01  0.00000000E+00
  7.20000000E+02  2.00000000E+01  0.00000000E+00
  7.20000000E+02  1.80000000E+01  0.00000000E+00
  7.20000000E+02  1.60000000E+01  0.00000000E+00
  7.20000000E+02  1.40000000E+01  0.00000000E+00
  7.20000000E+02  1.20000000E+01  0.00000000E+00
  7.20000000E+02  1.00000000E+01  0.00000000E+00
  7.20000000E+02  8.00000000E+00  0.00000000E+00
  7.20000000E+02  6.00000000E+00  0.00000000E+00
  7.20000000E+02  4.00000000E+00  0.00000000E+00
  7.20000000E+02  2.00000000E+00  0.00000000E+00
  7.20000000E+02 -3.33066907E-14  0.00000000E+00
  7.30000000E+02  1.00000000E+02  0.00000000E+00
  7.30000000E+02  9.80000000E+01  0.00000000E+00
  7.30000000E+02  9.60000000E+01  0.00000000E+00
  7.30000000E+02  9.40000000E+01  0.00000000E+00
  7.30000000E+02  9.20000000E+01  0.00000000E+00
  7.30000000E+02  9.00000000E+01  0.00000000E+00
  7.30000000E+02  8.80000000E+01  0.00000000E+00
  7.30000000E+02  8.60000000E+01  0.00000000E+00
  7.30000000E+02  8.40000000E+01  0.00000000E+00
  7.30000000E+02  8.20000000E+01  0.00000000E+00
  7.30000000E+02  8.00000000E+01  0.00000000E+00
  7.30000000E+02  7.80000000E+01  0.00000000E+00
  7.30000000E+02  7.60000000E+01  0.00000000E+00
  7.30000000E+02  7.40000000E+01  0.00000000E+00
  7.30000000E+02  7.20000000E+01  0.00000000E+00
  7.30000000E+02  7.00000000E+01  0.00000000E+00
  7.30000000E+02  6.80000000E+01  0.00000000E+00
  7.30000000E+02  6.60000000E+01  0.00000000E+00
  7.30000000E+02  6.40000000E+01  0.00000000E+00
  7.30000000E+02  6.20000000E+01  0.00000000E+00
  7.30000000E+02  6.00000000E+01  0.00000000E+00
  7.30000000E+02  5.80000000E+01  0.00000000E+00
  7.30000000E+02  5.60000000E+01  0.00000000E+00
  7.30000000E+02  5.40000000E+01  0.00000000E+00
  7.30000000E+02  5.20000000E+01  0.00000000E+00
  7.30000000E+02  5.00000000E+01  0.00000000E+00
  7.30000000E+02  4.80000000E+01  0.00000000E+00
  7.30000000E+02  4.60000000E+01  0.00000000E+00
  7.30000000E+02  4.40000000E+01  0.00000000E+00
  7.30000000E+02  4.20000000E+01  0.00000000E+00
  7.30000000E+02  4.00000000E+01  0.00000000E+00
  7.30000000E+02  3.80000000E+01  0.00000000E+00
  7.30000000E+02  3.60000000E+01  0.00000000E+00
  7.30000000E+02  3.40000000E+01  0.00000000E+00
  7.30000000E+02  3.20000000E+01  0.00000000E+00
  7.30000000E+02  3.00000000E+01  0.00000000E+00
  7.30000000E+02  2.80000000E+01  0.00000000E+00
  7.30000000E+02  2.60000000E+01  0.00000000E+00
  7.30000000E+02  2.40000000E+01  0.00000000E+00
  7.30000000E+02  2.20000000E+01  0.00000000E+00
  7.30000000E+02  2.00000000E+01  0.00000000E+00
  7.30000000E+02  1.80000000E+01  0.00000000E+00
  7.30000000E+02  1.60000000E+01  0.00000000E+00
  7.30000000E+02  1.40000000E+01  0.00000000E+00
  7.30000000E+02  1.20000000E+01  0.00000000E+00
  7.30000000E+02  1.00000000E+01  0.00000000E+00
  7.30000000E+02  8.00000000E+00  0.00000000E+00
  7.30000000E+02  6.00000000E+00  0.00000000E+00
  7.30000000E+02  4.00000000E+00  0.00000000E+00
  7.30000000E+02  2.00000000E+00  0.00000000E+00
  7.30000000E+02 -3.33066907E-14  0.00000000E+00
  7.40000000E+02  1.00000000E+02  0.00000000E+00
  7.40000000E+02  9.80000000E+01  0.00000000E+00
  7.40000000E+02  9.60000000E+01  0.00000000E+00
  7.40000000E+02  9.40000000E+01  0.00000000E+00
  7.40000000E+02  9.20000000E+01  0.00000000E+00
  7.40000000E+02  9.00000000E+01  0.00000000E+00
  7.40000000E+02  8.80000000E+01  0.00000000E+00
  7.40000000E+02  8.60000000E+01  0.00000000E+00
  7.40000000E+02  8.40000000E+01  0.00000000E+00
  7.40000000E+02  8.20000000E+01  0.00000000E+00
  7.40000000E+02  8.00000000E+01  0.00000000E+00
  7.40000000E+02  7.80000000E+01  0.00000000E+00
  7.40000000E+02  7.60000000E+01  0.00000000E+00
  7.40000000E+02  7.40000000E+01  0.00000000E+00
  7.40000000E+02  7.20000000E+01  0.00000000E+00
  7.40000000E+02  7.00000000E+01  0.00000000E+00
  7.40000000E+02  6.80000000E+01  0.00000000E+00
  7.40000000E+02  6.60000000E+01  0.00000000E+00
  7.40000000E+02  6.40000000E+01  0.00000000E+00
  7.40000000E+02  6.20000000E+01  0.00000000E+00
  7.40000000E+02  6.00000000E+01  0.00000000E+00
  7.40000000E+02  5.80000000E+01  0.00000000E+00
  7.40000000E+02  5.60000000E+01  0.00000000E+00
  7.40000000E+02  5.40000000E+01  0.00000000E+00
  7.40000000E+02  5.20000000E+01  0.00000000E+00
  7.40000000E+02  5.00000000E+01  0.00000000E+00
  7.40000000E+02  4.80000000E+01  0.00000000E+00
  7.40000000E+02  4.60000000E+01  0.00000000E+00
  7.40000000E+02  4.40000000E+01  0.00000000E+00
  7.40000000E+02  4.20000000E+01  0.00000000E+00
  7.40000000E+02  4.00000000E+01  0.00000000E+00
  7.40000000E+02  3.80000000E+01  0.00000000E+00
  7.40000000E+02  3.60000000E+01  0.00000000E+00
  7.40000000E+02  3.40000000E+01  0.00000000E+00
  7.40000000E+02  3.20000000E+01  0.00000000E+00
  7.40000000E+02  3.00000000E+01  0.00000000E+00
  7.40000000E+02  2.80000000E+01  0.00000000E+00
  7.40000000E+02  2.60000000E+01  0.00000000E+00
  7.40000000E+02  2.40000000E+01  0.00000000E+00
  7.40000000E+02  2.20000000E+01  0.00000000E+00
  7.40000000E+02  2.00000000E+01  0.00000000E+00
  7.40000000E+02  1.80000000E+01  0.00000000E+00
  7.40000000E+02  1.60000000E+01  0.00000000E+00
  7.40000000E+02  1.40000000E+01  0.00000000E+00
  7.40000000E+02  1.20000000E+01  0.00000000E+00
  7.40000000E+02  1.00000000E+01  0.00000000E+00
  7.40000000E+02  8.00000000E+00  0.00000000E+00
  7.40000000E+02  6.00000000E+00  0.00000000E+00
  7.40000000E+02  4.00000000E+00  0.00000000E+00
  7.40000000E+02  2.00000000E+00  0.00000000E+00
  7.40000000E+02 -3.33066907E-14  0.00000000E+00
  7.50000000E+02  1.00000000E+02  0.00000000E+00
  7.50000000E+02  9.80000000E+01  0.00000000E+00
  7.50000000E+02  9.60000000E+01  0.00000000E+00
  7.50000000E+02  9.40000000E+01  0.00000000E+00
  7.50000000E+02  9.20000000E+01  0.00000000E+00
  7.50000000E+02  9.00000000E+01  0.00000000E+00
  7.50000000E+02  8.80000000E+01  0.00000000E+00
  7.50000000E+02  8.60000000E+01  0.00000000E+00
  7.50000000E+02  8.40000000E+01  0.00000000E+00
  7.50000000E+02  8.20000000E+01  0.00000000E+00
  7.50000000E+02  8.00000000E+01  0.00000000E+00
  7.50000000E+02  7.80000000E+01  0.00000000E+00
  7.50000000E+02  7.60000000E+01  0.00000000E+00
  7.50000000E+02  7.40000000E+01  0.00000000E+00
  7.50000000E+02  7.20000000E+01  0.00000000E+00
  7.50000000E+02  7.00000000E+01  0.00000000E+00
  7.50000000E+02  6.80000000E+01  0.00000000E+00
  7.50000000E+02  6.60000000E+01  0.00000000E+00
  7.50000000E+02  6.40000000E+01  0.00000000E+00
  7.50000000E+02  6.20000000E+01  0.00000000E+00
  7.50000000E+02  6.00000000E+01  0.00000000E+00
  7.50000000E+02  5.80000000E+01  0.00000000E+00
  7.50000000E+02  5.60000000E+01  0.00000000E+00
  7.50000000E+02  5.40000000E+01  0.00000000E+00
  7.50000000E+02  5.20000000E+01  0.00000000E+00
  7.50000000E+02  5.00000000E+01  0.00000000E+00
  7.50000000E+02  4.80000000E+01  0.00000000E+00
  7.50000000E+02  4.60000000E+01  0.00000000E+00
  7.50000000E+02  4.40000000E+01  0.00000000E+00
  7.50000000E+02  4.20000000E+01  0.00000000E+00
  7.50000000E+02  4.00000000E+01  0.00000000E+00
  7.50000000E+02  3.80000000E+01  0.00000000E+00
  7.50000000E+02  3.60000000E+01  0.00000000E+00
  7.50000000E+02  3.40000000E+01  0.00000000E+00
  7.50000000E+02  3.20000000E+01  0.00000000E+00
  7.50000000E+02  3.00000000E+01  0.00000000E+00
  7.50000000E+02  2.80000000E+01  0.00000000E+00
  7.50000000E+02  2.60000000E+01  0.00000000E+00
  7.50000000E+02  2.40000000E+01  0.00000000E+00
  7.50000000E+02  2.20000000E+01  0.00000000E+00
  7.50000000E+02  2.00000000E+01  0.00000000E+00
  7.50000000E+02  1.80000000E+01  0.00000000E+00
  7.50000000E+02  1.60000000E+01  0.00000000E+00
  7.50000000E+02  1.40000000E+01  0.00000000E+00
  7.50000000E+02  1.20000000E+01  0.00000000E+00
  7.50000000E+02  1.00000000E+01  0.00000000E+00
  7.50000000E+02  8.00000000E+00  0.00000000E+00
  7.50000000E+02  6.00000000E+00  0.00000000E+00
  7.50000000E+02  4.00000000E+00  0.00000000E+00
  7.50000000E+02  2.00000000E+00  0.00000000E+00
  7.50000000E+02 -3.33066907E-14  0.00000000E+00
  7.60000000E+02  1.00000000E+02  0.00000000E+00
  7.60000000E+02  9.80000000E+01  0.00000000E+00
  7.60000000E+02  9.60000000E+01  0.00000000E+00
  7.60000000E+02  9.40000000E+01  0.00000000E+00
  7.60000000E+02  9.20000000E+01  0.00000000E+00
  7.60000000E+02  9.00000000E+01  0.00000000E+00
  7.60000000E+02  8.80000000E+01  0.00000000E+00
  7.60000000E+02  8.60000000E+01  0.00000000E+00
  7.60000000E+02  8.40000000E+01  0.00000000E+00
  7.60000000E+02  8.20000000E+01  0.00000000E+00
  7.60000000E+02  8.00000000E+01  0.00000000E+00
  7.60000000E+02  7.80000000E+01  0.00000000E+00
  7.60000000E+02  7.60000000E+01  0.00000000E+00
  7.60000000E+02  7.40000000E+01  0.00000000E+00
  7.60000000E+02  7.20000000E+01  0.00000000E+00
  7.60000000E+02  7.00000000E+01  0.00000000E+00
  7.60000000E+02  6.80000000E+01  0.00000000E+00
  7.60000000E+02  6.60000000E+01  0.00000000E+00
  7.60000000E+02  6.40000000E+01  0.00000000E+00
  7.60000000E+02  6.20000000E+01  0.00000000E+00
  7.60000000E+02  6.00000000E+01  0.00000000E+00
  7.60000000E+02  5.80000000E+01  0.00000000E+00
  7.60000000E+02  5.60000000E+01  0.00000000E+00
  7.60000000E+02  5.40000000E+01  0.00000000E+00
  7.60000000E+02  5.20000000E+01  0.00000000E+00
  7.60000000E+02  5.00000000E+01  0.00000000E+00
  7.60000000E+02  4.80000000E+01  0.00000000E+00
  7.60000000E+02  4.60000000E+01  0.00000000E+00
  7.60000000E+02  4.40000000E+01  0.00000000E+00
  7.60000000E+02  4.20000000E+01  0.00000000E+00
  7.60000000E+02  4.00000000E+01  0.00000000E+00
  7.60000000E+02  3.80000000E+01  0.00000000E+00
  7.60000000E+02  3.60000000E+01  0.00000000E+00
  7.60000000E+02  3.40000000E+01  0.00000000E+00
  7.60000000E+02  3.20000000E+01  0.00000000E+00
  7.60000000E+02  3.00000000E+01  0.00000000E+00
  7.60000000E+02  2.80000000E+01  0.00000000E+00
  7.60000000E+02  2.60000000E+01  0.00000000E+00
  7.60000000E+02  2.40000000E+01  0.00000000E+00
  7.60000000E+02  2.20000000E+01  0.00000000E+00
  7.60000000E+02  2.00000000E+01  0.00000000E+00
  7.60000000E+02  1.80000000E+01  0.00000000E+00
  7.60000000E+02  1.60000000E+01  0.00000000E+00
  7.60000000E+02  1.40000000E+01  0.00000000E+00
  7.60000000E+02  1.20000000E+01  0.00000000E+00
  7.60000000E+02  1.00000000E+01  0.00000000E+00
  7.60000000E+02  8.00000000E+00  0.00000000E+00
  7.60000000E+02  6.00000000E+00  0.00000000E+00
  7.60000000E+02  4.00000000E+00  0.00000000E+00
  7.60000000E+02  2.00000000E+00  0.00000000E+00
  7.60000000E+02 -3.33066907E-14  0.00000000E+00
  7.70000000E+02  1.00000000E+02  0.00000000E+00
  7.70000000E+02  9.80000000E+01  0.00000000E+00
  7.70000000E+02  9.60000000E+01  0.00000000E+00
  7.70000000E+02  9.40000000E+01  0.00000000E+00
  7.70000000E+02  9.20000000E+01  0.00000000E+00
  7.70000000E+02  9.00000000E+01  0.00000000E+00
  7.70000000E+02  8.80000000E+01  0.00000000E+00
  7.70000000E+02  8.60000000E+01  0.00000000E+00
  7.70000000E+02  8.40000000E+01  0.00000000E+00
  7.70000000E+02  8.20000000E+01  0.00000000E+00
  7.70000000E+02  8.00000000E+01  0.00000000E+00
  7.70000000E+02  7.80000000E+01  0.00000000E+00
  7.70000000E+02  7.60000000E+01  0.00000000E+00
  7.70000000E+02  7.40000000E+01  0.00000000E+00
  7.70000000E+02  7.20000000E+01  0.00000000E+00
  7.70000000E+02  7.00000000E+01  0.00000000E+00
  7.70000000E+02  6.80000000E+01  0.00000000E+00
  7.70000000E+02  6.60000000E+01  0.00000000E+00
  7.70000000E+02  6.40000000E+01  0.00000000E+00
  7.70000000E+02  6.20000000E+01  0.00000000E+00
  7.70000000E+02  6.00000000E+01  0.00000000E+00
  7.70000000E+02  5.80000000E+01  0.00000000E+00
  7.70000000E+02  5.60000000E+01  0.00000000E+00
  7.70000000E+02  5.40000000E+01  0.00000000E+00
  7.70000000E+02  5.20000000E+01  0.00000000E+00
  7.70000000E+02  5.00000000E+01  0.00000000E+00
  7.70000000E+02  4.80000000E+01  0.00000000E+00
  7.70000000E+02  4.60000000E+01  0.00000000E+00
  7.70000000E+02  4.40000000E+01  0.00000000E+00
  7.70000000E+02  4.20000000E+01  0.00000000E+00
  7.70000000E+02  4.00000000E+01  0.00000000E+00
  7.70000000E+02  3.80000000E+01  0.00000000E+00
  7.70000000E+02  3.60000000E+01  0.00000000E+00
  7.70000000E+02  3.40000000E+01  0.00000000E+00
  7.70000000E+02  3.20000000E+01  0.00000000E+00
  7.70000000E+02  3.00000000E+01  0.00000000E+00
  7.70000000E+02  2.80000000E+01  0.00000000E+00
  7.70000000E+02  2.60000000E+01  0.00000000E+00
  7.70000000E+02  2.40000000E+01  0.00000000E+00
  7.70000000E+02  2.20000000E+01  0.00000000E+00
  7.70000000E+02  2.00000000E+01  0.00000000E+00
  7.70000000E+02  1.80000000E+01  0.00000000E+00
  7.70000000E+02  1.60000000E+01  0.00000000E+00
  7.70000000E+02  1.40000000E+01  0.00000000E+00
  7.70000000E+02  1.20000000E+01  0.00000000E+00
  7.70000000E+02  1.00000000E+01  0.00000000E+00
  7.70000000E+02  8.00000000E+00  0.00000000E+00
  7.70000000E+02  6.00000000E+00  0.00000000E+00
  7.70000000E+02  4.00000000E+00  0.00000000E+00
  7.70000000E+02  2.00000000E+00  0.00000000E+00
  7.70000000E+02 -3.33066907E-14  0.00000000E+00
  7.80000000E+02  1.00000000E+02  0.00000000E+00
  7.80000000E+02  9.80000000E+01  0.00000000E+00
  7.80000000E+02  9.60000000E+01  0.00000000E+00
  7.80000000E+02  9.40000000E+01  0.00000000E+00
  7.80000000E+02  9.20000000E+01  0.00000000E+00
  7.80000000E+02  9.00000000E+01  0.00000000E+00
  7.80000000E+02  8.80000000E+01  0.00000000E+00
  7.80000000E+02  8.60000000E+01  0.00000000E+00
  7.80000000E+02  8.40000000E+01  0.00000000E+00
  7.80000000E+02  8.20000000E+01  0.00000000E+00
  7.80000000E+02  8.00000000E+01  0.00000000E+00
  7.80000000E+02  7.80000000E+01  0.00000000E+00
  7.80000000E+02  7.60000000E+01  0.00000000E+00
  7.80000000E+02  7.40000000E+01  0.00000000E+00
  7.80000000E+02  7.20000000E+01  0.00000000E+00
  7.80000000E+02  7.00000000E+01  0.00000000E+00
  7.80000000E+02  6.80000000E+01  0.00000000E+00
  7.80000000E+02  6.60000000E+01  0.00000000E+00
  7.80000000E+02  6.40000000E+01  0.00000000E+00
  7.80000000E+02  6.20000000E+01  0.00000000E+00
  7.80000000E+02  6.00000000E+01  0.00000000E+00
  7.80000000E+02  5.80000000E+01  0.00000000E+00
  7.80000000E+02  5.60000000E+01  0.00000000E+00
  7.80000000E+02  5.40000000E+01  0.00000000E+00
  7.80000000E+02  5.20000000E+01  0.00000000E+00
  7.80000000E+02  5.00000000E+01  0.00000000E+00
  7.80000000E+02  4.80000000E+01  0.00000000E+00
  7.80000000E+02  4.60000000E+01  0.00000000E+00
  7.80000000E+02  4.40000000E+01  0.00000000E+00
  7.80000000E+02  4.20000000E+01  0.00000000E+00
  7.80000000E+02  4.00000000E+01  0.00000000E+00
  7.80000000E+02  3.80000000E+01  0.00000000E+00
  7.80000000E+02  3.60000000E+01  0.00000000E+00
  7.80000000E+02  3.40000000E+01  0.00000000E+00
  7.80000000E+02  3.20000000E+01  0.00000000E+00
  7.80000000E+02  3.00000000E+01  0.00000000E+00
  7.80000000E+02  2.80000000E+01  0.00000000E+00
  7.80000000E+02  2.60000000E+01  0.00000000E+00
  7.80000000E+02  2.40000000E+01  0.00000000E+00
  7.80000000E+02  2.20000000E+01  0.00000000E+00
  7.80000000E+02  2.00000000E+01  0.00000000E+00
  7.80000000E+02  1.80000000E+01  0.00000000E+00
  7.80000000E+02  1.60000000E+01  0.00000000E+00
  7.80000000E+02  1.40000000E+01  0.00000000E+00
  7.80000000E+02  1.20000000E+01  0.00000000E+00
  7.80000000E+02  1.00000000E+01  0.00000000E+00
  7.80000000E+02  8.00000000E+00  0.00000000E+00
  7.80000000E+02  6.00000000E+00  0.00000000E+00
  7.80000000E+02  4.00000000E+00  0.00000000E+00
  7.80000000E+02  2.00000000E+00  0.00000000E+00
  7.80000000E+02 -3.33066907E-14  0.00000000E+00
  7.90000000E+02  1.00000000E+02  0.00000000E+00
  7.90000000E+02  9.80000000E+01  0.00000000E+00
  7.90000000E+02  9.60000000E+01  0.00000000E+00
  7.90000000E+02  9.40000000E+01  0.00000000E+00
  7.90000000E+02  9.20000000E+01  0.00000000E+00
  7.90000000E+02  9.00000000E+01  0.00000000E+00
  7.90000000E+02  8.80000000E+01  0.00000000E+00
  7.90000000E+02  8.60000000E+01  0.00000000E+00
  7.90000000E+02  8.40000000E+01  0.00000000E+00
  7.90000000E+02  8.20000000E+01  0.00000000E+00
  7.90000000E+02  8.00000000E+01  0.00000000E+00
  7.90000000E+02  7.80000000E+01  0.00000000E+00
  7.90000000E+02  7.60000000E+01  0.00000000E+00
  7.90000000E+02  7.40000000E+01  0.00000000E+00
  7.90000000E+02  7.20000000E+01  0.00000000E+00
  7.90000000E+02  7.00000000E+01  0.00000000E+00
  7.90000000E+02  6.80000000E+01  0.00000000E+00
  7.90000000E+02  6.60000000E+01  0.00000000E+00
  7.90000000E+02  6.40000000E+01  0.00000000E+00
  7.90000000E+02  6.20000000E+01  0.00000000E+00
  7.90000000E+02  6.00000000E+01  0.00000000E+00
  7.90000000E+02  5.80000000E+01  0.00000000E+00
  7.90000000E+02  5.60000000E+01  0.00000000E+00
  7.90000000E+02  5.40000000E+01  0.00000000E+00
  7.90000000E+02  5.20000000E+01  0.00000000E+00
  7.90000000E+02  5.00000000E+01  0.00000000E+00
  7.90000000E+02  4.80000000E+01  0.00000000E+00
  7.90000000E+02  4.60000000E+01  0.00000000E+00
  7.90000000E+02  4.40000000E+01  0.00000000E+00
  7.90000000E+02  4.20000000E+01  0.00000000E+00
  7.90000000E+02  4.00000000E+01  0.00000000E+00
  7.90000000E+02  3.80000000E+01  0.00000000E+00
  7.90000000E+02  3.60000000E+01  0.00000000E+00
  7.90000000E+02  3.40000000E+01  0.00000000E+00
  7.90000000E+02  3.20000000E+01  0.00000000E+00
  7.90000000E+02  3.00000000E+01  0.00000000E+00
  7.90000000E+02  2.80000000E+01  0.00000000E+00
  7.90000000E+02  2.60000000E+01  0.00000000E+00
  7.90000000E+02  2.40000000E+01  0.00000000E+00
  7.90000000E+02  2.20000000E+01  0.00000000E+00
  7.90000000E+02  2.00000000E+01  0.00000000E+00
  7.90000000E+02  1.80000000E+01  0.00000000E+00
  7.90000000E+02  1.60000000E+01  0.00000000E+00
  7.90000000E+02  1.40000000E+01  0.00000000E+00
  7.90000000E+02  1.20000000E+01  0.00000000E+00
  7.90000000E+02  1.00000000E+01  0.00000000E+00
  7.90000000E+02  8.00000000E+00  0.00000000E+00
  7.90000000E+02  6.00000000E+00  0.00000000E+00
  7.90000000E+02  4.00000000E+00  0.00000000E+00
  7.90000000E+02  2.00000000E+00  0.00000000E+00
  7.90000000E+02 -3.33066907E-14  0.00000000E+00
  8.00000000E+02  1.00000000E+02  0.00000000E+00
  8.00000000E+02  9.80000000E+01  0.00000000E+00
  8.00000000E+02  9.60000000E+01  0.00000000E+00
  8.00000000E+02  9.40000000E+01  0.00000000E+00
  8.00000000E+02  9.20000000E+01  0.00000000E+00
  8.00000000E+02  9.00000000E+01  0.00000000E+00
  8.00000000E+02  8.80000000E+01  0.00000000E+00
  8.00000000E+02  8.60000000E+01  0.00000000E+00
  8.00000000E+02  8.40000000E+01  0.00000000E+00
  8.00000000E+02  8.20000000E+01  0.00000000E+00
  8.00000000E+02  8.00000000E+01  0.00000000E+00
  8.00000000E+02  7.80000000E+01  0.00000000E+00
  8.00000000E+02  7.60000000E+01  0.00000000E+00
  8.00000000E+02  7.40000000E+01  0.00000000E+00
  8.00000000E+02  7.20000000E+01  0.00000000E+00
  8.00000000E+02  7.00000000E+01  0.00000000E+00
  8.00000000E+02  6.80000000E+01  0.00000000E+00
  8.00000000E+02  6.60000000E+01  0.00000000E+00
  8.00000000E+02  6.40000000E+01  0.00000000E+00
  8.00000000E+02  6.20000000E+01  0.00000000E+00
  8.00000000E+02  6.00000000E+01  0.00000000E+00
  8.00000000E+02  5.80000000E+01  0.00000000E+00
  8.00000000E+02  5.60000000E+01  0.00000000E+00
  8.00000000E+02  5.40000000E+01  0.00000000E+00
  8.00000000E+02  5.20000000E+01  0.00000000E+00
  8.00000000E+02  5.00000000E+01  0.00000000E+00
  8.00000000E+02  4.80000000E+01  0.00000000E+00
  8.00000000E+02  4.60000000E+01  0.00000000E+00
  8.00000000E+02  4.40000000E+01  0.00000000E+00
  8.00000000E+02  4.20000000E+01  0.00000000E+00
  8.00000000E+02  4.00000000E+01  0.00000000E+00
  8.00000000E+02  3.80000000E+01  0.00000000E+00
  8.00000000E+02  3.60000000E+01  0.00000000E+00
  8.00000000E+02  3.40000000E+01  0.00000000E+00
  8.00000000E+02  3.20000000E+01  0.00000000E+00
  8.00000000E+02  3.00000000E+01  0.00000000E+00
  8.00000000E+02  2.80000000E+01  0.00000000E+00
  8.00000000E+02  2.60000000E+01  0.00000000E+00
  8.00000000E+02  2.40000000E+01  0.00000000E+00
  8.00000000E+02  2.20000000E+01  0.00000000E+00
  8.00000000E+02  2.00000000E+01  0.00000000E+00
  8.00000000E+02  1.80000000E+01  0.00000000E+00
  8.00000000E+02  1.60000000E+01  0.00000000E+00
  8.00000000E+02  1.40000000E+01  0.00000000E+00
  8.00000000E+02  1.20000000E+01  0.00000000E+00
  8.00000000E+02  1.00000000E+01  0.00000000E+00
  8.00000000E+02  8.00000000E+00  0.00000000E+00
  8.00000000E+02  6.00000000E+00  0.00000000E+00
  8.00000000E+02  4.00000000E+00  0.00000000E+00
  8.00000000E+02  2.00000000E+00  0.00000000E+00
  8.00000000E+02 -3.33066907E-14  0.00000000E+00
  8.10000000E+02  1.00000000E+02  0.00000000E+00
  8.10000000E+02  9.80000000E+01  0.00000000E+00
  8.10000000E+02  9.60000000E+01  0.00000000E+00
  8.10000000E+02  9.40000000E+01  0.00000000E+00
  8.10000000E+02  9.20000000E+01  0.00000000E+00
  8.10000000E+02  9.00000000E+01  0.00000000E+00
  8.10000000E+02  8.80000000E+01  0.00000000E+00
  8.10000000E+02  8.60000000E+01  0.00000000E+00
  8.10000000E+02  8.40000000E+01  0.00000000E+00
  8.10000000E+02  8.20000000E+01  0.00000000E+00
  8.10000000E+02  8.00000000E+01  0.00000000E+00
  8.10000000E+02  7.80000000E+01  0.00000000E+00
  8.10000000E+02  7.60000000E+01  0.00000000E+00
  8.10000000E+02  7.40000000E+01  0.00000000E+00
  8.10000000E+02  7.20000000E+01  0.00000000E+00
  8.10000000E+02  7.00000000E+01  0.00000000E+00
  8.10000000E+02  6.80000000E+01  0.00000000E+00
  8.10000000E+02  6.60000000E+01  0.00000000E+00
  8.10000000E+02  6.40000000E+01  0.00000000E+00
  8.10000000E+02  6.20000000E+01  0.00000000E+00
  8.10000000E+02  6.00000000E+01  0.00000000E+00
  8.10000000E+02  5.80000000E+01  0.00000000E+00
  8.10000000E+02  5.60000000E+01  0.00000000E+00
  8.10000000E+02  5.40000000E+01  0.00000000E+00
  8.10000000E+02  5.20000000E+01  0.00000000E+00
  8.10000000E+02  5.00000000E+01  0.00000000E+00
  8.10000000E+02  4.80000000E+01  0.00000000E+00
  8.10000000E+02  4.60000000E+01  0.00000000E+00
  8.10000000E+02  4.40000000E+01  0.00000000E+00
  8.10000000E+02  4.20000000E+01  0.00000000E+00
  8.10000000E+02  4.00000000E+01  0.00000000E+00
  8.10000000E+02  3.80000000E+01  0.00000000E+00
  8.10000000E+02  3.60000000E+01  0.00000000E+00
  8.10000000E+02  3.40000000E+01  0.00000000E+00
  8.10000000E+02  3.20000000E+01  0.00000000E+00
  8.10000000E+02  3.00000000E+01  0.00000000E+00
  8.10000000E+02  2.80000000E+01  0.00000000E+00
  8.10000000E+02  2.60000000E+01  0.00000000E+00
  8.10000000E+02  2.40000000E+01  0.00000000E+00
  8.10000000E+02  2.20000000E+01  0.00000000E+00
  8.10000000E+02  2.00000000E+01  0.00000000E+00
  8.10000000E+02  1.80000000E+01  0.00000000E+00
  8.10000000E+02  1.60000000E+01  0.00000000E+00
  8.10000000E+02  1.40000000E+01  0.00000000E+00
  8.10000000E+02  1.20000000E+01  0.00000000E+00
  8.10000000E+02  1.00000000E+01  0.00000000E+00
  8.10000000E+02  8.00000000E+00  0.00000000E+00
  8.10000000E+02  6.00000000E+00  0.00000000E+00
  8.10000000E+02  4.00000000E+00  0.00000000E+00
  8.10000000E+02  2.00000000E+00  0.00000000E+00
  8.10000000E+02 -3.33066907E-14  0.00000000E+00
  8.20000000E+02  1.00000000E+02  0.00000000E+00
  8.20000000E+02  9.80000000E+01  0.00000000E+00
  8.20000000E+02  9.60000000E+01  0.00000000E+00
  8.20000000E+02  9.40000000E+01  0.00000000E+00
  8.20000000E+02  9.20000000E+01  0.00000000E+00
  8.20000000E+02  9.00000000E+01  0.00000000E+00
  8.20000000E+02  8.80000000E+01  0.00000000E+00
  8.20000000E+02  8.60000000E+01  0.00000000E+00
  8.20000000E+02  8.40000000E+01  0.00000000E+00
  8.20000000E+02  8.20000000E+01  0.00000000E+00
  8.20000000E+02  8.00000000E+01  0.00000000E+00
  8.20000000E+02  7.80000000E+01  0.00000000E+00
  8.20000000E+02  7.60000000E+01  0.00000000E+00
  8.20000000E+02  7.40000000E+01  0.00000000E+00
  8.20000000E+02  7.20000000E+01  0.00000000E+00
  8.20000000E+02  7.00000000E+01  0.00000000E+00
  8.20000000E+02  6.80000000E+01  0.00000000E+00
  8.20000000E+02  6.60000000E+01  0.00000000E+00
  8.20000000E+02  6.40000000E+01  0.00000000E+00
  8.20000000E+02  6.20000000E+01  0.00000000E+00
  8.20000000E+02  6.00000000E+01  0.00000000E+00
  8.20000000E+02  5.80000000E+01  0.00000000E+00
  8.20000000E+02  5.60000000E+01  0.00000000E+00
  8.20000000E+02  5.40000000E+01  0.00000000E+00
  8.20000000E+02  5.20000000E+01  0.00000000E+00
  8.20000000E+02  5.00000000E+01  0.00000000E+00
  8.20000000E+02  4.80000000E+01  0.00000000E+00
  8.20000000E+02  4.60000000E+01  0.00000000E+00
  8.20000000E+02  4.40000000E+01  0.00000000E+00
  8.20000000E+02  4.20000000E+01  0.00000000E+00
  8.20000000E+02  4.00000000E+01  0.00000000E+00
  8.20000000E+02  3.80000000E+01  0.00000000E+00
  8.20000000E+02  3.60000000E+01  0.00000000E+00
  8.20000000E+02  3.40000000E+01  0.00000000E+00
  8.20000000E+02  3.20000000E+01  0.00000000E+00
  8.20000000E+02  3.00000000E+01  0.00000000E+00
  8.20000000E+02  2.80000000E+01  0.00000000E+00
  8.20000000E+02  2.60000000E+01  0.00000000E+00
  8.20000000E+02  2.40000000E+01  0.00000000E+00
  8.20000000E+02  2.20000000E+01  0.00000000E+00
  8.20000000E+02  2.00000000E+01  0.00000000E+00
  8.20000000E+02  1.80000000E+01  0.00000000E+00
  8.20000000E+02  1.60000000E+01  0.00000000E+00
  8.20000000E+02  1.40000000E+01  0.00000000E+00
  8.20000000E+02  1.20000000E+01  0.00000000E+00
  8.20000000E+02  1.00000000E+01  0.00000000E+00
  8.20000000E+02  8.00000000E+00  0.00000000E+00
  8.20000000E+02  6.00000000E+00  0.00000000E+00
  8.20000000E+02  4.00000000E+00  0.00000000E+00
  8.20000000E+02  2.00000000E+00  0.00000000E+00
  8.20000000E+02 -3.33066907E-14  0.00000000E+00
  8.30000000E+02  1.00000000E+02  0.00000000E+00
  8.30000000E+02  9.80000000E+01  0.00000000E+00
  8.30000000E+02  9.60000000E+01  0.00000000E+00
  8.30000000E+02  9.40000000E+01  0.00000000E+00
  8.30000000E+02  9.20000000E+01  0.00000000E+00
  8.30000000E+02  9.00000000E+01  0.00000000E+00
  8.30000000E+02  8.80000000E+01  0.00000000E+00
  8.30000000E+02  8.60000000E+01  0.00000000E+00
  8.30000000E+02  8.40000000E+01  0.00000000E+00
  8.30000000E+02  8.20000000E+01  0.00000000E+00
  8.30000000E+02  8.00000000E+01  0.00000000E+00
  8.30000000E+02  7.80000000E+01  0.00000000E+00
  8.30000000E+02  7.60000000E+01  0.00000000E+00
  8.30000000E+02  7.40000000E+01  0.00000000E+00
  8.30000000E+02  7.20000000E+01  0.00000000E+00
  8.30000000E+02  7.00000000E+01  0.00000000E+00
  8.30000000E+02  6.80000000E+01  0.00000000E+00
  8.30000000E+02  6.60000000E+01  0.00000000E+00
  8.30000000E+02  6.40000000E+01  0.00000000E+00
  8.30000000E+02  6.20000000E+01  0.00000000E+00
  8.30000000E+02  6.00000000E+01  0.00000000E+00
  8.30000000E+02  5.80000000E+01  0.00000000E+00
  8.30000000E+02  5.60000000E+01  0.00000000E+00
  8.30000000E+02  5.40000000E+01  0.00000000E+00
  8.30000000E+02  5.20000000E+01  0.00000000E+00
  8.30000000E+02  5.00000000E+01  0.00000000E+00
  8.30000000E+02  4.80000000E+01  0.00000000E+00
  8.30000000E+02  4.60000000E+01  0.00000000E+00
  8.30000000E+02  4.40000000E+01  0.00000000E+00
  8.30000000E+02  4.20000000E+01  0.00000000E+00
  8.30000000E+02  4.00000000E+01  0.00000000E+00
  8.30000000E+02  3.80000000E+01  0.00000000E+00
  8.30000000E+02  3.60000000E+01  0.00000000E+00
  8.30000000E+02  3.40000000E+01  0.00000000E+00
  8.30000000E+02  3.20000000E+01  0.00000000E+00
  8.30000000E+02  3.00000000E+01  0.00000000E+00
  8.30000000E+02  2.80000000E+01  0.00000000E+00
  8.30000000E+02  2.60000000E+01  0.00000000E+00
  8.30000000E+02  2.40000000E+01  0.00000000E+00
  8.30000000E+02  2.20000000E+01  0.00000000E+00
  8.30000000E+02  2.00000000E+01  0.00000000E+00
  8.30000000E+02  1.80000000E+01  0.00000000E+00
  8.30000000E+02  1.60000000E+01  0.00000000E+00
  8.30000000E+02  1.40000000E+01  0.00000000E+00
  8.30000000E+02  1.20000000E+01  0.00000000E+00
  8.30000000E+02  1.00000000E+01  0.00000000E+00
  8.30000000E+02  8.00000000E+00  0.00000000E+00
  8.30000000E+02  6.00000000E+00  0.00000000E+00
  8.30000000E+02  4.00000000E+00  0.00000000E+00
  8.30000000E+02  2.00000000E+00  0.00000000E+00
  8.30000000E+02 -3.33066907E-14  0.00000000E+00
  8.40000000E+02  1.00000000E+02  0.00000000E+00
  8.40000000E+02  9.80000000E+01  0.00000000E+00
  8.40000000E+02  9.60000000E+01  0.00000000E+00
  8.40000000E+02  9.40000000E+01  0.00000000E+00
  8.40000000E+02  9.20000000E+01  0.00000000E+00
  8.40000000E+02  9.00000000E+01  0.00000000E+00
  8.40000000E+02  8.80000000E+01  0.00000000E+00
  8.40000000E+02  8.60000000E+01  0.00000000E+00
  8.40000000E+02  8.40000000E+01  0.00000000E+00
  8.40000000E+02  8.20000000E+01  0.00000000E+00
  8.40000000E+02  8.00000000E+01  0.00000000E+00
  8.40000000E+02  7.80000000E+01  0.00000000E+00
  8.40000000E+02  7.60000000E+01  0.00000000E+00
  8.40000000E+02  7.40000000E+01  0.00000000E+00
  8.40000000E+02  7.20000000E+01  0.00000000E+00
  8.40000000E+02  7.00000000E+01  0.00000000E+00
  8.40000000E+02  6.80000000E+01  0.00000000E+00
  8.40000000E+02  6.60000000E+01  0.00000000E+00
  8.40000000E+02  6.40000000E+01  0.00000000E+00
  8.40000000E+02  6.20000000E+01  0.00000000E+00
  8.40000000E+02  6.00000000E+01  0.00000000E+00
  8.40000000E+02  5.80000000E+01  0.00000000E+00
  8.40000000E+02  5.60000000E+01  0.00000000E+00
  8.40000000E+02  5.40000000E+01  0.00000000E+00
  8.40000000E+02  5.20000000E+01  0.00000000E+00
  8.40000000E+02  5.00000000E+01  0.00000000E+00
  8.40000000E+02  4.80000000E+01  0.00000000E+00
  8.40000000E+02  4.60000000E+01  0.00000000E+00
  8.40000000E+02  4.40000000E+01  0.00000000E+00
  8.40000000E+02  4.20000000E+01  0.00000000E+00
  8.40000000E+02  4.00000000E+01  0.00000000E+00
  8.40000000E+02  3.80000000E+01  0.00000000E+00
  8.40000000E+02  3.60000000E+01  0.00000000E+00
  8.40000000E+02  3.40000000E+01  0.00000000E+00
  8.40000000E+02  3.20000000E+01  0.00000000E+00
  8.40000000E+02  3.00000000E+01  0.00000000E+00
  8.40000000E+02  2.80000000E+01  0.00000000E+00
  8.40000000E+02  2.60000000E+01  0.00000000E+00
  8.40000000E+02  2.40000000E+01  0.00000000E+00
  8.40000000E+02  2.20000000E+01  0.00000000E+00
  8.40000000E+02  2.00000000E+01  0.00000000E+00
  8.40000000E+02  1.80000000E+01  0.00000000E+00
  8.40000000E+02  1.60000000E+01  0.00000000E+00
  8.40000000E+02  1.40000000E+01  0.00000000E+00
  8.40000000E+02  1.20000000E+01  0.00000000E+00
  8.40000000E+02  1.00000000E+01  0.00000000E+00
  8.40000000E+02  8.00000000E+00  0.00000000E+00
  8.40000000E+02  6.00000000E+00  0.00000000E+00
  8.40000000E+02  4.00000000E+00  0.00000000E+00
  8.40000000E+02  2.00000000E+00  0.00000000E+00
  8.40000000E+02 -3.33066907E-14  0.00000000E+00
  8.50000000E+02  1.00000000E+02  0.00000000E+00
  8.50000000E+02  9.80000000E+01  0.00000000E+00
  8.50000000E+02  9.60000000E+01  0.00000000E+00
  8.50000000E+02  9.40000000E+01  0.00000000E+00
  8.50000000E+02  9.20000000E+01  0.00000000E+00
  8.50000000E+02  9.00000000E+01  0.00000000E+00
  8.50000000E+02  8.80000000E+01  0.00000000E+00
  8.50000000E+02  8.60000000E+01  0.00000000E+00
  8.50000000E+02  8.40000000E+01  0.00000000E+00
  8.50000000E+02  8.20000000E+01  0.00000000E+00
  8.50000000E+02  8.00000000E+01  0.00000000E+00
  8.50000000E+02  7.80000000E+01  0.00000000E+00
  8.50000000E+02  7.60000000E+01  0.00000000E+00
  8.50000000E+02  7.40000000E+01  0.00000000E+00
  8.50000000E+02  7.20000000E+01  0.00000000E+00
  8.50000000E+02  7.00000000E+01  0.00000000E+00
  8.50000000E+02  6.80000000E+01  0.00000000E+00
  8.50000000E+02  6.60000000E+01  0.00000000E+00
  8.50000000E+02  6.40000000E+01  0.00000000E+00
  8.50000000E+02  6.20000000E+01  0.00000000E+00
  8.50000000E+02  6.00000000E+01  0.00000000E+00
  8.50000000E+02  5.80000000E+01  0.00000000E+00
  8.50000000E+02  5.60000000E+01  0.00000000E+00
  8.50000000E+02  5.40000000E+01  0.00000000E+00
  8.50000000E+02  5.20000000E+01  0.00000000E+00
  8.50000000E+02  5.00000000E+01  0.00000000E+00
  8.50000000E+02  4.80000000E+01  0.00000000E+00
  8.50000000E+02  4.60000000E+01  0.00000000E+00
  8.50000000E+02  4.40000000E+01  0.00000000E+00
  8.50000000E+02  4.20000000E+01  0.00000000E+00
  8.50000000E+02  4.00000000E+01  0.00000000E+00
  8.50000000E+02  3.80000000E+01  0.00000000E+00
  8.50000000E+02  3.60000000E+01  0.00000000E+00
  8.50000000E+02  3.40000000E+01  0.00000000E+00
  8.50000000E+02  3.20000000E+01  0.00000000E+00
  8.50000000E+02  3.00000000E+01  0.00000000E+00
  8.50000000E+02  2.80000000E+01  0.00000000E+00
  8.50000000E+02  2.60000000E+01  0.00000000E+00
  8.50000000E+02  2.40000000E+01  0.00000000E+00
  8.50000000E+02  2.20000000E+01  0.00000000E+00
  8.50000000E+02  2.00000000E+01  0.00000000E+00
  8.50000000E+02  1.80000000E+01  0.00000000E+00
  8.50000000E+02  1.60000000E+01  0.00000000E+00
  8.50000000E+02  1.40000000E+01  0.00000000E+00
  8.50000000E+02  1.20000000E+01  0.00000000E+00
  8.50000000E+02  1.00000000E+01  0.00000000E+00
  8.50000000E+02  8.00000000E+00  0.00000000E+00
  8.50000000E+02  6.00000000E+00  0.00000000E+00
  8.50000000E+02  4.00000000E+00  0.00000000E+00
  8.50000000E+02  2.00000000E+00  0.00000000E+00
  8.50000000E+02 -3.33066907E-14  0.00000000E+00
  8.60000000E+02  1.00000000E+02  0.00000000E+00
  8.60000000E+02  9.80000000E+01  0.00000000E+00
  8.60000000E+02  9.60000000E+01  0.00000000E+00
  8.60000000E+02  9.40000000E+01  0.00000000E+00
  8.60000000E+02  9.20000000E+01  0.00000000E+00
  8.60000000E+02  9.00000000E+01  0.00000000E+00
  8.60000000E+02  8.80000000E+01  0.00000000E+00
  8.60000000E+02  8.60000000E+01  0.00000000E+00
  8.60000000E+02  8.40000000E+01  0.00000000E+00
  8.60000000E+02  8.20000000E+01  0.00000000E+00
  8.60000000E+02  8.00000000E+01  0.00000000E+00
  8.60000000E+02  7.80000000E+01  0.00000000E+00
  8.60000000E+02  7.60000000E+01  0.00000000E+00
  8.60000000E+02  7.40000000E+01  0.00000000E+00
  8.60000000E+02  7.20000000E+01  0.00000000E+00
  8.60000000E+02  7.00000000E+01  0.00000000E+00
  8.60000000E+02  6.80000000E+01  0.00000000E+00
  8.60000000E+02  6.60000000E+01  0.00000000E+00
  8.60000000E+02  6.40000000E+01  0.00000000E+00
  8.60000000E+02  6.20000000E+01  0.00000000E+00
  8.60000000E+02  6.00000000E+01  0.00000000E+00
  8.60000000E+02  5.80000000E+01  0.00000000E+00
  8.60000000E+02  5.60000000E+01  0.00000000E+00
  8.60000000E+02  5.40000000E+01  0.00000000E+00
  8.60000000E+02  5.20000000E+01  0.00000000E+00
  8.60000000E+02  5.00000000E+01  0.00000000E+00
  8.60000000E+02  4.80000000E+01  0.00000000E+00
  8.60000000E+02  4.60000000E+01  0.00000000E+00
  8.60000000E+02  4.40000000E+01  0.00000000E+00
  8.60000000E+02  4.20000000E+01  0.00000000E+00
  8.60000000E+02  4.00000000E+01  0.00000000E+00
  8.60000000E+02  3.80000000E+01  0.00000000E+00
  8.60000000E+02  3.60000000E+01  0.00000000E+00
  8.60000000E+02  3.40000000E+01  0.00000000E+00
  8.60000000E+02  3.20000000E+01  0.00000000E+00
  8.60000000E+02  3.00000000E+01  0.00000000E+00
  8.60000000E+02  2.80000000E+01  0.00000000E+00
  8.60000000E+02  2.60000000E+01  0.00000000E+00
  8.60000000E+02  2.40000000E+01  0.00000000E+00
  8.60000000E+02  2.20000000E+01  0.00000000E+00
  8.60000000E+02  2.00000000E+01  0.00000000E+00
  8.60000000E+02  1.80000000E+01  0.00000000E+00
  8.60000000E+02  1.60000000E+01  0.00000000E+00
  8.60000000E+02  1.40000000E+01  0.00000000E+00
  8.60000000E+02  1.20000000E+01  0.00000000E+00
  8.60000000E+02  1.00000000E+01  0.00000000E+00
  8.60000000E+02  8.00000000E+00  0.00000000E+00
  8.60000000E+02  6.00000000E+00  0.00000000E+00
  8.60000000E+02  4.00000000E+00  0.00000000E+00
  8.60000000E+02  2.00000000E+00  0.00000000E+00
  8.60000000E+02 -3.33066907E-14  0.00000000E+00
  8.70000000E+02  1.00000000E+02  0.00000000E+00
  8.70000000E+02  9.80000000E+01  0.00000000E+00
  8.70000000E+02  9.60000000E+01  0.00000000E+00
  8.70000000E+02  9.40000000E+01  0.00000000E+00
  8.70000000E+02  9.20000000E+01  0.00000000E+00
  8.70000000E+02  9.00000000E+01  0.00000000E+00
  8.70000000E+02  8.80000000E+01  0.00000000E+00
  8.70000000E+02  8.60000000E+01  0.00000000E+00
  8.70000000E+02  8.40000000E+01  0.00000000E+00
  8.70000000E+02  8.20000000E+01  0.00000000E+00
  8.70000000E+02  8.00000000E+01  0.00000000E+00
  8.70000000E+02  7.80000000E+01  0.00000000E+00
  8.70000000E+02  7.60000000E+01  0.00000000E+00
  8.70000000E+02  7.40000000E+01  0.00000000E+00
  8.70000000E+02  7.20000000E+01  0.00000000E+00
  8.70000000E+02  7.00000000E+01  0.00000000E+00
  8.70000000E+02  6.80000000E+01  0.00000000E+00
  8.70000000E+02  6.60000000E+01  0.00000000E+00
  8.70000000E+02  6.40000000E+01  0.00000000E+00
  8.70000000E+02  6.20000000E+01  0.00000000E+00
  8.70000000E+02  6.00000000E+01  0.00000000E+00
  8.70000000E+02  5.80000000E+01  0.00000000E+00
  8.70000000E+02  5.60000000E+01  0.00000000E+00
  8.70000000E+02  5.40000000E+01  0.00000000E+00
  8.70000000E+02  5.20000000E+01  0.00000000E+00
  8.70000000E+02  5.00000000E+01  0.00000000E+00
  8.70000000E+02  4.80000000E+01  0.00000000E+00
  8.70000000E+02  4.60000000E+01  0.00000000E+00
  8.70000000E+02  4.40000000E+01  0.00000000E+00
  8.70000000E+02  4.20000000E+01  0.00000000E+00
  8.70000000E+02  4.00000000E+01  0.00000000E+00
  8.70000000E+02  3.80000000E+01  0.00000000E+00
  8.70000000E+02  3.60000000E+01  0.00000000E+00
  8.70000000E+02  3.40000000E+01  0.00000000E+00
  8.70000000E+02  3.20000000E+01  0.00000000E+00
  8.70000000E+02  3.00000000E+01  0.00000000E+00
  8.70000000E+02  2.80000000E+01  0.00000000E+00
  8.70000000E+02  2.60000000E+01  0.00000000E+00
  8.70000000E+02  2.40000000E+01  0.00000000E+00
  8.70000000E+02  2.20000000E+01  0.00000000E+00
  8.70000000E+02  2.00000000E+01  0.00000000E+00
  8.70000000E+02  1.80000000E+01  0.00000000E+00
  8.70000000E+02  1.60000000E+01  0.00000000E+00
  8.70000000E+02  1.40000000E+01  0.00000000E+00
  8.70000000E+02  1.20000000E+01  0.00000000E+00
  8.70000000E+02  1.00000000E+01  0.00000000E+00
  8.70000000E+02  8.00000000E+00  0.00000000E+00
  8.70000000E+02  6.00000000E+00  0.00000000E+00
  8.70000000E+02  4.00000000E+00  0.00000000E+00
  8.70000000E+02  2.00000000E+00  0.00000000E+00
  8.70000000E+02 -3.33066907E-14  0.00000000E+00
  8.80000000E+02  1.00000000E+02  0.00000000E+00
  8.80000000E+02  9.80000000E+01  0.00000000E+00
  8.80000000E+02  9.60000000E+01  0.00000000E+00
  8.80000000E+02  9.40000000E+01  0.00000000E+00
  8.80000000E+02  9.20000000E+01  0.00000000E+00
  8.80000000E+02  9.00000000E+01  0.00000000E+00
  8.80000000E+02  8.80000000E+01  0.00000000E+00
  8.80000000E+02  8.60000000E+01  0.00000000E+00
  8.80000000E+02  8.40000000E+01  0.00000000E+00
  8.80000000E+02  8.20000000E+01  0.00000000E+00
  8.80000000E+02  8.00000000E+01  0.00000000E+00
  8.80000000E+02  7.80000000E+01  0.00000000E+00
  8.80000000E+02  7.60000000E+01  0.00000000E+00
  8.80000000E+02  7.40000000E+01  0.00000000E+00
  8.80000000E+02  7.20000000E+01  0.00000000E+00
  8.80000000E+02  7.00000000E+01  0.00000000E+00
  8.80000000E+02  6.80000000E+01  0.00000000E+00
  8.80000000E+02  6.60000000E+01  0.00000000E+00
  8.80000000E+02  6.40000000E+01  0.00000000E+00
  8.80000000E+02  6.20000000E+01  0.00000000E+00
  8.80000000E+02  6.00000000E+01  0.00000000E+00
  8.80000000E+02  5.80000000E+01  0.00000000E+00
  8.80000000E+02  5.60000000E+01  0.00000000E+00
  8.80000000E+02  5.40000000E+01  0.00000000E+00
  8.80000000E+02  5.20000000E+01  0.00000000E+00
  8.80000000E+02  5.00000000E+01  0.00000000E+00
  8.80000000E+02  4.80000000E+01  0.00000000E+00
  8.80000000E+02  4.60000000E+01  0.00000000E+00
  8.80000000E+02  4.40000000E+01  0.00000000E+00
  8.80000000E+02  4.20000000E+01  0.00000000E+00
  8.80000000E+02  4.00000000E+01  0.00000000E+00
  8.80000000E+02  3.80000000E+01  0.00000000E+00
  8.80000000E+02  3.60000000E+01  0.00000000E+00
  8.80000000E+02  3.40000000E+01  0.00000000E+00
  8.80000000E+02  3.20000000E+01  0.00000000E+00
  8.80000000E+02  3.00000000E+01  0.00000000E+00
  8.80000000E+02  2.80000000E+01  0.00000000E+00
  8.80000000E+02  2.60000000E+01  0.00000000E+00
  8.80000000E+02  2.40000000E+01  0.00000000E+00
  8.80000000E+02  2.20000000E+01  0.00000000E+00
  8.80000000E+02  2.00000000E+01  0.00000000E+00
  8.80000000E+02  1.80000000E+01  0.00000000E+00
  8.80000000E+02  1.60000000E+01  0.00000000E+00
  8.80000000E+02  1.40000000E+01  0.00000000E+00
  8.80000000E+02  1.20000000E+01  0.00000000E+00
  8.80000000E+02  1.00000000E+01  0.00000000E+00
  8.80000000E+02  8.00000000E+00  0.00000000E+00
  8.80000000E+02  6.00000000E+00  0.00000000E+00
  8.80000000E+02  4.00000000E+00  0.00000000E+00
  8.80000000E+02  2.00000000E+00  0.00000000E+00
  8.80000000E+02 -3.33066907E-14  0.00000000E+00
  8.90000000E+02  1.00000000E+02  0.00000000E+00
  8.90000000E+02  9.80000000E+01  0.00000000E+00
  8.90000000E+02  9.60000000E+01  0.00000000E+00
  8.90000000E+02  9.40000000E+01  0.00000000E+00
  8.90000000E+02  9.20000000E+01  0.00000000E+00
  8.90000000E+02  9.00000000E+01  0.00000000E+00
  8.90000000E+02  8.80000000E+01  0.00000000E+00
  8.90000000E+02  8.60000000E+01  0.00000000E+00
  8.90000000E+02  8.40000000E+01  0.00000000E+00
  8.90000000E+02  8.20000000E+01  0.00000000E+00
  8.90000000E+02  8.00000000E+01  0.00000000E+00
  8.90000000E+02  7.80000000E+01  0.00000000E+00
  8.90000000E+02  7.60000000E+01  0.00000000E+00
  8.90000000E+02  7.40000000E+01  0.00000000E+00
  8.90000000E+02  7.20000000E+01  0.00000000E+00
  8.90000000E+02  7.00000000E+01  0.00000000E+00
  8.90000000E+02  6.80000000E+01  0.00000000E+00
  8.90000000E+02  6.60000000E+01  0.00000000E+00
  8.90000000E+02  6.40000000E+01  0.00000000E+00
  8.90000000E+02  6.20000000E+01  0.00000000E+00
  8.90000000E+02  6.00000000E+01  0.00000000E+00
  8.90000000E+02  5.80000000E+01  0.00000000E+00
  8.90000000E+02  5.60000000E+01  0.00000000E+00
  8.90000000E+02  5.40000000E+01  0.00000000E+00
  8.90000000E+02  5.20000000E+01  0.00000000E+00
  8.90000000E+02  5.00000000E+01  0.00000000E+00
  8.90000000E+02  4.80000000E+01  0.00000000E+00
  8.90000000E+02  4.60000000E+01  0.00000000E+00
  8.90000000E+02  4.40000000E+01  0.00000000E+00
  8.90000000E+02  4.20000000E+01  0.00000000E+00
  8.90000000E+02  4.00000000E+01  0.00000000E+00
  8.90000000E+02  3.80000000E+01  0.00000000E+00
  8.90000000E+02  3.60000000E+01  0.00000000E+00
  8.90000000E+02  3.40000000E+01  0.00000000E+00
  8.90000000E+02  3.20000000E+01  0.00000000E+00
  8.90000000E+02  3.00000000E+01  0.00000000E+00
  8.90000000E+02  2.80000000E+01  0.00000000E+00
  8.90000000E+02  2.60000000E+01  0.00000000E+00
  8.90000000E+02  2.40000000E+01  0.00000000E+00
  8.90000000E+02  2.20000000E+01  0.00000000E+00
  8.90000000E+02  2.00000000E+01  0.00000000E+00
  8.90000000E+02  1.80000000E+01  0.00000000E+00
  8.90000000E+02  1.60000000E+01  0.00000000E+00
  8.90000000E+02  1.40000000E+01  0.00000000E+00
  8.90000000E+02  1.20000000E+01  0.00000000E+00
  8.90000000E+02  1.00000000E+01  0.00000000E+00
  8.90000000E+02  8.00000000E+00  0.00000000E+00
  8.90000000E+02  6.00000000E+00  0.00000000E+00
  8.90000000E+02  4.00000000E+00  0.00000000E+00
  8.90000000E+02  2.00000000E+00  0.00000000E+00
  8.90000000E+02 -3.33066907E-14  0.00000000E+00
  9.00000000E+02  1.00000000E+02  0.00000000E+00
  9.00000000E+02  9.80000000E+01  0.00000000E+00
  9.00000000E+02  9.60000000E+01  0.00000000E+00
  9.00000000E+02  9.40000000E+01  0.00000000E+00
  9.00000000E+02  9.20000000E+01  0.00000000E+00
  9.00000000E+02  9.00000000E+01  0.00000000E+00
  9.00000000E+02  8.80000000E+01  0.00000000E+00
  9.00000000E+02  8.60000000E+01  0.00000000E+00
  9.00000000E+02  8.40000000E+01  0.00000000E+00
  9.00000000E+02  8.20000000E+01  0.00000000E+00
  9.00000000E+02  8.00000000E+01  0.00000000E+00
  9.00000000E+02  7.80000000E+01  0.00000000E+00
  9.00000000E+02  7.60000000E+01  0.00000000E+00
  9.00000000E+02  7.40000000E+01  0.00000000E+00
  9.00000000E+02  7.20000000E+01  0.00000000E+00
  9.00000000E+02  7.00000000E+01  0.00000000E+00
  9.00000000E+02  6.80000000E+01  0.00000000E+00
  9.00000000E+02  6.60000000E+01  0.00000000E+00
  9.00000000E+02  6.40000000E+01  0.00000000E+00
  9.00000000E+02  6.20000000E+01  0.00000000E+00
  9.00000000E+02  6.00000000E+01  0.00000000E+00
  9.00000000E+02  5.80000000E+01  0.00000000E+00
  9.00000000E+02  5.60000000E+01  0.00000000E+00
  9.00000000E+02  5.40000000E+01  0.00000000E+00
  9.00000000E+02  5.20000000E+01  0.00000000E+00
  9.00000000E+02  5.00000000E+01  0.00000000E+00
  9.00000000E+02  4.80000000E+01  0.00000000E+00
  9.00000000E+02  4.60000000E+01  0.00000000E+00
  9.00000000E+02  4.40000000E+01  0.00000000E+00
  9.00000000E+02  4.20000000E+01  0.00000000E+00
  9.00000000E+02  4.00000000E+01  0.00000000E+00
  9.00000000E+02  3.80000000E+01  0.00000000E+00
  9.00000000E+02  3.60000000E+01  0.00000000E+00
  9.00000000E+02  3.40000000E+01  0.00000000E+00
  9.00000000E+02  3.20000000E+01  0.00000000E+00
  9.00000000E+02  3.00000000E+01  0.00000000E+00
  9.00000000E+02  2.80000000E+01  0.00000000E+00
  9.00000000E+02  2.60000000E+01  0.00000000E+00
  9.00000000E+02  2.40000000E+01  0.00000000E+00
  9.00000000E+02  2.20000000E+01  0.00000000E+00
  9.00000000E+02  2.00000000E+01  0.00000000E+00
  9.00000000E+02  1.80000000E+01  0.00000000E+00
  9.00000000E+02  1.60000000E+01  0.00000000E+00
  9.00000000E+02  1.40000000E+01  0.00000000E+00
  9.00000000E+02  1.20000000E+01  0.00000000E+00
  9.00000000E+02  1.00000000E+01  0.00000000E+00
  9.00000000E+02  8.00000000E+00  0.00000000E+00
  9.00000000E+02  6.00000000E+00  0.00000000E+00
  9.00000000E+02  4.00000000E+00  0.00000000E+00
  9.00000000E+02  2.00000000E+00  0.00000000E+00
  9.00000000E+02 -3.33066907E-14  0.00000000E+00
  9.10000000E+02  1.00000000E+02  0.00000000E+00
  9.10000000E+02  9.80000000E+01  0.00000000E+00
  9.10000000E+02  9.60000000E+01  0.00000000E+00
  9.10000000E+02  9.40000000E+01  0.00000000E+00
  9.10000000E+02  9.20000000E+01  0.00000000E+00
  9.10000000E+02  9.00000000E+01  0.00000000E+00
  9.10000000E+02  8.80000000E+01  0.00000000E+00
  9.10000000E+02  8.60000000E+01  0.00000000E+00
  9.10000000E+02  8.40000000E+01  0.00000000E+00
  9.10000000E+02  8.20000000E+01  0.00000000E+00
  9.10000000E+02  8.00000000E+01  0.00000000E+00
  9.10000000E+02  7.80000000E+01  0.00000000E+00
  9.10000000E+02  7.60000000E+01  0.00000000E+00
  9.10000000E+02  7.40000000E+01  0.00000000E+00
  9.10000000E+02  7.20000000E+01  0.00000000E+00
  9.10000000E+02  7.00000000E+01  0.00000000E+00
  9.10000000E+02  6.80000000E+01  0.00000000E+00
  9.10000000E+02  6.60000000E+01  0.00000000E+00
  9.10000000E+02  6.40000000E+01  0.00000000E+00
  9.10000000E+02  6.20000000E+01  0.00000000E+00
  9.10000000E+02  6.00000000E+01  0.00000000E+00
  9.10000000E+02  5.80000000E+01  0.00000000E+00
  9.10000000E+02  5.60000000E+01  0.00000000E+00
  9.10000000E+02  5.40000000E+01  0.00000000E+00
  9.10000000E+02  5.20000000E+01  0.00000000E+00
  9.10000000E+02  5.00000000E+01  0.00000000E+00
  9.10000000E+02  4.80000000E+01  0.00000000E+00
  9.10000000E+02  4.60000000E+01  0.00000000E+00
  9.10000000E+02  4.40000000E+01  0.00000000E+00
  9.10000000E+02  4.20000000E+01  0.00000000E+00
  9.10000000E+02  4.00000000E+01  0.00000000E+00
  9.10000000E+02  3.80000000E+01  0.00000000E+00
  9.10000000E+02  3.60000000E+01  0.00000000E+00
  9.10000000E+02  3.40000000E+01  0.00000000E+00
  9.10000000E+02  3.20000000E+01  0.00000000E+00
  9.10000000E+02  3.00000000E+01  0.00000000E+00
  9.10000000E+02  2.80000000E+01  0.00000000E+00
  9.10000000E+02  2.60000000E+01  0.00000000E+00
  9.10000000E+02  2.40000000E+01  0.00000000E+00
  9.10000000E+02  2.20000000E+01  0.00000000E+00
  9.10000000E+02  2.00000000E+01  0.00000000E+00
  9.10000000E+02  1.80000000E+01  0.00000000E+00
  9.10000000E+02  1.60000000E+01  0.00000000E+00
  9.10000000E+02  1.40000000E+01  0.00000000E+00
  9.10000000E+02  1.20000000E+01  0.00000000E+00
  9.10000000E+02  1.00000000E+01  0.00000000E+00
  9.10000000E+02  8.00000000E+00  0.00000000E+00
  9.10000000E+02  6.00000000E+00  0.00000000E+00
  9.10000000E+02  4.00000000E+00  0.00000000E+00
  9.10000000E+02  2.00000000E+00  0.00000000E+00
  9.10000000E+02 -3.33066907E-14  0.00000000E+00
  9.20000000E+02  1.00000000E+02  0.00000000E+00
  9.20000000E+02  9.80000000E+01  0.00000000E+00
  9.20000000E+02  9.60000000E+01  0.00000000E+00
  9.20000000E+02  9.40000000E+01  0.00000000E+00
  9.20000000E+02  9.20000000E+01  0.00000000E+00
  9.20000000E+02  9.00000000E+01  0.00000000E+00
  9.20000000E+02  8.80000000E+01  0.00000000E+00
  9.20000000E+02  8.60000000E+01  0.00000000E+00
  9.20000000E+02  8.40000000E+01  0.00000000E+00
  9.20000000E+02  8.20000000E+01  0.00000000E+00
  9.20000000E+02  8.00000000E+01  0.00000000E+00
  9.20000000E+02  7.80000000E+01  0.00000000E+00
  9.20000000E+02  7.60000000E+01  0.00000000E+00
  9.20000000E+02  7.40000000E+01  0.00000000E+00
  9.20000000E+02  7.20000000E+01  0.00000000E+00
  9.20000000E+02  7.00000000E+01  0.00000000E+00
  9.20000000E+02  6.80000000E+01  0.00000000E+00
  9.20000000E+02  6.60000000E+01  0.00000000E+00
  9.20000000E+02  6.40000000E+01  0.00000000E+00
  9.20000000E+02  6.20000000E+01  0.00000000E+00
  9.20000000E+02  6.00000000E+01  0.00000000E+00
  9.20000000E+02  5.80000000E+01  0.00000000E+00
  9.20000000E+02  5.60000000E+01  0.00000000E+00
  9.20000000E+02  5.40000000E+01  0.00000000E+00
  9.20000000E+02  5.20000000E+01  0.00000000E+00
  9.20000000E+02  5.00000000E+01  0.00000000E+00
  9.20000000E+02  4.80000000E+01  0.00000000E+00
  9.20000000E+02  4.60000000E+01  0.00000000E+00
  9.20000000E+02  4.40000000E+01  0.00000000E+00
  9.20000000E+02  4.20000000E+01  0.00000000E+00
  9.20000000E+02  4.00000000E+01  0.00000000E+00
  9.20000000E+02  3.80000000E+01  0.00000000E+00
  9.20000000E+02  3.60000000E+01  0.00000000E+00
  9.20000000E+02  3.40000000E+01  0.00000000E+00
  9.20000000E+02  3.20000000E+01  0.00000000E+00
  9.20000000E+02  3.00000000E+01  0.00000000E+00
  9.20000000E+02  2.80000000E+01  0.00000000E+00
  9.20000000E+02  2.60000000E+01  0.00000000E+00
  9.20000000E+02  2.40000000E+01  0.00000000E+00
  9.20000000E+02  2.20000000E+01  0.00000000E+00
  9.20000000E+02  2.00000000E+01  0.00000000E+00
  9.20000000E+02  1.80000000E+01  0.00000000E+00
  9.20000000E+02  1.60000000E+01  0.00000000E+00
  9.20000000E+02  1.40000000E+01  0.00000000E+00
  9.20000000E+02  1.20000000E+01  0.00000000E+00
  9.20000000E+02  1.00000000E+01  0.00000000E+00
  9.20000000E+02  8.00000000E+00  0.00000000E+00
  9.20000000E+02  6.00000000E+00  0.00000000E+00
  9.20000000E+02  4.00000000E+00  0.00000000E+00
  9.20000000E+02  2.00000000E+00  0.00000000E+00
  9.20000000E+02 -3.33066907E-14  0.00000000E+00
  9.30000000E+02  1.00000000E+02  0.00000000E+00
  9.30000000E+02  9.80000000E+01  0.00000000E+00
  9.30000000E+02  9.60000000E+01  0.00000000E+00
  9.30000000E+02  9.40000000E+01  0.00000000E+00
  9.30000000E+02  9.20000000E+01  0.00000000E+00
  9.30000000E+02  9.00000000E+01  0.00000000E+00
  9.30000000E+02  8.80000000E+01  0.00000000E+00
  9.30000000E+02  8.60000000E+01  0.00000000E+00
  9.30000000E+02  8.40000000E+01  0.00000000E+00
  9.30000000E+02  8.20000000E+01  0.00000000E+00
  9.30000000E+02  8.00000000E+01  0.00000000E+00
  9.30000000E+02  7.80000000E+01  0.00000000E+00
  9.30000000E+02  7.60000000E+01  0.00000000E+00
  9.30000000E+02  7.40000000E+01  0.00000000E+00
  9.30000000E+02  7.20000000E+01  0.00000000E+00
  9.30000000E+02  7.00000000E+01  0.00000000E+00
  9.30000000E+02  6.80000000E+01  0.00000000E+00
  9.30000000E+02  6.60000000E+01  0.00000000E+00
  9.30000000E+02  6.40000000E+01  0.00000000E+00
  9.30000000E+02  6.20000000E+01  0.00000000E+00
  9.30000000E+02  6.00000000E+01  0.00000000E+00
  9.30000000E+02  5.80000000E+01  0.00000000E+00
  9.30000000E+02  5.60000000E+01  0.00000000E+00
  9.30000000E+02  5.40000000E+01  0.00000000E+00
  9.30000000E+02  5.20000000E+01  0.00000000E+00
  9.30000000E+02  5.00000000E+01  0.00000000E+00
  9.30000000E+02  4.80000000E+01  0.00000000E+00
  9.30000000E+02  4.60000000E+01  0.00000000E+00
  9.30000000E+02  4.40000000E+01  0.00000000E+00
  9.30000000E+02  4.20000000E+01  0.00000000E+00
  9.30000000E+02  4.00000000E+01  0.00000000E+00
  9.30000000E+02  3.80000000E+01  0.00000000E+00
  9.30000000E+02  3.60000000E+01  0.00000000E+00
  9.30000000E+02  3.40000000E+01  0.00000000E+00
  9.30000000E+02  3.20000000E+01  0.00000000E+00
  9.30000000E+02  3.00000000E+01  0.00000000E+00
  9.30000000E+02  2.80000000E+01  0.00000000E+00
  9.30000000E+02  2.60000000E+01  0.00000000E+00
  9.30000000E+02  2.40000000E+01  0.00000000E+00
  9.30000000E+02  2.20000000E+01  0.00000000E+00
  9.30000000E+02  2.00000000E+01  0.00000000E+00
  9.30000000E+02  1.80000000E+01  0.00000000E+00
  9.30000000E+02  1.60000000E+01  0.00000000E+00
  9.30000000E+02  1.40000000E+01  0.00000000E+00
  9.30000000E+02  1.20000000E+01  0.00000000E+00
  9.30000000E+02  1.00000000E+01  0.00000000E+00
  9.30000000E+02  8.00000000E+00  0.00000000E+00
  9.30000000E+02  6.00000000E+00  0.00000000E+00
  9.30000000E+02  4.00000000E+00  0.00000000E+00
  9.30000000E+02  2.00000000E+00  0.00000000E+00
  9.30000000E+02 -3.33066907E-14  0.00000000E+00
  9.40000000E+02  1.00000000E+02  0.00000000E+00
  9.40000000E+02  9.80000000E+01  0.00000000E+00
  9.40000000E+02  9.60000000E+01  0.00000000E+00
  9.40000000E+02  9.40000000E+01  0.00000000E+00
  9.40000000E+02  9.20000000E+01  0.00000000E+00
  9.40000000E+02  9.00000000E+01  0.00000000E+00
  9.40000000E+02  8.80000000E+01  0.00000000E+00
  9.40000000E+02  8.60000000E+01  0.00000000E+00
  9.40000000E+02  8.40000000E+01  0.00000000E+00
  9.40000000E+02  8.20000000E+01  0.00000000E+00
  9.40000000E+02  8.00000000E+01  0.00000000E+00
  9.40000000E+02  7.80000000E+01  0.00000000E+00
  9.40000000E+02  7.60000000E+01  0.00000000E+00
  9.40000000E+02  7.40000000E+01  0.00000000E+00
  9.40000000E+02  7.20000000E+01  0.00000000E+00
  9.40000000E+02  7.00000000E+01  0.00000000E+00
  9.40000000E+02  6.80000000E+01  0.00000000E+00
  9.40000000E+02  6.60000000E+01  0.00000000E+00
  9.40000000E+02  6.40000000E+01  0.00000000E+00
  9.40000000E+02  6.20000000E+01  0.00000000E+00
  9.40000000E+02  6.00000000E+01  0.00000000E+00
  9.40000000E+02  5.80000000E+01  0.00000000E+00
  9.40000000E+02  5.60000000E+01  0.00000000E+00
  9.40000000E+02  5.40000000E+01  0.00000000E+00
  9.40000000E+02  5.20000000E+01  0.00000000E+00
  9.40000000E+02  5.00000000E+01  0.00000000E+00
  9.40000000E+02  4.80000000E+01  0.00000000E+00
  9.40000000E+02  4.60000000E+01  0.00000000E+00
  9.40000000E+02  4.40000000E+01  0.00000000E+00
  9.40000000E+02  4.20000000E+01  0.00000000E+00
  9.40000000E+02  4.00000000E+01  0.00000000E+00
  9.40000000E+02  3.80000000E+01  0.00000000E+00
  9.40000000E+02  3.60000000E+01  0.00000000E+00
  9.40000000E+02  3.40000000E+01  0.00000000E+00
  9.40000000E+02  3.20000000E+01  0.00000000E+00
  9.40000000E+02  3.00000000E+01  0.00000000E+00
  9.40000000E+02  2.80000000E+01  0.00000000E+00
  9.40000000E+02  2.60000000E+01  0.00000000E+00
  9.40000000E+02  2.40000000E+01  0.00000000E+00
  9.40000000E+02  2.20000000E+01  0.00000000E+00
  9.40000000E+02  2.00000000E+01  0.00000000E+00
  9.40000000E+02  1.80000000E+01  0.00000000E+00
  9.40000000E+02  1.60000000E+01  0.00000000E+00
  9.40000000E+02  1.40000000E+01  0.00000000E+00
  9.40000000E+02  1.20000000E+01  0.00000000E+00
  9.40000000E+02  1.00000000E+01  0.00000000E+00
  9.40000000E+02  8.00000000E+00  0.00000000E+00
  9.40000000E+02  6.00000000E+00  0.00000000E+00
  9.40000000E+02  4.00000000E+00  0.00000000E+00
  9.40000000E+02  2.00000000E+00  0.00000000E+00
  9.40000000E+02 -3.33066907E-14  0.00000000E+00
  9.50000000E+02  1.00000000E+02  0.00000000E+00
  9.50000000E+02  9.80000000E+01  0.00000000E+00
  9.50000000E+02  9.60000000E+01  0.00000000E+00
  9.50000000E+02  9.40000000E+01  0.00000000E+00
  9.50000000E+02  9.20000000E+01  0.00000000E+00
  9.50000000E+02  9.00000000E+01  0.00000000E+00
  9.50000000E+02  8.80000000E+01  0.00000000E+00
  9.50000000E+02  8.60000000E+01  0.00000000E+00
  9.50000000E+02  8.40000000E+01  0.00000000E+00
  9.50000000E+02  8.20000000E+01  0.00000000E+00
  9.50000000E+02  8.00000000E+01  0.00000000E+00
  9.50000000E+02  7.80000000E+01  0.00000000E+00
  9.50000000E+02  7.60000000E+01  0.00000000E+00
  9.50000000E+02  7.40000000E+01  0.00000000E+00
  9.50000000E+02  7.20000000E+01  0.00000000E+00
  9.50000000E+02  7.00000000E+01  0.00000000E+00
  9.50000000E+02  6.80000000E+01  0.00000000E+00
  9.50000000E+02  6.60000000E+01  0.00000000E+00
  9.50000000E+02  6.40000000E+01  0.00000000E+00
  9.50000000E+02  6.20000000E+01  0.00000000E+00
  9.50000000E+02  6.00000000E+01  0.00000000E+00
  9.50000000E+02  5.80000000E+01  0.00000000E+00
  9.50000000E+02  5.60000000E+01  0.00000000E+00
  9.50000000E+02  5.40000000E+01  0.00000000E+00
  9.50000000E+02  5.20000000E+01  0.00000000E+00
  9.50000000E+02  5.00000000E+01  0.00000000E+00
  9.50000000E+02  4.80000000E+01  0.00000000E+00
  9.50000000E+02  4.60000000E+01  0.00000000E+00
  9.50000000E+02  4.40000000E+01  0.00000000E+00
  9.50000000E+02  4.20000000E+01  0.00000000E+00
  9.50000000E+02  4.00000000E+01  0.00000000E+00
  9.50000000E+02  3.80000000E+01  0.00000000E+00
  9.50000000E+02  3.60000000E+01  0.00000000E+00
  9.50000000E+02  3.40000000E+01  0.00000000E+00
  9.50000000E+02  3.20000000E+01  0.00000000E+00
  9.50000000E+02  3.00000000E+01  0.00000000E+00
  9.50000000E+02  2.80000000E+01  0.00000000E+00
  9.50000000E+02  2.60000000E+01  0.00000000E+00
  9.50000000E+02  2.40000000E+01  0.00000000E+00
  9.50000000E+02  2.20000000E+01  0.00000000E+00
  9.50000000E+02  2.00000000E+01  0.00000000E+00
  9.50000000E+02  1.80000000E+01  0.00000000E+00
  9.50000000E+02  1.60000000E+01  0.00000000E+00
  9.50000000E+02  1.40000000E+01  0.00000000E+00
  9.50000000E+02  1.20000000E+01  0.00000000E+00
  9.50000000E+02  1.00000000E+01  0.00000000E+00
  9.50000000E+02  8.00000000E+00  0.00000000E+00
  9.50000000E+02  6.00000000E+00  0.00000000E+00
  9.50000000E+02  4.00000000E+00  0.00000000E+00
  9.50000000E+02  2.00000000E+00  0.00000000E+00
  9.50000000E+02 -3.33066907E-14  0.00000000E+00
  9.60000000E+02  1.00000000E+02  0.00000000E+00
  9.60000000E+02  9.80000000E+01  0.00000000E+00
  9.60000000E+02  9.60000000E+01  0.00000000E+00
  9.60000000E+02  9.40000000E+01  0.00000000E+00
  9.60000000E+02  9.20000000E+01  0.00000000E+00
  9.60000000E+02  9.00000000E+01  0.00000000E+00
  9.60000000E+02  8.80000000E+01  0.00000000E+00
  9.60000000E+02  8.60000000E+01  0.00000000E+00
  9.60000000E+02  8.40000000E+01  0.00000000E+00
  9.60000000E+02  8.20000000E+01  0.00000000E+00
  9.60000000E+02  8.00000000E+01  0.00000000E+00
  9.60000000E+02  7.80000000E+01  0.00000000E+00
  9.60000000E+02  7.60000000E+01  0.00000000E+00
  9.60000000E+02  7.40000000E+01  0.00000000E+00
  9.60000000E+02  7.20000000E+01  0.00000000E+00
  9.60000000E+02  7.00000000E+01  0.00000000E+00
  9.60000000E+02  6.80000000E+01  0.00000000E+00
  9.60000000E+02  6.60000000E+01  0.00000000E+00
  9.60000000E+02  6.40000000E+01  0.00000000E+00
  9.60000000E+02  6.20000000E+01  0.00000000E+00
  9.60000000E+02  6.00000000E+01  0.00000000E+00
  9.60000000E+02  5.80000000E+01  0.00000000E+00
  9.60000000E+02  5.60000000E+01  0.00000000E+00
  9.60000000E+02  5.40000000E+01  0.00000000E+00
  9.60000000E+02  5.20000000E+01  0.00000000E+00
  9.60000000E+02  5.00000000E+01  0.00000000E+00
  9.60000000E+02  4.80000000E+01  0.00000000E+00
  9.60000000E+02  4.60000000E+01  0.00000000E+00
  9.60000000E+02  4.40000000E+01  0.00000000E+00
  9.60000000E+02  4.20000000E+01  0.00000000E+00
  9.60000000E+02  4.00000000E+01  0.00000000E+00
  9.60000000E+02  3.80000000E+01  0.00000000E+00
  9.60000000E+02  3.60000000E+01  0.00000000E+00
  9.60000000E+02  3.40000000E+01  0.00000000E+00
  9.60000000E+02  3.20000000E+01  0.00000000E+00
  9.60000000E+02  3.00000000E+01  0.00000000E+00
  9.60000000E+02  2.80000000E+01  0.00000000E+00
  9.60000000E+02  2.60000000E+01  0.00000000E+00
  9.60000000E+02  2.40000000E+01  0.00000000E+00
  9.60000000E+02  2.20000000E+01  0.00000000E+00
  9.60000000E+02  2.00000000E+01  0.00000000E+00
  9.60000000E+02  1.80000000E+01  0.00000000E+00
  9.60000000E+02  1.60000000E+01  0.00000000E+00
  9.60000000E+02  1.40000000E+01  0.00000000E+00
  9.60000000E+02  1.20000000E+01  0.00000000E+00
  9.60000000E+02  1.00000000E+01  0.00000000E+00
  9.60000000E+02  8.00000000E+00  0.00000000E+00
  9.60000000E+02  6.00000000E+00  0.00000000E+00
  9.60000000E+02  4.00000000E+00  0.00000000E+00
  9.60000000E+02  2.00000000E+00  0.00000000E+00
  9.60000000E+02 -3.33066907E-14  0.00000000E+00
  9.70000000E+02  1.00000000E+02  0.00000000E+00
  9.70000000E+02  9.80000000E+01  0.00000000E+00
  9.70000000E+02  9.60000000E+01  0.00000000E+00
  9.70000000E+02  9.40000000E+01  0.00000000E+00
  9.70000000E+02  9.20000000E+01  0.00000000E+00
  9.70000000E+02  9.00000000E+01  0.00000000E+00
  9.70000000E+02  8.80000000E+01  0.00000000E+00
  9.70000000E+02  8.60000000E+01  0.00000000E+00
  9.70000000E+02  8.40000000E+01  0.00000000E+00
  9.70000000E+02  8.20000000E+01  0.00000000E+00
  9.70000000E+02  8.00000000E+01  0.00000000E+00
  9.70000000E+02  7.80000000E+01  0.00000000E+00
  9.70000000E+02  7.60000000E+01  0.00000000E+00
  9.70000000E+02  7.40000000E+01  0.00000000E+00
  9.70000000E+02  7.20000000E+01  0.00000000E+00
  9.70000000E+02  7.00000000E+01  0.00000000E+00
  9.70000000E+02  6.80000000E+01  0.00000000E+00
  9.70000000E+02  6.60000000E+01  0.00000000E+00
  9.70000000E+02  6.40000000E+01  0.00000000E+00
  9.70000000E+02  6.20000000E+01  0.00000000E+00
  9.70000000E+02  6.00000000E+01  0.00000000E+00
  9.70000000E+02  5.80000000E+01  0.00000000E+00
  9.70000000E+02  5.60000000E+01  0.00000000E+00
  9.70000000E+02  5.40000000E+01  0.00000000E+00
  9.70000000E+02  5.20000000E+01  0.00000000E+00
  9.70000000E+02  5.00000000E+01  0.00000000E+00
  9.70000000E+02  4.80000000E+01  0.00000000E+00
  9.70000000E+02  4.60000000E+01  0.00000000E+00
  9.70000000E+02  4.40000000E+01  0.00000000E+00
  9.70000000E+02  4.20000000E+01  0.00000000E+00
  9.70000000E+02  4.00000000E+01  0.00000000E+00
  9.70000000E+02  3.80000000E+01  0.00000000E+00
  9.70000000E+02  3.60000000E+01  0.00000000E+00
  9.70000000E+02  3.40000000E+01  0.00000000E+00
  9.70000000E+02  3.20000000E+01  0.00000000E+00
  9.70000000E+02  3.00000000E+01  0.00000000E+00
  9.70000000E+02  2.80000000E+01  0.00000000E+00
  9.70000000E+02  2.60000000E+01  0.00000000E+00
  9.70000000E+02  2.40000000E+01  0.00000000E+00
  9.70000000E+02  2.20000000E+01  0.00000000E+00
  9.70000000E+02  2.00000000E+01  0.00000000E+00
  9.70000000E+02  1.80000000E+01  0.00000000E+00
  9.70000000E+02  1.60000000E+01  0.00000000E+00
  9.70000000E+02  1.40000000E+01  0.00000000E+00
  9.70000000E+02  1.20000000E+01  0.00000000E+00
  9.70000000E+02  1.00000000E+01  0.00000000E+00
  9.70000000E+02  8.00000000E+00  0.00000000E+00
  9.70000000E+02  6.00000000E+00  0.00000000E+00
  9.70000000E+02  4.00000000E+00  0.00000000E+00
  9.70000000E+02  2.00000000E+00  0.00000000E+00
  9.70000000E+02 -3.33066907E-14  0.00000000E+00
  9.80000000E+02  1.00000000E+02  0.00000000E+00
  9.80000000E+02  9.80000000E+01  0.00000000E+00
  9.80000000E+02  9.60000000E+01  0.00000000E+00
  9.80000000E+02  9.40000000E+01  0.00000000E+00
  9.80000000E+02  9.20000000E+01  0.00000000E+00
  9.80000000E+02  9.00000000E+01  0.00000000E+00
  9.80000000E+02  8.80000000E+01  0.00000000E+00
  9.80000000E+02  8.60000000E+01  0.00000000E+00
  9.80000000E+02  8.40000000E+01  0.00000000E+00
  9.80000000E+02  8.20000000E+01  0.00000000E+00
  9.80000000E+02  8.00000000E+01  0.00000000E+00
  9.80000000E+02  7.80000000E+01  0.00000000E+00
  9.80000000E+02  7.60000000E+01  0.00000000E+00
  9.80000000E+02  7.40000000E+01  0.00000000E+00
  9.80000000E+02  7.20000000E+01  0.00000000E+00
  9.80000000E+02  7.00000000E+01  0.00000000E+00
  9.80000000E+02  6.80000000E+01  0.00000000E+00
  9.80000000E+02  6.60000000E+01  0.00000000E+00
  9.80000000E+02  6.40000000E+01  0.00000000E+00
  9.80000000E+02  6.20000000E+01  0.00000000E+00
  9.80000000E+02  6.00000000E+01  0.00000000E+00
  9.80000000E+02  5.80000000E+01  0.00000000E+00
  9.80000000E+02  5.60000000E+01  0.00000000E+00
  9.80000000E+02  5.40000000E+01  0.00000000E+00
  9.80000000E+02  5.20000000E+01  0.00000000E+00
  9.80000000E+02  5.00000000E+01  0.00000000E+00
  9.80000000E+02  4.80000000E+01  0.00000000E+00
  9.80000000E+02  4.60000000E+01  0.00000000E+00
  9.80000000E+02  4.40000000E+01  0.00000000E+00
  9.80000000E+02  4.20000000E+01  0.00000000E+00
  9.80000000E+02  4.00000000E+01  0.00000000E+00
  9.80000000E+02  3.80000000E+01  0.00000000E+00
  9.80000000E+02  3.60000000E+01  0.00000000E+00
  9.80000000E+02  3.40000000E+01  0.00000000E+00
  9.80000000E+02  3.20000000E+01  0.00000000E+00
  9.80000000E+02  3.00000000E+01  0.00000000E+00
  9.80000000E+02  2.80000000E+01  0.00000000E+00
  9.80000000E+02  2.60000000E+01  0.00000000E+00
  9.80000000E+02  2.40000000E+01  0.00000000E+00
  9.80000000E+02  2.20000000E+01  0.00000000E+00
  9.80000000E+02  2.00000000E+01  0.00000000E+00
  9.80000000E+02  1.80000000E+01  0.00000000E+00
  9.80000000E+02  1.60000000E+01  0.00000000E+00
  9.80000000E+02  1.40000000E+01  0.00000000E+00
  9.80000000E+02  1.20000000E+01  0.00000000E+00
  9.80000000E+02  1.00000000E+01  0.00000000E+00
  9.80000000E+02  8.00000000E+00  0.00000000E+00
  9.80000000E+02  6.00000000E+00  0.00000000E+00
  9.80000000E+02  4.00000000E+00  0.00000000E+00
  9.80000000E+02  2.00000000E+00  0.00000000E+00
  9.80000000E+02 -3.33066907E-14  0.00000000E+00
  9.90000000E+02  1.00000000E+02  0.00000000E+00
  9.90000000E+02  9.80000000E+01  0.00000000E+00
  9.90000000E+02  9.60000000E+01  0.00000000E+00
  9.90000000E+02  9.40000000E+01  0.00000000E+00
  9.90000000E+02  9.20000000E+01  0.00000000E+00
  9.90000000E+02  9.00000000E+01  0.00000000E+00
  9.90000000E+02  8.80000000E+01  0.00000000E+00
  9.90000000E+02  8.60000000E+01  0.00000000E+00
  9.90000000E+02  8.40000000E+01  0.00000000E+00
  9.90000000E+02  8.20000000E+01  0.00000000E+00
  9.90000000E+02  8.00000000E+01  0.00000000E+00
  9.90000000E+02  7.80000000E+01  0.00000000E+00
  9.90000000E+02  7.60000000E+01  0.00000000E+00
  9.90000000E+02  7.40000000E+01  0.00000000E+00
  9.90000000E+02  7.20000000E+01  0.00000000E+00
  9.90000000E+02  7.00000000E+01  0.00000000E+00
  9.90000000E+02  6.80000000E+01  0.00000000E+00
  9.90000000E+02  6.60000000E+01  0.00000000E+00
  9.90000000E+02  6.40000000E+01  0.00000000E+00
  9.90000000E+02  6.20000000E+01  0.00000000E+00
  9.90000000E+02  6.00000000E+01  0.00000000E+00
  9.90000000E+02  5.80000000E+01  0.00000000E+00
  9.90000000E+02  5.60000000E+01  0.00000000E+00
  9.90000000E+02  5.40000000E+01  0.00000000E+00
  9.90000000E+02  5.20000000E+01  0.00000000E+00
  9.90000000E+02  5.00000000E+01  0.00000000E+00
  9.90000000E+02  4.80000000E+01  0.00000000E+00
  9.90000000E+02  4.60000000E+01  0.00000000E+00
  9.90000000E+02  4.40000000E+01  0.00000000E+00
  9.90000000E+02  4.20000000E+01  0.00000000E+00
  9.90000000E+02  4.00000000E+01  0.00000000E+00
  9.90000000E+02  3.80000000E+01  0.00000000E+00
  9.90000000E+02  3.60000000E+01  0.00000000E+00
  9.90000000E+02  3.40000000E+01  0.00000000E+00
  9.90000000E+02  3.20000000E+01  0.00000000E+00
  9.90000000E+02  3.00000000E+01  0.00000000E+00
  9.90000000E+02  2.80000000E+01  0.00000000E+00
  9.90000000E+02  2.60000000E+01  0.00000000E+00
  9.90000000E+02  2.40000000E+01  0.00000000E+00
  9.90000000E+02  2.20000000E+01  0.00000000E+00
  9.90000000E+02  2.00000000E+01  0.00000000E+00
  9.90000000E+02  1.80000000E+01  0.00000000E+00
  9.90000000E+02  1.60000000E+01  0.00000000E+00
  9.90000000E+02  1.40000000E+01  0.00000000E+00
  9.90000000E+02  1.20000000E+01  0.00000000E+00
  9.90000000E+02  1.00000000E+01  0.00000000E+00
  9.90000000E+02  8.00000000E+00  0.00000000E+00
  9.90000000E+02  6.00000000E+00  0.00000000E+00
  9.90000000E+02  4.00000000E+00  0.00000000E+00
  9.90000000E+02  2.00000000E+00  0.00000000E+00
  9.90000000E+02 -3.33066907E-14  0.00000000E+00
  1.00000000E+03  1.00000000E+02  0.00000000E+00
  1.00000000E+03  9.80000000E+01  0.00000000E+00
  1.00000000E+03  9.60000000E+01  0.00000000E+00
  1.00000000E+03  9.40000000E+01  0.00000000E+00
  1.00000000E+03  9.20000000E+01  0.00000000E+00
  1.00000000E+03  9.00000000E+01  0.00000000E+00
  1.00000000E+03  8.80000000E+01  0.00000000E+00
  1.00000000E+03  8.60000000E+01  0.00000000E+00
  1.00000000E+03  8.40000000E+01  0.00000000E+00
  1.00000000E+03  8.20000000E+01  0.00000000E+00
  1.00000000E+03  8.00000000E+01  0.00000000E+00
  1.00000000E+03  7.80000000E+01  0.00000000E+00
  1.00000000E+03  7.60000000E+01  0.00000000E+00
  1.00000000E+03  7.40000000E+01  0.00000000E+00
  1.00000000E+03  7.20000000E+01  0.00000000E+00
  1.00000000E+03  7.00000000E+01  0.00000000E+00
  1.00000000E+03  6.80000000E+01  0.00000000E+00
  1.00000000E+03  6.60000000E+01  0.00000000E+00
  1.00000000E+03  6.40000000E+01  0.00000000E+00
  1.00000000E+03  6.20000000E+01  0.00000000E+00
  1.00000000E+03  6.00000000E+01  0.00000000E+00
  1.00000000E+03  5.80000000E+01  0.00000000E+00
  1.00000000E+03  5.60000000E+01  0.00000000E+00
  1.00000000E+03  5.40000000E+01  0.00000000E+00
  1.00000000E+03  5.20000000E+01  0.00000000E+00
  1.00000000E+03  5.00000000E+01  0.00000000E+00
  1.00000000E+03  4.80000000E+01  0.00000000E+00
  1.00000000E+03  4.60000000E+01  0.00000000E+00
  1.00000000E+03  4.40000000E+01  0.00000000E+00
  1.00000000E+03  4.20000000E+01  0.00000000E+00
  1.00000000E+03  4.00000000E+01  0.00000000E+00
  1.00000000E+03  3.80000000E+01  0.00000000E+00
  1.00000000E+03  3.60000000E+01  0.00000000E+00
  1.00000000E+03  3.40000000E+01  0.00000000E+00
  1.00000000E+03  3.20000000E+01  0.00000000E+00
  1.00000000E+03  3.00000000E+01  0.00000000E+00
  1.00000000E+03  2.80000000E+01  0.00000000E+00
  1.00000000E+03  2.60000000E+01  0.00000000E+00
  1.00000000E+03  2.40000000E+01  0.00000000E+00
  1.00000000E+03  2.20000000E+01  0.00000000E+00
  1.00000000E+03  2.00000000E+01  0.00000000E+00
  1.00000000E+03  1.80000000E+01  0.00000000E+00
  1.00000000E+03  1.60000000E+01  0.00000000E+00
  1.00000000E+03  1.40000000E+01  0.00000000E+00
  1.00000000E+03  1.20000000E+01  0.00000000E+00
  1.00000000E+03  1.00000000E+01  0.00000000E+00
  1.00000000E+03  8.00000000E+00  0.00000000E+00
  1.00000000E+03  6.00000000E+00  0.00000000E+00
  1.00000000E+03  4.00000000E+00  0.00000000E+00
  1.00000000E+03  2.00000000E+00  0.00000000E+00
  1.00000000E+03 -3.33066907E-14  0.00000000E+00
CELLS      5000     25000
         4           0           1          52          51
         4           1           2          53          52
         4           2           3          54          53
         4           3           4          55          54
         4           4           5          56          55
         4           5           6          57          56
         4           6           7          58          57
         4           7           8          59          58
         4           8           9          60          59
         4           9          10          61          60
         4          10          11          62          61
         4          11          12          63          62
         4          12          13          64          63
         4          13          14          65          64
         4          14          15          66          65
         4          15          16          67          66
         4          16          17          68          67
         4          17          18          69          68
         4          18          19          70          69
         4          19          20          71          70
         4          20          21          72          71
         4          21          22          73          72
         4          22          23          74          73
         4          23          24          75          74
         4          24          25          76          75
         4          25          26          77          76
         4          26          27          78          77
         4          27          28          79          78
         4          28          29          80          79
         4          29          30          81          80
         4          30          31          82          81
         4          31          32          83          82
         4          32          33          84          83
         4          33          34          85          84
         4          34          35          86          85
         4          35          36          87          86
         4          36          37          88          87
         4          37          38          89          88
         4          38          39          90          89
         4          39          40          91          90
         4          40          41          92          91
         4          41          42          93          92
         4          42          43          94          93
         4          43          44          95          94
         4          44          45          96          95
         4          45          46          97          96
         4          46          47          98          97
         4          47          48          99          98
         4          48          49         100          99
         4          49          50         101         100
         4          51          52         103         102
         4          52          53         104         103
         4          53          54         105         104
         4          54          55         106         105
         4          55          56         107         106
         4          56          57         108         107
         4          57          58         109         108
         4          58          59         110         109
         4          59          60         111         110
         4          60          61         112         111
         4          61          62         113         112
         4          62          63         114         113
         4          63          64         115         114
         4          64          65         116         115
         4          65          66         117         116
         4          66          67         118         117
         4          67          68         119         118
         4          68          69         120         119
         4          69          70         121         120
         4          70          71         122         121
         4          71          72         123         122
         4          72          73         124         123
         4          73          74         125         124
         4          74          75         126         125
         4          75          76         127         126
         4          76          77         128         127
         4          77          78         129         128
         4          78          79         130         129
         4          79          80         131         130
         4          80          81         132         131
         4          81          82         133         132
         4          82          83         134         133
         4          83          84         135         134
         4          84          85         136         135
         4          85          86         137         136
         4          86          87         138         137
         4          87          88         139         138
         4          88          89         140         139
         4          89          90         141         140
         4          90          91         142         141
         4          91          92         143         142
         4          92          93         144         143
         4          93          94         145         144
         4          94          95         146         145
         4          95          96         147         146
         4          96          97         148         147
         4          97          98         149         148
         4          98          99         150         149
         4          99         100         151         150
         4         100         101         152         151
         4         102         103         154         153
         4         103         104         155         154
         4         104         105         156         155
         4         105         106         157         156
         4         106         107         158         157
         4         107         108         159         158
         4         108         109         160         159
         4         109         110         161         160
         4         110         111         162         161
         4         111         112         163         162
         4         112         113         164         163
         4         113         114         165         164
         4         114         115         166         165
         4         115         116         167         166
         4         116         117         168         167
         4         117         118         169         168
         4         118         119         170         169
         4         119         120         171         170
         4         120         121         172         171
         4         121         122         173         172
         4         122         123         174         173
         4         123         124         175         174
         4         124         125         176         175
         4         125         126         177         176
         4         126         127         178         177
         4         127         128         179         178
         4         128         129         180         179
         4         129         130         181         180
         4         130         131         182         181
         4         131         132         183         182
         4         132         133         184         183
         4         133         134         185         184
         4         134         135         186         185
         4         135         136         187         186
         4         136         137         188         187
         4         137         138         189         188
         4         138         139         190         189
         4         139         140         191         190
         4         140         141         192         191
         4         141         142         193         192
         4         142         143         194         193
         4         143         144         195         194
         4         144         145         196         195
         4         145         146         197         196
         4         146         147         198         197
         4         147         148         199         198
         4         148         149         200         199
         4         149         150         201         200
         4         150         151         202         201
         4         151         152         203         202
         4         153         154         205         204
         4         154         155         206         205
         4         155         156         207         206
         4         156         157         208         207
         4         157         158         209         208
         4         158         159         210         209
         4         159         160         211         210
         4         160         161         212         211
         4         161         162         213         212
         4         162         163         214         213
         4         163         164         215         214
         4         164         165         216         215
         4         165         166         217         216
         4         166         167         218         217
         4         167         168         219         218
         4         168         169         220         219
         4         169         170         221         220
         4         170         171         222         221
         4         171         172         223         222
         4         172         173         224         223
         4         173         174         225         224
         4         174         175         226         225
         4         175         176         227         226
         4         176         177         228         227
         4         177         178         229         228
         4         178         179         230         229
         4         179         180         231         230
         4         180         181         232         231
         4         181         182         233         232
         4         182         183         234         233
         4         183         184         235         234
         4         184         185         236         235
         4         185         186         237         236
         4         186         187         238         237
         4         187         188         239         238
         4         188         189         240         239
         4         189         190         241         240
         4         190         191         242         241
         4         191         192         243         242
         4         192         193         244         243
         4         193         194         245         244
         4         194         195         246         245
         4         195         196         247         246
         4         196         197         248         247
         4         197         198         249         248
         4         198         199         250         249
         4         199         200         251         250
         4         200         201         252         251
         4         201         202         253         252
         4         202         203         254         253
         4         204         205         256         255
         4         205         206         257         256
         4         206         207         258         257
         4         207         208         259         258
         4         208         209         260         259
         4         209         210         261         260
         4         210         211         262         261
         4         211         212         263         262
         4         212         213         264         263
         4         213         214         265         264
         4         214         215         266         265
         4         215         216         267         266
         4         216         217         268         267
         4         217         218         269         268
         4         218         219         270         269
         4         219         220         271         270
         4         220         221         272         271
         4         221         222         273         272
         4         222         223         274         273
         4         223         224         275         274
         4         224         225         276         275
         4         225         226         277         276
         4         226         227         278         277
         4         227         228         279         278
         4         228         229         280         279
         4         229         230         281         280
         4         230         231         282         281
         4         231         232         283         282
         4         232         233         284         283
         4         233         234         285         284
         4         234         235         286         285
         4         235         236         287         286
         4         236         237         288         287
         4         237         238         289         288
         4         238         239         290         289
         4         239         240         291         290
         4         240         241         292         291
         4         241         242         293         292
         4         242         243         294         293
         4         243         244         295         294
         4         244         245         296         295
         4         245         246         297         296
         4         246         247         298         297
         4         247         248         299         298
         4         248         249         300         299
         4         249         250         301         300
         4         250         251         302         301
         4         251         252         303         302
         4         252         253         304         303
         4         253         254         305         304
         4         255         256         307         306
         4         256         257         308         307
         4         257         258         309         308
         4         258         259         310         309
         4         259         260         311         310
         4         260         261         312         311
         4         261         262         313         312
         4         262         263         314         313
         4         263         264         315         314
         4         264         265         316         315
         4         265         266         317         316
         4         266         267         318         317
         4         267         268         319         318
         4         268         269         320         319
         4         269         270         321         320
         4         270         271         322         321
         4         271         272         323         322
         4         272         273         324         323
         4         273         274         325         324
         4         274         275         326         325
         4         275         276         327         326
         4         276         277         328         327
         4         277         278         329         328
         4         278         279         330         329
         4         279         280         331         330
         4         280         281         332         331
         4         281         282         333         332
         4         282         283         334         333
         4         283         284         335         334
         4         284         285         336         335
         4         285         286         337         336
         4         286         287         338         337
         4         287         288         339         338
         4         288         289         340         339
         4         289         290         341         340
         4         290         291         342         341
         4         291         292         343         342
         4         292         293         344         343
         4         293         294         345         344
         4         294         295         346         345
         4         295         296         347         346
         4         296         297         348         347
         4         297         298         349         348
         4         298         299         350         349
         4         299         300         351         350
         4         300         301         352         351
         4         301         302         353         352
         4         302         303         354         353
         4         303         304         355         354
         4         304         305         356         355
         4         306         307         358         357
         4         307         308         359         358
         4         308         309         360         359
         4         309         310         361         360
         4         310         311         362         361
         4         311         312         363         362
         4         312         313         364         363
         4         313         314         365         364
         4         314         315         366         365
         4         315         316         367         366
         4         316         317         368         367
         4         317         318         369         368
         4         318         319         370         369
         4         319         320         371         370
         4         320         321         372         371
         4         321         322         373         372
         4         322         323         374         373
         4         323         324         375         374
         4         324         325         376         375
         4         325         326         377         376
         4         326         327         378         377
         4         327         328         379         378
         4         328         329         380         379
         4         329         330         381         380
         4         330         331         382         381
         4         331         332         383         382
         4         332         333         384         383
         4         333         334         385         384
         4         334         335         386         385
         4         335         336         387         386
         4         336         337         388         387
         4         337         338         389         388
         4         338         339         390         389
         4         339         340         391         390
         4         340         341         392         391
         4         341         342         393         392
         4         342         343         394         393
         4         343         344         395         394
         4         344         345         396         395
         4         345         346         397         396
         4         346         347         398         397
         4         347         348         399         398
         4         348         349         400         399
         4         349         350         401         400
         4         350         351         402         401
         4         351         352         403         402
         4         352         353         404         403
         4         353         354         405         404
         4         354         355         406         405
         4         355         356         407         406
         4         357         358         409         408
         4         358         359         410         409
         4         359         360         411         410
         4         360         361         412         411
         4         361         362         413         412
         4         362         363         414         413
         4         363         364         415         414
         4         364         365         416         415
         4         365         366         417         416
         4         366         367         418         417
         4         367         368         419         418
         4         368         369         420         419
         4         369         370         421         420
         4         370         371         422         421
         4         371         372         423         422
         4         372         373         424         423
         4         373         374         425         424
         4         374         375         426         425
         4         375         376         427         426
         4         376         377         428         427
         4         377         378         429         428
         4         378         379         430         429
         4         379         380         431         430
         4         380         381         432         431
         4         381         382         433         432
         4         382         383         434         433
         4         383         384         435         434
         4         384         385         436         435
         4         385         386         437         436
         4         386         387         438         437
         4         387         388         439         438
         4         388         389         440         439
         4         389         390         441         440
         4         390         391         442         441
         4         391         392         443         442
         4         392         393         444         443
         4         393         394         445         444
         4         394         395         446         445
         4         395         396         447         446
         4         396         397         448         447
         4         397         398         449         448
         4         398         399         450         449
         4         399         400         451         450
         4         400         401         452         451
         4         401         402         453         452
         4         402         403         454         453
         4         403         404         455         454
         4         404         405         456         455
         4         405         406         457         456
         4         406         407         458         457
         4         408         409         460         459
         4         409         410         461         460
         4         410         411         462         461
         4         411         412         463         462
         4         412         413         464         463
         4         413         414         465         464
         4         414         415         466         465
         4         415         416         467         466
         4         416         417         468         467
         4         417         418         469         468
         4         418         419         470         469
         4         419         420         471         470
         4         420         421         472         471
         4         421         422         473         472
         4         422         423         474         473
         4         423         424         475         474
         4         424         425         476         475
         4         425         426         477         476
         4         426         427         478         477
         4         427         428         479         478
         4         428         429         480         479
         4         429         430         481         480
         4         430         431         482         481
         4         431         432         483         482
         4         432         433         484         483
         4         433         434         485         484
         4         434         435         486         485
         4         435         436         487         486
         4         436         437         488         487
         4         437         438         489         488
         4         438         439         490         489
         4         439         440         491         490
         4         440         441         492         491
         4         441         442         493         492
         4         442         443         494         493
         4         443         444         495         494
         4         444         445         496         495
         4         445         446         497         496
         4         446         447         498         497
         4         447         448         499         498
         4         448         449         500         499
         4         449         450         501         500
         4         450         451         502         501
         4         451         452         503         502
         4         452         453         504         503
         4         453         454         505         504
         4         454         455         506         505
         4         455         456         507         506
         4         456         457         508         507
         4         457         458         509         508
         4         459         460         511         510
         4         460         461         512         511
         4         461         462         513         512
         4         462         463         514         513
         4         463         464         515         514
         4         464         465         516         515
         4         465         466         517         516
         4         466         467         518         517
         4         467         468         519         518
         4         468         469         520         519
         4         469         470         521         520
         4         470         471         522         521
         4         471         472         523         522
         4         472         473         524         523
         4         473         474         525         524
         4         474         475         526         525
         4         475         476         527         526
         4         476         477         528         527
         4         477         478         529         528
         4         478         479         530         529
         4         479         480         531         530
         4         480         481         532         531
         4         481         482         533         532
         4         482         483         534         533
         4         483         484         535         534
         4         484         485         536         535
         4         485         486         537         536
         4         486         487         538         537
         4         487         488         539         538
         4         488         489         540         539
         4         489         490         541         540
         4         490         491         542         541
         4         491         492         543         542
         4         492         493         544         543
         4         493         494         545         544
         4         494         495         546         545
         4         495         496         547         546
         4         496         497         548         547
         4         497         498         549         548
         4         498         499         550         549
         4         499         500         551         550
         4         500         501         552         551
         4         501         502         553         552
         4         502         503         554         553
         4         503         504         555         554
         4         504         505         556         555
         4         505         506         557         556
         4         506         507         558         557
         4         507         508         559         558
         4         508         509         560         559
         4         510         511         562         561
         4         511         512         563         562
         4         512         513         564         563
         4         513         514         565         564
         4         514         515         566         565
         4         515         516         567         566
         4         516         517         568         567
         4         517         518         569         568
         4         518         519         570         569
         4         519         520         571         570
         4         520         521         572         571
         4         521         522         573         572
         4         522         523         574         573
         4         523         524         575         574
         4         524         525         576         575
         4         525         526         577         576
         4         526         527         578         577
         4         527         528         579         578
         4         528         529         580         579
         4         529         530         581         580
         4         530         531         582         581
         4         531         532         583         582
         4         532         533         584         583
         4         533         534         585         584
         4         534         535         586         585
         4         535         536         587         586
         4         536         537         588         587
         4         537         538         589         588
         4         538         539         590         589
         4         539         540         591         590
         4         540         541         592         591
         4         541         542         593         592
         4         542         543         594         593
         4         543         544         595         594
         4         544         545         596         595
         4         545         546         597         596
         4         546         547         598         597
         4         547         548         599         598
         4         548         549         600         599
         4         549         550         601         600
         4         550         551         602         601
         4         551         552         603         602
         4         552         553         604         603
         4         553         554         605         604
         4         554         555         606         605
         4         555         556         607         606
         4         556         557         608         607
         4         557         558         609         608
         4         558         559         610         609
         4         559         560         611         610
         4         561         562         613         612
         4         562         563         614         613
         4         563         564         615         614
         4         564         565         616         615
         4         565         566         617         616
         4         566         567         618         617
         4         567         568         619         618
         4         568         569         620         619
         4         569         570         621         620
         4         570         571         622         621
         4         571         572         623         622
         4         572         573         624         623
         4         573         574         625         624
         4         574         575         626         625
         4         575         576         627         626
         4         576         577         628         627
         4         577         578         629         628
         4         578         579         630         629
         4         579         580         631         630
         4         580         581         632         631
         4         581         582         633         632
         4         582         583         634         633
         4         583         584         635         634
         4         584         585         636         635
         4         585         586         637         636
         4         586         587         638         637
         4         587         588         639         638
         4         588         589         640         639
         4         589         590         641         640
         4         590         591         642         641
         4         591         592         643         642
         4         592         593         644         643
         4         593         594         645         644
         4         594         595         646         645
         4         595         596         647         646
         4         596         597         648         647
         4         597         598         649         648
         4         598         599         650         649
         4         599         600         651         650
         4         600         601         652         651
         4         601         602         653         652
         4         602         603         654         653
         4         603         604         655         654
         4         604         605         656         655
         4         605         606         657         656
         4         606         607         658         657
         4         607         608         659         658
         4         608         609         660         659
         4         609         610         661         660
         4         610         611         662         661
         4         612         613         664         663
         4         613         614         665         664
         4         614         615         666         665
         4         615         616         667         666
         4         616         617         668         667
         4         617         618         669         668
         4         618         619         670         669
         4         619         620         671         670
         4         620         621         672         671
         4         621         622         673         672
         4         622         623         674         673
         4         623         624         675         674
         4         624         625         676         675
         4         625         626         677         676
         4         626         627         678         677
         4         627         628         679         678
         4         628         629         680         679
         4         629         630         681         680
         4         630         631         682         681
         4         631         632         683         682
         4         632         633         684         683
         4         633         634         685         684
         4         634         635         686         685
         4         635         636         687         686
         4         636         637         688         687
         4         637         638         689         688
         4         638         639         690         689
         4         639         640         691         690
         4         640         641         692         691
         4         641         642         693         692
         4         642         643         694         693
         4         643         644         695         694
         4         644         645         696         695
         4         645         646         697         696
         4         646         647         698         697
         4         647         648         699         698
         4         648         649         700         699
         4         649         650         701         700
         4         650         651         702         701
         4         651         652         703         702
         4         652         653         704         703
         4         653         654         705         704
         4         654         655         706         705
         4         655         656         707         706
         4         656         657         708         707
         4         657         658         709         708
         4         658         659         710         709
         4         659         660         711         710
         4         660         661         712         711
         4         661         662         713         712
         4         663         664         715         714
         4         664         665         716         715
         4         665         666         717         716
         4         666         667         718         717
         4         667         668         719         718
         4         668         669         720         719
         4         669         670         721         720
         4         670         671         722         721
         4         671         672         723         722
         4         672         673         724         723
         4         673         674         725         724
         4         674         675         726         725
         4         675         676         727         726
         4         676         677         728         727
         4         677         678         729         728
         4         678         679         730         729
         4         679         680         731         730
         4         680         681         732         731
         4         681         682         733         732
         4         682         683         734         733
         4         683         684         735         734
         4         684         685         736         735
         4         685         686         737         736
         4         686         687         738         737
         4         687         688         739         738
         4         688         689         740         739
         4         689         690         741         740
         4         690         691         742         741
         4         691         692         743         742
         4         692         693         744         743
         4         693         694         745         744
         4         694         695         746         745
         4         695         696         747         746
         4         696         697         748         747
         4         697         698         749         748
         4         698         699         750         749
         4         699         700         751         750
         4         700         701         752         751
         4         701         702         753         752
         4         702         703         754         753
         4         703         704         755         754
         4         704         705         756         755
         4         705         706         757         756
         4         706         707         758         757
         4         707         708         759         758
         4         708         709         760         759
         4         709         710         761         760
         4         710         711         762         761
         4         711         712         763         762
         4         712         713         764         763
         4         714         715         766         765
         4         715         716         767         766
         4         716         717         768         767
         4         717         718         769         768
         4         718         719         770         769
         4         719         720         771         770
         4         720         721         772         771
         4         721         722         773         772
         4         722         723         774         773
         4         723         724         775         774
         4         724         725         776         775
         4         725         726         777         776
         4         726         727         778         777
         4         727         728         779         778
         4         728         729         780         779
         4         729         730         781         780
         4         730         731         782         781
         4         731         732         783         782
         4         732         733         784         783
         4         733         734         785         784
         4         734         735         786         785
         4         735         736         787         786
         4         736         737         788         787
         4         737         738         789         788
         4         738         739         790         789
         4         739         740         791         790
         4         740         741         792         791
         4         741         742         793         792
         4         742         743         794         793
         4         743         744         795         794
         4         744         745         796         795
         4         745         746         797         796
         4         746         747         798         797
         4         747         748         799         798
         4         748         749         800         799
         4         749         750         801         800
         4         750         751         802         801
         4         751         752         803         802
         4         752         753         804         803
         4         753         754         805         804
         4         754         755         806         805
         4         755         756         807         806
         4         756         757         808         807
         4         757         758         809         808
         4         758         759         810         809
         4         759         760         811         810
         4         760         761         812         811
         4         761         762         813         812
         4         762         763         814         813
         4         763         764         815         814
         4         765         766         817         816
         4         766         767         818         817
         4         767         768         819         818
         4         768         769         820         819
         4         769         770         821         820
         4         770         771         822         821
         4         771         772         823         822
         4         772         773         824         823
         4         773         774         825         824
         4         774         775         826         825
         4         775         776         827         826
         4         776         777         828         827
         4         777         778         829         828
         4         778         779         830         829
         4         779         780         831         830
         4         780         781         832         831
         4         781         782         833         832
         4         782         783         834         833
         4         783         784         835         834
         4         784         785         836         835
         4         785         786         837         836
         4         786         787         838         837
         4         787         788         839         838
         4         788         789         840         839
         4         789         790         841         840
         4         790         791         842         841
         4         791         792         843         842
         4         792         793         844         843
         4         793         794         845         844
         4         794         795         846         845
         4         795         796         847         846
         4         796         797         848         847
         4         797         798         849         848
         4         798         799         850         849
         4         799         800         851         850
         4         800         801         852         851
         4         801         802         853         852
         4         802         803         854         853
         4         803         804         855         854
         4         804         805         856         855
         4         805         806         857         856
         4         806         807         858         857
         4         807         808         859         858
         4         808         809         860         859
         4         809         810         861         860
         4         810         811         862         861
         4         811         812         863         862
         4         812         813         864         863
         4         813         814         865         864
         4         814         815         866         865
         4         816         817         868         867
         4         817         818         869         868
         4         818         819         870         869
         4         819         820         871         870
         4         820         821         872         871
         4         821         822         873         872
         4         822         823         874         873
         4         823         824         875         874
         4         824         825         876         875
         4         825         826         877         876
         4         826         827         878         877
         4         827         828         879         878
         4         828         829         880         879
         4         829         830         881         880
         4         830         831         882         881
         4         831         832         883         882
         4         832         833         884         883
         4         833         834         885         884
         4         834         835         886         885
         4         835         836         887         886
         4         836         837         888         887
         4         837         838         889         888
         4         838         839         890         889
         4         839         840         891         890
         4         840         841         892         891
         4         841         842         893         892
         4         842         843         894         893
         4         843         844         895         894
         4         844         845         896         895
         4         845         846         897         896
         4         846         847         898         897
         4         847         848         899         898
         4         848         849         900         899
         4         849         850         901         900
         4         850         851         902         901
         4         851         852         903         902
         4         852         853         904         903
         4         853         854         905         904
         4         854         855         906         905
         4         855         856         907         906
         4         856         857         908         907
         4         857         858         909         908
         4         858         859         910         909
         4         859         860         911         910
         4         860         861         912         911
         4         861         862         913         912
         4         862         863         914         913
         4         863         864         915         914
         4         864         865         916         915
         4         865         866         917         916
         4         867         868         919         918
         4         868         869         920         919
         4         869         870         921         920
         4         870         871         922         921
         4         871         872         923         922
         4         872         873         924         923
         4         873         874         925         924
         4         874         875         926         925
         4         875         876         927         926
         4         876         877         928         927
         4         877         878         929         928
         4         878         879         930         929
         4         879         880         931         930
         4         880         881         932         931
         4         881         882         933         932
         4         882         883         934         933
         4         883         884         935         934
         4         884         885         936         935
         4         885         886         937         936
         4         886         887         938         937
         4         887         888         939         938
         4         888         889         940         939
         4         889         890         941         940
         4         890         891         942         941
         4         891         892         943         942
         4         892         893         944         943
         4         893         894         945         944
         4         894         895         946         945
         4         895         896         947         946
         4         896         897         948         947
         4         897         898         949         948
         4         898         899         950         949
         4         899         900         951         950
         4         900         901         952         951
         4         901         902         953         952
         4         902         903         954         953
         4         903         904         955         954
         4         904         905         956         955
         4         905         906         957         956
         4         906         907         958         957
         4         907         908         959         958
         4         908         909         960         959
         4         909         910         961         960
         4         910         911         962         961
         4         911         912         963         962
         4         912         913         964         963
         4         913         914         965         964
         4         914         915         966         965
         4         915         916         967         966
         4         916         917         968         967
         4         918         919         970         969
         4         919         920         971         970
         4         920         921         972         971
         4         921         922         973         972
         4         922         923         974         973
         4         923         924         975         974
         4         924         925         976         975
         4         925         926         977         976
         4         926         927         978         977
         4         927         928         979         978
         4         928         929         980         979
         4         929         930         981         980
         4         930         931         982         981
         4         931         932         983         982
         4         932         933         984         983
         4         933         934         985         984
         4         934         935         986         985
         4         935         936         987         986
         4         936         937         988         987
         4         937         938         989         988
         4         938         939         990         989
         4         939         940         991         990
         4         940         941         992         991
         4         941         942         993         992
         4         942         943         994         993
         4         943         944         995         994
         4         944         945         996         995
         4         945         946         997         996
         4         946         947         998         997
         4         947         948         999         998
         4         948         949        1000         999
         4         949         950        1001        1000
         4         950         951        1002        1001
         4         951         952        1003        1002
         4         952         953        1004        1003
         4         953         954        1005        1004
         4         954         955        1006        1005
         4         955         956        1007        1006
         4         956         957        1008        1007
         4         957         958        1009        1008
         4         958         959        1010        1009
         4         959         960        1011        1010
         4         960         961        1012        1011
         4         961         962        1013        1012
         4         962         963        1014        1013
         4         963         964        1015        1014
         4         964         965        1016        1015
         4         965         966        1017        1016
         4         966         967        1018        1017
         4         967         968        1019        1018
         4         969         970        1021        1020
         4         970         971        1022        1021
         4         971         972        1023        1022
         4         972         973        1024        1023
         4         973         974        1025        1024
         4         974         975        1026        1025
         4         975         976        1027        1026
         4         976         977        1028        1027
         4         977         978        1029        1028
         4         978         979        1030        1029
         4         979         980        1031        1030
         4         980         981        1032        1031
         4         981         982        1033        1032
         4         982         983        1034        1033
         4         983         984        1035        1034
         4         984         985        1036        1035
         4         985         986        1037        1036
         4         986         987        1038        1037
         4         987         988        1039        1038
         4         988         989        1040        1039
         4         989         990        1041        1040
         4         990         991        1042        1041
         4         991         992        1043        1042
         4         992         993        1044        1043
         4         993         994        1045        1044
         4         994         995        1046        1045
         4         995         996        1047        1046
         4         996         997        1048        1047
         4         997         998        1049        1048
         4         998         999        1050        1049
         4         999        1000        1051        1050
         4        1000        1001        1052        1051
         4        1001        1002        1053        1052
         4        1002        1003        1054        1053
         4        1003        1004        1055        1054
         4        1004        1005        1056        1055
         4        1005        1006        1057        1056
         4        1006        1007        1058        1057
         4        1007        1008        1059        1058
         4        1008        1009        1060        1059
         4        1009        1010        1061        1060
         4        1010        1011        1062        1061
         4        1011        1012        1063        1062
         4        1012        1013        1064        1063
         4        1013        1014        1065        1064
         4        1014        1015        1066        1065
         4        1015        1016        1067        1066
         4        1016        1017        1068        1067
         4        1017        1018        1069        1068
         4        1018        1019        1070        1069
         4        1020        1021        1072        1071
         4        1021        1022        1073        1072
         4        1022        1023        1074        1073
         4        1023        1024        1075        1074
         4        1024        1025        1076        1075
         4        1025        1026        1077        1076
         4        1026        1027        1078        1077
         4        1027        1028        1079        1078
         4        1028        1029        1080        1079
         4        1029        1030        1081        1080
         4        1030        1031        1082        1081
         4        1031        1032        1083        1082
         4        1032        1033        1084        1083
         4        1033        1034        1085        1084
         4        1034        1035        1086        1085
         4        1035        1036        1087        1086
         4        1036        1037        1088        1087
         4        1037        1038        1089        1088
         4        1038        1039        1090        1089
         4        1039        1040        1091        1090
         4        1040        1041        1092        1091
         4        1041        1042        1093        1092
         4        1042        1043        1094        1093
         4        1043        1044        1095        1094
         4        1044        1045        1096        1095
         4        1045        1046        1097        1096
         4        1046        1047        1098        1097
         4        1047        1048        1099        1098
         4        1048        1049        1100        1099
         4        1049        1050        1101        1100
         4        1050        1051        1102        1101
         4        1051        1052        1103        1102
         4        1052        1053        1104        1103
         4        1053        1054        1105        1104
         4        1054        1055        1106        1105
         4        1055        1056        1107        1106
         4        1056        1057        1108        1107
         4        1057        1058        1109        1108
         4        1058        1059        1110        1109
         4        1059        1060        1111        1110
         4        1060        1061        1112        1111
         4        1061        1062        1113        1112
         4        1062        1063        1114        1113
         4        1063        1064        1115        1114
         4        1064        1065        1116        1115
         4        1065        1066        1117        1116
         4        1066        1067        1118        1117
         4        1067        1068        1119        1118
         4        1068        1069        1120        1119
         4        1069        1070        1121        1120
         4        1071        1072        1123        1122
         4        1072        1073        1124        1123
         4        1073        1074        1125        1124
         4        1074        1075        1126        1125
         4        1075        1076        1127        1126
         4        1076        1077        1128        1127
         4        1077        1078        1129        1128
         4        1078        1079        1130        1129
         4        1079        1080        1131        1130
         4        1080        1081        1132        1131
         4        1081        1082        1133        1132
         4        1082        1083        1134        1133
         4        1083        1084        1135        1134
         4        1084        1085        1136        1135
         4        1085        1086        1137        1136
         4        1086        1087        1138        1137
         4        1087        1088        1139        1138
         4        1088        1089        1140        1139
         4        1089        1090        1141        1140
         4        1090        1091        1142        1141
         4        1091        1092        1143        1142
         4        1092        1093        1144        1143
         4        1093        1094        1145        1144
         4        1094        1095        1146        1145
         4        1095        1096        1147        1146
         4        1096        1097        1148        1147
         4        1097        1098        1149        1148
         4        1098        1099        1150        1149
         4        1099        1100        1151        1150
         4        1100        1101        1152        1151
         4        1101        1102        1153        1152
         4        1102        1103        1154        1153
         4        1103        1104        1155        1154
         4        1104        1105        1156        1155
         4        1105        1106        1157        1156
         4        1106        1107        1158        1157
         4        1107        1108        1159        1158
         4        1108        1109        1160        1159
         4        1109        1110        1161        1160
         4        1110        1111        1162        1161
         4        1111        1112        1163        1162
         4        1112        1113        1164        1163
         4        1113        1114        1165        1164
         4        1114        1115        1166        1165
         4        1115        1116        1167        1166
         4        1116        1117        1168        1167
         4        1117        1118        1169        1168
         4        1118        1119        1170        1169
         4        1119        1120        1171        1170
         4        1120        1121        1172        1171
         4        1122        1123        1174        1173
         4        1123        1124        1175        1174
         4        1124        1125        1176        1175
         4        1125        1126        1177        1176
         4        1126        1127        1178        1177
         4        1127        1128        1179        1178
         4        1128        1129        1180        1179
         4        1129        1130        1181        1180
         4        1130        1131        1182        1181
         4        1131        1132        1183        1182
         4        1132        1133        1184        1183
         4        1133        1134        1185        1184
         4        1134        1135        1186        1185
         4        1135        1136        1187        1186
         4        1136        1137        1188        1187
         4        1137        1138        1189        1188
         4        1138        1139        1190        1189
         4        1139        1140        1191        1190
         4        1140        1141        1192        1191
         4        1141        1142        1193        1192
         4        1142        1143        1194        1193
         4        1143        1144        1195        1194
         4        1144        1145        1196        1195
         4        1145        1146        1197        1196
         4        1146        1147        1198        1197
         4        1147        1148        1199        1198
         4        1148        1149        1200        1199
         4        1149        1150        1201        1200
         4        1150        1151        1202        1201
         4        1151        1152        1203        1202
         4        1152        1153        1204        1203
         4        1153        1154        1205        1204
         4        1154        1155        1206        1205
         4        1155        1156        1207        1206
         4        1156        1157        1208        1207
         4        1157        1158        1209        1208
         4        1158        1159        1210        1209
         4        1159        1160        1211        1210
         4        1160        1161        1212        1211
         4        1161        1162        1213        1212
         4        1162        1163        1214        1213
         4        1163        1164        1215        1214
         4        1164        1165        1216        1215
         4        1165        1166        1217        1216
         4        1166        1167        1218        1217
         4        1167        1168        1219        1218
         4        1168        1169        1220        1219
         4        1169        1170        1221        1220
         4        1170        1171        1222        1221
         4        1171        1172        1223        1222
         4        1173        1174        1225        1224
         4        1174        1175        1226        1225
         4        1175        1176        1227        1226
         4        1176        1177        1228        1227
         4        1177        1178        1229        1228
         4        1178        1179        1230        1229
         4        1179        1180        1231        1230
         4        1180        1181        1232        1231
         4        1181        1182        1233        1232
         4        1182        1183        1234        1233
         4        1183        1184        1235        1234
         4        1184        1185        1236        1235
         4        1185        1186        1237        1236
         4        1186        1187        1238        1237
         4        1187        1188        1239        1238
         4        1188        1189        1240        1239
         4        1189        1190        1241        1240
         4        1190        1191        1242        1241
         4        1191        1192        1243        1242
         4        1192        1193        1244        1243
         4        1193        1194        1245        1244
         4        1194        1195        1246        1245
         4        1195        1196        1247        1246
         4        1196        1197        1248        1247
         4        1197        1198        1249        1248
         4        1198        1199        1250        1249
         4        1199        1200        1251        1250
         4        1200        1201        1252        1251
         4        1201        1202        1253        1252
         4        1202        1203        1254        1253
         4        1203        1204        1255        1254
         4        1204        1205        1256        1255
         4        1205        1206        1257        1256
         4        1206        1207        1258        1257
         4        1207        1208        1259        1258
         4        1208        1209        1260        1259
         4        1209        1210        1261        1260
         4        1210        1211        1262        1261
         4        1211        1212        1263        1262
         4        1212        1213        1264        1263
         4        1213        1214        1265        1264
         4        1214        1215        1266        1265
         4        1215        1216        1267        1266
         4        1216        1217        1268        1267
         4        1217        1218        1269        1268
         4        1218        1219        1270        1269
         4        1219        1220        1271        1270
         4        1220        1221        1272        1271
         4        1221        1222        1273        1272
         4        1222        1223        1274        1273
         4        1224        1225        1276        1275
         4        1225        1226        1277        1276
         4        1226        1227        1278        1277
         4        1227        1228        1279        1278
         4        1228        1229        1280        1279
         4        1229        1230        1281        1280
         4        1230        1231        1282        1281
         4        1231        1232        1283        1282
         4        1232        1233        1284        1283
         4        1233        1234        1285        1284
         4        1234        1235        1286        1285
         4        1235        1236        1287        1286
         4        1236        1237        1288        1287
         4        1237        1238        1289        1288
         4        1238        1239        1290        1289
         4        1239        1240        1291        1290
         4        1240        1241        1292        1291
         4        1241        1242        1293        1292
         4        1242        1243        1294        1293
         4        1243        1244        1295        1294
         4        1244        1245        1296        1295
         4        1245        1246        1297        1296
         4        1246        1247        1298        1297
         4        1247        1248        1299        1298
         4        1248        1249        1300        1299
         4        1249        1250        1301        1300
         4        1250        1251        1302        1301
         4        1251        1252        1303        1302
         4        1252        1253        1304        1303
         4        1253        1254        1305        1304
         4        1254        1255        1306        1305
         4        1255        1256        1307        1306
         4        1256        1257        1308        1307
         4        1257        1258        1309        1308
         4        1258        1259        1310        1309
         4        1259        1260        1311        1310
         4        1260        1261        1312        1311
         4        1261        1262        1313        1312
         4        1262        1263        1314        1313
         4        1263        1264        1315        1314
         4        1264        1265        1316        1315
         4        1265        1266        1317        1316
         4        1266        1267        1318        1317
         4        1267        1268        1319        1318
         4        1268        1269        1320        1319
         4        1269        1270        1321        1320
         4        1270        1271        1322        1321
         4        1271        1272        1323        1322
         4        1272        1273        1324        1323
         4        1273        1274        1325        1324
         4        1275        1276        1327        1326
         4        1276        1277        1328        1327
         4        1277        1278        1329        1328
         4        1278        1279        1330        1329
         4        1279        1280        1331        1330
         4        1280        1281        1332        1331
         4        1281        1282        1333        1332
         4        1282        1283        1334        1333
         4        1283        1284        1335        1334
         4        1284        1285        1336        1335
         4        1285        1286        1337        1336
         4        1286        1287        1338        1337
         4        1287        1288        1339        1338
         4        1288        1289        1340        1339
         4        1289        1290        1341        1340
         4        1290        1291        1342        1341
         4        1291        1292        1343        1342
         4        1292        1293        1344        1343
         4        1293        1294        1345        1344
         4        1294        1295        1346        1345
         4        1295        1296        1347        1346
         4        1296        1297        1348        1347
         4        1297        1298        1349        1348
         4        1298        1299        1350        1349
         4        1299        1300        1351        1350
         4        1300        1301        1352        1351
         4        1301        1302        1353        1352
         4        1302        1303        1354        1353
         4        1303        1304        1355        1354
         4        1304        1305        1356        1355
         4        1305        1306        1357        1356
         4        1306        1307        1358        1357
         4        1307        1308        1359        1358
         4        1308        1309        1360        1359
         4        1309        1310        1361        1360
         4        1310        1311        1362        1361
         4        1311        1312        1363        1362
         4        1312        1313        1364        1363
         4        1313        1314        1365        1364
         4        1314        1315        1366        1365
         4        1315        1316        1367        1366
         4        1316        1317        1368        1367
         4        1317        1318        1369        1368
         4        1318        1319        1370        1369
         4        1319        1320        1371        1370
         4        1320        1321        1372        1371
         4        1321        1322        1373        1372
         4        1322        1323        1374        1373
         4        1323        1324        1375        1374
         4        1324        1325        1376        1375
         4        1326        1327        1378        1377
         4        1327        1328        1379        1378
         4        1328        1329        1380        1379
         4        1329        1330        1381        1380
         4        1330        1331        1382        1381
         4        1331        1332        1383        1382
         4        1332        1333        1384        1383
         4        1333        1334        1385        1384
         4        1334        1335        1386        1385
         4        1335        1336        1387        1386
         4        1336        1337        1388        1387
         4        1337        1338        1389        1388
         4        1338        1339        1390        1389
         4        1339        1340        1391        1390
         4        1340        1341        1392        1391
         4        1341        1342        1393        1392
         4        1342        1343        1394        1393
         4        1343        1344        1395        1394
         4        1344        1345        1396        1395
         4        1345        1346        1397        1396
         4        1346        1347        1398        1397
         4        1347        1348        1399        1398
         4        1348        1349        1400        1399
         4        1349        1350        1401        1400
         4        1350        1351        1402        1401
         4        1351        1352        1403        1402
         4        1352        1353        1404        1403
         4        1353        1354        1405        1404
         4        1354        1355        1406        1405
         4        1355        1356        1407        1406
         4        1356        1357        1408        1407
         4        1357        1358        1409        1408
         4        1358        1359        1410        1409
         4        1359        1360        1411        1410
         4        1360        1361        1412        1411
         4        1361        1362        1413        1412
         4        1362        1363        1414        1413
         4        1363        1364        1415        1414
         4        1364        1365        1416        1415
         4        1365        1366        1417        1416
         4        1366        1367        1418        1417
         4        1367        1368        1419        1418
         4        1368        1369        1420        1419
         4        1369        1370        1421        1420
         4        1370        1371        1422        1421
         4        1371        1372        1423        1422
         4        1372        1373        1424        1423
         4        1373        1374        1425        1424
         4        1374        1375        1426        1425
         4        1375        1376        1427        1426
         4        1377        1378        1429        1428
         4        1378        1379        1430        1429
         4        1379        1380        1431        1430
         4        1380        1381        1432        1431
         4        1381        1382        1433        1432
         4        1382        1383        1434        1433
         4        1383        1384        1435        1434
         4        1384        1385        1436        1435
         4        1385        1386        1437        1436
         4        1386        1387        1438        1437
         4        1387        1388        1439        1438
         4        1388        1389        1440        1439
         4        1389        1390        1441        1440
         4        1390        1391        1442        1441
         4        1391        1392        1443        1442
         4        1392        1393        1444        1443
         4        1393        1394        1445        1444
         4        1394        1395        1446        1445
         4        1395        1396        1447        1446
         4        1396        1397        1448        1447
         4        1397        1398        1449        1448
         4        1398        1399        1450        1449
         4        1399        1400        1451        1450
         4        1400        1401        1452        1451
         4        1401        1402        1453        1452
         4        1402        1403        1454        1453
         4        1403        1404        1455        1454
         4        1404        1405        1456        1455
         4        1405        1406        1457        1456
         4        1406        1407        1458        1457
         4        1407        1408        1459        1458
         4        1408        1409        1460        1459
         4        1409        1410        1461        1460
         4        1410        1411        1462        1461
         4        1411        1412        1463        1462
         4        1412        1413        1464        1463
         4        1413        1414        1465        1464
         4        1414        1415        1466        1465
         4        1415        1416        1467        1466
         4        1416        1417        1468        1467
         4        1417        1418        1469        1468
         4        1418        1419        1470        1469
         4        1419        1420        1471        1470
         4        1420        1421        1472        1471
         4        1421        1422        1473        1472
         4        1422        1423        1474        1473
         4        1423        1424        1475        1474
         4        1424        1425        1476        1475
         4        1425        1426        1477        1476
         4        1426        1427        1478        1477
         4        1428        1429        1480        1479
         4        1429        1430        1481        1480
         4        1430        1431        1482        1481
         4        1431        1432        1483        1482
         4        1432        1433        1484        1483
         4        1433        1434        1485        1484
         4        1434        1435        1486        1485
         4        1435        1436        1487        1486
         4        1436        1437        1488        1487
         4        1437        1438        1489        1488
         4        1438        1439        1490        1489
         4        1439        1440        1491        1490
         4        1440        1441        1492        1491
         4        1441        1442        1493        1492
         4        1442        1443        1494        1493
         4        1443        1444        1495        1494
         4        1444        1445        1496        1495
         4        1445        1446        1497        1496
         4        1446        1447        1498        1497
         4        1447        1448        1499        1498
         4        1448        1449        1500        1499
         4        1449        1450        1501        1500
         4        1450        1451        1502        1501
         4        1451        1452        1503        1502
         4        1452        1453        1504        1503
         4        1453        1454        1505        1504
         4        1454        1455        1506        1505
         4        1455        1456        1507        1506
         4        1456        1457        1508        1507
         4        1457        1458        1509        1508
         4        1458        1459        1510        1509
         4        1459        1460        1511        1510
         4        1460        1461        1512        1511
         4        1461        1462        1513        1512
         4        1462        1463        1514        1513
         4        1463        1464        1515        1514
         4        1464        1465        1516        1515
         4        1465        1466        1517        1516
         4        1466        1467        1518        1517
         4        1467        1468        1519        1518
         4        1468        1469        1520        1519
         4        1469        1470        1521        1520
         4        1470        1471        1522        1521
         4        1471        1472        1523        1522
         4        1472        1473        1524        1523
         4        1473        1474        1525        1524
         4        1474        1475        1526        1525
         4        1475        1476        1527        1526
         4        1476        1477        1528        1527
         4        1477        1478        1529        1528
         4        1479        1480        1531        1530
         4        1480        1481        1532        1531
         4        1481        1482        1533        1532
         4        1482        1483        1534        1533
         4        1483        1484        1535        1534
         4        1484        1485        1536        1535
         4        1485        1486        1537        1536
         4        1486        1487        1538        1537
         4        1487        1488        1539        1538
         4        1488        1489        1540        1539
         4        1489        1490        1541        1540
         4        1490        1491        1542        1541
         4        1491        1492        1543        1542
         4        1492        1493        1544        1543
         4        1493        1494        1545        1544
         4        1494        1495        1546        1545
         4        1495        1496        1547        1546
         4        1496        1497        1548        1547
         4        1497        1498        1549        1548
         4        1498        1499        1550        1549
         4        1499        1500        1551        1550
         4        1500        1501        1552        1551
         4        1501        1502        1553        1552
         4        1502        1503        1554        1553
         4        1503        1504        1555        1554
         4        1504        1505        1556        1555
         4        1505        1506        1557        1556
         4        1506        1507        1558        1557
         4        1507        1508        1559        1558
         4        1508        1509        1560        1559
         4        1509        1510        1561        1560
         4        1510        1511        1562        1561
         4        1511        1512        1563        1562
         4        1512        1513        1564        1563
         4        1513        1514        1565        1564
         4        1514        1515        1566        1565
         4        1515        1516        1567        1566
         4        1516        1517        1568        1567
         4        1517        1518        1569        1568
         4        1518        1519        1570        1569
         4        1519        1520        1571        1570
         4        1520        1521        1572        1571
         4        1521        1522        1573        1572
         4        1522        1523        1574        1573
         4        1523        1524        1575        1574
         4        1524        1525        1576        1575
         4        1525        1526        1577        1576
         4        1526        1527        1578        1577
         4        1527        1528        1579        1578
         4        1528        1529        1580        1579
         4        1530        1531        1582        1581
         4        1531        1532        1583        1582
         4        1532        1533        1584        1583
         4        1533        1534        1585        1584
         4        1534        1535        1586        1585
         4        1535        1536        1587        1586
         4        1536        1537        1588        1587
         4        1537        1538        1589        1588
         4        1538        1539        1590        1589
         4        1539        1540        1591        1590
         4        1540        1541        1592        1591
         4        1541        1542        1593        1592
         4        1542        1543        1594        1593
         4        1543        1544        1595        1594
         4        1544        1545        1596        1595
         4        1545        1546        1597        1596
         4        1546        1547        1598        1597
         4        1547        1548        1599        1598
         4        1548        1549        1600        1599
         4        1549        1550        1601        1600
         4        1550        1551        1602        1601
         4        1551        1552        1603        1602
         4        1552        1553        1604        1603
         4        1553        1554        1605        1604
         4        1554        1555        1606        1605
         4        1555        1556        1607        1606
         4        1556        1557        1608        1607
         4        1557        1558        1609        1608
         4        1558        1559        1610        1609
         4        1559        1560        1611        1610
         4        1560        1561        1612        1611
         4        1561        1562        1613        1612
         4        1562        1563        1614        1613
         4        1563        1564        1615        1614
         4        1564        1565        1616        1615
         4        1565        1566        1617        1616
         4        1566        1567        1618        1617
         4        1567        1568        1619        1618
         4        1568        1569        1620        1619
         4        1569        1570        1621        1620
         4        1570        1571        1622        1621
         4        1571        1572        1623        1622
         4        1572        1573        1624        1623
         4        1573        1574        1625        1624
         4        1574        1575        1626        1625
         4        1575        1576        1627        1626
         4        1576        1577        1628        1627
         4        1577        1578        1629        1628
         4        1578        1579        1630        1629
         4        1579        1580        1631        1630
         4        1581        1582        1633        1632
         4        1582        1583        1634        1633
         4        1583        1584        1635        1634
         4        1584        1585        1636        1635
         4        1585        1586        1637        1636
         4        1586        1587        1638        1637
         4        1587        1588        1639        1638
         4        1588        1589        1640        1639
         4        1589        1590        1641        1640
         4        1590        1591        1642        1641
         4        1591        1592        1643        1642
         4        1592        1593        1644        1643
         4        1593        1594        1645        1644
         4        1594        1595        1646        1645
         4        1595        1596        1647        1646
         4        1596        1597        1648        1647
         4        1597        1598        1649        1648
         4        1598        1599        1650        1649
         4        1599        1600        1651        1650
         4        1600        1601        1652        1651
         4        1601        1602        1653        1652
         4        1602        1603        1654        1653
         4        1603        1604        1655        1654
         4        1604        1605        1656        1655
         4        1605        1606        1657        1656
         4        1606        1607        1658        1657
         4        1607        1608        1659        1658
         4        1608        1609        1660        1659
         4        1609        1610        1661        1660
         4        1610        1611        1662        1661
         4        1611        1612        1663        1662
         4        1612        1613        1664        1663
         4        1613        1614        1665        1664
         4        1614        1615        1666        1665
         4        1615        1616        1667        1666
         4        1616        1617        1668        1667
         4        1617        1618        1669        1668
         4        1618        1619        1670        1669
         4        1619        1620        1671        1670
         4        1620        1621        1672        1671
         4        1621        1622        1673        1672
         4        1622        1623        1674        1673
         4        1623        1624        1675        1674
         4        1624        1625        1676        1675
         4        1625        1626        1677        1676
         4        1626        1627        1678        1677
         4        1627        1628        1679        1678
         4        1628        1629        1680        1679
         4        1629        1630        1681        1680
         4        1630        1631        1682        1681
         4        1632        1633        1684        1683
         4        1633        1634        1685        1684
         4        1634        1635        1686        1685
         4        1635        1636        1687        1686
         4        1636        1637        1688        1687
         4        1637        1638        1689        1688
         4        1638        1639        1690        1689
         4        1639        1640        1691        1690
         4        1640        1641        1692        1691
         4        1641        1642        1693        1692
         4        1642        1643        1694        1693
         4        1643        1644        1695        1694
         4        1644        1645        1696        1695
         4        1645        1646        1697        1696
         4        1646        1647        1698        1697
         4        1647        1648        1699        1698
         4        1648        1649        1700        1699
         4        1649        1650        1701        1700
         4        1650        1651        1702        1701
         4        1651        1652        1703        1702
         4        1652        1653        1704        1703
         4        1653        1654        1705        1704
         4        1654        1655        1706        1705
         4        1655        1656        1707        1706
         4        1656        1657        1708        1707
         4        1657        1658        1709        1708
         4        1658        1659        1710        1709
         4        1659        1660        1711        1710
         4        1660        1661        1712        1711
         4        1661        1662        1713        1712
         4        1662        1663        1714        1713
         4        1663        1664        1715        1714
         4        1664        1665        1716        1715
         4        1665        1666        1717        1716
         4        1666        1667        1718        1717
         4        1667        1668        1719        1718
         4        1668        1669        1720        1719
         4        1669        1670        1721        1720
         4        1670        1671        1722        1721
         4        1671        1672        1723        1722
         4        1672        1673        1724        1723
         4        1673        1674        1725        1724
         4        1674        1675        1726        1725
         4        1675        1676        1727        1726
         4        1676        1677        1728        1727
         4        1677        1678        1729        1728
         4        1678        1679        1730        1729
         4        1679        1680        1731        1730
         4        1680        1681        1732        1731
         4        1681        1682        1733        1732
         4        1683        1684        1735        1734
         4        1684        1685        1736        1735
         4        1685        1686        1737        1736
         4        1686        1687        1738        1737
         4        1687        1688        1739        1738
         4        1688        1689        1740        1739
         4        1689        1690        1741        1740
         4        1690        1691        1742        1741
         4        1691        1692        1743        1742
         4        1692        1693        1744        1743
         4        1693        1694        1745        1744
         4        1694        1695        1746        1745
         4        1695        1696        1747        1746
         4        1696        1697        1748        1747
         4        1697        1698        1749        1748
         4        1698        1699        1750        1749
         4        1699        1700        1751        1750
         4        1700        1701        1752        1751
         4        1701        1702        1753        1752
         4        1702        1703        1754        1753
         4        1703        1704        1755        1754
         4        1704        1705        1756        1755
         4        1705        1706        1757        1756
         4        1706        1707        1758        1757
         4        1707        1708        1759        1758
         4        1708        1709        1760        1759
         4        1709        1710        1761        1760
         4        1710        1711        1762        1761
         4        1711        1712        1763        1762
         4        1712        1713        1764        1763
         4        1713        1714        1765        1764
         4        1714        1715        1766        1765
         4        1715        1716        1767        1766
         4        1716        1717        1768        1767
         4        1717        1718        1769        1768
         4        1718        1719        1770        1769
         4        1719        1720        1771        1770
         4        1720        1721        1772        1771
         4        1721        1722        1773        1772
         4        1722        1723        1774        1773
         4        1723        1724        1775        1774
         4        1724        1725        1776        1775
         4        1725        1726        1777        1776
         4        1726        1727        1778        1777
         4        1727        1728        1779        1778
         4        1728        1729        1780        1779
         4        1729        1730        1781        1780
         4        1730        1731        1782        1781
         4        1731        1732        1783        1782
         4        1732        1733        1784        1783
         4        1734        1735        1786        1785
         4        1735        1736        1787        1786
         4        1736        1737        1788        1787
         4        1737        1738        1789        1788
         4        1738        1739        1790        1789
         4        1739        1740        1791        1790
         4        1740        1741        1792        1791
         4        1741        1742        1793        1792
         4        1742        1743        1794        1793
         4        1743        1744        1795        1794
         4        1744        1745        1796        1795
         4        1745        1746        1797        1796
         4        1746        1747        1798        1797
         4        1747        1748        1799        1798
         4        1748        1749        1800        1799
         4        1749        1750        1801        1800
         4        1750        1751        1802        1801
         4        1751        1752        1803        1802
         4        1752        1753        1804        1803
         4        1753        1754        1805        1804
         4        1754        1755        1806        1805
         4        1755        1756        1807        1806
         4        1756        1757        1808        1807
         4        1757        1758        1809        1808
         4        1758        1759        1810        1809
         4        1759        1760        1811        1810
         4        1760        1761        1812        1811
         4        1761        1762        1813        1812
         4        1762        1763        1814        1813
         4        1763        1764        1815        1814
         4        1764        1765        1816        1815
         4        1765        1766        1817        1816
         4        1766        1767        1818        1817
         4        1767        1768        1819        1818
         4        1768        1769        1820        1819
         4        1769        1770        1821        1820
         4        1770        1771        1822        1821
         4        1771        1772        1823        1822
         4        1772        1773        1824        1823
         4        1773        1774        1825        1824
         4        1774        1775        1826        1825
         4        1775        1776        1827        1826
         4        1776        1777        1828        1827
         4        1777        1778        1829        1828
         4        1778        1779        1830        1829
         4        1779        1780        1831        1830
         4        1780        1781        1832        1831
         4        1781        1782        1833        1832
         4        1782        1783        1834        1833
         4        1783        1784        1835        1834
         4        1785        1786        1837        1836
         4        1786        1787        1838        1837
         4        1787        1788        1839        1838
         4        1788        1789        1840        1839
         4        1789        1790        1841        1840
         4        1790        1791        1842        1841
         4        1791        1792        1843        1842
         4        1792        1793        1844        1843
         4        1793        1794        1845        1844
         4        1794        1795        1846        1845
         4        1795        1796        1847        1846
         4        1796        1797        1848        1847
         4        1797        1798        1849        1848
         4        1798        1799        1850        1849
         4        1799        1800        1851        1850
         4        1800        1801        1852        1851
         4        1801        1802        1853        1852
         4        1802        1803        1854        1853
         4        1803        1804        1855        1854
         4        1804        1805        1856        1855
         4        1805        1806        1857        1856
         4        1806        1807        1858        1857
         4        1807        1808        1859        1858
         4        1808        1809        1860        1859
         4        1809        1810        1861        1860
         4        1810        1811        1862        1861
         4        1811        1812        1863        1862
         4        1812        1813        1864        1863
         4        1813        1814        1865        1864
         4        1814        1815        1866        1865
         4        1815        1816        1867        1866
         4        1816        1817        1868        1867
         4        1817        1818        1869        1868
         4        1818        1819        1870        1869
         4        1819        1820        1871        1870
         4        1820        1821        1872        1871
         4        1821        1822        1873        1872
         4        1822        1823        1874        1873
         4        1823        1824        1875        1874
         4        1824        1825        1876        1875
         4        1825        1826        1877        1876
         4        1826        1827        1878        1877
         4        1827        1828        1879        1878
         4        1828        1829        1880        1879
         4        1829        1830        1881        1880
         4        1830        1831        1882        1881
         4        1831        1832        1883        1882
         4        1832        1833        1884        1883
         4        1833        1834        1885        1884
         4        1834        1835        1886        1885
         4        1836        1837        1888        1887
         4        1837        1838        1889        1888
         4        1838        1839        1890        1889
         4        1839        1840        1891        1890
         4        1840        1841        1892        1891
         4        1841        1842        1893        1892
         4        1842        1843        1894        1893
         4        1843        1844        1895        1894
         4        1844        1845        1896        1895
         4        1845        1846        1897        1896
         4        1846        1847        1898        1897
         4        1847        1848        1899        1898
         4        1848        1849        1900        1899
         4        1849        1850        1901        1900
         4        1850        1851        1902        1901
         4        1851        1852        1903        1902
         4        1852        1853        1904        1903
         4        1853        1854        1905        1904
         4        1854        1855        1906        1905
         4        1855        1856        1907        1906
         4        1856        1857        1908        1907
         4        1857        1858        1909        1908
         4        1858        1859        1910        1909
         4        1859        1860        1911        1910
         4        1860        1861        1912        1911
         4        1861        1862        1913        1912
         4        1862        1863        1914        1913
         4        1863        1864        1915        1914
         4        1864        1865        1916        1915
         4        1865        1866        1917        1916
         4        1866        1867        1918        1917
         4        1867        1868        1919        1918
         4        1868        1869        1920        1919
         4        1869        1870        1921        1920
         4        1870        1871        1922        1921
         4        1871        1872        1923        1922
         4        1872        1873        1924        1923
         4        1873        1874        1925        1924
         4        1874        1875        1926        1925
         4        1875        1876        1927        1926
         4        1876        1877        1928        1927
         4        1877        1878        1929        1928
         4        1878        1879        1930        1929
         4        1879        1880        1931        1930
         4        1880        1881        1932        1931
         4        1881        1882        1933        1932
         4        1882        1883        1934        1933
         4        1883        1884        1935        1934
         4        1884        1885        1936        1935
         4        1885        1886        1937        1936
         4        1887        1888        1939        1938
         4        1888        1889        1940        1939
         4        1889        1890        1941        1940
         4        1890        1891        1942        1941
         4        1891        1892        1943        1942
         4        1892        1893        1944        1943
         4        1893        1894        1945        1944
         4        1894        1895        1946        1945
         4        1895        1896        1947        1946
         4        1896        1897        1948        1947
         4        1897        1898        1949        1948
         4        1898        1899        1950        1949
         4        1899        1900        1951        1950
         4        1900        1901        1952        1951
         4        1901        1902        1953        1952
         4        1902        1903        1954        1953
         4        1903        1904        1955        1954
         4        1904        1905        1956        1955
         4        1905        1906        1957        1956
         4        1906        1907        1958        1957
         4        1907        1908        1959        1958
         4        1908        1909        1960        1959
         4        1909        1910        1961        1960
         4        1910        1911        1962        1961
         4        1911        1912        1963        1962
         4        1912        1913        1964        1963
         4        1913        1914        1965        1964
         4        1914        1915        1966        1965
         4        1915        1916        1967        1966
         4        1916        1917        1968        1967
         4        1917        1918        1969        1968
         4        1918        1919        1970        1969
         4        1919        1920        1971        1970
         4        1920        1921        1972        1971
         4        1921        1922        1973        1972
         4        1922        1923        1974        1973
         4        1923        1924        1975        1974
         4        1924        1925        1976        1975
         4        1925        1926        1977        1976
         4        1926        1927        1978        1977
         4        1927        1928        1979        1978
         4        1928        1929        1980        1979
         4        1929        1930        1981        1980
         4        1930        1931        1982        1981
         4        1931        1932        1983        1982
         4        1932        1933        1984        1983
         4        1933        1934        1985        1984
         4        1934        1935        1986        1985
         4        1935        1936        1987        1986
         4        1936        1937        1988        1987
         4        1938        1939        1990        1989
         4        1939        1940        1991        1990
         4        1940        1941        1992        1991
         4        1941        1942        1993        1992
         4        1942        1943        1994        1993
         4        1943        1944        1995        1994
         4        1944        1945        1996        1995
         4        1945        1946        1997        1996
         4        1946        1947        1998        1997
         4        1947        1948        1999        1998
         4        1948        1949        2000        1999
         4        1949        1950        2001        2000
         4        1950        1951        2002        2001
         4        1951        1952        2003        2002
         4        1952        1953        2004        2003
         4        1953        1954        2005        2004
         4        1954        1955        2006        2005
         4        1955        1956        2007        2006
         4        1956        1957        2008        2007
         4        1957        1958        2009        2008
         4        1958        1959        2010        2009
         4        1959        1960        2011        2010
         4        1960        1961        2012        2011
         4        1961        1962        2013        2012
         4        1962        1963        2014        2013
         4        1963        1964        2015        2014
         4        1964        1965        2016        2015
         4        1965        1966        2017        2016
         4        1966        1967        2018        2017
         4        1967        1968        2019        2018
         4        1968        1969        2020        2019
         4        1969        1970        2021        2020
         4        1970        1971        2022        2021
         4        1971        1972        2023        2022
         4        1972        1973        2024        2023
         4        1973        1974        2025        2024
         4        1974        1975        2026        2025
         4        1975        1976        2027        2026
         4        1976        1977        2028        2027
         4        1977        1978        2029        2028
         4        1978        1979        2030        2029
         4        1979        1980        2031        2030
         4        1980        1981        2032        2031
         4        1981        1982        2033        2032
         4        1982        1983        2034        2033
         4        1983        1984        2035        2034
         4        1984        1985        2036        2035
         4        1985        1986        2037        2036
         4        1986        1987        2038        2037
         4        1987        1988        2039        2038
         4        1989        1990        2041        2040
         4        1990        1991        2042        2041
         4        1991        1992        2043        2042
         4        1992        1993        2044        2043
         4        1993        1994        2045        2044
         4        1994        1995        2046        2045
         4        1995        1996        2047        2046
         4        1996        1997        2048        2047
         4        1997        1998        2049        2048
         4        1998        1999        2050        2049
         4        1999        2000        2051        2050
         4        2000        2001        2052        2051
         4        2001        2002        2053        2052
         4        2002        2003        2054        2053
         4        2003        2004        2055        2054
         4        2004        2005        2056        2055
         4        2005        2006        2057        2056
         4        2006        2007        2058        2057
         4        2007        2008        2059        2058
         4        2008        2009        2060        2059
         4        2009        2010        2061        2060
         4        2010        2011        2062        2061
         4        2011        2012        2063        2062
         4        2012        2013        2064        2063
         4        2013        2014        2065        2064
         4        2014        2015        2066        2065
         4        2015        2016        2067        2066
         4        2016        2017        2068        2067
         4        2017        2018        2069        2068
         4        2018        2019        2070        2069
         4        2019        2020        2071        2070
         4        2020        2021        2072        2071
         4        2021        2022        2073        2072
         4        2022        2023        2074        2073
         4        2023        2024        2075        2074
         4        2024        2025        2076        2075
         4        2025        2026        2077        2076
         4        2026        2027        2078        2077
         4        2027        2028        2079        2078
         4        2028        2029        2080        2079
         4        2029        2030        2081        2080
         4        2030        2031        2082        2081
         4        2031        2032        2083        2082
         4        2032        2033        2084        2083
         4        2033        2034        2085        2084
         4        2034        2035        2086        2085
         4        2035        2036        2087        2086
         4        2036        2037        2088        2087
         4        2037        2038        2089        2088
         4        2038        2039        2090        2089
         4        2040        2041        2092        2091
         4        2041        2042        2093        2092
         4        2042        2043        2094        2093
         4        2043        2044        2095        2094
         4        2044        2045        2096        2095
         4        2045        2046        2097        2096
         4        2046        2047        2098        2097
         4        2047        2048        2099        2098
         4        2048        2049        2100        2099
         4        2049        2050        2101        2100
         4        2050        2051        2102        2101
         4        2051        2052        2103        2102
         4        2052        2053        2104        2103
         4        2053        2054        2105        2104
         4        2054        2055        2106        2105
         4        2055        2056        2107        2106
         4        2056        2057        2108        2107
         4        2057        2058        2109        2108
         4        2058        2059        2110        2109
         4        2059        2060        2111        2110
         4        2060        2061        2112        2111
         4        2061        2062        2113        2112
         4        2062        2063        2114        2113
         4        2063        2064        2115        2114
         4        2064        2065        2116        2115
         4        2065        2066        2117        2116
         4        2066        2067        2118        2117
         4        2067        2068        2119        2118
         4        2068        2069        2120        2119
         4        2069        2070        2121        2120
         4        2070        2071        2122        2121
         4        2071        2072        2123        2122
         4        2072        2073        2124        2123
         4        2073        2074        2125        2124
         4        2074        2075        2126        2125
         4        2075        2076        2127        2126
         4        2076        2077        2128        2127
         4        2077        2078        2129        2128
         4        2078        2079        2130        2129
         4        2079        2080        2131        2130
         4        2080        2081        2132        2131
         4        2081        2082        2133        2132
         4        2082        2083        2134        2133
         4        2083        2084        2135        2134
         4        2084        2085        2136        2135
         4        2085        2086        2137        2136
         4        2086        2087        2138        2137
         4        2087        2088        2139        2138
         4        2088        2089        2140        2139
         4        2089        2090        2141        2140
         4        2091        2092        2143        2142
         4        2092        2093        2144        2143
         4        2093        2094        2145        2144
         4        2094        2095        2146        2145
         4        2095        2096        2147        2146
         4        2096        2097        2148        2147
         4        2097        2098        2149        2148
         4        2098        2099        2150        2149
         4        2099        2100        2151        2150
         4        2100        2101        2152        2151
         4        2101        2102        2153        2152
         4        2102        2103        2154        2153
         4        2103        2104        2155        2154
         4        2104        2105        2156        2155
         4        2105        2106        2157        2156
         4        2106        2107        2158        2157
         4        2107        2108        2159        2158
         4        2108        2109        2160        2159
         4        2109        2110        2161        2160
         4        2110        2111        2162        2161
         4        2111        2112        2163        2162
         4        2112        2113        2164        2163
         4        2113        2114        2165        2164
         4        2114        2115        2166        2165
         4        2115        2116        2167        2166
         4        2116        2117        2168        2167
         4        2117        2118        2169        2168
         4        2118        2119        2170        2169
         4        2119        2120        2171        2170
         4        2120        2121        2172        2171
         4        2121        2122        2173        2172
         4        2122        2123        2174        2173
         4        2123        2124        2175        2174
         4        2124        2125        2176        2175
         4        2125        2126        2177        2176
         4        2126        2127        2178        2177
         4        2127        2128        2179        2178
         4        2128        2129        2180        2179
         4        2129        2130        2181        2180
         4        2130        2131        2182        2181
         4        2131        2132        2183        2182
         4        2132        2133        2184        2183
         4        2133        2134        2185        2184
         4        2134        2135        2186        2185
         4        2135        2136        2187        2186
         4        2136        2137        2188        2187
         4        2137        2138        2189        2188
         4        2138        2139        2190        2189
         4        2139        2140        2191        2190
         4        2140        2141        2192        2191
         4        2142        2143        2194        2193
         4        2143        2144        2195        2194
         4        2144        2145        2196        2195
         4        2145        2146        2197        2196
         4        2146        2147        2198        2197
         4        2147        2148        2199        2198
         4        2148        2149        2200        2199
         4        2149        2150        2201        2200
         4        2150        2151        2202        2201
         4        2151        2152        2203        2202
         4        2152        2153        2204        2203
         4        2153        2154        2205        2204
         4        2154        2155        2206        2205
         4        2155        2156        2207        2206
         4        2156        2157        2208        2207
         4        2157        2158        2209        2208
         4        2158        2159        2210        2209
         4        2159        2160        2211        2210
         4        2160        2161        2212        2211
         4        2161        2162        2213        2212
         4        2162        2163        2214        2213
         4        2163        2164        2215        2214
         4        2164        2165        2216        2215
         4        2165        2166        2217        2216
         4        2166        2167        2218        2217
         4        2167        2168        2219        2218
         4        2168        2169        2220        2219
         4        2169        2170        2221        2220
         4        2170        2171        2222        2221
         4        2171        2172        2223        2222
         4        2172        2173        2224        2223
         4        2173        2174        2225        2224
         4        2174        2175        2226        2225
         4        2175        2176        2227        2226
         4        2176        2177        2228        2227
         4        2177        2178        2229        2228
         4        2178        2179        2230        2229
         4        2179        2180        2231        2230
         4        2180        2181        2232        2231
         4        2181        2182        2233        2232
         4        2182        2183        2234        2233
         4        2183        2184        2235        2234
         4        2184        2185        2236        2235
         4        2185        2186        2237        2236
         4        2186        2187        2238        2237
         4        2187        2188        2239        2238
         4        2188        2189        2240        2239
         4        2189        2190        2241        2240
         4        2190        2191        2242        2241
         4        2191        2192        2243        2242
         4        2193        2194        2245        2244
         4        2194        2195        2246        2245
         4        2195        2196        2247        2246
         4        2196        2197        2248        2247
         4        2197        2198        2249        2248
         4        2198        2199        2250        2249
         4        2199        2200        2251        2250
         4        2200        2201        2252        2251
         4        2201        2202        2253        2252
         4        2202        2203        2254        2253
         4        2203        2204        2255        2254
         4        2204        2205        2256        2255
         4        2205        2206        2257        2256
         4        2206        2207        2258        2257
         4        2207        2208        2259        2258
         4        2208        2209        2260        2259
         4        2209        2210        2261        2260
         4        2210        2211        2262        2261
         4        2211        2212        2263        2262
         4        2212        2213        2264        2263
         4        2213        2214        2265        2264
         4        2214        2215        2266        2265
         4        2215        2216        2267        2266
         4        2216        2217        2268        2267
         4        2217        2218        2269        2268
         4        2218        2219        2270        2269
         4        2219        2220        2271        2270
         4        2220        2221        2272        2271
         4        2221        2222        2273        2272
         4        2222        2223        2274        2273
         4        2223        2224        2275        2274
         4        2224        2225        2276        2275
         4        2225        2226        2277        2276
         4        2226        2227        2278        2277
         4        2227        2228        2279        2278
         4        2228        2229        2280        2279
         4        2229        2230        2281        2280
         4        2230        2231        2282        2281
         4        2231        2232        2283        2282
         4        2232        2233        2284        2283
         4        2233        2234        2285        2284
         4        2234        2235        2286        2285
         4        2235        2236        2287        2286
         4        2236        2237        2288        2287
         4        2237        2238        2289        2288
         4        2238        2239        2290        2289
         4        2239        2240        2291        2290
         4        2240        2241        2292        2291
         4        2241        2242        2293        2292
         4        2242        2243        2294        2293
         4        2244        2245        2296        2295
         4        2245        2246        2297        2296
         4        2246        2247        2298        2297
         4        2247        2248        2299        2298
         4        2248        2249        2300        2299
         4        2249        2250        2301        2300
         4        2250        2251        2302        2301
         4        2251        2252        2303        2302
         4        2252        2253        2304        2303
         4        2253        2254        2305        2304
         4        2254        2255        2306        2305
         4        2255        2256        2307        2306
         4        2256        2257        2308        2307
         4        2257        2258        2309        2308
         4        2258        2259        2310        2309
         4        2259        2260        2311        2310
         4        2260        2261        2312        2311
         4        2261        2262        2313        2312
         4        2262        2263        2314        2313
         4        2263        2264        2315        2314
         4        2264        2265        2316        2315
         4        2265        2266        2317        2316
         4        2266        2267        2318        2317
         4        2267        2268        2319        2318
         4        2268        2269        2320        2319
         4        2269        2270        2321        2320
         4        2270        2271        2322        2321
         4        2271        2272        2323        2322
         4        2272        2273        2324        2323
         4        2273        2274        2325        2324
         4        2274        2275        2326        2325
         4        2275        2276        2327        2326
         4        2276        2277        2328        2327
         4        2277        2278        2329        2328
         4        2278        2279        2330        2329
         4        2279        2280        2331        2330
         4        2280        2281        2332        2331
         4        2281        2282        2333        2332
         4        2282        2283        2334        2333
         4        2283        2284        2335        2334
         4        2284        2285        2336        2335
         4        2285        2286        2337        2336
         4        2286        2287        2338        2337
         4        2287        2288        2339        2338
         4        2288        2289        2340        2339
         4        2289        2290        2341        2340
         4        2290        2291        2342        2341
         4        2291        2292        2343        2342
         4        2292        2293        2344        2343
         4        2293        2294        2345        2344
         4        2295        2296        2347        2346
         4        2296        2297        2348        2347
         4        2297        2298        2349        2348
         4        2298        2299        2350        2349
         4        2299        2300        2351        2350
         4        2300        2301        2352        2351
         4        2301        2302        2353        2352
         4        2302        2303        2354        2353
         4        2303        2304        2355        2354
         4        2304        2305        2356        2355
         4        2305        2306        2357        2356
         4        2306        2307        2358        2357
         4        2307        2308        2359        2358
         4        2308        2309        2360        2359
         4        2309        2310        2361        2360
         4        2310        2311        2362        2361
         4        2311        2312        2363        2362
         4        2312        2313        2364        2363
         4        2313        2314        2365        2364
         4        2314        2315        2366        2365
         4        2315        2316        2367        2366
         4        2316        2317        2368        2367
         4        2317        2318        2369        2368
         4        2318        2319        2370        2369
         4        2319        2320        2371        2370
         4        2320        2321        2372        2371
         4        2321        2322        2373        2372
         4        2322        2323        2374        2373
         4        2323        2324        2375        2374
         4        2324        2325        2376        2375
         4        2325        2326        2377        2376
         4        2326        2327        2378        2377
         4        2327        2328        2379        2378
         4        2328        2329        2380        2379
         4        2329        2330        2381        2380
         4        2330        2331        2382        2381
         4        2331        2332        2383        2382
         4        2332        2333        2384        2383
         4        2333        2334        2385        2384
         4        2334        2335        2386        2385
         4        2335        2336        2387        2386
         4        2336        2337        2388        2387
         4        2337        2338        2389        2388
         4        2338        2339        2390        2389
         4        2339        2340        2391        2390
         4        2340        2341        2392        2391
         4        2341        2342        2393        2392
         4        2342        2343        2394        2393
         4        2343        2344        2395        2394
         4        2344        2345        2396        2395
         4        2346        2347        2398        2397
         4        2347        2348        2399        2398
         4        2348        2349        2400        2399
         4        2349        2350        2401        2400
         4        2350        2351        2402        2401
         4        2351        2352        2403        2402
         4        2352        2353        2404        2403
         4        2353        2354        2405        2404
         4        2354        2355        2406        2405
         4        2355        2356        2407        2406
         4        2356        2357        2408        2407
         4        2357        2358        2409        2408
         4        2358        2359        2410        2409
         4        2359        2360        2411        2410
         4        2360        2361        2412        2411
         4        2361        2362        2413        2412
         4        2362        2363        2414        2413
         4        2363        2364        2415        2414
         4        2364        2365        2416        2415
         4        2365        2366        2417        2416
         4        2366        2367        2418        2417
         4        2367        2368        2419        2418
         4        2368        2369        2420        2419
         4        2369        2370        2421        2420
         4        2370        2371        2422        2421
         4        2371        2372        2423        2422
         4        2372        2373        2424        2423
         4        2373        2374        2425        2424
         4        2374        2375        2426        2425
         4        2375        2376        2427        2426
         4        2376        2377        2428        2427
         4        2377        2378        2429        2428
         4        2378        2379        2430        2429
         4        2379        2380        2431        2430
         4        2380        2381        2432        2431
         4        2381        2382        2433        2432
         4        2382        2383        2434        2433
         4        2383        2384        2435        2434
         4        2384        2385        2436        2435
         4        2385        2386        2437        2436
         4        2386        2387        2438        2437
         4        2387        2388        2439        2438
         4        2388        2389        2440        2439
         4        2389        2390        2441        2440
         4        2390        2391        2442        2441
         4        2391        2392        2443        2442
         4        2392        2393        2444        2443
         4        2393        2394        2445        2444
         4        2394        2395        2446        2445
         4        2395        2396        2447        2446
         4        2397        2398        2449        2448
         4        2398        2399        2450        2449
         4        2399        2400        2451        2450
         4        2400        2401        2452        2451
         4        2401        2402        2453        2452
         4        2402        2403        2454        2453
         4        2403        2404        2455        2454
         4        2404        2405        2456        2455
         4        2405        2406        2457        2456
         4        2406        2407        2458        2457
         4        2407        2408        2459        2458
         4        2408        2409        2460        2459
         4        2409        2410        2461        2460
         4        2410        2411        2462        2461
         4        2411        2412        2463        2462
         4        2412        2413        2464        2463
         4        2413        2414        2465        2464
         4        2414        2415        2466        2465
         4        2415        2416        2467        2466
         4        2416        2417        2468        2467
         4        2417        2418        2469        2468
         4        2418        2419        2470        2469
         4        2419        2420        2471        2470
         4        2420        2421        2472        2471
         4        2421        2422        2473        2472
         4        2422        2423        2474        2473
         4        2423        2424        2475        2474
         4        2424        2425        2476        2475
         4        2425        2426        2477        2476
         4        2426        2427        2478        2477
         4        2427        2428        2479        2478
         4        2428        2429        2480        2479
         4        2429        2430        2481        2480
         4        2430        2431        2482        2481
         4        2431        2432        2483        2482
         4        2432        2433        2484        2483
         4        2433        2434        2485        2484
         4        2434        2435        2486        2485
         4        2435        2436        2487        2486
         4        2436        2437        2488        2487
         4        2437        2438        2489        2488
         4        2438        2439        2490        2489
         4        2439        2440        2491        2490
         4        2440        2441        2492        2491
         4        2441        2442        2493        2492
         4        2442        2443        2494        2493
         4        2443        2444        2495        2494
         4        2444        2445        2496        2495
         4        2445        2446        2497        2496
         4        2446        2447        2498        2497
         4        2448        2449        2500        2499
         4        2449        2450        2501        2500
         4        2450        2451        2502        2501
         4        2451        2452        2503        2502
         4        2452        2453        2504        2503
         4        2453        2454        2505        2504
         4        2454        2455        2506        2505
         4        2455        2456        2507        2506
         4        2456        2457        2508        2507
         4        2457        2458        2509        2508
         4        2458        2459        2510        2509
         4        2459        2460        2511        2510
         4        2460        2461        2512        2511
         4        2461        2462        2513        2512
         4        2462        2463        2514        2513
         4        2463        2464        2515        2514
         4        2464        2465        2516        2515
         4        2465        2466        2517        2516
         4        2466        2467        2518        2517
         4        2467        2468        2519        2518
         4        2468        2469        2520        2519
         4        2469        2470        2521        2520
         4        2470        2471        2522        2521
         4        2471        2472        2523        2522
         4        2472        2473        2524        2523
         4        2473        2474        2525        2524
         4        2474        2475        2526        2525
         4        2475        2476        2527        2526
         4        2476        2477        2528        2527
         4        2477        2478        2529        2528
         4        2478        2479        2530        2529
         4        2479        2480        2531        2530
         4        2480        2481        2532        2531
         4        2481        2482        2533        2532
         4        2482        2483        2534        2533
         4        2483        2484        2535        2534
         4        2484        2485        2536        2535
         4        2485        2486        2537        2536
         4        2486        2487        2538        2537
         4        2487        2488        2539        2538
         4        2488        2489        2540        2539
         4        2489        2490        2541        2540
         4        2490        2491        2542        2541
         4        2491        2492        2543        2542
         4        2492        2493        2544        2543
         4        2493        2494        2545        2544
         4        2494        2495        2546        2545
         4        2495        2496        2547        2546
         4        2496        2497        2548        2547
         4        2497        2498        2549        2548
         4        2499        2500        2551        2550
         4        2500        2501        2552        2551
         4        2501        2502        2553        2552
         4        2502        2503        2554        2553
         4        2503        2504        2555        2554
         4        2504        2505        2556        2555
         4        2505        2506        2557        2556
         4        2506        2507        2558        2557
         4        2507        2508        2559        2558
         4        2508        2509        2560        2559
         4        2509        2510        2561        2560
         4        2510        2511        2562        2561
         4        2511        2512        2563        2562
         4        2512        2513        2564        2563
         4        2513        2514        2565        2564
         4        2514        2515        2566        2565
         4        2515        2516        2567        2566
         4        2516        2517        2568        2567
         4        2517        2518        2569        2568
         4        2518        2519        2570        2569
         4        2519        2520        2571        2570
         4        2520        2521        2572        2571
         4        2521        2522        2573        2572
         4        2522        2523        2574        2573
         4        2523        2524        2575        2574
         4        2524        2525        2576        2575
         4        2525        2526        2577        2576
         4        2526        2527        2578        2577
         4        2527        2528        2579        2578
         4        2528        2529        2580        2579
         4        2529        2530        2581        2580
         4        2530        2531        2582        2581
         4        2531        2532        2583        2582
         4        2532        2533        2584        2583
         4        2533        2534        2585        2584
         4        2534        2535        2586        2585
         4        2535        2536        2587        2586
         4        2536        2537        2588        2587
         4        2537        2538        2589        2588
         4        2538        2539        2590        2589
         4        2539        2540        2591        2590
         4        2540        2541        2592        2591
         4        2541        2542        2593        2592
         4        2542        2543        2594        2593
         4        2543        2544        2595        2594
         4        2544        2545        2596        2595
         4        2545        2546        2597        2596
         4        2546        2547        2598        2597
         4        2547        2548        2599        2598
         4        2548        2549        2600        2599
         4        2550        2551        2602        2601
         4        2551        2552        2603        2602
         4        2552        2553        2604        2603
         4        2553        2554        2605        2604
         4        2554        2555        2606        2605
         4        2555        2556        2607        2606
         4        2556        2557        2608        2607
         4        2557        2558        2609        2608
         4        2558        2559        2610        2609
         4        2559        2560        2611        2610
         4        2560        2561        2612        2611
         4        2561        2562        2613        2612
         4        2562        2563        2614        2613
         4        2563        2564        2615        2614
         4        2564        2565        2616        2615
         4        2565        2566        2617        2616
         4        2566        2567        2618        2617
         4        2567        2568        2619        2618
         4        2568        2569        2620        2619
         4        2569        2570        2621        2620
         4        2570        2571        2622        2621
         4        2571        2572        2623        2622
         4        2572        2573        2624        2623
         4        2573        2574        2625        2624
         4        2574        2575        2626        2625
         4        2575        2576        2627        2626
         4        2576        2577        2628        2627
         4        2577        2578        2629        2628
         4        2578        2579        2630        2629
         4        2579        2580        2631        2630
         4        2580        2581        2632        2631
         4        2581        2582        2633        2632
         4        2582        2583        2634        2633
         4        2583        2584        2635        2634
         4        2584        2585        2636        2635
         4        2585        2586        2637        2636
         4        2586        2587        2638        2637
         4        2587        2588        2639        2638
         4        2588        2589        2640        2639
         4        2589        2590        2641        2640
         4        2590        2591        2642        2641
         4        2591        2592        2643        2642
         4        2592        2593        2644        2643
         4        2593        2594        2645        2644
         4        2594        2595        2646        2645
         4        2595        2596        2647        2646
         4        2596        2597        2648        2647
         4        2597        2598        2649        2648
         4        2598        2599        2650        2649
         4        2599        2600        2651        2650
         4        2601        2602        2653        2652
         4        2602        2603        2654        2653
         4        2603        2604        2655        2654
         4        2604        2605        2656        2655
         4        2605        2606        2657        2656
         4        2606        2607        2658        2657
         4        2607        2608        2659        2658
         4        2608        2609        2660        2659
         4        2609        2610        2661        2660
         4        2610        2611        2662        2661
         4        2611        2612        2663        2662
         4        2612        2613        2664        2663
         4        2613        2614        2665        2664
         4        2614        2615        2666        2665
         4        2615        2616        2667        2666
         4        2616        2617        2668        2667
         4        2617        2618        2669        2668
         4        2618        2619        2670        2669
         4        2619        2620        2671        2670
         4        2620        2621        2672        2671
         4        2621        2622        2673        2672
         4        2622        2623        2674        2673
         4        2623        2624        2675        2674
         4        2624        2625        2676        2675
         4        2625        2626        2677        2676
         4        2626        2627        2678        2677
         4        2627        2628        2679        2678
         4        2628        2629        2680        2679
         4        2629        2630        2681        2680
         4        2630        2631        2682        2681
         4        2631        2632        2683        2682
         4        2632        2633        2684        2683
         4        2633        2634        2685        2684
         4        2634        2635        2686        2685
         4        2635        2636        2687        2686
         4        2636        2637        2688        2687
         4        2637        2638        2689        2688
         4        2638        2639        2690        2689
         4        2639        2640        2691        2690
         4        2640        2641        2692        2691
         4        2641        2642        2693        2692
         4        2642        2643        2694        2693
         4        2643        2644        2695        2694
         4        2644        2645        2696        2695
         4        2645        2646        2697        2696
         4        2646        2647        2698        2697
         4        2647        2648        2699        2698
         4        2648        2649        2700        2699
         4        2649        2650        2701        2700
         4        2650        2651        2702        2701
         4        2652        2653        2704        2703
         4        2653        2654        2705        2704
         4        2654        2655        2706        2705
         4        2655        2656        2707        2706
         4        2656        2657        2708        2707
         4        2657        2658        2709        2708
         4        2658        2659        2710        2709
         4        2659        2660        2711        2710
         4        2660        2661        2712        2711
         4        2661        2662        2713        2712
         4        2662        2663        2714        2713
         4        2663        2664        2715        2714
         4        2664        2665        2716        2715
         4        2665        2666        2717        2716
         4        2666        2667        2718        2717
         4        2667        2668        2719        2718
         4        2668        2669        2720        2719
         4        2669        2670        2721        2720
         4        2670        2671        2722        2721
         4        2671        2672        2723        2722
         4        2672        2673        2724        2723
         4        2673        2674        2725        2724
         4        2674        2675        2726        2725
         4        2675        2676        2727        2726
         4        2676        2677        2728        2727
         4        2677        2678        2729        2728
         4        2678        2679        2730        2729
         4        2679        2680        2731        2730
         4        2680        2681        2732        2731
         4        2681        2682        2733        2732
         4        2682        2683        2734        2733
         4        2683        2684        2735        2734
         4        2684        2685        2736        2735
         4        2685        2686        2737        2736
         4        2686        2687        2738        2737
         4        2687        2688        2739        2738
         4        2688        2689        2740        2739
         4        2689        2690        2741        2740
         4        2690        2691        2742        2741
         4        2691        2692        2743        2742
         4        2692        2693        2744        2743
         4        2693        2694        2745        2744
         4        2694        2695        2746        2745
         4        2695        2696        2747        2746
         4        2696        2697        2748        2747
         4        2697        2698        2749        2748
         4        2698        2699        2750        2749
         4        2699        2700        2751        2750
         4        2700        2701        2752        2751
         4        2701        2702        2753        2752
         4        2703        2704        2755        2754
         4        2704        2705        2756        2755
         4        2705        2706        2757        2756
         4        2706        2707        2758        2757
         4        2707        2708        2759        2758
         4        2708        2709        2760        2759
         4        2709        2710        2761        2760
         4        2710        2711        2762        2761
         4        2711        2712        2763        2762
         4        2712        2713        2764        2763
         4        2713        2714        2765        2764
         4        2714        2715        2766        2765
         4        2715        2716        2767        2766
         4        2716        2717        2768        2767
         4        2717        2718        2769        2768
         4        2718        2719        2770        2769
         4        2719        2720        2771        2770
         4        2720        2721        2772        2771
         4        2721        2722        2773        2772
         4        2722        2723        2774        2773
         4        2723        2724        2775        2774
         4        2724        2725        2776        2775
         4        2725        2726        2777        2776
         4        2726        2727        2778        2777
         4        2727        2728        2779        2778
         4        2728        2729        2780        2779
         4        2729        2730        2781        2780
         4        2730        2731        2782        2781
         4        2731        2732        2783        2782
         4        2732        2733        2784        2783
         4        2733        2734        2785        2784
         4        2734        2735        2786        2785
         4        2735        2736        2787        2786
         4        2736        2737        2788        2787
         4        2737        2738        2789        2788
         4        2738        2739        2790        2789
         4        2739        2740        2791        2790
         4        2740        2741        2792        2791
         4        2741        2742        2793        2792
         4        2742        2743        2794        2793
         4        2743        2744        2795        2794
         4        2744        2745        2796        2795
         4        2745        2746        2797        2796
         4        2746        2747        2798        2797
         4        2747        2748        2799        2798
         4        2748        2749        2800        2799
         4        2749        2750        2801        2800
         4        2750        2751        2802        2801
         4        2751        2752        2803        2802
         4        2752        2753        2804        2803
         4        2754        2755        2806        2805
         4        2755        2756        2807        2806
         4        2756        2757        2808        2807
         4        2757        2758        2809        2808
         4        2758        2759        2810        2809
         4        2759        2760        2811        2810
         4        2760        2761        2812        2811
         4        2761        2762        2813        2812
         4        2762        2763        2814        2813
         4        2763        2764        2815        2814
         4        2764        2765        2816        2815
         4        2765        2766        2817        2816
         4        2766        2767        2818        2817
         4        2767        2768        2819        2818
         4        2768        2769        2820        2819
         4        2769        2770        2821        2820
         4        2770        2771        2822        2821
         4        2771        2772        2823        2822
         4        2772        2773        2824        2823
         4        2773        2774        2825        2824
         4        2774        2775        2826        2825
         4        2775        2776        2827        2826
         4        2776        2777        2828        2827
         4        2777        2778        2829        2828
         4        2778        2779        2830        2829
         4        2779        2780        2831        2830
         4        2780        2781        2832        2831
         4        2781        2782        2833        2832
         4        2782        2783        2834        2833
         4        2783        2784        2835        2834
         4        2784        2785        2836        2835
         4        2785        2786        2837        2836
         4        2786        2787        2838        2837
         4        2787        2788        2839        2838
         4        2788        2789        2840        2839
         4        2789        2790        2841        2840
         4        2790        2791        2842        2841
         4        2791        2792        2843        2842
         4        2792        2793        2844        2843
         4        2793        2794        2845        2844
         4        2794        2795        2846        2845
         4        2795        2796        2847        2846
         4        2796        2797        2848        2847
         4        2797        2798        2849        2848
         4        2798        2799        2850        2849
         4        2799        2800        2851        2850
         4        2800        2801        2852        2851
         4        2801        2802        2853        2852
         4        2802        2803        2854        2853
         4        2803        2804        2855        2854
         4        2805        2806        2857        2856
         4        2806        2807        2858        2857
         4        2807        2808        2859        2858
         4        2808        2809        2860        2859
         4        2809        2810        2861        2860
         4        2810        2811        2862        2861
         4        2811        2812        2863        2862
         4        2812        2813        2864        2863
         4        2813        2814        2865        2864
         4        2814        2815        2866        2865
         4        2815        2816        2867        2866
         4        2816        2817        2868        2867
         4        2817        2818        2869        2868
         4        2818        2819        2870        2869
         4        2819        2820        2871        2870
         4        2820        2821        2872        2871
         4        2821        2822        2873        2872
         4        2822        2823        2874        2873
         4        2823        2824        2875        2874
         4        2824        2825        2876        2875
         4        2825        2826        2877        2876
         4        2826        2827        2878        2877
         4        2827        2828        2879        2878
         4        2828        2829        2880        2879
         4        2829        2830        2881        2880
         4        2830        2831        2882        2881
         4        2831        2832        2883        2882
         4        2832        2833        2884        2883
         4        2833        2834        2885        2884
         4        2834        2835        2886        2885
         4        2835        2836        2887        2886
         4        2836        2837        2888        2887
         4        2837        2838        2889        2888
         4        2838        2839        2890        2889
         4        2839        2840        2891        2890
         4        2840        2841        2892        2891
         4        2841        2842        2893        2892
         4        2842        2843        2894        2893
         4        2843        2844        2895        2894
         4        2844        2845        2896        2895
         4        2845        2846        2897        2896
         4        2846        2847        2898        2897
         4        2847        2848        2899        2898
         4        2848        2849        2900        2899
         4        2849        2850        2901        2900
         4        2850        2851        2902        2901
         4        2851        2852        2903        2902
         4        2852        2853        2904        2903
         4        2853        2854        2905        2904
         4        2854        2855        2906        2905
         4        2856        2857        2908        2907
         4        2857        2858        2909        2908
         4        2858        2859        2910        2909
         4        2859        2860        2911        2910
         4        2860        2861        2912        2911
         4        2861        2862        2913        2912
         4        2862        2863        2914        2913
         4        2863        2864        2915        2914
         4        2864        2865        2916        2915
         4        2865        2866        2917        2916
         4        2866        2867        2918        2917
         4        2867        2868        2919        2918
         4        2868        2869        2920        2919
         4        2869        2870        2921        2920
         4        2870        2871        2922        2921
         4        2871        2872        2923        2922
         4        2872        2873        2924        2923
         4        2873        2874        2925        2924
         4        2874        2875        2926        2925
         4        2875        2876        2927        2926
         4        2876        2877        2928        2927
         4        2877        2878        2929        2928
         4        2878        2879        2930        2929
         4        2879        2880        2931        2930
         4        2880        2881        2932        2931
         4        2881        2882        2933        2932
         4        2882        2883        2934        2933
         4        2883        2884        2935        2934
         4        2884        2885        2936        2935
         4        2885        2886        2937        2936
         4        2886        2887        2938        2937
         4        2887        2888        2939        2938
         4        2888        2889        2940        2939
         4        2889        2890        2941        2940
         4        2890        2891        2942        2941
         4        2891        2892        2943        2942
         4        2892        2893        2944        2943
         4        2893        2894        2945        2944
         4        2894        2895        2946        2945
         4        2895        2896        2947        2946
         4        2896        2897        2948        2947
         4        2897        2898        2949        2948
         4        2898        2899        2950        2949
         4        2899        2900        2951        2950
         4        2900        2901        2952        2951
         4        2901        2902        2953        2952
         4        2902        2903        2954        2953
         4        2903        2904        2955        2954
         4        2904        2905        2956        2955
         4        2905        2906        2957        2956
         4        2907        2908        2959        2958
         4        2908        2909        2960        2959
         4        2909        2910        2961        2960
         4        2910        2911        2962        2961
         4        2911        2912        2963        2962
         4        2912        2913        2964        2963
         4        2913        2914        2965        2964
         4        2914        2915        2966        2965
         4        2915        2916        2967        2966
         4        2916        2917        2968        2967
         4        2917        2918        2969        2968
         4        2918        2919        2970        2969
         4        2919        2920        2971        2970
         4        2920        2921        2972        2971
         4        2921        2922        2973        2972
         4        2922        2923        2974        2973
         4        2923        2924        2975        2974
         4        2924        2925        2976        2975
         4        2925        2926        2977        2976
         4        2926        2927        2978        2977
         4        2927        2928        2979        2978
         4        2928        2929        2980        2979
         4        2929        2930        2981        2980
         4        2930        2931        2982        2981
         4        2931        2932        2983        2982
         4        2932        2933        2984        2983
         4        2933        2934        2985        2984
         4        2934        2935        2986        2985
         4        2935        2936        2987        2986
         4        2936        2937        2988        2987
         4        2937        2938        2989        2988
         4        2938        2939        2990        2989
         4        2939        2940        2991        2990
         4        2940        2941        2992        2991
         4        2941        2942        2993        2992
         4        2942        2943        2994        2993
         4        2943        2944        2995        2994
         4        2944        2945        2996        2995
         4        2945        2946        2997        2996
         4        2946        2947        2998        2997
         4        2947        2948        2999        2998
         4        2948        2949        3000        2999
         4        2949        2950        3001        3000
         4        2950        2951        3002        3001
         4        2951        2952        3003        3002
         4        2952        2953        3004        3003
         4        2953        2954        3005        3004
         4        2954        2955        3006        3005
         4        2955        2956        3007        3006
         4        2956        2957        3008        3007
         4        2958        2959        3010        3009
         4        2959        2960        3011        3010
         4        2960        2961        3012        3011
         4        2961        2962        3013        3012
         4        2962        2963        3014        3013
         4        2963        2964        3015        3014
         4        2964        2965        3016        3015
         4        2965        2966        3017        3016
         4        2966        2967        3018        3017
         4        2967        2968        3019        3018
         4        2968        2969        3020        3019
         4        2969        2970        3021        3020
         4        2970        2971        3022        3021
         4        2971        2972        3023        3022
         4        2972        2973        3024        3023
         4        2973        2974        3025        3024
         4        2974        2975        3026        3025
         4        2975        2976        3027        3026
         4        2976        2977        3028        3027
         4        2977        2978        3029        3028
         4        2978        2979        3030        3029
         4        2979        2980        3031        3030
         4        2980        2981        3032        3031
         4        2981        2982        3033        3032
         4        2982        2983        3034        3033
         4        2983        2984        3035        3034
         4        2984        2985        3036        3035
         4        2985        2986        3037        3036
         4        2986        2987        3038        3037
         4        2987        2988        3039        3038
         4        2988        2989        3040        3039
         4        2989        2990        3041        3040
         4        2990        2991        3042        3041
         4        2991        2992        3043        3042
         4        2992        2993        3044        3043
         4        2993        2994        3045        3044
         4        2994        2995        3046        3045
         4        2995        2996        3047        3046
         4        2996        2997        3048        3047
         4        2997        2998        3049        3048
         4        2998        2999        3050        3049
         4        2999        3000        3051        3050
         4        3000        3001        3052        3051
         4        3001        3002        3053        3052
         4        3002        3003        3054        3053
         4        3003        3004        3055        3054
         4        3004        3005        3056        3055
         4        3005        3006        3057        3056
         4        3006        3007        3058        3057
         4        3007        3008        3059        3058
         4        3009        3010        3061        3060
         4        3010        3011        3062        3061
         4        3011        3012        3063        3062
         4        3012        3013        3064        3063
         4        3013        3014        3065        3064
         4        3014        3015        3066        3065
         4        3015        3016        3067        3066
         4        3016        3017        3068        3067
         4        3017        3018        3069        3068
         4        3018        3019        3070        3069
         4        3019        3020        3071        3070
         4        3020        3021        3072        3071
         4        3021        3022        3073        3072
         4        3022        3023        3074        3073
         4        3023        3024        3075        3074
         4        3024        3025        3076        3075
         4        3025        3026        3077        3076
         4        3026        3027        3078        3077
         4        3027        3028        3079        3078
         4        3028        3029        3080        3079
         4        3029        3030        3081        3080
         4        3030        3031        3082        3081
         4        3031        3032        3083        3082
         4        3032        3033        3084        3083
         4        3033        3034        3085        3084
         4        3034        3035        3086        3085
         4        3035        3036        3087        3086
         4        3036        3037        3088        3087
         4        3037        3038        3089        3088
         4        3038        3039        3090        3089
         4        3039        3040        3091        3090
         4        3040        3041        3092        3091
         4        3041        3042        3093        3092
         4        3042        3043        3094        3093
         4        3043        3044        3095        3094
         4        3044        3045        3096        3095
         4        3045        3046        3097        3096
         4        3046        3047        3098        3097
         4        3047        3048        3099        3098
         4        3048        3049        3100        3099
         4        3049        3050        3101        3100
         4        3050        3051        3102        3101
         4        3051        3052        3103        3102
         4        3052        3053        3104        3103
         4        3053        3054        3105        3104
         4        3054        3055        3106        3105
         4        3055        3056        3107        3106
         4        3056        3057        3108        3107
         4        3057        3058        3109        3108
         4        3058        3059        3110        3109
         4        3060        3061        3112        3111
         4        3061        3062        3113        3112
         4        3062        3063        3114        3113
         4        3063        3064        3115        3114
         4        3064        3065        3116        3115
         4        3065        3066        3117        3116
         4        3066        3067        3118        3117
         4        3067        3068        3119        3118
         4        3068        3069        3120        3119
         4        3069        3070        3121        3120
         4        3070        3071        3122        3121
         4        3071        3072        3123        3122
         4        3072        3073        3124        3123
         4        3073        3074        3125        3124
         4        3074        3075        3126        3125
         4        3075        3076        3127        3126
         4        3076        3077        3128        3127
         4        3077        3078        3129        3128
         4        3078        3079        3130        3129
         4        3079        3080        3131        3130
         4        3080        3081        3132        3131
         4        3081        3082        3133        3132
         4        3082        3083        3134        3133
         4        3083        3084        3135        3134
         4        3084        3085        3136        3135
         4        3085        3086        3137        3136
         4        3086        3087        3138        3137
         4        3087        3088        3139        3138
         4        3088        3089        3140        3139
         4        3089        3090        3141        3140
         4        3090        3091        3142        3141
         4        3091        3092        3143        3142
         4        3092        3093        3144        3143
         4        3093        3094        3145        3144
         4        3094        3095        3146        3145
         4        3095        3096        3147        3146
         4        3096        3097        3148        3147
         4        3097        3098        3149        3148
         4        3098        3099        3150        3149
         4        3099        3100        3151        3150
         4        3100        3101        3152        3151
         4        3101        3102        3153        3152
         4        3102        3103        3154        3153
         4        3103        3104        3155        3154
         4        3104        3105        3156        3155
         4        3105        3106        3157        3156
         4        3106        3107        3158        3157
         4        3107        3108        3159        3158
         4        3108        3109        3160        3159
         4        3109        3110        3161        3160
         4        3111        3112        3163        3162
         4        3112        3113        3164        3163
         4        3113        3114        3165        3164
         4        3114        3115        3166        3165
         4        3115        3116        3167        3166
         4        3116        3117        3168        3167
         4        3117        3118        3169        3168
         4        3118        3119        3170        3169
         4        3119        3120        3171        3170
         4        3120        3121        3172        3171
         4        3121        3122        3173        3172
         4        3122        3123        3174        3173
         4        3123        3124        3175        3174
         4        3124        3125        3176        3175
         4        3125        3126        3177        3176
         4        3126        3127        3178        3177
         4        3127        3128        3179        3178
         4        3128        3129        3180        3179
         4        3129        3130        3181        3180
         4        3130        3131        3182        3181
         4        3131        3132        3183        3182
         4        3132        3133        3184        3183
         4        3133        3134        3185        3184
         4        3134        3135        3186        3185
         4        3135        3136        3187        3186
         4        3136        3137        3188        3187
         4        3137        3138        3189        3188
         4        3138        3139        3190        3189
         4        3139        3140        3191        3190
         4        3140        3141        3192        3191
         4        3141        3142        3193        3192
         4        3142        3143        3194        3193
         4        3143        3144        3195        3194
         4        3144        3145        3196        3195
         4        3145        3146        3197        3196
         4        3146        3147        3198        3197
         4        3147        3148        3199        3198
         4        3148        3149        3200        3199
         4        3149        3150        3201        3200
         4        3150        3151        3202        3201
         4        3151        3152        3203        3202
         4        3152        3153        3204        3203
         4        3153        3154        3205        3204
         4        3154        3155        3206        3205
         4        3155        3156        3207        3206
         4        3156        3157        3208        3207
         4        3157        3158        3209        3208
         4        3158        3159        3210        3209
         4        3159        3160        3211        3210
         4        3160        3161        3212        3211
         4        3162        3163        3214        3213
         4        3163        3164        3215        3214
         4        3164        3165        3216        3215
         4        3165        3166        3217        3216
         4        3166        3167        3218        3217
         4        3167        3168        3219        3218
         4        3168        3169        3220        3219
         4        3169        3170        3221        3220
         4        3170        3171        3222        3221
         4        3171        3172        3223        3222
         4        3172        3173        3224        3223
         4        3173        3174        3225        3224
         4        3174        3175        3226        3225
         4        3175        3176        3227        3226
         4        3176        3177        3228        3227
         4        3177        3178        3229        3228
         4        3178        3179        3230        3229
         4        3179        3180        3231        3230
         4        3180        3181        3232        3231
         4        3181        3182        3233        3232
         4        3182        3183        3234        3233
         4        3183        3184        3235        3234
         4        3184        3185        3236        3235
         4        3185        3186        3237        3236
         4        3186        3187        3238        3237
         4        3187        3188        3239        3238
         4        3188        3189        3240        3239
         4        3189        3190        3241        3240
         4        3190        3191        3242        3241
         4        3191        3192        3243        3242
         4        3192        3193        3244        3243
         4        3193        3194        3245        3244
         4        3194        3195        3246        3245
         4        3195        3196        3247        3246
         4        3196        3197        3248        3247
         4        3197        3198        3249        3248
         4        3198        3199        3250        3249
         4        3199        3200        3251        3250
         4        3200        3201        3252        3251
         4        3201        3202        3253        3252
         4        3202        3203        3254        3253
         4        3203        3204        3255        3254
         4        3204        3205        3256        3255
         4        3205        3206        3257        3256
         4        3206        3207        3258        3257
         4        3207        3208        3259        3258
         4        3208        3209        3260        3259
         4        3209        3210        3261        3260
         4        3210        3211        3262        3261
         4        3211        3212        3263        3262
         4        3213        3214        3265        3264
         4        3214        3215        3266        3265
         4        3215        3216        3267        3266
         4        3216        3217        3268        3267
         4        3217        3218        3269        3268
         4        3218        3219        3270        3269
         4        3219        3220        3271        3270
         4        3220        3221        3272        3271
         4        3221        3222        3273        3272
         4        3222        3223        3274        3273
         4        3223        3224        3275        3274
         4        3224        3225        3276        3275
         4        3225        3226        3277        3276
         4        3226        3227        3278        3277
         4        3227        3228        3279        3278
         4        3228        3229        3280        3279
         4        3229        3230        3281        3280
         4        3230        3231        3282        3281
         4        3231        3232        3283        3282
         4        3232        3233        3284        3283
         4        3233        3234        3285        3284
         4        3234        3235        3286        3285
         4        3235        3236        3287        3286
         4        3236        3237        3288        3287
         4        3237        3238        3289        3288
         4        3238        3239        3290        3289
         4        3239        3240        3291        3290
         4        3240        3241        3292        3291
         4        3241        3242        3293        3292
         4        3242        3243        3294        3293
         4        3243        3244        3295        3294
         4        3244        3245        3296        3295
         4        3245        3246        3297        3296
         4        3246        3247        3298        3297
         4        3247        3248        3299        3298
         4        3248        3249        3300        3299
         4        3249        3250        3301        3300
         4        3250        3251        3302        3301
         4        3251        3252        3303        3302
         4        3252        3253        3304        3303
         4        3253        3254        3305        3304
         4        3254        3255        3306        3305
         4        3255        3256        3307        3306
         4        3256        3257        3308        3307
         4        3257        3258        3309        3308
         4        3258        3259        3310        3309
         4        3259        3260        3311        3310
         4        3260        3261        3312        3311
         4        3261        3262        3313        3312
         4        3262        3263        3314        3313
         4        3264        3265        3316        3315
         4        3265        3266        3317        3316
         4        3266        3267        3318        3317
         4        3267        3268        3319        3318
         4        3268        3269        3320        3319
         4        3269        3270        3321        3320
         4        3270        3271        3322        3321
         4        3271        3272        3323        3322
         4        3272        3273        3324        3323
         4        3273        3274        3325        3324
         4        3274        3275        3326        3325
         4        3275        3276        3327        3326
         4        3276        3277        3328        3327
         4        3277        3278        3329        3328
         4        3278        3279        3330        3329
         4        3279        3280        3331        3330
         4        3280        3281        3332        3331
         4        3281        3282        3333        3332
         4        3282        3283        3334        3333
         4        3283        3284        3335        3334
         4        3284        3285        3336        3335
         4        3285        3286        3337        3336
         4        3286        3287        3338        3337
         4        3287        3288        3339        3338
         4        3288        3289        3340        3339
         4        3289        3290        3341        3340
         4        3290        3291        3342        3341
         4        3291        3292        3343        3342
         4        3292        3293        3344        3343
         4        3293        3294        3345        3344
         4        3294        3295        3346        3345
         4        3295        3296        3347        3346
         4        3296        3297        3348        3347
         4        3297        3298        3349        3348
         4        3298        3299        3350        3349
         4        3299        3300        3351        3350
         4        3300        3301        3352        3351
         4        3301        3302        3353        3352
         4        3302        3303        3354        3353
         4        3303        3304        3355        3354
         4        3304        3305        3356        3355
         4        3305        3306        3357        3356
         4        3306        3307        3358        3357
         4        3307        3308        3359        3358
         4        3308        3309        3360        3359
         4        3309        3310        3361        3360
         4        3310        3311        3362        3361
         4        3311        3312        3363        3362
         4        3312        3313        3364        3363
         4        3313        3314        3365        3364
         4        3315        3316        3367        3366
         4        3316        3317        3368        3367
         4        3317        3318        3369        3368
         4        3318        3319        3370        3369
         4        3319        3320        3371        3370
         4        3320        3321        3372        3371
         4        3321        3322        3373        3372
         4        3322        3323        3374        3373
         4        3323        3324        3375        3374
         4        3324        3325        3376        3375
         4        3325        3326        3377        3376
         4        3326        3327        3378        3377
         4        3327        3328        3379        3378
         4        3328        3329        3380        3379
         4        3329        3330        3381        3380
         4        3330        3331        3382        3381
         4        3331        3332        3383        3382
         4        3332        3333        3384        3383
         4        3333        3334        3385        3384
         4        3334        3335        3386        3385
         4        3335        3336        3387        3386
         4        3336        3337        3388        3387
         4        3337        3338        3389        3388
         4        3338        3339        3390        3389
         4        3339        3340        3391        3390
         4        3340        3341        3392        3391
         4        3341        3342        3393        3392
         4        3342        3343        3394        3393
         4        3343        3344        3395        3394
         4        3344        3345        3396        3395
         4        3345        3346        3397        3396
         4        3346        3347        3398        3397
         4        3347        3348        3399        3398
         4        3348        3349        3400        3399
         4        3349        3350        3401        3400
         4        3350        3351        3402        3401
         4        3351        3352        3403        3402
         4        3352        3353        3404        3403
         4        3353        3354        3405        3404
         4        3354        3355        3406        3405
         4        3355        3356        3407        3406
         4        3356        3357        3408        3407
         4        3357        3358        3409        3408
         4        3358        3359        3410        3409
         4        3359        3360        3411        3410
         4        3360        3361        3412        3411
         4        3361        3362        3413        3412
         4        3362        3363        3414        3413
         4        3363        3364        3415        3414
         4        3364        3365        3416        3415
         4        3366        3367        3418        3417
         4        3367        3368        3419        3418
         4        3368        3369        3420        3419
         4        3369        3370        3421        3420
         4        3370        3371        3422        3421
         4        3371        3372        3423        3422
         4        3372        3373        3424        3423
         4        3373        3374        3425        3424
         4        3374        3375        3426        3425
         4        3375        3376        3427        3426
         4        3376        3377        3428        3427
         4        3377        3378        3429        3428
         4        3378        3379        3430        3429
         4        3379        3380        3431        3430
         4        3380        3381        3432        3431
         4        3381        3382        3433        3432
         4        3382        3383        3434        3433
         4        3383        3384        3435        3434
         4        3384        3385        3436        3435
         4        3385        3386        3437        3436
         4        3386        3387        3438        3437
         4        3387        3388        3439        3438
         4        3388        3389        3440        3439
         4        3389        3390        3441        3440
         4        3390        3391        3442        3441
         4        3391        3392        3443        3442
         4        3392        3393        3444        3443
         4        3393        3394        3445        3444
         4        3394        3395        3446        3445
         4        3395        3396        3447        3446
         4        3396        3397        3448        3447
         4        3397        3398        3449        3448
         4        3398        3399        3450        3449
         4        3399        3400        3451        3450
         4        3400        3401        3452        3451
         4        3401        3402        3453        3452
         4        3402        3403        3454        3453
         4        3403        3404        3455        3454
         4        3404        3405        3456        3455
         4        3405        3406        3457        3456
         4        3406        3407        3458        3457
         4        3407        3408        3459        3458
         4        3408        3409        3460        3459
         4        3409        3410        3461        3460
         4        3410        3411        3462        3461
         4        3411        3412        3463        3462
         4        3412        3413        3464        3463
         4        3413        3414        3465        3464
         4        3414        3415        3466        3465
         4        3415        3416        3467        3466
         4        3417        3418        3469        3468
         4        3418        3419        3470        3469
         4        3419        3420        3471        3470
         4        3420        3421        3472        3471
         4        3421        3422        3473        3472
         4        3422        3423        3474        3473
         4        3423        3424        3475        3474
         4        3424        3425        3476        3475
         4        3425        3426        3477        3476
         4        3426        3427        3478        3477
         4        3427        3428        3479        3478
         4        3428        3429        3480        3479
         4        3429        3430        3481        3480
         4        3430        3431        3482        3481
         4        3431        3432        3483        3482
         4        3432        3433        3484        3483
         4        3433        3434        3485        3484
         4        3434        3435        3486        3485
         4        3435        3436        3487        3486
         4        3436        3437        3488        3487
         4        3437        3438        3489        3488
         4        3438        3439        3490        3489
         4        3439        3440        3491        3490
         4        3440        3441        3492        3491
         4        3441        3442        3493        3492
         4        3442        3443        3494        3493
         4        3443        3444        3495        3494
         4        3444        3445        3496        3495
         4        3445        3446        3497        3496
         4        3446        3447        3498        3497
         4        3447        3448        3499        3498
         4        3448        3449        3500        3499
         4        3449        3450        3501        3500
         4        3450        3451        3502        3501
         4        3451        3452        3503        3502
         4        3452        3453        3504        3503
         4        3453        3454        3505        3504
         4        3454        3455        3506        3505
         4        3455        3456        3507        3506
         4        3456        3457        3508        3507
         4        3457        3458        3509        3508
         4        3458        3459        3510        3509
         4        3459        3460        3511        3510
         4        3460        3461        3512        3511
         4        3461        3462        3513        3512
         4        3462        3463        3514        3513
         4        3463        3464        3515        3514
         4        3464        3465        3516        3515
         4        3465        3466        3517        3516
         4        3466        3467        3518        3517
         4        3468        3469        3520        3519
         4        3469        3470        3521        3520
         4        3470        3471        3522        3521
         4        3471        3472        3523        3522
         4        3472        3473        3524        3523
         4        3473        3474        3525        3524
         4        3474        3475        3526        3525
         4        3475        3476        3527        3526
         4        3476        3477        3528        3527
         4        3477        3478        3529        3528
         4        3478        3479        3530        3529
         4        3479        3480        3531        3530
         4        3480        3481        3532        3531
         4        3481        3482        3533        3532
         4        3482        3483        3534        3533
         4        3483        3484        3535        3534
         4        3484        3485        3536        3535
         4        3485        3486        3537        3536
         4        3486        3487        3538        3537
         4        3487        3488        3539        3538
         4        3488        3489        3540        3539
         4        3489        3490        3541        3540
         4        3490        3491        3542        3541
         4        3491        3492        3543        3542
         4        3492        3493        3544        3543
         4        3493        3494        3545        3544
         4        3494        3495        3546        3545
         4        3495        3496        3547        3546
         4        3496        3497        3548        3547
         4        3497        3498        3549        3548
         4        3498        3499        3550        3549
         4        3499        3500        3551        3550
         4        3500        3501        3552        3551
         4        3501        3502        3553        3552
         4        3502        3503        3554        3553
         4        3503        3504        3555        3554
         4        3504        3505        3556        3555
         4        3505        3506        3557        3556
         4        3506        3507        3558        3557
         4        3507        3508        3559        3558
         4        3508        3509        3560        3559
         4        3509        3510        3561        3560
         4        3510        3511        3562        3561
         4        3511        3512        3563        3562
         4        3512        3513        3564        3563
         4        3513        3514        3565        3564
         4        3514        3515        3566        3565
         4        3515        3516        3567        3566
         4        3516        3517        3568        3567
         4        3517        3518        3569        3568
         4        3519        3520        3571        3570
         4        3520        3521        3572        3571
         4        3521        3522        3573        3572
         4        3522        3523        3574        3573
         4        3523        3524        3575        3574
         4        3524        3525        3576        3575
         4        3525        3526        3577        3576
         4        3526        3527        3578        3577
         4        3527        3528        3579        3578
         4        3528        3529        3580        3579
         4        3529        3530        3581        3580
         4        3530        3531        3582        3581
         4        3531        3532        3583        3582
         4        3532        3533        3584        3583
         4        3533        3534        3585        3584
         4        3534        3535        3586        3585
         4        3535        3536        3587        3586
         4        3536        3537        3588        3587
         4        3537        3538        3589        3588
         4        3538        3539        3590        3589
         4        3539        3540        3591        3590
         4        3540        3541        3592        3591
         4        3541        3542        3593        3592
         4        3542        3543        3594        3593
         4        3543        3544        3595        3594
         4        3544        3545        3596        3595
         4        3545        3546        3597        3596
         4        3546        3547        3598        3597
         4        3547        3548        3599        3598
         4        3548        3549        3600        3599
         4        3549        3550        3601        3600
         4        3550        3551        3602        3601
         4        3551        3552        3603        3602
         4        3552        3553        3604        3603
         4        3553        3554        3605        3604
         4        3554        3555        3606        3605
         4        3555        3556        3607        3606
         4        3556        3557        3608        3607
         4        3557        3558        3609        3608
         4        3558        3559        3610        3609
         4        3559        3560        3611        3610
         4        3560        3561        3612        3611
         4        3561        3562        3613        3612
         4        3562        3563        3614        3613
         4        3563        3564        3615        3614
         4        3564        3565        3616        3615
         4        3565        3566        3617        3616
         4        3566        3567        3618        3617
         4        3567        3568        3619        3618
         4        3568        3569        3620        3619
         4        3570        3571        3622        3621
         4        3571        3572        3623        3622
         4        3572        3573        3624        3623
         4        3573        3574        3625        3624
         4        3574        3575        3626        3625
         4        3575        3576        3627        3626
         4        3576        3577        3628        3627
         4        3577        3578        3629        3628
         4        3578        3579        3630        3629
         4        3579        3580        3631        3630
         4        3580        3581        3632        3631
         4        3581        3582        3633        3632
         4        3582        3583        3634        3633
         4        3583        3584        3635        3634
         4        3584        3585        3636        3635
         4        3585        3586        3637        3636
         4        3586        3587        3638        3637
         4        3587        3588        3639        3638
         4        3588        3589        3640        3639
         4        3589        3590        3641        3640
         4        3590        3591        3642        3641
         4        3591        3592        3643        3642
         4        3592        3593        3644        3643
         4        3593        3594        3645        3644
         4        3594        3595        3646        3645
         4        3595        3596        3647        3646
         4        3596        3597        3648        3647
         4        3597        3598        3649        3648
         4        3598        3599        3650        3649
         4        3599        3600        3651        3650
         4        3600        3601        3652        3651
         4        3601        3602        3653        3652
         4        3602        3603        3654        3653
         4        3603        3604        3655        3654
         4        3604        3605        3656        3655
         4        3605        3606        3657        3656
         4        3606        3607        3658        3657
         4        3607        3608        3659        3658
         4        3608        3609        3660        3659
         4        3609        3610        3661        3660
         4        3610        3611        3662        3661
         4        3611        3612        3663        3662
         4        3612        3613        3664        3663
         4        3613        3614        3665        3664
         4        3614        3615        3666        3665
         4        3615        3616        3667        3666
         4        3616        3617        3668        3667
         4        3617        3618        3669        3668
         4        3618        3619        3670        3669
         4        3619        3620        3671        3670
         4        3621        3622        3673        3672
         4        3622        3623        3674        3673
         4        3623        3624        3675        3674
         4        3624        3625        3676        3675
         4        3625        3626        3677        3676
         4        3626        3627        3678        3677
         4        3627        3628        3679        3678
         4        3628        3629        3680        3679
         4        3629        3630        3681        3680
         4        3630        3631        3682        3681
         4        3631        3632        3683        3682
         4        3632        3633        3684        3683
         4        3633        3634        3685        3684
         4        3634        3635        3686        3685
         4        3635        3636        3687        3686
         4        3636        3637        3688        3687
         4        3637        3638        3689        3688
         4        3638        3639        3690        3689
         4        3639        3640        3691        3690
         4        3640        3641        3692        3691
         4        3641        3642        3693        3692
         4        3642        3643        3694        3693
         4        3643        3644        3695        3694
         4        3644        3645        3696        3695
         4        3645        3646        3697        3696
         4        3646        3647        3698        3697
         4        3647        3648        3699        3698
         4        3648        3649        3700        3699
         4        3649        3650        3701        3700
         4        3650        3651        3702        3701
         4        3651        3652        3703        3702
         4        3652        3653        3704        3703
         4        3653        3654        3705        3704
         4        3654        3655        3706        3705
         4        3655        3656        3707        3706
         4        3656        3657        3708        3707
         4        3657        3658        3709        3708
         4        3658        3659        3710        3709
         4        3659        3660        3711        3710
         4        3660        3661        3712        3711
         4        3661        3662        3713        3712
         4        3662        3663        3714        3713
         4        3663        3664        3715        3714
         4        3664        3665        3716        3715
         4        3665        3666        3717        3716
         4        3666        3667        3718        3717
         4        3667        3668        3719        3718
         4        3668        3669        3720        3719
         4        3669        3670        3721        3720
         4        3670        3671        3722        3721
         4        3672        3673        3724        3723
         4        3673        3674        3725        3724
         4        3674        3675        3726        3725
         4        3675        3676        3727        3726
         4        3676        3677        3728        3727
         4        3677        3678        3729        3728
         4        3678        3679        3730        3729
         4        3679        3680        3731        3730
         4        3680        3681        3732        3731
         4        3681        3682        3733        3732
         4        3682        3683        3734        3733
         4        3683        3684        3735        3734
         4        3684        3685        3736        3735
         4        3685        3686        3737        3736
         4        3686        3687        3738        3737
         4        3687        3688        3739        3738
         4        3688        3689        3740        3739
         4        3689        3690        3741        3740
         4        3690        3691        3742        3741
         4        3691        3692        3743        3742
         4        3692        3693        3744        3743
         4        3693        3694        3745        3744
         4        3694        3695        3746        3745
         4        3695        3696        3747        3746
         4        3696        3697        3748        3747
         4        3697        3698        3749        3748
         4        3698        3699        3750        3749
         4        3699        3700        3751        3750
         4        3700        3701        3752        3751
         4        3701        3702        3753        3752
         4        3702        3703        3754        3753
         4        3703        3704        3755        3754
         4        3704        3705        3756        3755
         4        3705        3706        3757        3756
         4        3706        3707        3758        3757
         4        3707        3708        3759        3758
         4        3708        3709        3760        3759
         4        3709        3710        3761        3760
         4        3710        3711        3762        3761
         4        3711        3712        3763        3762
         4        3712        3713        3764        3763
         4        3713        3714        3765        3764
         4        3714        3715        3766        3765
         4        3715        3716        3767        3766
         4        3716        3717        3768        3767
         4        3717        3718        3769        3768
         4        3718        3719        3770        3769
         4        3719        3720        3771        3770
         4        3720        3721        3772        3771
         4        3721        3722        3773        3772
         4        3723        3724        3775        3774
         4        3724        3725        3776        3775
         4        3725        3726        3777        3776
         4        3726        3727        3778        3777
         4        3727        3728        3779        3778
         4        3728        3729        3780        3779
         4        3729        3730        3781        3780
         4        3730        3731        3782        3781
         4        3731        3732        3783        3782
         4        3732        3733        3784        3783
         4        3733        3734        3785        3784
         4        3734        3735        3786        3785
         4        3735        3736        3787        3786
         4        3736        3737        3788        3787
         4        3737        3738        3789        3788
         4        3738        3739        3790        3789
         4        3739        3740        3791        3790
         4        3740        3741        3792        3791
         4        3741        3742        3793        3792
         4        3742        3743        3794        3793
         4        3743        3744        3795        3794
         4        3744        3745        3796        3795
         4        3745        3746        3797        3796
         4        3746        3747        3798        3797
         4        3747        3748        3799        3798
         4        3748        3749        3800        3799
         4        3749        3750        3801        3800
         4        3750        3751        3802        3801
         4        3751        3752        3803        3802
         4        3752        3753        3804        3803
         4        3753        3754        3805        3804
         4        3754        3755        3806        3805
         4        3755        3756        3807        3806
         4        3756        3757        3808        3807
         4        3757        3758        3809        3808
         4        3758        3759        3810        3809
         4        3759        3760        3811        3810
         4        3760        3761        3812        3811
         4        3761        3762        3813        3812
         4        3762        3763        3814        3813
         4        3763        3764        3815        3814
         4        3764        3765        3816        3815
         4        3765        3766        3817        3816
         4        3766        3767        3818        3817
         4        3767        3768        3819        3818
         4        3768        3769        3820        3819
         4        3769        3770        3821        3820
         4        3770        3771        3822        3821
         4        3771        3772        3823        3822
         4        3772        3773        3824        3823
         4        3774        3775        3826        3825
         4        3775        3776        3827        3826
         4        3776        3777        3828        3827
         4        3777        3778        3829        3828
         4        3778        3779        3830        3829
         4        3779        3780        3831        3830
         4        3780        3781        3832        3831
         4        3781        3782        3833        3832
         4        3782        3783        3834        3833
         4        3783        3784        3835        3834
         4        3784        3785        3836        3835
         4        3785        3786        3837        3836
         4        3786        3787        3838        3837
         4        3787        3788        3839        3838
         4        3788        3789        3840        3839
         4        3789        3790        3841        3840
         4        3790        3791        3842        3841
         4        3791        3792        3843        3842
         4        3792        3793        3844        3843
         4        3793        3794        3845        3844
         4        3794        3795        3846        3845
         4        3795        3796        3847        3846
         4        3796        3797        3848        3847
         4        3797        3798        3849        3848
         4        3798        3799        3850        3849
         4        3799        3800        3851        3850
         4        3800        3801        3852        3851
         4        3801        3802        3853        3852
         4        3802        3803        3854        3853
         4        3803        3804        3855        3854
         4        3804        3805        3856        3855
         4        3805        3806        3857        3856
         4        3806        3807        3858        3857
         4        3807        3808        3859        3858
         4        3808        3809        3860        3859
         4        3809        3810        3861        3860
         4        3810        3811        3862        3861
         4        3811        3812        3863        3862
         4        3812        3813        3864        3863
         4        3813        3814        3865        3864
         4        3814        3815        3866        3865
         4        3815        3816        3867        3866
         4        3816        3817        3868        3867
         4        3817        3818        3869        3868
         4        3818        3819        3870        3869
         4        3819        3820        3871        3870
         4        3820        3821        3872        3871
         4        3821        3822        3873        3872
         4        3822        3823        3874        3873
         4        3823        3824        3875        3874
         4        3825        3826        3877        3876
         4        3826        3827        3878        3877
         4        3827        3828        3879        3878
         4        3828        3829        3880        3879
         4        3829        3830        3881        3880
         4        3830        3831        3882        3881
         4        3831        3832        3883        3882
         4        3832        3833        3884        3883
         4        3833        3834        3885        3884
         4        3834        3835        3886        3885
         4        3835        3836        3887        3886
         4        3836        3837        3888        3887
         4        3837        3838        3889        3888
         4        3838        3839        3890        3889
         4        3839        3840        3891        3890
         4        3840        3841        3892        3891
         4        3841        3842        3893        3892
         4        3842        3843        3894        3893
         4        3843        3844        3895        3894
         4        3844        3845        3896        3895
         4        3845        3846        3897        3896
         4        3846        3847        3898        3897
         4        3847        3848        3899        3898
         4        3848        3849        3900        3899
         4        3849        3850        3901        3900
         4        3850        3851        3902        3901
         4        3851        3852        3903        3902
         4        3852        3853        3904        3903
         4        3853        3854        3905        3904
         4        3854        3855        3906        3905
         4        3855        3856        3907        3906
         4        3856        3857        3908        3907
         4        3857        3858        3909        3908
         4        3858        3859        3910        3909
         4        3859        3860        3911        3910
         4        3860        3861        3912        3911
         4        3861        3862        3913        3912
         4        3862        3863        3914        3913
         4        3863        3864        3915        3914
         4        3864        3865        3916        3915
         4        3865        3866        3917        3916
         4        3866        3867        3918        3917
         4        3867        3868        3919        3918
         4        3868        3869        3920        3919
         4        3869        3870        3921        3920
         4        3870        3871        3922        3921
         4        3871        3872        3923        3922
         4        3872        3873        3924        3923
         4        3873        3874        3925        3924
         4        3874        3875        3926        3925
         4        3876        3877        3928        3927
         4        3877        3878        3929        3928
         4        3878        3879        3930        3929
         4        3879        3880        3931        3930
         4        3880        3881        3932        3931
         4        3881        3882        3933        3932
         4        3882        3883        3934        3933
         4        3883        3884        3935        3934
         4        3884        3885        3936        3935
         4        3885        3886        3937        3936
         4        3886        3887        3938        3937
         4        3887        3888        3939        3938
         4        3888        3889        3940        3939
         4        3889        3890        3941        3940
         4        3890        3891        3942        3941
         4        3891        3892        3943        3942
         4        3892        3893        3944        3943
         4        3893        3894        3945        3944
         4        3894        3895        3946        3945
         4        3895        3896        3947        3946
         4        3896        3897        3948        3947
         4        3897        3898        3949        3948
         4        3898        3899        3950        3949
         4        3899        3900        3951        3950
         4        3900        3901        3952        3951
         4        3901        3902        3953        3952
         4        3902        3903        3954        3953
         4        3903        3904        3955        3954
         4        3904        3905        3956        3955
         4        3905        3906        3957        3956
         4        3906        3907        3958        3957
         4        3907        3908        3959        3958
         4        3908        3909        3960        3959
         4        3909        3910        3961        3960
         4        3910        3911        3962        3961
         4        3911        3912        3963        3962
         4        3912        3913        3964        3963
         4        3913        3914        3965        3964
         4        3914        3915        3966        3965
         4        3915        3916        3967        3966
         4        3916        3917        3968        3967
         4        3917        3918        3969        3968
         4        3918        3919        3970        3969
         4        3919        3920        3971        3970
         4        3920        3921        3972        3971
         4        3921        3922        3973        3972
         4        3922        3923        3974        3973
         4        3923        3924        3975        3974
         4        3924        3925        3976        3975
         4        3925        3926        3977        3976
         4        3927        3928        3979        3978
         4        3928        3929        3980        3979
         4        3929        3930        3981        3980
         4        3930        3931        3982        3981
         4        3931        3932        3983        3982
         4        3932        3933        3984        3983
         4        3933        3934        3985        3984
         4        3934        3935        3986        3985
         4        3935        3936        3987        3986
         4        3936        3937        3988        3987
         4        3937        3938        3989        3988
         4        3938        3939        3990        3989
         4        3939        3940        3991        3990
         4        3940        3941        3992        3991
         4        3941        3942        3993        3992
         4        3942        3943        3994        3993
         4        3943        3944        3995        3994
         4        3944        3945        3996        3995
         4        3945        3946        3997        3996
         4        3946        3947        3998        3997
         4        3947        3948        3999        3998
         4        3948        3949        4000        3999
         4        3949        3950        4001        4000
         4        3950        3951        4002        4001
         4        3951        3952        4003        4002
         4        3952        3953        4004        4003
         4        3953        3954        4005        4004
         4        3954        3955        4006        4005
         4        3955        3956        4007        4006
         4        3956        3957        4008        4007
         4        3957        3958        4009        4008
         4        3958        3959        4010        4009
         4        3959        3960        4011        4010
         4        3960        3961        4012        4011
         4        3961        3962        4013        4012
         4        3962        3963        4014        4013
         4        3963        3964        4015        4014
         4        3964        3965        4016        4015
         4        3965        3966        4017        4016
         4        3966        3967        4018        4017
         4        3967        3968        4019        4018
         4        3968        3969        4020        4019
         4        3969        3970        4021        4020
         4        3970        3971        4022        4021
         4        3971        3972        4023        4022
         4        3972        3973        4024        4023
         4        3973        3974        4025        4024
         4        3974        3975        4026        4025
         4        3975        3976        4027        4026
         4        3976        3977        4028        4027
         4        3978        3979        4030        4029
         4        3979        3980        4031        4030
         4        3980        3981        4032        4031
         4        3981        3982        4033        4032
         4        3982        3983        4034        4033
         4        3983        3984        4035        4034
         4        3984        3985        4036        4035
         4        3985        3986        4037        4036
         4        3986        3987        4038        4037
         4        3987        3988        4039        4038
         4        3988        3989        4040        4039
         4        3989        3990        4041        4040
         4        3990        3991        4042        4041
         4        3991        3992        4043        4042
         4        3992        3993        4044        4043
         4        3993        3994        4045        4044
         4        3994        3995        4046        4045
         4        3995        3996        4047        4046
         4        3996        3997        4048        4047
         4        3997        3998        4049        4048
         4        3998        3999        4050        4049
         4        3999        4000        4051        4050
         4        4000        4001        4052        4051
         4        4001        4002        4053        4052
         4        4002        4003        4054        4053
         4        4003        4004        4055        4054
         4        4004        4005        4056        4055
         4        4005        4006        4057        4056
         4        4006        4007        4058        4057
         4        4007        4008        4059        4058
         4        4008        4009        4060        4059
         4        4009        4010        4061        4060
         4        4010        4011        4062        4061
         4        4011        4012        4063        4062
         4        4012        4013        4064        4063
         4        4013        4014        4065        4064
         4        4014        4015        4066        4065
         4        4015        4016        4067        4066
         4        4016        4017        4068        4067
         4        4017        4018        4069        4068
         4        4018        4019        4070        4069
         4        4019        4020        4071        4070
         4        4020        4021        4072        4071
         4        4021        4022        4073        4072
         4        4022        4023        4074        4073
         4        4023        4024        4075        4074
         4        4024        4025        4076        4075
         4        4025        4026        4077        4076
         4        4026        4027        4078        4077
         4        4027        4028        4079        4078
         4        4029        4030        4081        4080
         4        4030        4031        4082        4081
         4        4031        4032        4083        4082
         4        4032        4033        4084        4083
         4        4033        4034        4085        4084
         4        4034        4035        4086        4085
         4        4035        4036        4087        4086
         4        4036        4037        4088        4087
         4        4037        4038        4089        4088
         4        4038        4039        4090        4089
         4        4039        4040        4091        4090
         4        4040        4041        4092        4091
         4        4041        4042        4093        4092
         4        4042        4043        4094        4093
         4        4043        4044        4095        4094
         4        4044        4045        4096        4095
         4        4045        4046        4097        4096
         4        4046        4047        4098        4097
         4        4047        4048        4099        4098
         4        4048        4049        4100        4099
         4        4049        4050        4101        4100
         4        4050        4051        4102        4101
         4        4051        4052        4103        4102
         4        4052        4053        4104        4103
         4        4053        4054        4105        4104
         4        4054        4055        4106        4105
         4        4055        4056        4107        4106
         4        4056        4057        4108        4107
         4        4057        4058        4109        4108
         4        4058        4059        4110        4109
         4        4059        4060        4111        4110
         4        4060        4061        4112        4111
         4        4061        4062        4113        4112
         4        4062        4063        4114        4113
         4        4063        4064        4115        4114
         4        4064        4065        4116        4115
         4        4065        4066        4117        4116
         4        4066        4067        4118        4117
         4        4067        4068        4119        4118
         4        4068        4069        4120        4119
         4        4069        4070        4121        4120
         4        4070        4071        4122        4121
         4        4071        4072        4123        4122
         4        4072        4073        4124        4123
         4        4073        4074        4125        4124
         4        4074        4075        4126        4125
         4        4075        4076        4127        4126
         4        4076        4077        4128        4127
         4        4077        4078        4129        4128
         4        4078        4079        4130        4129
         4        4080        4081        4132        4131
         4        4081        4082        4133        4132
         4        4082        4083        4134        4133
         4        4083        4084        4135        4134
         4        4084        4085        4136        4135
         4        4085        4086        4137        4136
         4        4086        4087        4138        4137
         4        4087        4088        4139        4138
         4        4088        4089        4140        4139
         4        4089        4090        4141        4140
         4        4090        4091        4142        4141
         4        4091        4092        4143        4142
         4        4092        4093        4144        4143
         4        4093        4094        4145        4144
         4        4094        4095        4146        4145
         4        4095        4096        4147        4146
         4        4096        4097        4148        4147
         4        4097        4098        4149        4148
         4        4098        4099        4150        4149
         4        4099        4100        4151        4150
         4        4100        4101        4152        4151
         4        4101        4102        4153        4152
         4        4102        4103        4154        4153
         4        4103        4104        4155        4154
         4        4104        4105        4156        4155
         4        4105        4106        4157        4156
         4        4106        4107        4158        4157
         4        4107        4108        4159        4158
         4        4108        4109        4160        4159
         4        4109        4110        4161        4160
         4        4110        4111        4162        4161
         4        4111        4112        4163        4162
         4        4112        4113        4164        4163
         4        4113        4114        4165        4164
         4        4114        4115        4166        4165
         4        4115        4116        4167        4166
         4        4116        4117        4168        4167
         4        4117        4118        4169        4168
         4        4118        4119        4170        4169
         4        4119        4120        4171        4170
         4        4120        4121        4172        4171
         4        4121        4122        4173        4172
         4        4122        4123        4174        4173
         4        4123        4124        4175        4174
         4        4124        4125        4176        4175
         4        4125        4126        4177        4176
         4        4126        4127        4178        4177
         4        4127        4128        4179        4178
         4        4128        4129        4180        4179
         4        4129        4130        4181        4180
         4        4131        4132        4183        4182
         4        4132        4133        4184        4183
         4        4133        4134        4185        4184
         4        4134        4135        4186        4185
         4        4135        4136        4187        4186
         4        4136        4137        4188        4187
         4        4137        4138        4189        4188
         4        4138        4139        4190        4189
         4        4139        4140        4191        4190
         4        4140        4141        4192        4191
         4        4141        4142        4193        4192
         4        4142        4143        4194        4193
         4        4143        4144        4195        4194
         4        4144        4145        4196        4195
         4        4145        4146        4197        4196
         4        4146        4147        4198        4197
         4        4147        4148        4199        4198
         4        4148        4149        4200        4199
         4        4149        4150        4201        4200
         4        4150        4151        4202        4201
         4        4151        4152        4203        4202
         4        4152        4153        4204        4203
         4        4153        4154        4205        4204
         4        4154        4155        4206        4205
         4        4155        4156        4207        4206
         4        4156        4157        4208        4207
         4        4157        4158        4209        4208
         4        4158        4159        4210        4209
         4        4159        4160        4211        4210
         4        4160        4161        4212        4211
         4        4161        4162        4213        4212
         4        4162        4163        4214        4213
         4        4163        4164        4215        4214
         4        4164        4165        4216        4215
         4        4165        4166        4217        4216
         4        4166        4167        4218        4217
         4        4167        4168        4219        4218
         4        4168        4169        4220        4219
         4        4169        4170        4221        4220
         4        4170        4171        4222        4221
         4        4171        4172        4223        4222
         4        4172        4173        4224        4223
         4        4173        4174        4225        4224
         4        4174        4175        4226        4225
         4        4175        4176        4227        4226
         4        4176        4177        4228        4227
         4        4177        4178        4229        4228
         4        4178        4179        4230        4229
         4        4179        4180        4231        4230
         4        4180        4181        4232        4231
         4        4182        4183        4234        4233
         4        4183        4184        4235        4234
         4        4184        4185        4236        4235
         4        4185        4186        4237        4236
         4        4186        4187        4238        4237
         4        4187        4188        4239        4238
         4        4188        4189        4240        4239
         4        4189        4190        4241        4240
         4        4190        4191        4242        4241
         4        4191        4192        4243        4242
         4        4192        4193        4244        4243
         4        4193        4194        4245        4244
         4        4194        4195        4246        4245
         4        4195        4196        4247        4246
         4        4196        4197        4248        4247
         4        4197        4198        4249        4248
         4        4198        4199        4250        4249
         4        4199        4200        4251        4250
         4        4200        4201        4252        4251
         4        4201        4202        4253        4252
         4        4202        4203        4254        4253
         4        4203        4204        4255        4254
         4        4204        4205        4256        4255
         4        4205        4206        4257        4256
         4        4206        4207        4258        4257
         4        4207        4208        4259        4258
         4        4208        4209        4260        4259
         4        4209        4210        4261        4260
         4        4210        4211        4262        4261
         4        4211        4212        4263        4262
         4        4212        4213        4264        4263
         4        4213        4214        4265        4264
         4        4214        4215        4266        4265
         4        4215        4216        4267        4266
         4        4216        4217        4268        4267
         4        4217        4218        4269        4268
         4        4218        4219        4270        4269
         4        4219        4220        4271        4270
         4        4220        4221        4272        4271
         4        4221        4222        4273        4272
         4        4222        4223        4274        4273
         4        4223        4224        4275        4274
         4        4224        4225        4276        4275
         4        4225        4226        4277        4276
         4        4226        4227        4278        4277
         4        4227        4228        4279        4278
         4        4228        4229        4280        4279
         4        4229        4230        4281        4280
         4        4230        4231        4282        4281
         4        4231        4232        4283        4282
         4        4233        4234        4285        4284
         4        4234        4235        4286        4285
         4        4235        4236        4287        4286
         4        4236        4237        4288        4287
         4        4237        4238        4289        4288
         4        4238        4239        4290        4289
         4        4239        4240        4291        4290
         4        4240        4241        4292        4291
         4        4241        4242        4293        4292
         4        4242        4243        4294        4293
         4        4243        4244        4295        4294
         4        4244        4245        4296        4295
         4        4245        4246        4297        4296
         4        4246        4247        4298        4297
         4        4247        4248        4299        4298
         4        4248        4249        4300        4299
         4        4249        4250        4301        4300
         4        4250        4251        4302        4301
         4        4251        4252        4303        4302
         4        4252        4253        4304        4303
         4        4253        4254        4305        4304
         4        4254        4255        4306        4305
         4        4255        4256        4307        4306
         4        4256        4257        4308        4307
         4        4257        4258        4309        4308
         4        4258        4259        4310        4309
         4        4259        4260        4311        4310
         4        4260        4261        4312        4311
         4        4261        4262        4313        4312
         4        4262        4263        4314        4313
         4        4263        4264        4315        4314
         4        4264        4265        4316        4315
         4        4265        4266        4317        4316
         4        4266        4267        4318        4317
         4        4267        4268        4319        4318
         4        4268        4269        4320        4319
         4        4269        4270        4321        4320
         4        4270        4271        4322        4321
         4        4271        4272        4323        4322
         4        4272        4273        4324        4323
         4        4273        4274        4325        4324
         4        4274        4275        4326        4325
         4        4275        4276        4327        4326
         4        4276        4277        4328        4327
         4        4277        4278        4329        4328
         4        4278        4279        4330        4329
         4        4279        4280        4331        4330
         4        4280        4281        4332        4331
         4        4281        4282        4333        4332
         4        4282        4283        4334        4333
         4        4284        4285        4336        4335
         4        4285        4286        4337        4336
         4        4286        4287        4338        4337
         4        4287        4288        4339        4338
         4        4288        4289        4340        4339
         4        4289        4290        4341        4340
         4        4290        4291        4342        4341
         4        4291        4292        4343        4342
         4        4292        4293        4344        4343
         4        4293        4294        4345        4344
         4        4294        4295        4346        4345
         4        4295        4296        4347        4346
         4        4296        4297        4348        4347
         4        4297        4298        4349        4348
         4        4298        4299        4350        4349
         4        4299        4300        4351        4350
         4        4300        4301        4352        4351
         4        4301        4302        4353        4352
         4        4302        4303        4354        4353
         4        4303        4304        4355        4354
         4        4304        4305        4356        4355
         4        4305        4306        4357        4356
         4        4306        4307        4358        4357
         4        4307        4308        4359        4358
         4        4308        4309        4360        4359
         4        4309        4310        4361        4360
         4        4310        4311        4362        4361
         4        4311        4312        4363        4362
         4        4312        4313        4364        4363
         4        4313        4314        4365        4364
         4        4314        4315        4366        4365
         4        4315        4316        4367        4366
         4        4316        4317        4368        4367
         4        4317        4318        4369        4368
         4        4318        4319        4370        4369
         4        4319        4320        4371        4370
         4        4320        4321        4372        4371
         4        4321        4322        4373        4372
         4        4322        4323        4374        4373
         4        4323        4324        4375        4374
         4        4324        4325        4376        4375
         4        4325        4326        4377        4376
         4        4326        4327        4378        4377
         4        4327        4328        4379        4378
         4        4328        4329        4380        4379
         4        4329        4330        4381        4380
         4        4330        4331        4382        4381
         4        4331        4332        4383        4382
         4        4332        4333        4384        4383
         4        4333        4334        4385        4384
         4        4335        4336        4387        4386
         4        4336        4337        4388        4387
         4        4337        4338        4389        4388
         4        4338        4339        4390        4389
         4        4339        4340        4391        4390
         4        4340        4341        4392        4391
         4        4341        4342        4393        4392
         4        4342        4343        4394        4393
         4        4343        4344        4395        4394
         4        4344        4345        4396        4395
         4        4345        4346        4397        4396
         4        4346        4347        4398        4397
         4        4347        4348        4399        4398
         4        4348        4349        4400        4399
         4        4349        4350        4401        4400
         4        4350        4351        4402        4401
         4        4351        4352        4403        4402
         4        4352        4353        4404        4403
         4        4353        4354        4405        4404
         4        4354        4355        4406        4405
         4        4355        4356        4407        4406
         4        4356        4357        4408        4407
         4        4357        4358        4409        4408
         4        4358        4359        4410        4409
         4        4359        4360        4411        4410
         4        4360        4361        4412        4411
         4        4361        4362        4413        4412
         4        4362        4363        4414        4413
         4        4363        4364        4415        4414
         4        4364        4365        4416        4415
         4        4365        4366        4417        4416
         4        4366        4367        4418        4417
         4        4367        4368        4419        4418
         4        4368        4369        4420        4419
         4        4369        4370        4421        4420
         4        4370        4371        4422        4421
         4        4371        4372        4423        4422
         4        4372        4373        4424        4423
         4        4373        4374        4425        4424
         4        4374        4375        4426        4425
         4        4375        4376        4427        4426
         4        4376        4377        4428        4427
         4        4377        4378        4429        4428
         4        4378        4379        4430        4429
         4        4379        4380        4431        4430
         4        4380        4381        4432        4431
         4        4381        4382        4433        4432
         4        4382        4383        4434        4433
         4        4383        4384        4435        4434
         4        4384        4385        4436        4435
         4        4386        4387        4438        4437
         4        4387        4388        4439        4438
         4        4388        4389        4440        4439
         4        4389        4390        4441        4440
         4        4390        4391        4442        4441
         4        4391        4392        4443        4442
         4        4392        4393        4444        4443
         4        4393        4394        4445        4444
         4        4394        4395        4446        4445
         4        4395        4396        4447        4446
         4        4396        4397        4448        4447
         4        4397        4398        4449        4448
         4        4398        4399        4450        4449
         4        4399        4400        4451        4450
         4        4400        4401        4452        4451
         4        4401        4402        4453        4452
         4        4402        4403        4454        4453
         4        4403        4404        4455        4454
         4        4404        4405        4456        4455
         4        4405        4406        4457        4456
         4        4406        4407        4458        4457
         4        4407        4408        4459        4458
         4        4408        4409        4460        4459
         4        4409        4410        4461        4460
         4        4410        4411        4462        4461
         4        4411        4412        4463        4462
         4        4412        4413        4464        4463
         4        4413        4414        4465        4464
         4        4414        4415        4466        4465
         4        4415        4416        4467        4466
         4        4416        4417        4468        4467
         4        4417        4418        4469        4468
         4        4418        4419        4470        4469
         4        4419        4420        4471        4470
         4        4420        4421        4472        4471
         4        4421        4422        4473        4472
         4        4422        4423        4474        4473
         4        4423        4424        4475        4474
         4        4424        4425        4476        4475
         4        4425        4426        4477        4476
         4        4426        4427        4478        4477
         4        4427        4428        4479        4478
         4        4428        4429        4480        4479
         4        4429        4430        4481        4480
         4        4430        4431        4482        4481
         4        4431        4432        4483        4482
         4        4432        4433        4484        4483
         4        4433        4434        4485        4484
         4        4434        4435        4486        4485
         4        4435        4436        4487        4486
         4        4437        4438        4489        4488
         4        4438        4439        4490        4489
         4        4439        4440        4491        4490
         4        4440        4441        4492        4491
         4        4441        4442        4493        4492
         4        4442        4443        4494        4493
         4        4443        4444        4495        4494
         4        4444        4445        4496        4495
         4        4445        4446        4497        4496
         4        4446        4447        4498        4497
         4        4447        4448        4499        4498
         4        4448        4449        4500        4499
         4        4449        4450        4501        4500
         4        4450        4451        4502        4501
         4        4451        4452        4503        4502
         4        4452        4453        4504        4503
         4        4453        4454        4505        4504
         4        4454        4455        4506        4505
         4        4455        4456        4507        4506
         4        4456        4457        4508        4507
         4        4457        4458        4509        4508
         4        4458        4459        4510        4509
         4        4459        4460        4511        4510
         4        4460        4461        4512        4511
         4        4461        4462        4513        4512
         4        4462        4463        4514        4513
         4        4463        4464        4515        4514
         4        4464        4465        4516        4515
         4        4465        4466        4517        4516
         4        4466        4467        4518        4517
         4        4467        4468        4519        4518
         4        4468        4469        4520        4519
         4        4469        4470        4521        4520
         4        4470        4471        4522        4521
         4        4471        4472        4523        4522
         4        4472        4473        4524        4523
         4        4473        4474        4525        4524
         4        4474        4475        4526        4525
         4        4475        4476        4527        4526
         4        4476        4477        4528        4527
         4        4477        4478        4529        4528
         4        4478        4479        4530        4529
         4        4479        4480        4531        4530
         4        4480        4481        4532        4531
         4        4481        4482        4533        4532
         4        4482        4483        4534        4533
         4        4483        4484        4535        4534
         4        4484        4485        4536        4535
         4        4485        4486        4537        4536
         4        4486        4487        4538        4537
         4        4488        4489        4540        4539
         4        4489        4490        4541        4540
         4        4490        4491        4542        4541
         4        4491        4492        4543        4542
         4        4492        4493        4544        4543
         4        4493        4494        4545        4544
         4        4494        4495        4546        4545
         4        4495        4496        4547        4546
         4        4496        4497        4548        4547
         4        4497        4498        4549        4548
         4        4498        4499        4550        4549
         4        4499        4500        4551        4550
         4        4500        4501        4552        4551
         4        4501        4502        4553        4552
         4        4502        4503        4554        4553
         4        4503        4504        4555        4554
         4        4504        4505        4556        4555
         4        4505        4506        4557        4556
         4        4506        4507        4558        4557
         4        4507        4508        4559        4558
         4        4508        4509        4560        4559
         4        4509        4510        4561        4560
         4        4510        4511        4562        4561
         4        4511        4512        4563        4562
         4        4512        4513        4564        4563
         4        4513        4514        4565        4564
         4        4514        4515        4566        4565
         4        4515        4516        4567        4566
         4        4516        4517        4568        4567
         4        4517        4518        4569        4568
         4        4518        4519        4570        4569
         4        4519        4520        4571        4570
         4        4520        4521        4572        4571
         4        4521        4522        4573        4572
         4        4522        4523        4574        4573
         4        4523        4524        4575        4574
         4        4524        4525        4576        4575
         4        4525        4526        4577        4576
         4        4526        4527        4578        4577
         4        4527        4528        4579        4578
         4        4528        4529        4580        4579
         4        4529        4530        4581        4580
         4        4530        4531        4582        4581
         4        4531        4532        4583        4582
         4        4532        4533        4584        4583
         4        4533        4534        4585        4584
         4        4534        4535        4586        4585
         4        4535        4536        4587        4586
         4        4536        4537        4588        4587
         4        4537        4538        4589        4588
         4        4539        4540        4591        4590
         4        4540        4541        4592        4591
         4        4541        4542        4593        4592
         4        4542        4543        4594        4593
         4        4543        4544        4595        4594
         4        4544        4545        4596        4595
         4        4545        4546        4597        4596
         4        4546        4547        4598        4597
         4        4547        4548        4599        4598
         4        4548        4549        4600        4599
         4        4549        4550        4601        4600
         4        4550        4551        4602        4601
         4        4551        4552        4603        4602
         4        4552        4553        4604        4603
         4        4553        4554        4605        4604
         4        4554        4555        4606        4605
         4        4555        4556        4607        4606
         4        4556        4557        4608        4607
         4        4557        4558        4609        4608
         4        4558        4559        4610        4609
         4        4559        4560        4611        4610
         4        4560        4561        4612        4611
         4        4561        4562        4613        4612
         4        4562        4563        4614        4613
         4        4563        4564        4615        4614
         4        4564        4565        4616        4615
         4        4565        4566        4617        4616
         4        4566        4567        4618        4617
         4        4567        4568        4619        4618
         4        4568        4569        4620        4619
         4        4569        4570        4621        4620
         4        4570        4571        4622        4621
         4        4571        4572        4623        4622
         4        4572        4573        4624        4623
         4        4573        4574        4625        4624
         4        4574        4575        4626        4625
         4        4575        4576        4627        4626
         4        4576        4577        4628        4627
         4        4577        4578        4629        4628
         4        4578        4579        4630        4629
         4        4579        4580        4631        4630
         4        4580        4581        4632        4631
         4        4581        4582        4633        4632
         4        4582        4583        4634        4633
         4        4583        4584        4635        4634
         4        4584        4585        4636        4635
         4        4585        4586        4637        4636
         4        4586        4587        4638        4637
         4        4587        4588        4639        4638
         4        4588        4589        4640        4639
         4        4590        4591        4642        4641
         4        4591        4592        4643        4642
         4        4592        4593        4644        4643
         4        4593        4594        4645        4644
         4        4594        4595        4646        4645
         4        4595        4596        4647        4646
         4        4596        4597        4648        4647
         4        4597        4598        4649        4648
         4        4598        4599        4650        4649
         4        4599        4600        4651        4650
         4        4600        4601        4652        4651
         4        4601        4602        4653        4652
         4        4602        4603        4654        4653
         4        4603        4604        4655        4654
         4        4604        4605        4656        4655
         4        4605        4606        4657        4656
         4        4606        4607        4658        4657
         4        4607        4608        4659        4658
         4        4608        4609        4660        4659
         4        4609        4610        4661        4660
         4        4610        4611        4662        4661
         4        4611        4612        4663        4662
         4        4612        4613        4664        4663
         4        4613        4614        4665        4664
         4        4614        4615        4666        4665
         4        4615        4616        4667        4666
         4        4616        4617        4668        4667
         4        4617        4618        4669        4668
         4        4618        4619        4670        4669
         4        4619        4620        4671        4670
         4        4620        4621        4672        4671
         4        4621        4622        4673        4672
         4        4622        4623        4674        4673
         4        4623        4624        4675        4674
         4        4624        4625        4676        4675
         4        4625        4626        4677        4676
         4        4626        4627        4678        4677
         4        4627        4628        4679        4678
         4        4628        4629        4680        4679
         4        4629        4630        4681        4680
         4        4630        4631        4682        4681
         4        4631        4632        4683        4682
         4        4632        4633        4684        4683
         4        4633        4634        4685        4684
         4        4634        4635        4686        4685
         4        4635        4636        4687        4686
         4        4636        4637        4688        4687
         4        4637        4638        4689        4688
         4        4638        4639        4690        4689
         4        4639        4640        4691        4690
         4        4641        4642        4693        4692
         4        4642        4643        4694        4693
         4        4643        4644        4695        4694
         4        4644        4645        4696        4695
         4        4645        4646        4697        4696
         4        4646        4647        4698        4697
         4        4647        4648        4699        4698
         4        4648        4649        4700        4699
         4        4649        4650        4701        4700
         4        4650        4651        4702        4701
         4        4651        4652        4703        4702
         4        4652        4653        4704        4703
         4        4653        4654        4705        4704
         4        4654        4655        4706        4705
         4        4655        4656        4707        4706
         4        4656        4657        4708        4707
         4        4657        4658        4709        4708
         4        4658        4659        4710        4709
         4        4659        4660        4711        4710
         4        4660        4661        4712        4711
         4        4661        4662        4713        4712
         4        4662        4663        4714        4713
         4        4663        4664        4715        4714
         4        4664        4665        4716        4715
         4        4665        4666        4717        4716
         4        4666        4667        4718        4717
         4        4667        4668        4719        4718
         4        4668        4669        4720        4719
         4        4669        4670        4721        4720
         4        4670        4671        4722        4721
         4        4671        4672        4723        4722
         4        4672        4673        4724        4723
         4        4673        4674        4725        4724
         4        4674        4675        4726        4725
         4        4675        4676        4727        4726
         4        4676        4677        4728        4727
         4        4677        4678        4729        4728
         4        4678        4679        4730        4729
         4        4679        4680        4731        4730
         4        4680        4681        4732        4731
         4        4681        4682        4733        4732
         4        4682        4683        4734        4733
         4        4683        4684        4735        4734
         4        4684        4685        4736        4735
         4        4685        4686        4737        4736
         4        4686        4687        4738        4737
         4        4687        4688        4739        4738
         4        4688        4689        4740        4739
         4        4689        4690        4741        4740
         4        4690        4691        4742        4741
         4        4692        4693        4744        4743
         4        4693        4694        4745        4744
         4        4694        4695        4746        4745
         4        4695        4696        4747        4746
         4        4696        4697        4748        4747
         4        4697        4698        4749        4748
         4        4698        4699        4750        4749
         4        4699        4700        4751        4750
         4        4700        4701        4752        4751
         4        4701        4702        4753        4752
         4        4702        4703        4754        4753
         4        4703        4704        4755        4754
         4        4704        4705        4756        4755
         4        4705        4706        4757        4756
         4        4706        4707        4758        4757
         4        4707        4708        4759        4758
         4        4708        4709        4760        4759
         4        4709        4710        4761        4760
         4        4710        4711        4762        4761
         4        4711        4712        4763        4762
         4        4712        4713        4764        4763
         4        4713        4714        4765        4764
         4        4714        4715        4766        4765
         4        4715        4716        4767        4766
         4        4716        4717        4768        4767
         4        4717        4718        4769        4768
         4        4718        4719        4770        4769
         4        4719        4720        4771        4770
         4        4720        4721        4772        4771
         4        4721        4722        4773        4772
         4        4722        4723        4774        4773
         4        4723        4724        4775        4774
         4        4724        4725        4776        4775
         4        4725        4726        4777        4776
         4        4726        4727        4778        4777
         4        4727        4728        4779        4778
         4        4728        4729        4780        4779
         4        4729        4730        4781        4780
         4        4730        4731        4782        4781
         4        4731        4732        4783        4782
         4        4732        4733        4784        4783
         4        4733        4734        4785        4784
         4        4734        4735        4786        4785
         4        4735        4736        4787        4786
         4        4736        4737        4788        4787
         4        4737        4738        4789        4788
         4        4738        4739        4790        4789
         4        4739        4740        4791        4790
         4        4740        4741        4792        4791
         4        4741        4742        4793        4792
         4        4743        4744        4795        4794
         4        4744        4745        4796        4795
         4        4745        4746        4797        4796
         4        4746        4747        4798        4797
         4        4747        4748        4799        4798
         4        4748        4749        4800        4799
         4        4749        4750        4801        4800
         4        4750        4751        4802        4801
         4        4751        4752        4803        4802
         4        4752        4753        4804        4803
         4        4753        4754        4805        4804
         4        4754        4755        4806        4805
         4        4755        4756        4807        4806
         4        4756        4757        4808        4807
         4        4757        4758        4809        4808
         4        4758        4759        4810        4809
         4        4759        4760        4811        4810
         4        4760        4761        4812        4811
         4        4761        4762        4813        4812
         4        4762        4763        4814        4813
         4        4763        4764        4815        4814
         4        4764        4765        4816        4815
         4        4765        4766        4817        4816
         4        4766        4767        4818        4817
         4        4767        4768        4819        4818
         4        4768        4769        4820        4819
         4        4769        4770        4821        4820
         4        4770        4771        4822        4821
         4        4771        4772        4823        4822
         4        4772        4773        4824        4823
         4        4773        4774        4825        4824
         4        4774        4775        4826        4825
         4        4775        4776        4827        4826
         4        4776        4777        4828        4827
         4        4777        4778        4829        4828
         4        4778        4779        4830        4829
         4        4779        4780        4831        4830
         4        4780        4781        4832        4831
         4        4781        4782        4833        4832
         4        4782        4783        4834        4833
         4        4783        4784        4835        4834
         4        4784        4785        4836        4835
         4        4785        4786        4837        4836
         4        4786        4787        4838        4837
         4        4787        4788        4839        4838
         4        4788        4789        4840        4839
         4        4789        4790        4841        4840
         4        4790        4791        4842        4841
         4        4791        4792        4843        4842
         4        4792        4793        4844        4843
         4        4794        4795        4846        4845
         4        4795        4796        4847        4846
         4        4796        4797        4848        4847
         4        4797        4798        4849        4848
         4        4798        4799        4850        4849
         4        4799        4800        4851        4850
         4        4800        4801        4852        4851
         4        4801        4802        4853        4852
         4        4802        4803        4854        4853
         4        4803        4804        4855        4854
         4        4804        4805        4856        4855
         4        4805        4806        4857        4856
         4        4806        4807        4858        4857
         4        4807        4808        4859        4858
         4        4808        4809        4860        4859
         4        4809        4810        4861        4860
         4        4810        4811        4862        4861
         4        4811        4812        4863        4862
         4        4812        4813        4864        4863
         4        4813        4814        4865        4864
         4        4814        4815        4866        4865
         4        4815        4816        4867        4866
         4        4816        4817        4868        4867
         4        4817        4818        4869        4868
         4        4818        4819        4870        4869
         4        4819        4820        4871        4870
         4        4820        4821        4872        4871
         4        4821        4822        4873        4872
         4        4822        4823        4874        4873
         4        4823        4824        4875        4874
         4        4824        4825        4876        4875
         4        4825        4826        4877        4876
         4        4826        4827        4878        4877
         4        4827        4828        4879        4878
         4        4828        4829        4880        4879
         4        4829        4830        4881        4880
         4        4830        4831        4882        4881
         4        4831        4832        4883        4882
         4        4832        4833        4884        4883
         4        4833        4834        4885        4884
         4        4834        4835        4886        4885
         4        4835        4836        4887        4886
         4        4836        4837        4888        4887
         4        4837        4838        4889        4888
         4        4838        4839        4890        4889
         4        4839        4840        4891        4890
         4        4840        4841        4892        4891
         4        4841        4842        4893        4892
         4        4842        4843        4894        4893
         4        4843        4844        4895        4894
         4        4845        4846        4897        4896
         4        4846        4847        4898        4897
         4        4847        4848        4899        4898
         4        4848        4849        4900        4899
         4        4849        4850        4901        4900
         4        4850        4851        4902        4901
         4        4851        4852        4903        4902
         4        4852        4853        4904        4903
         4        4853        4854        4905        4904
         4        4854        4855        4906        4905
         4        4855        4856        4907        4906
         4        4856        4857        4908        4907
         4        4857        4858        4909        4908
         4        4858        4859        4910        4909
         4        4859        4860        4911        4910
         4        4860        4861        4912        4911
         4        4861        4862        4913        4912
         4        4862        4863        4914        4913
         4        4863        4864        4915        4914
         4        4864        4865        4916        4915
         4        4865        4866        4917        4916
         4        4866        4867        4918        4917
         4        4867        4868        4919        4918
         4        4868        4869        4920        4919
         4        4869        4870        4921        4920
         4        4870        4871        4922        4921
         4        4871        4872        4923        4922
         4        4872        4873        4924        4923
         4        4873        4874        4925        4924
         4        4874        4875        4926        4925
         4        4875        4876        4927        4926
         4        4876        4877        4928        4927
         4        4877        4878        4929        4928
         4        4878        4879        4930        4929
         4        4879        4880        4931        4930
         4        4880        4881        4932        4931
         4        4881        4882        4933        4932
         4        4882        4883        4934        4933
         4        4883        4884        4935        4934
         4        4884        4885        4936        4935
         4        4885        4886        4937        4936
         4        4886        4887        4938        4937
         4        4887        4888        4939        4938
         4        4888        4889        4940        4939
         4        4889        4890        4941        4940
         4        4890        4891        4942        4941
         4        4891        4892        4943        4942
         4        4892        4893        4944        4943
         4        4893        4894        4945        4944
         4        4894        4895        4946        4945
         4        4896        4897        4948        4947
         4        4897        4898        4949        4948
         4        4898        4899        4950        4949
         4        4899        4900        4951        4950
         4        4900        4901        4952        4951
         4        4901        4902        4953        4952
         4        4902        4903        4954        4953
         4        4903        4904        4955        4954
         4        4904        4905        4956        4955
         4        4905        4906        4957        4956
         4        4906        4907        4958        4957
         4        4907        4908        4959        4958
         4        4908        4909        4960        4959
         4        4909        4910        4961        4960
         4        4910        4911        4962        4961
         4        4911        4912        4963        4962
         4        4912        4913        4964        4963
         4        4913        4914        4965        4964
         4        4914        4915        4966        4965
         4        4915        4916        4967        4966
         4        4916        4917        4968        4967
         4        4917        4918        4969        4968
         4        4918        4919        4970        4969
         4        4919        4920        4971        4970
         4        4920        4921        4972        4971
         4        4921        4922        4973        4972
         4        4922        4923        4974        4973
         4        4923        4924        4975        4974
         4        4924        4925        4976        4975
         4        4925        4926        4977        4976
         4        4926        4927        4978        4977
         4        4927        4928        4979        4978
         4        4928        4929        4980        4979
         4        4929        4930        4981        4980
         4        4930        4931        4982        4981
         4        4931        4932        4983        4982
         4        4932        4933        4984        4983
         4        4933        4934        4985        4984
         4        4934        4935        4986        4985
         4        4935        4936        4987        4986
         4        4936        4937        4988        4987
         4        4937        4938        4989        4988
         4        4938        4939        4990        4989
         4        4939        4940        4991        4990
         4        4940        4941        4992        4991
         4        4941        4942        4993        4992
         4        4942        4943        4994        4993
         4        4943        4944        4995        4994
         4        4944        4945        4996        4995
         4        4945        4946        4997        4996
         4        4947        4948        4999        4998
         4        4948        4949        5000        4999
         4        4949        4950        5001        5000
         4        4950        4951        5002        5001
         4        4951        4952        5003        5002
         4        4952        4953        5004        5003
         4        4953        4954        5005        5004
         4        4954        4955        5006        5005
         4        4955        4956        5007        5006
         4        4956        4957        5008        5007
         4        4957        4958        5009        5008
         4        4958        4959        5010        5009
         4        4959        4960        5011        5010
         4        4960        4961        5012        5011
         4        4961        4962        5013        5012
         4        4962        4963        5014        5013
         4        4963        4964        5015        5014
         4        4964        4965        5016        5015
         4        4965        4966        5017        5016
         4        4966        4967        5018        5017
         4        4967        4968        5019        5018
         4        4968        4969        5020        5019
         4        4969        4970        5021        5020
         4        4970        4971        5022        5021
         4        4971        4972        5023        5022
         4        4972        4973        5024        5023
         4        4973        4974        5025        5024
         4        4974        4975        5026        5025
         4        4975        4976        5027        5026
         4        4976        4977        5028        5027
         4        4977        4978        5029        5028
         4        4978        4979        5030        5029
         4        4979        4980        5031        5030
         4        4980        4981        5032        5031
         4        4981        4982        5033        5032
         4        4982        4983        5034        5033
         4        4983        4984        5035        5034
         4        4984        4985        5036        5035
         4        4985        4986        5037        5036
         4        4986        4987        5038        5037
         4        4987        4988        5039        5038
         4        4988        4989        5040        5039
         4        4989        4990        5041        5040
         4        4990        4991        5042        5041
         4        4991        4992        5043        5042
         4        4992        4993        5044        5043
         4        4993        4994        5045        5044
         4        4994        4995        5046        5045
         4        4995        4996        5047        5046
         4        4996        4997        5048        5047
         4        4998        4999        5050        5049
         4        4999        5000        5051        5050
         4        5000        5001        5052        5051
         4        5001        5002        5053        5052
         4        5002        5003        5054        5053
         4        5003        5004        5055        5054
         4        5004        5005        5056        5055
         4        5005        5006        5057        5056
         4        5006        5007        5058        5057
         4        5007        5008        5059        5058
         4        5008        5009        5060        5059
         4        5009        5010        5061        5060
         4        5010        5011        5062        5061
         4        5011        5012        5063        5062
         4        5012        5013        5064        5063
         4        5013        5014        5065        5064
         4        5014        5015        5066        5065
         4        5015        5016        5067        5066
         4        5016        5017        5068        5067
         4        5017        5018        5069        5068
         4        5018        5019        5070        5069
         4        5019        5020        5071        5070
         4        5020        5021        5072        5071
         4        5021        5022        5073        5072
         4        5022        5023        5074        5073
         4        5023        5024        5075        5074
         4        5024        5025        5076        5075
         4        5025        5026        5077        5076
         4        5026        5027        5078        5077
         4        5027        5028        5079        5078
         4        5028        5029        5080        5079
         4        5029        5030        5081        5080
         4        5030        5031        5082        5081
         4        5031        5032        5083        5082
         4        5032        5033        5084        5083
         4        5033        5034        5085        5084
         4        5034        5035        5086        5085
         4        5035        5036        5087        5086
         4        5036        5037        5088        5087
         4        5037        5038        5089        5088
         4        5038        5039        5090        5089
         4        5039        5040        5091        5090
         4        5040        5041        5092        5091
         4        5041        5042        5093        5092
         4        5042        5043        5094        5093
         4        5043        5044        5095        5094
         4        5044        5045        5096        5095
         4        5045        5046        5097        5096
         4        5046        5047        5098        5097
         4        5047        5048        5099        5098
         4        5049        5050        5101        5100
         4        5050        5051        5102        5101
         4        5051        5052        5103        5102
         4        5052        5053        5104        5103
         4        5053        5054        5105        5104
         4        5054        5055        5106        5105
         4        5055        5056        5107        5106
         4        5056        5057        5108        5107
         4        5057        5058        5109        5108
         4        5058        5059        5110        5109
         4        5059        5060        5111        5110
         4        5060        5061        5112        5111
         4        5061        5062        5113        5112
         4        5062        5063        5114        5113
         4        5063        5064        5115        5114
         4        5064        5065        5116        5115
         4        5065        5066        5117        5116
         4        5066        5067        5118        5117
         4        5067        5068        5119        5118
         4        5068        5069        5120        5119
         4        5069        5070        5121        5120
         4        5070        5071        5122        5121
         4        5071        5072        5123        5122
         4        5072        5073        5124        5123
         4        5073        5074        5125        5124
         4        5074        5075        5126        5125
         4        5075        5076        5127        5126
         4        5076        5077        5128        5127
         4        5077        5078        5129        5128
         4        5078        5079        5130        5129
         4        5079        5080        5131        5130
         4        5080        5081        5132        5131
         4        5081        5082        5133        5132
         4        5082        5083        5134        5133
         4        5083        5084        5135        5134
         4        5084        5085        5136        5135
         4        5085        5086        5137        5136
         4        5086        5087        5138        5137
         4        5087        5088        5139        5138
         4        5088        5089        5140        5139
         4        5089        5090        5141        5140
         4        5090        5091        5142        5141
         4        5091        5092        5143        5142
         4        5092        5093        5144        5143
         4        5093        5094        5145        5144
         4        5094        5095        5146        5145
         4        5095        5096        5147        5146
         4        5096        5097        5148        5147
         4        5097        5098        5149        5148
         4        5098        5099        5150        5149
CELL_TYPES       5000
9
9
9
9
9
9
9
9
9
9
9
9
9
9
9
9
9
9
9
9
9
9
9
9
9
9
9
9
9
9
9
9
9
9
9
9
9
9
9
9
9
9
9
9
9
9
9
9
9
9
9
9
9
9
9
9
9
9
9
9
9
9
9
9
9
9
9
9
9
9
9
9
9
9
9
9
9
9
9
9
9
9
9
9
9
9
9
9
9
9
9
9
9
9
9
9
9
9
9
9
9
9
9
9
9
9
9
9
9
9
9
9
9
9
9
9
9
9
9
9
9
9
9
9
9
9
9
9
9
9
9
9
9
9
9
9
9
9
9
9
9
9
9
9
9
9
9
9
9
9
9
9
9
9
9
9
9
9
9
9
9
9
9
9
9
9
9
9
9
9
9
9
9
9
9
9
9
9
9
9
9
9
9
9
9
9
9
9
9
9
9
9
9
9
9
9
9
9
9
9
9
9
9
9
9
9
9
9
9
9
9
9
9
9
9
9
9
9
9
9
9
9
9
9
9
9
9
9
9
9
9
9
9
9
9
9
9
9
9
9
9
9
9
9
9
9
9
9
9
9
9
9
9
9
9
9
9
9
9
9
9
9
9
9
9
9
9
9
9
9
9
9
9
9
9
9
9
9
9
9
9
9
9
9
9
9
9
9
9
9
9
9
9
9
9
9
9
9
9
9
9
9
9
9
9
9
9
9
9
9
9
9
9
9
9
9
9
9
9
9
9
9
9
9
9
9
9
9
9
9
9
9
9
9
9
9
9
9
9
9
9
9
9
9
9
9
9
9
9
9
9
9
9
9
9
9
9
9
9
9
9
9
9
9
9
9
9
9
9
9
9
9
9
9
9
9
9
9
9
9
9
9
9
9
9
9
9
9
9
9
9
9
9
9
9
9
9
9
9
9
9
9
9
9
9
9
9
9
9
9
9
9
9
9
9
9
9
9
9
9
9
9
9
9
9
9
9
9
9
9
9
9
9
9
9
9
9
9
9
9
9
9
9
9
9
9
9
9
9
9
9
9
9
9
9
9
9
9
9
9
9
9
9
9
9
9
9
9
9
9
9
9
9
9
9
9
9
9
9
9
9
9
9
9
9
9
9
9
9
9
9
9
9
9
9
9
9
9
9
9
9
9
9
9
9
9
9
9
9
9
9
9
9
9
9
9
9
9
9
9
9
9
9
9
9
9
9
9
9
9
9
9
9
9
9
9
9
9
9
9
9
9
9
9
9
9
9
9
9
9
9
9
9
9
9
9
9
9
9
9
9
9
9
9
9
9
9
9
9
9
9
9
9
9
9
9
9
9
9
9
9
9
9
9
9
9
9
9
9
9
9
9
9
9
9
9
9
9
9
9
9
9
9
9
9
9
9
9
9
9
9
9
9
9
9
9
9
9
9
9
9
9
9
9
9
9
9
9
9
9
9
9
9
9
9
9
9
9
9
9
9
9
9
9
9
9
9
9
9
9
9
9
9
9
9
9
9
9
9
9
9
9
9
9
9
9
9
9
9
9
9
9
9
9
9
9
9
9
9
9
9
9
9
9
9
9
9
9
9
9
9
9
9
9
9
9
9
9
9
9
9
9
9
9
9
9
9
9
9
9
9
9
9
9
9
9
9
9
9
9
9
9
9
9
9
9
9
9
9
9
9
9
9
9
9
9
9
9
9
9
9
9
9
9
9
9
9
9
9
9
9
9
9
9
9
9
9
9
9
9
9
9
9
9
9
9
9
9
9
9
9
9
9
9
9
9
9
9
9
9
9
9
9
9
9
9
9
9
9
9
9
9
9
9
9
9
9
9
9
9
9
9
9
9
9
9
9
9
9
9
9
9
9
9
9
9
9
9
9
9
9
9
9
9
9
9
9
9
9
9
9
9
9
9
9
9
9
9
9
9
9
9
9
9
9
9
9
9
9
9
9
9
9
9
9
9
9
9
9
9
9
9
9
9
9
9
9
9
9
9
9
9
9
9
9
9
9
9
9
9
9
9
9
9
9
9
9
9
9
9
9
9
9
9
9
9
9
9
9
9
9
9
9
9
9
9
9
9
9
9
9
9
9
9
9
9
9
9
9
9
9
9
9
9
9
9
9
9
9
9
9
9
9
9
9
9
9
9
9
9
9
9
9
9
9
9
9
9
9
9
9
9
9
9
9
9
9
9
9
9
9
9
9
9
9
9
9
9
9
9
9
9
9
9
9
9
9
9
9
9
9
9
9
9
9
9
9
9
9
9
9
9
9
9
9
9
9
9
9
9
9
9
9
9
9
9
9
9
9
9
9
9
9
9
9
9
9
9
9
9
9
9
9
9
9
9
9
9
9
9
9
9
9
9
9
9
9
9
9
9
9
9
9
9
9
9
9
9
9
9
9
9
9
9
9
9
9
9
9
9
9
9
9
9
9
9
9
9
9
9
9
9
9
9
9
9
9
9
9
9
9
9
9
9
9
9
9
9
9
9
9
9
9
9
9
9
9
9
9
9
9
9
9
9
9
9
9
9
9
9
9
9
9
9
9
9
9
9
9
9
9
9
9
9
9
9
9
9
9
9
9
9
9
9
9
9
9
9
9
9
9
9
9
9
9
9
9
9
9
9
9
9
9
9
9
9
9
9
9
9
9
9
9
9
9
9
9
9
9
9
9
9
9
9
9
9
9
9
9
9
9
9
9
9
9
9
9
9
9
9
9
9
9
9
9
9
9
9
9
9
9
9
9
9
9
9
9
9
9
9
9
9
9
9
9
9
9
9
9
9
9
9
9
9
9
9
9
9
9
9
9
9
9
9
9
9
9
9
9
9
9
9
9
9
9
9
9
9
9
9
9
9
9
9
9
9
9
9
9
9
9
9
9
9
9
9
9
9
9
9
9
9
9
9
9
9
9
9
9
9
9
9
9
9
9
9
9
9
9
9
9
9
9
9
9
9
9
9
9
9
9
9
9
9
9
9
9
9
9
9
9
9
9
9
9
9
9
9
9
9
9
9
9
9
9
9
9
9
9
9
9
9
9
9
9
9
9
9
9
9
9
9
9
9
9
9
9
9
9
9
9
9
9
9
9
9
9
9
9
9
9
9
9
9
9
9
9
9
9
9
9
9
9
9
9
9
9
9
9
9
9
9
9
9
9
9
9
9
9
9
9
9
9
9
9
9
9
9
9
9
9
9
9
9
9
9
9
9
9
9
9
9
9
9
9
9
9
9
9
9
9
9
9
9
9
9
9
9
9
9
9
9
9
9
9
9
9
9
9
9
9
9
9
9
9
9
9
9
9
9
9
9
9
9
9
9
9
9
9
9
9
9
9
9
9
9
9
9
9
9
9
9
9
9
9
9
9
9
9
9
9
9
9
9
9
9
9
9
9
9
9
9
9
9
9
9
9
9
9
9
9
9
9
9
9
9
9
9
9
9
9
9
9
9
9
9
9
9
9
9
9
9
9
9
9
9
9
9
9
9
9
9
9
9
9
9
9
9
9
9
9
9
9
9
9
9
9
9
9
9
9
9
9
9
9
9
9
9
9
9
9
9
9
9
9
9
9
9
9
9
9
9
9
9
9
9
9
9
9
9
9
9
9
9
9
9
9
9
9
9
9
9
9
9
9
9
9
9
9
9
9
9
9
9
9
9
9
9
9
9
9
9
9
9
9
9
9
9
9
9
9
9
9
9
9
9
9
9
9
9
9
9
9
9
9
9
9
9
9
9
9
9
9
9
9
9
9
9
9
9
9
9
9
9
9
9
9
9
9
9
9
9
9
9
9
9
9
9
9
9
9
9
9
9
9
9
9
9
9
9
9
9
9
9
9
9
9
9
9
9
9
9
9
9
9
9
9
9
9
9
9
9
9
9
9
9
9
9
9
9
9
9
9
9
9
9
9
9
9
9
9
9
9
9
9
9
9
9
9
9
9
9
9
9
9
9
9
9
9
9
9
9
9
9
9
9
9
9
9
9
9
9
9
9
9
9
9
9
9
9
9
9
9
9
9
9
9
9
9
9
9
9
9
9
9
9
9
9
9
9
9
9
9
9
9
9
9
9
9
9
9
9
9
9
9
9
9
9
9
9
9
9
9
9
9
9
9
9
9
9
9
9
9
9
9
9
9
9
9
9
9
9
9
9
9
9
9
9
9
9
9
9
9
9
9
9
9
9
9
9
9
9
9
9
9
9
9
9
9
9
9
9
9
9
9
9
9
9
9
9
9
9
9
9
9
9
9
9
9
9
9
9
9
9
9
9
9
9
9
9
9
9
9
9
9
9
9
9
9
9
9
9
9
9
9
9
9
9
9
9
9
9
9
9
9
9
9
9
9
9
9
9
9
9
9
9
9
9
9
9
9
9
9
9
9
9
9
9
9
9
9
9
9
9
9
9
9
9
9
9
9
9
9
9
9
9
9
9
9
9
9
9
9
9
9
9
9
9
9
9
9
9
9
9
9
9
9
9
9
9
9
9
9
9
9
9
9
9
9
9
9
9
9
9
9
9
9
9
9
9
9
9
9
9
9
9
9
9
9
9
9
9
9
9
9
9
9
9
9
9
9
9
9
9
9
9
9
9
9
9
9
9
9
9
9
9
9
9
9
9
9
9
9
9
9
9
9
9
9
9
9
9
9
9
9
9
9
9
9
9
9
9
9
9
9
9
9
9
9
9
9
9
9
9
9
9
9
9
9
9
9
9
9
9
9
9
9
9
9
9
9
9
9
9
9
9
9
9
9
9
9
9
9
9
9
9
9
9
9
9
9
9
9
9
9
9
9
9
9
9
9
9
9
9
9
9
9
9
9
9
9
9
9
9
9
9
9
9
9
9
9
9
9
9
9
9
9
9
9
9
9
9
9
9
9
9
9
9
9
9
9
9
9
9
9
9
9
9
9
9
9
9
9
9
9
9
9
9
9
9
9
9
9
9
9
9
9
9
9
9
9
9
9
9
9
9
9
9
9
9
9
9
9
9
9
9
9
9
9
9
9
9
9
9
9
9
9
9
9
9
9
9
9
9
9
9
9
9
9
9
9
9
9
9
9
9
9
9
9
9
9
9
9
9
9
9
9
9
9
9
9
9
9
9
9
9
9
9
9
9
9
9
9
9
9
9
9
9
9
9
9
9
9
9
9
9
9
9
9
9
9
9
9
9
9
9
9
9
9
9
9
9
9
9
9
9
9
9
9
9
9
9
9
9
9
9
9
9
9
9
9
9
9
9
9
9
9
9
9
9
9
9
9
9
9
9
9
9
9
9
9
9
9
9
9
9
9
9
9
9
9
9
9
9
9
9
9
9
9
9
9
9
9
9
9
9
9
9
9
9
9
9
9
9
9
9
9
9
9
9
9
9
9
9
9
9
9
9
9
9
9
9
9
9
9
9
9
9
9
9
9
9
9
9
9
9
9
9
9
9
9
9
9
9
9
9
9
9
9
9
9
9
9
9
9
9
9
9
9
9
9
9
9
9
9
9
9
9
9
9
9
9
9
9
9
9
9
9
9
9
9
9
9
9
9
9
9
9
9
9
9
9
9
9
9
9
9
9
9
9
9
9
9
9
9
9
9
9
9
9
9
9
9
9
9
9
9
9
9
9
9
9
9
9
9
9
9
9
9
9
9
9
9
9
9
9
9
9
9
9
9
9
9
9
9
9
9
9
9
9
9
9
9
9
9
9
9
9
9
9
9
9
9
9
9
9
9
9
9
9
9
9
9
9
9
9
9
9
9
9
9
9
9
9
9
9
9
9
9
9
9
9
9
9
9
9
9
9
9
9
9
9
9
9
9
9
9
9
9
9
9
9
9
9
9
9
9
9
9
9
9
9
9
9
9
9
9
9
9
9
9
9
9
9
9
9
9
9
9
9
9
9
9
9
9
9
9
9
9
9
9
9
9
9
9
9
9
9
9
9
9
9
9
9
9
9
9
9
9
9
9
9
9
9
9
9
9
9
9
9
9
9
9
9
9
9
9
9
9
9
9
9
9
9
9
9
9
9
9
9
9
9
9
9
9
9
9
9
9
9
9
9
9
9
9
9
9
9
9
9
9
9
9
9
9
9
9
9
9
9
9
9
9
9
9
9
9
9
9
9
9
9
9
9
9
9
9
9
9
9
9
9
9
9
9
9
9
9
9
9
9
9
9
9
9
9
9
9
9
9
9
9
9
9
9
9
9
9
9
9
9
9
9
9
9
9
9
9
9
9
9
9
9
9
9
9
9
9
9
9
9
9
9
9
9
9
9
9
9
9
9
9
9
9
9
9
9
9
9
9
9
9
9
9
9
9
9
9
9
9
9
9
9
9
9
9
9
9
9
9
9
9
9
9
9
9
9
9
9
9
9
9
9
9
9
9
9
9
9
9
9
9
9
9
9
9
9
9
9
9
9
9
9
9
9
9
9
9
9
9
9
9
9
9
9
9
9
9
9
9
9
9
9
9
9
9
9
9
9
9
9
9
9
9
9
9
9
9
9
9
9
9
9
9
9
9
9
9
9
9
9
9
9
9
9
9
9
9
9
9
9
9
9
9
9
9
9
9
9
9
9
9
9
9
9
9
9
9
9
9
9
9
9
9
9
9
9
9
9
9
9
9
9
9
9
9
9
9
9
9
9
9
9
9
9
9
9
9
9
9
9
9
9
9
9
9
9
9
9
9
9
9
9
9
9
9
9
9
9
9
9
9
9
9
9
9
9
9
9
9
9
9
9
9
9
9
9
9
9
9
9
9
9
9
9
9
9
9
9
9
9
9
9
9
9
9
9
9
9
9
9
9
9
9
9
9
9
9
9
9
9
9
9
9
9
9
9
9
9
9
9
9
9
9
9
9
9
9
9
9
9
9
9
9
9
9
9
9
9
9
9
9
9
9
9
9
9
9
9
9
9
9
9
9
9
9
9
9
9
9
9
9
9
9
9
9
9
9
9
9
9
9
9
9
9
9
9
9
9
9
9
9
9
9
9
9
9
9
9
9
9
9
9
9
9
9
9
9
9
9
9
9
9
9
9
9
9
9
9
9
9
9
9
9
9
9
9
9
9
9
9
9
9
9
9
9
9
9
9
9
9
9
9
9
9
9
9
9
9
9
9
9
9
9
9
9
9
9
9
9
9
9
9
9
9
9
9
9
9
9
9
9
9
9
9
9
9
9
9
9
9
9
9
9
9
9
9
9
9
9
9
9
9
9
9
9
9
9
9
9
9
9
9
9
9
9
9
9
9
9
9
9
9
9
9
9
9
9
9
9
9
9
9
9
9
9
9
9
9
9
9
9
9
9
9
9
9
9
9
9
9
9
9
9
9
9
9
9
9
9
9
9
9
9
9
9
9
9
9
9
9
9
9
9
9
9
9
9
9
9
9
9
9
9
9
9
9
9
9
9
9
9
9
9
9
9
9
9
9
9
9
9
9
9
9
9
9
9
9
9
9
9
9
9
9
9
9
9
9
9
9
9
9
9
9
9
9
9
9
9
9
9
9
9
9
9
9
9
9
9
9
9
9
9
9
9
9
9
9
9
9
9
9
9
9
9
9
9
9
9
9
9
9
9
9
9
9
9
9
9
9
9
9
9
9
9
9
9
9
9
9
9
9
9
9
9
9
9
9
9
9
9
9
9
9
9
9
9
9
9
9
9
9
9
9
9
9
9
9
9
9
9
9
9
9
9
9
9
9
9
9
9
9
9
9
9
9
9
9
9
9
9
9
9
9
9
9
9
9
9
9
9
9
9
9
9
9
9
9
9
9
9
9
9
9
9
9
9
9
9
9
9
9
9
9
9
9
9
9
9
9
9
9
9
9
9
9
9
9
9
9
9
9
9
9
9
9
9
9
9
9
9
9
9
9
9
9
9
9
9
9
9
9
9
9
9
9
9
9
9
9
9
9
9
9
9
9
9
9
9
9
9
9
9
9
9
9
9
9
9
9
9
9
9
9
9
9
9
9
9
9
9
9
9
9
9
9
9
9
9
9
9
9
9
9
9
9
9
9
9
9
9
9
9
9
9
9
9
9
9
9
9
9
9
9
9
9
9
9
9
9
9
9
9
9
9
9
9
9
9
9
9
9
9
9
9
9
9
9
9
9
9
9
9
9
9
9
9
9
9
9
9
9
9
9
9
9
9
9
9
9
9
9
9
9
9
9
9
9
9
9
9
9
9
9
9
9
9
9
9
9
9
9
9
9
9
9
9
9
9
9
9
9
9
9
9
9
9
9
9
9
9
9
9
9
9
9
9
9
9
9
9
9
9
9
9
9
9
9
9
9
9
9
9
9
9
9
9
9
9
9
9
9
9
9
9
9
9
9
9
9
9
9
9
9
9
9
9
9
9
9
9
9
9
9
9
9
9
9
9
9
9
9
9
9
9
9
9
9
9
9
9
9
9
9
9
9
9
9
9
9
9
9
9
9
9
9
9
9
9
9
9
9
9
9
9
9
9
9
9
9
9
9
9
9
9
9
9
9
9
9
9
9
9
9
9
9
9
9
9
9
9
9
9
9
9
9
9
9
9
9
9
9
9
9
9
9
9
9
9
9
9
9
9
9
9
9
9
9
9
9
9
9
9
9
9
9
9
9
9
9
9
9
9
9
9
9
9
9
9
9
9
9
9
9
9
9
9
9
9
9
9
9
9
9
9
9
9
9
9
9
9
9
9
9
9
9
9
9
9
9
9
9
9
9
9
9
9
9
9
9
9
9
9
9
9
9
9
9
9
9
9
9
9
9
9
9
9
9
9
9
9
9
9
9
9
9
9
9
9
9
9
9
9
9
9
9
9
9
9
9
9
9
9
9
9
9
9
9
9
9
9
9
9
9
9
9
9
9
9
9
9
9
9
9
9
9
9
9
9
9
9
9
9
9
9
9
9
9
9
9
9
9
9
9
9
9
9
9
9
9
9
9
9
9
9
9
9
9
9
9
9
9
9
9
9
9
9
9
9
9
9
9
9
9
9
9
9
9
9
9
9
9
9
9
9
9
9
9
9
9
9
9
9
9
9
9
9
9
9
9
9
9
9
9
9
9
9
9
9
9
9
9
9
9
9
9
9
9
9
9
9
9
9
9
9
9
9
9
9
9
9
9
9
9
9
9
9
9
9
9
9
9
9
9
9
9
9
9
9
9
9
9
9
9
9
9
9
9
9
9
9
9
9
9
9
9
9
9
9
9
9
9
9
9
9
9
9
9
9
9
9
9
9
9
9
9
9
9
9
9
9
9
9
9
9
9
9
9
9
9
9
9
9
9
9
9
9
9
9
9
9
9
9
9
9
9
9
9
9
9
9
9
9
9
9
9
9
9
9
9
9
9
9
9
9
9
9
9
9
9
9
9
9
9
9
9
9
9
9
9
9
9
9
9
9
9
9
9
9
9
9
9
9
9
9
9
9
9
9
9
9
9
9
9
9
9
9
9
9
9
9
9
9
9
9
9
9
9
9
9
9
9
9
9
9
9
9
9
9
9
9
9
9
9
9
9
9
9
9
9
9
9
9
9
9
9
9
9
9
9
9
9
9
9
9
9
9
9
9
9
9
9
9
9
9
9
9
9
9
9
9
9
9
9
9
9
9
9
9
9
9
9
9
9
9
9
9
9
9
9
9
9
9
9
9
9
9
9
9
9
9
9
9
9
9
9
9
9
9
9
9
9
9
9
9
9
9
9
9
9
9
9
9
9
9
9
9
9
9
9
9
9
9
9
9
9
9
9
9
9
9
9
9
9
9
9
9
9
9
9
9
9
9
9
9
9
9
9
9
9
9
9
9
9
9
9
9
9
9
9
9
9
9
9
9
9
9
9
9
9
9
9
9
9
9
9
9
9
9
9
9
9
9
9
9
9
9
9
9
9
9
9
9
9
9
9
9
9
9
9
9
9
9
9
9
9
9
9
9
9
9
9
9
9
9
9
9
9
9
9
9
9
9
9
9
9
9
9
9
9
9
9
9
9
9
9
9
9
9
9
9
9
9
9
9
9
9
9
9
9
9
9
9
9
9
9
9
9
9
9
9
9
9
9
9
9
9
9
9
9
9
9
9
9
9
9
9
9
9
9
9
9
9
9
9
9
9
9
9
9
9
9
9
9
9
9
9
9
9
9
9
9
9
9
9
9
9
9
9
9
9
9
9
9
9
9
9
9
9
9
9
9
9
9
9
9
9
9
9
9
9
9
9
9
9
9
9
9
9
9
9
9
9
9
9
9
9
9
9
9
9
9
9
9
9
9
9
9
9
9
9
9
9
9
9
9
9
9
9
9
9
9
9
9
9
9
9
9
9
9
9
9
9
9
9
9
9
9
9
9
9
9
9
9
9
9
9
9
9
9
9
9
9
9
9
9
9
9
9
9
9
9
9
9
9
9
9
9
9
9
9
9
9
9
9
9
9
9
9
9
9
9
9
9
9
9
9
9
9
9
9
9
9
9
9
9
9
9
9
9
9
9
9
9
9
9
9
9
9
9
9
9
9
9
9
9
9
9
9
9
9
9
9
9
9
9
9
9
9
9
9
9
9
9
9
9
9
9
9
9
9
9
9
9
9
9
9
9
9
9
9
9
9
9
9
9
9
9
9
9
9
9
9
9
9
9
9
9
9
9
9
9
9
9
9
9
9
9
9
9
9
9
9
9
9
9
9
9
9
9
9
9
9
9
9
9
9
9
9
9
9
9
9
9
9
9
9
9
9
9
9
9
9
9
9
9
9
9
9
9
9
9
9
9
9
9
9
9
9
9
9
9
9
9
9
9
9
9
9
9
9
9
9
9
9
9
9
9
9
9
9
9
9
9
9
9
9
9
9
9
9
9
9
9
9
9
9
9
9
9
9
9
9
9
9
9
9
9
9
9
9
9
9
9
9
9
9
9
9
9
9
9
9
9
9
9
9
9
9
9
9
9
9
9
9
9
9
9
9
9
9
9
9
9
9
9
9
9
9
9
9
9
9
9
9
9
9
9
9
9
9
9
9
9
9
9
9
9
9
9
9
9
9
9
9
9
9
9
9
9
9
9
9
9
9
9
9
9
9
9
9
9
9
9
9
9
9
9
9
9
9
9
9
9
9
9
9
9
9
9
9
9
9
9
9
9
9
9
9
9
9
9
9
9
9
9
9
9
9
9
9
9
9
9
9
9
9
9
9
9
9
9
9
9
9
9
9
9
9
9
9
9
9
9
9
9
9
9
9
9
9
9
9
9
9
9
9
9
9
9
9
9
9
9
9
9
9
9
9
9
9
9
9
9
9
9
9
9
9
9
9
9
9
9
9
9
9
9
9
9
9
9
9
9
9
9
9
9
9
9
9
9
9
9
9
9
9
9
9
POINT_DATA      5151
SCALARS p double 
LOOKUP_TABLE default
   50000000.0000000     
   50000000.0000000     
   50000000.0000000     
   50000000.0000000     
   50000000.0000000     
   50000000.0000000     
   50000000.0000000     
   50000000.0000000     
   50000000.0000000     
   50000000.0000000     
   50000000.0000000     
   50000000.0000000     
   50000000.0000000     
   50000000.0000000     
   50000000.0000000     
   50000000.0000000     
   50000000.0000000     
   50000000.0000000     
   50000000.0000000     
   50000000.0000000     
   50000000.0000000     
   50000000.0000000     
   50000000.0000000     
   50000000.0000000     
   50000000.0000000     
   50000000.0000000     
   50000000.0000000     
   50000000.0000000     
   50000000.0000000     
   50000000.0000000     
   50000000.0000000     
   50000000.0000000     
   50000000.0000000     
   50000000.0000000     
   50000000.0000000     
   50000000.0000000     
   50000000.0000000     
   50000000.0000000     
   50000000.0000000     
   50000000.0000000     
   50000000.0000000     
   50000000.0000000     
   50000000.0000000     
   50000000.0000000     
   50000000.0000000     
   50000000.0000000     
   50000000.0000000     
   50000000.0000000     
   50000000.0000000     
   50000000.0000000     
   50000000.0000000     
   49960865.0911440     
   49960871.8955437     
   49960890.4227127     
   49960918.4006755     
   49960954.0971643     
   49960996.1654826     
   49961043.5395968     
   49961095.3614586     
   49961150.9297549     
   49961209.6631320     
   49961271.0733573     
   49961334.7454145     
   49961400.3225133     
   49961467.4946327     
   49961535.9896460     
   49961605.5663535     
   49961676.0089446     
   49961747.1225433     
   49961818.7295824     
   49961890.6668189     
   49961962.7828470     
   49962034.9360024     
   49962106.9925725     
   49962178.8252489     
   49962250.3117671     
   49962321.3336937     
   49962391.7753244     
   49962461.5226626     
   49962530.4624524     
   49962598.4812412     
   49962665.4644494     
   49962731.2954226     
   49962795.8544409     
   49962859.0176596     
   49962920.6559469     
   49962980.6335813     
   49963038.8067596     
   49963095.0218564     
   49963149.1133525     
   49963200.9013291     
   49963250.1883807     
   49963296.7557517     
   49963340.3584121     
   49963380.7186773     
   49963417.5177835     
   49963450.3845585     
   49963478.8798804     
   49963502.4749275     
   49963520.5201075     
   49963532.1997593     
   49963536.4648041     
   49923220.9253703     
   49923228.3997115     
   49923249.9949912     
   49923284.3942521     
   49923330.2783528     
   49923386.3954699     
   49923451.5910383     
   49923524.8165435     
   49923605.1274337     
   49923691.6758332     
   49923783.7011517     
   49923880.5202352     
   49923981.5178881     
   49924086.1381492     
   49924193.8764566     
   49924304.2727124     
   49924416.9051887     
   49924531.3851938     
   49924647.3524060     
   49924764.4707847     
   49924882.4249763     
   49925000.9171387     
   49925119.6641182     
   49925238.3949204     
   49925356.8484221     
   49925474.7712811     
   49925591.9160004     
   49925708.0391130     
   49925822.8994522     
   49925936.2564770     
   49926047.8686211     
   49926157.4916379     
   49926264.8769095     
   49926369.7696908     
   49926471.9072533     
   49926571.0168953     
   49926666.8137794     
   49926758.9985545     
   49926847.2547185     
   49926931.2456740     
   49927010.6114331     
   49927084.9649331     
   49927153.8879519     
   49927216.9266555     
   49927273.5869127     
   49927323.3296919     
   49927365.5672012     
   49927399.6610658     
   49927424.9249789     
   49927440.6363499     
   49927446.0652209     
   49886694.9448490     
   49886702.5698902     
   49886724.7420024     
   49886760.4458120     
   49886808.6954547     
   49886868.5282825     
   49886939.0089499     
   49887019.2358130     
   49887108.3464128     
   49887205.5210495     
   49887309.9844122     
   49887421.0055893     
   49887537.8968622     
   49887660.0116576     
   49887786.7419620     
   49887917.5154316     
   49888051.7923652     
   49888189.0626569     
   49888328.8428040     
   49888470.6730192     
   49888614.1144725     
   49888758.7466740     
   49888904.1649991     
   49889049.9783504     
   49889195.8069449     
   49889341.2802151     
   49889486.0348077     
   49889629.7126647     
   49889771.9591713     
   49889912.4213545     
   49890050.7461165     
   49890186.5784898     
   49890319.5598987     
   49890449.3264158     
   49890575.5070049     
   49890697.7217408     
   49890815.5800066     
   49890928.6786700     
   49891036.6002525     
   49891138.9111156     
   49891235.1597045     
   49891324.8749147     
   49891407.5646690     
   49891482.7148298     
   49891549.7885984     
   49891608.2265711     
   49891657.4475827     
   49891696.8503115     
   49891725.8151715     
   49891743.7049646     
   49891749.8604511     
   49851002.7252930     
   49851010.0075629     
   49851031.3613509     
   49851066.0335899     
   49851113.2641118     
   49851172.2939141     
   49851242.3698040     
   49851322.7479488     
   49851412.6970045     
   49851511.5008727     
   49851618.4609843     
   49851732.8980307     
   49851854.1531179     
   49851981.5883693     
   49852114.5870357     
   49852252.5531844     
   49852394.9110454     
   49852541.1040867     
   49852690.5938850     
   49852842.8588458     
   49852997.3928187     
   49853153.7036444     
   49853311.3116618     
   49853469.7481960     
   49853628.5540428     
   49853787.2779613     
   49853945.4751820     
   49854102.7059349     
   49854258.5340014     
   49854412.5252924     
   49854564.2464527     
   49854713.2634957     
   49854859.1404685     
   49855001.4381536     
   49855139.7128119     
   49855273.5149747     
   49855402.3882979     
   49855525.8684926     
   49855643.4823514     
   49855754.7468939     
   49855859.1686575     
   49855956.2431627     
   49856045.4545770     
   49856126.2755985     
   49856198.1675626     
   49856260.5807537     
   49856312.9548788     
   49856354.7196549     
   49856385.2955436     
   49856404.0949965     
   49856410.5255428     
   49815901.2601690     
   49815908.0342801     
   49815927.9864565     
   49815960.5499586     
   49816005.1429488     
   49816061.1715587     
   49816128.0334523     
   49816205.1211337     
   49816291.8248583     
   49816387.5351638     
   49816491.6450550     
   49816603.5518608     
   49816722.6587755     
   49816848.3760922     
   49816980.1221391     
   49817117.3239368     
   49817259.4175965     
   49817405.8484860     
   49817556.0711882     
   49817709.5492824     
   49817865.7549718     
   49818024.1685854     
   49818184.2779755     
   49818345.5778314     
   49818507.5689288     
   49818669.7573299     
   49818831.6535493     
   49818992.7716971     
   49819152.6286118     
   49819310.7429911     
   49819466.6345317     
   49819619.8230868     
   49819769.8278485     
   49819916.1665667     
   49820058.3548116     
   49820195.9052898     
   49820328.3272258     
   49820455.1258166     
   49820575.8017718     
   49820689.8509482     
   49820796.7640883     
   49820896.0266691     
   49820987.1188684     
   49821069.5156512     
   49821142.6869792     
   49821206.0981528     
   49821259.2102961     
   49821301.4810106     
   49821332.3652108     
   49821351.3160720     
   49821357.7856693     
   49781175.7944283     
   49781181.9966835     
   49781200.3298656     
   49781230.3661395     
   49781271.6566676     
   49781323.7345735     
   49781386.1175801     
   49781458.3104944     
   49781539.8075388     
   49781630.0945027     
   49781728.6506998     
   49781834.9507229     
   49781948.4659976     
   49782068.6661390     
   49782195.0201146     
   49782326.9972230     
   49782464.0678952     
   49782605.7043295     
   49782751.3809713     
   49782900.5748498     
   49783052.7657863     
   49783207.4364854     
   49783364.0725249     
   49783522.1622578     
   49783681.1966368     
   49783840.6689786     
   49784000.0746750     
   49784158.9108659     
   49784316.6760835     
   49784472.8698773     
   49784626.9924311     
   49784778.5441798     
   49784927.0254357     
   49785071.9360313     
   49785212.7749893     
   49785349.0402234     
   49785480.2282804     
   49785605.8341288     
   49785725.3509989     
   49785838.2702818     
   49785944.0814904     
   49786042.2722865     
   49786132.3285780     
   49786213.7346885     
   49786285.9736015     
   49786348.5272786     
   49786400.8770496     
   49786442.5040629     
   49786472.8897816     
   49786491.5165234     
   49786497.8681495     
   49746632.0821523     
   49746637.7214486     
   49746654.4347074     
   49746681.8965540     
   49746719.7582638     
   49746767.6499631     
   49746825.1827709     
   49746891.9508298     
   49746967.5332215     
   49747051.4957643     
   49747143.3926907     
   49747242.7682009     
   49747349.1578906     
   49747462.0900521     
   49747581.0868493     
   49747705.6653688     
   49747835.3385513     
   49747969.6160070     
   49748108.0047199     
   49748250.0096491     
   49748395.1342320     
   49748542.8807973     
   49748692.7508963     
   49748844.2455594     
   49748996.8654868     
   49749150.1111810     
   49749303.4830301     
   49749456.4813490     
   49749608.6063865     
   49749759.3583068     
   49749908.2371521     
   49750054.7427929     
   49750198.3748729     
   49750338.6327564     
   49750475.0154805     
   49750607.0217219     
   49750734.1497791     
   49750855.8975783     
   49750971.7627035     
   49751081.2424570     
   49751183.8339518     
   49751279.0342374     
   49751366.3404630     
   49751445.2500759     
   49751515.2610569     
   49751575.8721906     
   49751626.5833696     
   49751666.8959322     
   49751696.3130343     
   49751714.3400547     
   49751720.4850032     
   49712091.5493801     
   49712096.6728524     
   49712111.8882032     
   49712136.9440725     
   49712171.5652010     
   49712215.4542063     
   49712268.2932904     
   49712329.7458850     
   49712399.4582276     
   49712477.0608636     
   49712562.1700709     
   49712654.3892053     
   49712753.3099629     
   49712858.5135619     
   49712969.5718399     
   49713086.0482690     
   49713207.4988907     
   49713333.4731700     
   49713463.5147730     
   49713597.1622709     
   49713733.9497724     
   49713873.4074911     
   49714015.0622493     
   49714158.4379249     
   49714303.0558454     
   49714448.4351337     
   49714594.0930114     
   49714739.5450646     
   49714884.3054771     
   49715027.8872354     
   49715169.8023121     
   49715309.5618304     
   49715446.6762157     
   49715580.6553380     
   49715711.0086494     
   49715837.2453194     
   49715958.8743733     
   49716075.4048343     
   49716186.3458744     
   49716291.2069741     
   49716389.4980941     
   49716480.7298596     
   49716564.4137589     
   49716640.0623551     
   49716707.1895131     
   49716765.3106388     
   49716813.9429322     
   49716852.6056511     
   49716880.8203826     
   49716898.1113178     
   49716904.0055343     
   49677387.8544381     
   49677392.5302360     
   49677406.4364463     
   49677429.3732250     
   49677461.1174871     
   49677501.4243198     
   49677550.0283604     
   49677606.6451328     
   49677670.9723415     
   49677742.6911178     
   49677821.4672187     
   49677906.9521732     
   49677998.7843775     
   49678096.5901349     
   49678199.9846419     
   49678308.5729198     
   49678421.9506902     
   49678539.7051976     
   49678661.4159783     
   49678786.6555778     
   49678914.9902175     
   49679045.9804136     
   49679179.1815508     
   49679314.1444109     
   49679450.4156629     
   49679587.5383135     
   49679725.0521239     
   49679862.4939945     
   49679999.3983204     
   49680135.2973222     
   49680269.7213530     
   49680402.1991871     
   49680532.2582903     
   49680659.4250778     
   49680783.2251591     
   49680903.1835746     
   49681018.8250249     
   49681129.6740947     
   49681235.2554741     
   49681335.0941770     
   49681428.7157588     
   49681515.6465346     
   49681595.4137967     
   49681667.5460343     
   49681731.5731525     
   49681787.0266920     
   49681833.4400484     
   49681870.3486898     
   49681897.2903717     
   49681913.8053483     
   49681919.4365779     
   49642364.3164151     
   49642368.6215623     
   49642381.4374573     
   49642402.5978847     
   49642431.9147862     
   49642469.1793831     
   49642514.1632791     
   49642566.6195396     
   49642626.2837470     
   49642692.8750274     
   49642766.0970473     
   49642845.6389798     
   49642931.1764366     
   49643022.3723660     
   49643118.8779155     
   49643220.3332582     
   49643326.3683837     
   49643436.6038510     
   49643550.6515070     
   49643668.1151671     
   49643788.5912625     
   49643911.6694518     
   49644036.9332000     
   49644163.9603250     
   49644292.3235142     
   49644421.5908113     
   49644551.3260754     
   49644681.0894148     
   49644810.4375968     
   49644938.9244339     
   49645066.1011509     
   49645191.5167322     
   49645314.7182518     
   49645435.2511882     
   49645552.6597250     
   49645666.4870384     
   49645776.2755741     
   49645881.5673132     
   49645981.9040296     
   49646076.8275388     
   49646165.8799386     
   49646248.6038430     
   49646324.5426099     
   49646393.2405604     
   49646454.2431933     
   49646507.0973907     
   49646551.3516178     
   49646586.5561133     
   49646612.2630713     
   49646628.0268140     
   49646633.4039515     
   49606871.9086045     
   49606875.9213587     
   49606887.8720860     
   49606907.6140636     
   49606934.9805434     
   49606969.7856351     
   49607011.8251809     
   49607060.8776203     
   49607116.7048418     
   49607179.0530195     
   49607247.6534339     
   49607322.2232739     
   49607402.4664195     
   49607488.0742029     
   49607578.7261485     
   49607674.0906896     
   49607773.8258613     
   49607877.5799700     
   49607984.9922385     
   49608095.6934266     
   49608209.3064275     
   49608325.4468399     
   49608443.7235168     
   49608563.7390905     
   49608685.0904747     
   49608807.3693456     
   49608930.1626004     
   49609053.0527960     
   49609175.6185681     
   49609297.4350314     
   49609418.0741617     
   49609537.1051616     
   49609654.0948100     
   49609768.6077964     
   49609880.2070409     
   49609988.4540009     
   49610092.9089648     
   49610193.1313339     
   49610288.6798921     
   49610379.1130654     
   49610463.9891696     
   49610542.8666489     
   49610615.3043030     
   49610680.8615048     
   49610739.0984071     
   49610789.5761399     
   49610831.8569963     
   49610865.5046071     
   49610890.0841048     
   49610905.1622749     
   49610910.3076946     
   49570767.6464787     
   49570771.4415182     
   49570782.7436526     
   49570801.4145843     
   49570827.2980032     
   49570860.2202722     
   49570899.9911143     
   49570946.4042959     
   49570999.2383073     
   49571058.2570365     
   49571123.2104367     
   49571193.8351835     
   49571269.8553227     
   49571350.9829062     
   49571436.9186149     
   49571527.3523692     
   49571621.9639233     
   49571720.4234465     
   49571822.3920868     
   49571927.5225202     
   49572035.4594825     
   49572145.8402856     
   49572258.2953162     
   49572372.4485184     
   49572487.9178602     
   49572604.3157823     
   49572721.2496324     
   49572838.3220822     
   49572955.1315303     
   49573071.2724883     
   49573186.3359538     
   49573299.9097674     
   49573411.5789574     
   49573520.9260693     
   49573627.5314833     
   49573730.9737185     
   49573830.8297250     
   49573926.6751631     
   49574018.0846715     
   49574104.6321236     
   49574185.8908718     
   49574261.4339816     
   49574330.8344531     
   49574393.6654324     
   49574449.5004110     
   49574497.9134139     
   49574538.4791768     
   49574570.7733107     
   49574594.3724546     
   49574608.8544166     
   49574613.7983018     
   49533913.2597136     
   49533916.9053760     
   49533927.7582211     
   49533945.6798264     
   49533970.5158091     
   49534002.0963517     
   49534040.2367327     
   49534084.7378613     
   49534135.3868135     
   49534191.9573686     
   49534254.2105443     
   49534321.8951294     
   49534394.7482124     
   49534472.4957045     
   49534554.8528578     
   49534641.5247749     
   49534732.2069114     
   49534826.5855696     
   49534924.3383824     
   49535025.1347879     
   49535128.6364925     
   49535234.4979244     
   49535342.3666746     
   49535451.8839275     
   49535562.6848792     
   49535674.3991440     
   49535786.6511493     
   49535899.0605182     
   49536011.2424404     
   49536122.8080313     
   49536233.3646787     
   49536342.5163785     
   49536449.8640580     
   49536555.0058884     
   49536657.5375853     
   49536757.0526978     
   49536853.1428870     
   49536945.3981933     
   49537033.4072917     
   49537116.7577377     
   49537195.0362009     
   49537267.8286889     
   49537334.7207595     
   49537395.2977226     
   49537449.1448305     
   49537495.8474582     
   49537534.9912716     
   49537566.1623856     
   49537588.9475098     
   49537602.9340836     
   49537607.7103991     
   49496174.0737320     
   49496177.6306581     
   49496188.2118414     
   49496205.6722318     
   49496229.8528088     
   49496260.5809779     
   49496297.6709755     
   49496340.9242807     
   49496390.1300325     
   49496445.0654513     
   49496505.4962631     
   49496571.1771248     
   49496641.8520503     
   49496717.2548362     
   49496797.1094849     
   49496881.1306262     
   49496969.0239342     
   49497060.4865410     
   49497155.2074448     
   49497252.8679127     
   49497353.1418771     
   49497455.6963255     
   49497560.1916830     
   49497666.2821875     
   49497773.6162566     
   49497881.8368466     
   49497990.5818028     
   49498099.4842011     
   49498208.1726807     
   49498316.2717677     
   49498423.4021901     
   49498529.1811823     
   49498633.2227814     
   49498735.1381136     
   49498834.5356709     
   49498931.0215790     
   49499024.1998548     
   49499113.6726549     
   49499199.0405143     
   49499279.9025759     
   49499355.8568092     
   49499426.5002211     
   49499491.4290550     
   49499550.2389822     
   49499602.5252815     
   49499647.8830107     
   49499685.9071674     
   49499716.1928392     
   49499738.3353457     
   49499751.9303686     
   49499756.5740729     
   49457418.0481912     
   49457421.5689173     
   49457432.0328801     
   49457449.2835447     
   49457473.1522717     
   49457503.4586106     
   49457540.0106039     
   49457582.6050997     
   49457631.0280721     
   49457685.0549476     
   49457744.4509373     
   49457808.9713726     
   49457878.3620448     
   49457952.3595460     
   49458030.6916120     
   49458113.0774653     
   49458199.2281573     
   49458288.8469105     
   49458381.6294571     
   49458477.2643768     
   49458575.4334303     
   49458675.8118898     
   49458778.0688652     
   49458881.8676251     
   49458986.8659138     
   49459092.7162619     
   49459199.0662916     
   49459305.5590160     
   49459411.8331313     
   49459517.5233033     
   49459622.2604465     
   49459725.6719962     
   49459827.3821736     
   49459927.0122430     
   49460024.1807618     
   49460118.5038231     
   49460209.5952900     
   49460297.0670222     
   49460380.5290948     
   49460459.5900088     
   49460533.8568933     
   49460602.9357007     
   49460666.4313916     
   49460723.9481133     
   49460775.0893692     
   49460819.4581795     
   49460856.6572338     
   49460886.2890359     
   49460907.9560388     
   49460921.2607728     
   49460925.8059636     
   49417514.9345415     
   49417518.4636972     
   49417528.9420463     
   49417546.1980179     
   49417570.0496443     
   49417600.3047750     
   49417636.7613001     
   49417679.2073848     
   49417727.4217111     
   49417781.1737285     
   49417840.2239096     
   49417904.3240128     
   49417973.2173494     
   49418046.6390538     
   49418124.3163581     
   49418205.9688680     
   49418291.3088412     
   49418380.0414653     
   49418471.8651381     
   49418566.4717454     
   49418663.5469393     
   49418762.7704142     
   49418863.8161815     
   49418966.3528417     
   49419070.0438527     
   49419174.5477961     
   49419279.5186393     
   49419384.6059933     
   49419489.4553665     
   49419593.7084139     
   49419697.0031810     
   49419798.9743433     
   49419899.2534391     
   49419997.4690983     
   49420093.2472643     
   49420186.2114102     
   49420275.9827493     
   49420362.1804389     
   49420444.4217775     
   49420522.3223967     
   49420595.4964450     
   49420663.5567662     
   49420726.1150700     
   49420782.7820970     
   49420833.1677757     
   49420876.8813735     
   49420913.5316405     
   49420942.7269461     
   49420964.0754094     
   49420977.1850220     
   49420981.6637647     
   49376335.5249429     
   49376339.0998074     
   49376349.7027840     
   49376367.1447343     
   49376391.2276609     
   49376421.7448590     
   49376458.4810784     
   49376501.2126957     
   49376549.7078949     
   49376603.7268564     
   49376663.0219519     
   49376727.3379478     
   49376796.4122121     
   49376869.9749274     
   49376947.7493079     
   49377029.4518195     
   49377114.7924031     
   49377203.4747003     
   49377295.1962802     
   49377389.6488675     
   49377486.5185719     
   49377585.4861164     
   49377686.2270660     
   49377788.4120548     
   49377891.7070130     
   49377995.7733911     
   49378100.2683825     
   49378204.8451436     
   49378309.1530112     
   49378412.8377168     
   49378515.5415982     
   49378616.9038062     
   49378716.5605087     
   49378814.1450902     
   49378909.2883472     
   49379001.6186791     
   49379090.7622745     
   49379176.3432928     
   49379257.9840407     
   49379335.3051443     
   49379407.9257149     
   49379475.4635109     
   49379537.5350937     
   49379593.7559781     
   49379643.7407779     
   49379687.1033453     
   49379723.4569057     
   49379752.4141863     
   49379773.5875397     
   49379786.5890618     
   49379791.0307049     
   49333750.9720551     
   49333754.6232981     
   49333765.4418365     
   49333783.2192178     
   49333807.7394983     
   49333838.7793477     
   49333876.1081641     
   49333919.4881986     
   49333968.6746876     
   49334023.4159934     
   49334083.4537521     
   49334148.5230279     
   49334218.3524729     
   49334292.6644930     
   49334371.1754174     
   49334453.5956736     
   49334539.6299644     
   49334628.9774490     
   49334721.3319262     
   49334816.3820198     
   49334913.8113654     
   49335013.2987981     
   49335114.5185412     
   49335217.1403953     
   49335320.8299263     
   49335425.2486541     
   49335530.0542399     
   49335634.9006721     
   49335739.4384509     
   49335843.3147715     
   49335946.1737044     
   49336047.6563745     
   49336147.4011363     
   49336245.0437477     
   49336340.2175395     
   49336432.5535834     
   49336521.6808546     
   49336607.2263931     
   49336688.8154592     
   49336766.0716874     
   49336838.6172347     
   49336906.0729258     
   49336968.0583945     
   49337024.1922200     
   49337074.0920604     
   49337117.3747809     
   49337153.6565783     
   49337182.5531015     
   49337203.6795674     
   49337216.6508728     
   49337221.0817026     
   49289632.1644236     
   49289635.9169126     
   49289647.0249298     
   49289665.2595555     
   49289690.3855858     
   49289722.1616032     
   49289760.3400562     
   49289804.6673470     
   49289854.8839280     
   49289910.7244045     
   49289971.9176456     
   49290038.1869001     
   49290109.2499190     
   49290184.8190833     
   49290264.6015361     
   49290348.2993193     
   49290435.6095140     
   49290526.2243848     
   49290619.8315263     
   49290716.1140125     
   49290814.7505484     
   49290915.4156231     
   49291017.7796646     
   49291121.5091950     
   49291226.2669870     
   49291331.7122204     
   49291437.5006384     
   49291543.2847040     
   49291648.7137558     
   49291753.4341623     
   49291857.0894762     
   49291959.3205865     
   49292059.7658696     
   49292158.0613378     
   49292253.8407872     
   49292346.7359424     
   49292436.3765991     
   49292522.3907647     
   49292604.4047960     
   49292682.0435341     
   49292754.9304372     
   49292822.6877095     
   49292884.9364281     
   49292941.2966663     
   49292991.3876140     
   49293034.8276953     
   49293071.2346823     
   49293100.2258067     
   49293121.4178675     
   49293134.4273360     
   49293138.8704578     
   49243849.1459399     
   49243853.0195365     
   49243864.4762183     
   49243883.2658853     
   49243909.1332150     
   49243941.8177084     
   49243981.0537427     
   49244026.5706333     
   49244078.0927013     
   49244135.3393494     
   49244198.0251423     
   49244265.8598947     
   49244338.5487633     
   49244415.7923450     
   49244497.2867786     
   49244582.7238522     
   49244671.7911126     
   49244764.1719800     
   49244859.5458645     
   49244957.5882860     
   49245057.9709964     
   49245160.3621036     
   49245264.4261976     
   49245369.8244780     
   49245476.2148823     
   49245583.2522158     
   49245690.5882809     
   49245797.8720081     
   49245904.7495861     
   49246010.8645921     
   49246115.8581217     
   49246219.3689181     
   49246321.0335009     
   49246420.4862933     
   49246517.3597486     
   49246611.2844758     
   49246701.8893621     
   49246788.8016963     
   49246871.6472882     
   49246950.0505875     
   49247023.6348008     
   49247092.0220053     
   49247154.8332625     
   49247211.6887276     
   49247262.2077587     
   49247306.0090223     
   49247342.7105972     
   49247371.9300763     
   49247393.2846658     
   49247406.3912823     
   49247410.8666480     
   49196270.5705956     
   49196274.5808957     
   49196286.4328343     
   49196305.8547390     
   49196332.5706486     
   49196366.3003406     
   49196406.7593665     
   49196453.6590931     
   49196506.7067508     
   49196565.6054866     
   49196630.0544247     
   49196699.7487302     
   49196774.3796793     
   49196853.6347338     
   49196937.1976195     
   49197024.7484086     
   49197115.9636065     
   49197210.5162412     
   49197308.0759559     
   49197408.3091050     
   49197510.8788516     
   49197615.4452678     
   49197721.6654370     
   49197829.1935576     
   49197937.6810485     
   49198046.7766550     
   49198156.1265569     
   49198265.3744762     
   49198374.1617856     
   49198482.1276181     
   49198588.9089754     
   49198694.1408373     
   49198797.4562705     
   49198898.4865370     
   49198996.8612019     
   49199092.2082406     
   49199184.1541451     
   49199272.3240297     
   49199356.3417351     
   49199435.8299318     
   49199510.4102223     
   49199579.7032413     
   49199643.3287556     
   49199700.9057617     
   49199752.0525824     
   49199796.3869615     
   49199833.5261575     
   49199863.0870351     
   49199884.6861561     
   49199897.9398676     
   49199902.4643891     
   49146763.1857184     
   49146767.3447085     
   49146779.6278116     
   49146799.7416191     
   49146827.3892570     
   49146862.2704010     
   49146904.0812994     
   49146952.5148001     
   49147007.2603842     
   49147068.0042036     
   49147134.4291247     
   49147206.2147761     
   49147283.0376005     
   49147364.5709114     
   49147450.4849530     
   49147540.4469641     
   49147634.1212455     
   49147731.1692301     
   49147831.2495561     
   49147934.0181427     
   49148039.1282690     
   49148146.2306537     
   49148254.9735381     
   49148365.0027699     
   49148475.9618891     
   49148587.4922151     
   49148699.2329349     
   49148810.8211922     
   49148921.8921776     
   49149032.0792190     
   49149141.0138727     
   49149248.3260150     
   49149353.6439332     
   49149456.5944177     
   49149556.8028528     
   49149653.8933084     
   49149747.4886306     
   49149837.2105321     
   49149922.6796818     
   49150003.5157941     
   49150079.3377177     
   49150149.7635227     
   49150214.4105878     
   49150272.8956861     
   49150324.8350699     
   49150369.8445553     
   49150407.5396047     
   49150437.5354091     
   49150459.4469689     
   49150472.8891741     
   49150477.4768829     
   49095191.3383206     
   49095195.6549414     
   49095208.3960750     
   49095229.2465721     
   49095257.8885486     
   49095294.0013936     
   49095337.2617831     
   49095387.3436978     
   49095443.9184457     
   49095506.6546891     
   49095575.2184758     
   49095649.2732741     
   49095728.4800120     
   49095812.4971192     
   49095900.9805738     
   49095993.5839508     
   49096089.9584742     
   49096189.7530723     
   49096292.6144350     
   49096398.1870739     
   49096506.1133841     
   49096616.0337090     
   49096727.5864062     
   49096840.4079152     
   49096954.1328270     
   49097068.3939551     
   49097182.8224069     
   49097297.0476574     
   49097410.6976228     
   49097523.3987354     
   49097634.7760189     
   49097744.4531648     
   49097852.0526080     
   49097957.1956039     
   49098059.5023051     
   49098158.5918381     
   49098254.0823802     
   49098345.5912363     
   49098432.7349151     
   49098515.1292057     
   49098592.3892529     
   49098664.1296333     
   49098729.9644300     
   49098789.5073068     
   49098842.3715829     
   49098888.1703057     
   49098926.5163238     
   49098957.0223590     
   49098979.3010784     
   49098992.9651646     
   49098997.6273867     
   49041416.5002320     
   49041420.9808450     
   49041434.1992011     
   49041455.8185134     
   49041485.4999162     
   49041522.9024676     
   49041567.6831582     
   49041619.4969222     
   49041677.9966526     
   49041742.8332207     
   49041813.6554979     
   49041890.1103817     
   49041971.8428251     
   49042058.4958677     
   49042149.7106716     
   49042245.1265581     
   49042344.3810486     
   49042447.1099067     
   49042552.9471836     
   49042661.5252650     
   49042772.4749200     
   49042885.4253524     
   49043000.0042532     
   49043115.8378548     
   49043232.5509868     
   49043349.7671330     
   49043467.1084895     
   49043584.1960245     
   49043700.6495376     
   49043816.0877218     
   49043930.1282249     
   49044042.3877119     
   49044152.4819281     
   49044260.0257623     
   49044364.6333110     
   49044465.9179416     
   49044563.4923572     
   49044656.9686605     
   49044745.9584184     
   49044830.0727259     
   49044908.9222704     
   49044982.1173958     
   49045049.2681662     
   49045109.9844296     
   49045163.8758812     
   49045210.5521265     
   49045249.6227439     
   49045280.6973475     
   49045303.3856486     
   49045317.2975179     
   49045322.0430465     
   48985296.8084512     
   48985301.4572134     
   48985315.1654106     
   48985337.5747941     
   48985368.3256322     
   48985407.0567110     
   48985453.4053389     
   48985507.0073539     
   48985567.4971340     
   48985634.5076107     
   48985707.6702847     
   48985786.6152451     
   48985870.9711908     
   48985960.3654540     
   48986054.4240274     
   48986152.7715918     
   48986255.0315475     
   48986360.8260468     
   48986469.7760292     
   48986581.5012572     
   48986695.6203553     
   48986811.7508496     
   48986929.5092094     
   48987048.5108897     
   48987168.3703757     
   48987288.7012280     
   48987409.1161288     
   48987529.2269296     
   48987648.6446993     
   48987766.9797735     
   48987883.8418045     
   48987998.8398112     
   48988111.5822311     
   48988221.6769712     
   48988328.7314600     
   48988432.3527004     
   48988532.1473217     
   48988627.7216328     
   48988718.6816752     
   48988804.6332759     
   48988885.1821009     
   48988959.9337085     
   48989028.4936021     
   48989090.4672836     
   48989145.4603069     
   48989193.0783300     
   48989232.9271690     
   48989264.6128497     
   48989287.7416611     
   48989301.9202074     
   48989306.7554603     
   48926686.6177199     
   48926691.4368731     
   48926705.6418091     
   48926728.8530411     
   48926760.6901503     
   48926800.7717853     
   48926848.7156650     
   48926904.1385827     
   48926966.6564138     
   48927035.8841245     
   48927111.4357837     
   48927192.9245765     
   48927279.9628200     
   48927372.1619807     
   48927469.1326944     
   48927570.4847872     
   48927675.8272990     
   48927784.7685081     
   48927896.9159573     
   48928011.8764823     
   48928129.2562407     
   48928248.6607423     
   48928369.6948819     
   48928491.9629713     
   48928615.0687742     
   48928738.6155410     
   48928862.2060453     
   48928985.4426207     
   48929107.9271985     
   48929229.2613467     
   48929349.0463091     
   48929466.8830448     
   48929582.3722693     
   48929695.1144946     
   48929804.7100712     
   48929910.7592293     
   48930012.8621215     
   48930110.6188642     
   48930203.6295809     
   48930291.4944446     
   48930373.8137207     
   48930450.1878100     
   48930520.2172920     
   48930583.5029676     
   48930639.6459028     
   48930688.2474717     
   48930728.9093997     
   48930761.2338066     
   48930784.8232496     
   48930799.2807669     
   48930804.2099203     
   48865436.0627563     
   48865441.0528388     
   48865455.7563166     
   48865479.7727227     
   48865512.7011767     
   48865554.1403838     
   48865603.6886363     
   48865660.9438167     
   48865725.5034022     
   48865796.9644713     
   48865874.9237116     
   48865958.9774296     
   48866048.7215617     
   48866143.7516868     
   48866243.6630403     
   48866348.0505296     
   48866456.5087511     
   48866568.6320078     
   48866684.0143289     
   48866802.2494901     
   48866922.9310353     
   48867045.6522988     
   48867170.0064295     
   48867295.5864151     
   48867421.9851075     
   48867548.7952494     
   48867675.6095007     
   48867802.0204673     
   48867927.6207283     
   48868052.0028661     
   48868174.7594958     
   48868295.4832949     
   48868413.7670345     
   48868529.2036103     
   48868641.3860736     
   48868749.9076639     
   48868854.3618404     
   48868954.3423148     
   48869049.4430837     
   48869139.2584618     
   48869223.3831146     
   48869301.4120917     
   48869372.9408605     
   48869437.5653392     
   48869494.8819305     
   48869544.4875552     
   48869585.9796858     
   48869618.9563806     
   48869643.0163167     
   48869657.7588243     
   48869662.7839205     
   48801390.6279262     
   48801395.7879154     
   48801410.9870682     
   48801435.8042223     
   48801469.8182997     
   48801512.6083058     
   48801563.7533301     
   48801622.8325484     
   48801689.4252248     
   48801763.1107166     
   48801843.4684789     
   48801930.0780713     
   48802022.5191645     
   48802120.3715493     
   48802223.2151457     
   48802330.6300129     
   48802442.1963611     
   48802557.4945633     
   48802676.1051681     
   48802797.6089145     
   48802921.5867453     
   48803047.6198238     
   48803175.2895491     
   48803304.1775736     
   48803433.8658201     
   48803563.9365002     
   48803693.9721332     
   48803823.5555649     
   48803952.2699880     
   48804079.6989623     
   48804205.4264353     
   48804329.0367632     
   48804450.1147330     
   48804568.2455840     
   48804683.0150299     
   48804794.0092818     
   48804900.8150706     
   48805003.0196700     
   48805100.2109200     
   48805191.9772501     
   48805277.9077030     
   48805357.5919581     
   48805430.6203557     
   48805496.5839206     
   48805555.0743867     
   48805605.6842206     
   48805648.0066461     
   48805681.6356685     
   48805706.1660989     
   48805721.1935787     
   48805726.3146039     
   48734390.7224138     
   48734396.0498088     
   48734411.7373458     
   48734437.3434791     
   48734472.4272339     
   48734516.5482066     
   48734569.2665638     
   48734630.1430437     
   48734698.7389570     
   48734774.6161889     
   48734857.3372016     
   48734946.4650371     
   48735041.5633219     
   48735142.1962702     
   48735247.9286899     
   48735358.3259878     
   48735472.9541755     
   48735591.3798768     
   48735713.1703345     
   48735837.8934181     
   48735965.1176329     
   48736094.4121280     
   48736225.3467061     
   48736357.4918329     
   48736490.4186478     
   48736623.6989738     
   48736756.9053294     
   48736889.6109391     
   48737021.3897455     
   48737151.8164214     
   48737280.4663819     
   48737406.9157972     
   48737530.7416055     
   48737651.5215258     
   48737768.8340719     
   48737882.2585652     
   48737991.3751489     
   48738095.7648019     
   48738195.0093525     
   48738288.6914930     
   48738376.3947941     
   48738457.7037188     
   48738532.2036376     
   48738599.4808427     
   48738659.1225628     
   48738710.7169780     
   48738753.8532347     
   48738788.1214603     
   48738813.1127783     
   48738828.4193233     
   48738833.6342559     
   48664271.2592095     
   48664276.7500584     
   48664292.9143534     
   48664319.2905072     
   48664355.4179897     
   48664400.8373269     
   48664455.0901004     
   48664517.7189462     
   48664588.2675545     
   48664666.2806689     
   48664751.3040865     
   48664842.8846581     
   48664940.5702879     
   48665043.9099348     
   48665152.4536125     
   48665265.7523908     
   48665383.3583969     
   48665504.8248164     
   48665629.7058957     
   48665757.5569437     
   48665887.9343337     
   48666020.3955062     
   48666154.4989713     
   48666289.8043120     
   48666425.8721865     
   48666562.2643322     
   48666698.5435690     
   48666834.2738025     
   48666969.0200283     
   48667102.3483361     
   48667233.8259131     
   48667363.0210493     
   48667489.5031411     
   48667612.8426960     
   48667732.6113377     
   48667848.3818105     
   48667959.7279841     
   48668066.2248588     
   48668167.4485703     
   48668262.9763953     
   48668352.3867558     
   48668435.2592252     
   48668511.1745332     
   48668579.7145713     
   48668640.4623978     
   48668693.0022440     
   48668736.9195186     
   48668771.8008142     
   48668797.2339122     
   48668812.8077886     
   48668818.1126196     
   48590861.2364630     
   48590866.8853446     
   48590883.5103848     
   48590910.6303360     
   48590947.7655012     
   48590994.4377313     
   48591050.1704230     
   48591114.4885162     
   48591186.9184911     
   48591266.9883652     
   48591354.2276900     
   48591448.1675479     
   48591548.3405482     
   48591654.2808239     
   48591765.5240280     
   48591881.6073293     
   48592002.0694092     
   48592126.4504572     
   48592254.2921672     
   48592385.1377334     
   48592518.5318467     
   48592654.0206901     
   48592791.1519350     
   48592929.4747371     
   48593068.5397322     
   48593207.8990325     
   48593347.1062222     
   48593485.7163535     
   48593623.2859428     
   48593759.3729665     
   48593893.5368567     
   48594025.3384979     
   48594154.3402220     
   48594280.1058054     
   48594402.2004642     
   48594520.1908502     
   48594633.6450473     
   48594742.1325675     
   48594845.2243465     
   48594942.4927400     
   48595033.5115197     
   48595117.8558690     
   48595195.1023796     
   48595264.8290470     
   48595326.6152663     
   48595380.0418289     
   48595424.6909181     
   48595460.1461048     
   48595485.9923439     
   48595501.8159702     
   48595507.2046942     
   48513983.3199936     
   48513989.1199560     
   48514006.1851670     
   48514034.0151517     
   48514072.1114929     
   48514119.9778268     
   48514177.1198385     
   48514243.0452569     
   48514317.2638489     
   48514399.2874132     
   48514488.6297730     
   48514584.8067691     
   48514687.3362522     
   48514795.7380742     
   48514909.5340798     
   48515028.2480978     
   48515151.4059312     
   48515278.5353483     
   48515409.1660718     
   48515542.8297696     
   48515679.0600434     
   48515817.3924184     
   48515957.3643324     
   48516098.5151242     
   48516240.3860228     
   48516382.5201350     
   48516524.4624345     
   48516665.7597494     
   48516805.9607505     
   48516944.6159385     
   48517081.2776326     
   48517215.4999570     
   48517346.8388290     
   48517474.8519460     
   48517599.0987728     
   48517719.1405286     
   48517834.5401740     
   48517944.8623980     
   48518049.6736047     
   48518148.5419001     
   48518241.0370791     
   48518326.7306116     
   48518405.1956293     
   48518476.0069123     
   48518538.7408754     
   48518592.9755546     
   48518638.2905934     
   48518674.2672290     
   48518700.4882789     
   48518716.5381268     
   48518722.0027091     
   48433453.4259892     
   48433459.3684515     
   48433476.8484119     
   48433505.3466674     
   48433544.3466005     
   48433593.3341724     
   48433651.7979155     
   48433719.2289243     
   48433795.1208464     
   48433878.9698714     
   48433970.2747202     
   48434068.5366328     
   48434173.2593552     
   48434283.9491262     
   48434400.1146628     
   48434521.2671463     
   48434646.9202056     
   48434776.5899024     
   48434909.7947139     
   48435046.0555164     
   48435184.8955670     
   48435325.8404865     
   48435468.4182405     
   48435612.1591209     
   48435756.5957267     
   48435901.2629441     
   48436045.6979274     
   48436189.4400782     
   48436332.0310251     
   48436473.0146034     
   48436611.9368332     
   48436748.3458993     
   48436881.7921287     
   48437011.8279695     
   48437138.0079687     
   48437259.8887502     
   48437377.0289928     
   48437488.9894072     
   48437595.3327140     
   48437695.6236206     
   48437789.4287983     
   48437876.3168596     
   48437955.8583346     
   48438027.6256484     
   48438091.1930973     
   48438146.1368255     
   48438192.0348017     
   48438228.4667954     
   48438255.0143533     
   48438271.2607757     
   48438276.7910924     
   48349080.3031940     
   48349086.3778129     
   48349104.2418683     
   48349133.3580123     
   48349173.1920372     
   48349223.2128647     
   48349282.8925345     
   48349351.7061904     
   48349429.1320663     
   48349514.6514702     
   48349607.7487682     
   48349707.9113658     
   48349814.6296900     
   48349927.3971693     
   48350045.7102130     
   48350169.0681898     
   48350296.9734058     
   48350428.9310807     
   48350564.4493250     
   48350703.0391146     
   48350844.2142664     
   48350987.4914118     
   48351132.3899711     
   48351278.4321257     
   48351425.1427911     
   48351572.0495891     
   48351718.6828186     
   48351864.5754275     
   48352009.2629829     
   48352152.2836415     
   48352293.1781194     
   48352431.4896617     
   48352566.7640118     
   48352698.5493799     
   48352826.3964121     
   48352949.8581586     
   48353068.4900415     
   48353181.8498228     
   48353289.4975722     
   48353390.9956343     
   48353485.9085958     
   48353573.8032529     
   48353654.2485775     
   48353726.8156847     
   48353791.0777988     
   48353846.6102201     
   48353892.9902913     
   48353929.7973634     
   48353956.6127621     
   48353973.0197539     
   48353978.6035122     
   48260665.1141755     
   48260671.3086819     
   48260689.5204675     
   48260719.1947275     
   48260759.7803843     
   48260810.7300715     
   48260871.5001161     
   48260941.5505197     
   48261020.3449380     
   48261107.3506586     
   48261202.0385782     
   48261303.8831774     
   48261412.3624954     
   48261526.9581032     
   48261647.1550750     
   48261772.4419596     
   48261902.3107502     
   48262036.2568531     
   48262173.7790559     
   48262314.3794948     
   48262457.5636205     
   48262602.8401643     
   48262749.7211023     
   48262897.7216201     
   48263046.3600759     
   48263195.1579633     
   48263343.6398736     
   48263491.3334575     
   48263637.7693863     
   48263782.4813123     
   48263925.0058290     
   48264064.8824314     
   48264201.6534743     
   48264334.8641323     
   48264464.0623575     
   48264588.7988385     
   48264708.6269578     
   48264823.1027494     
   48264931.7848568     
   48265034.2344893     
   48265130.0153794     
   48265218.6937397     
   48265299.8382186     
   48265373.0198572     
   48265437.8120453     
   48265493.7904775     
   48265540.5331085     
   48265577.6201098     
   48265604.6338244     
   48265621.1587228     
   48265626.7813582     
   48168001.0155849     
   48168007.3155914     
   48168025.8324700     
   48168055.9947760     
   48168097.2354151     
   48168148.9916209     
   48168210.7049304     
   48168281.8211575     
   48168361.7903648     
   48168450.0668345     
   48168546.1090369     
   48168649.3795976     
   48168759.3452638     
   48168875.4768687     
   48168997.2492949     
   48169124.1414366     
   48169255.6361604     
   48169391.2202651     
   48169530.3844407     
   48169672.6232261     
   48169817.4349658     
   48169964.3217659     
   48170112.7894492     
   48170262.3475096     
   48170412.5090653     
   48170562.7908117     
   48170712.7129738     
   48170861.7992571     
   48171009.5767988     
   48171155.5761182     
   48171299.3310659     
   48171440.3787735     
   48171578.2596026     
   48171712.5170924     
   48171842.6979083     
   48171968.3517888     
   48172089.0314936     
   48172204.2927496     
   48172313.6941980     
   48172416.7973405     
   48172513.1664853     
   48172602.3686928     
   48172683.9737212     
   48172757.5539723     
   48172822.6844361     
   48172878.9426367     
   48172925.9085762     
   48172963.1646806     
   48172990.2957435     
   48173006.8888716     
   48173012.5334286     
   48070872.7376953     
   48070879.1264764     
   48070897.8988989     
   48070928.4678490     
   48070970.2512275     
   48071022.6719191     
   48071085.1577588     
   48071157.1414967     
   48071238.0607611     
   48071327.3580195     
   48071424.4805380     
   48071528.8803392     
   48071640.0141585     
   48071757.3433988     
   48071880.3340838     
   48072008.4568103     
   48072141.1866987     
   48072278.0033423     
   48072418.3907561     
   48072561.8373240     
   48072707.8357447     
   48072855.8829771     
   48073005.4801847     
   48073156.1326786     
   48073307.3498604     
   48073458.6451642     
   48073609.5359968     
   48073759.5436789     
   48073908.1933845     
   48074055.0140797     
   48074199.5384614     
   48074341.3028954     
   48074479.8473537     
   48074614.7153514     
   48074745.4538836     
   48074871.6133612     
   48074992.7475468     
   48075108.4134906     
   48075218.1714647     
   48075321.5848990     
   48075418.2203149     
   48075507.6472603     
   48075589.4382434     
   48075663.1686672     
   48075728.4167627     
   48075784.7635230     
   48075831.7926368     
   48075869.0904218     
   48075896.2457581     
   48075912.8500212     
   48075918.4970160     
   47969056.1639075     
   47969062.6221567     
   47969081.5929504     
   47969112.4746599     
   47969154.6713801     
   47969207.5928872     
   47969270.6545958     
   47969343.2775120     
   47969424.8881864     
   47969514.9186637     
   47969612.8064316     
   47969717.9943671     
   47969829.9306816     
   47969948.0688646     
   47970071.8676253     
   47970200.7908328     
   47970334.3074561     
   47970471.8915010     
   47970613.0219474     
   47970757.1826843     
   47970903.8624440     
   47971052.5547359     
   47971202.7577786     
   47971353.9744311     
   47971505.7121234     
   47971657.4827865     
   47971808.8027807     
   47971959.1928246     
   47972108.1779218     
   47972255.2872887     
   47972400.0542800     
   47972542.0163152     
   47972680.7148034     
   47972815.6950683     
   47972946.5062728     
   47973072.7013429     
   47973193.8368912     
   47973309.4731404     
   47973419.1738465     
   47973522.5062213     
   47973619.0408553     
   47973708.3516398     
   47973790.0156892     
   47973863.6132630     
   47973928.7276876     
   47973984.9452782     
   47974031.8552607     
   47974069.0496926     
   47974096.1233854     
   47974112.6738254     
   47974118.3010958     
   47862317.9113860     
   47862324.4169487     
   47862343.5205390     
   47862374.6073831     
   47862417.0691859     
   47862470.3040765     
   47862533.7165520     
   47862606.7174194     
   47862688.7237345     
   47862779.1587397     
   47862877.4517997     
   47862983.0383348     
   47863095.3597533     
   47863213.8633818     
   47863338.0023940     
   47863467.2357381     
   47863601.0280627     
   47863738.8496416     
   47863880.1762969     
   47864024.4893215     
   47864171.2754003     
   47864320.0265296     
   47864470.2399368     
   47864621.4179983     
   47864773.0681567     
   47864924.7028373     
   47865075.8393641     
   47865225.9998742     
   47865374.7112328     
   47865521.5049462     
   47865665.9170758     
   47865807.4881504     
   47865945.7630784     
   47866080.2910596     
   47866210.6254966     
   47866336.3239061     
   47866456.9478292     
   47866572.0627425     
   47866681.2379677     
   47866784.0465821     
   47866880.0653280     
   47866968.8745228     
   47867050.0579683     
   47867123.2028602     
   47867187.8996975     
   47867243.7421918     
   47867290.3271766     
   47867327.2545165     
   47867354.1270166     
   47867370.5503314     
   47867376.1328749     
   47750414.9145040     
   47750421.4420910     
   47750440.6036646     
   47750471.7729251     
   47750514.3308547     
   47750567.6656493     
   47750631.1726470     
   47750704.2542552     
   47750786.3198754     
   47750876.7858258     
   47750975.0752620     
   47751080.6180962     
   47751192.8509140     
   47751311.2168904     
   47751435.1657035     
   47751564.1534473     
   47751697.6425427     
   47751835.1016474     
   47751976.0055645     
   47752119.8351500     
   47752266.0772193     
   47752414.2244521     
   47752563.7752976     
   47752714.2338775     
   47752865.1098888     
   47753015.9185058     
   47753166.1802817     
   47753315.4210486     
   47753463.1718181     
   47753608.9686806     
   47753752.3527042     
   47753892.8698335     
   47754030.0707875     
   47754163.5109577     
   47754292.7503055     
   47754417.3532593     
   47754536.8886119     
   47754650.9294167     
   47754759.0528850     
   47754860.8402818     
   47754955.8768229     
   47755043.7515708     
   47755124.0573308     
   47755196.3905481     
   47755260.3512029     
   47755315.5427076     
   47755361.5718029     
   47755398.0484537     
   47755424.5857466     
   47755440.7997854     
   47755446.3095884     
   47633094.0133721     
   47633100.5342545     
   47633119.6688701     
   47633150.7812989     
   47633193.2437561     
   47633246.4365062     
   47633309.7477752     
   47633382.5736607     
   47633464.3180393     
   47633554.3924726     
   47633652.2161111     
   47633757.2155961     
   47633868.8249605     
   47633986.4855271     
   47634109.6458067     
   47634237.7613931     
   47634370.2948585     
   47634506.7156463     
   47634646.4999637     
   47634789.1306727     
   47634934.0971800     
   47635080.8953267     
   47635229.0272762     
   47635378.0014022     
   47635527.3321749     
   47635676.5400481     
   47635825.1513440     
   47635972.6981385     
   47636118.7181458     
   47636262.7546028     
   47636404.3561522     
   47636543.0767266     
   47636678.4754310     
   47636810.1164264     
   47636937.5688118     
   47637060.4065070     
   47637178.2081352     
   47637290.5569049     
   47637397.0404927     
   47637497.2509249     
   47637590.7844603     
   47637677.2414722     
   47637756.2263308     
   47637827.3472857     
   47637890.2163486     
   47637944.4491755     
   47637989.6649502     
   47638025.4862669     
   47638051.5390136     
   47638067.4522552     
   47638072.8581180     
   47510091.5503800     
   47510098.0320698     
   47510117.0437261     
   47510147.9420416     
   47510190.0927461     
   47510242.8705014     
   47510305.6587944     
   47510377.8498267     
   47510458.8444042     
   47510548.0518230     
   47510644.8897540     
   47510748.7841268     
   47510859.1690106     
   47510975.4864942     
   47511097.1865654     
   47511223.7269875     
   47511354.5731762     
   47511489.1980741     
   47511627.0820253     
   47511767.7126483     
   47511910.5847083     
   47512055.1999885     
   47512201.0671613     
   47512347.7016582     
   47512494.6255392     
   47512641.3673621     
   47512787.4620511     
   47512932.4507650     
   47513075.8807648     
   47513217.3052819     
   47513356.2833848     
   47513492.3798467     
   47513625.1650128     
   47513754.2146666     
   47513879.1098973     
   47513999.4369666     
   47514114.7871759     
   47514224.7567328     
   47514328.9466186     
   47514426.9624556     
   47514518.4143741     
   47514602.9168806     
   47514680.0887248     
   47514749.5527683     
   47514810.9358528     
   47514863.8686684     
   47514907.9856224     
   47514942.9247090     
   47514968.3273783     
   47514983.8384065     
   47514989.1057656     
   47381132.9784186     
   47381139.3843375     
   47381158.1650101     
   47381188.6723435     
   47381230.2682323     
   47381282.3244306     
   47381344.2224232     
   47381415.3532938     
   47381495.1175918     
   47381582.9251973     
   47381678.1951846     
   47381780.3556840     
   47381888.8437419     
   47382003.1051808     
   47382122.5944562     
   47382246.7745144     
   47382375.1166480     
   47382507.1003507     
   47382642.2131720     
   47382779.9505699     
   47382919.8157642     
   47383061.3195886     
   47383203.9803421     
   47383347.3236407     
   47383490.8822674     
   47383634.1960241     
   47383776.8115806     
   47383918.2823255     
   47384058.1682159     
   47384196.0356276     
   47384331.4572047     
   47384464.0117097     
   47384593.2838736     
   47384718.8642457     
   47384840.3490442     
   47384957.3400064     
   47385069.4442396     
   47385176.2740720     
   47385277.4469034     
   47385372.5850578     
   47385461.3156343     
   47385543.2703597     
   47385618.0854414     
   47385685.4014200     
   47385744.8630232     
   47385796.1190195     
   47385838.8220726     
   47385872.6285964     
   47385897.1986104     
   47385912.1955953     
   47385917.2863498     
   47245932.4852600     
   47245938.7744022     
   47245957.2030616     
   47245987.1213768     
   47246027.8904682     
   47246078.8822862     
   47246139.4794564     
   47246209.0751239     
   47246287.0727957     
   47246372.8861813     
   47246465.9390324     
   47246565.6649813     
   47246671.5073778     
   47246782.9191253     
   47246899.3625163     
   47247020.3090663     
   47247145.2393477     
   47247273.6428225     
   47247405.0176753     
   47247538.8706445     
   47247674.7168543     
   47247812.0796460     
   47247950.4904088     
   47248089.4884108     
   47248228.6206297     
   47248367.4415833     
   47248505.5131608     
   47248642.4044529     
   47248777.6915835     
   47248910.9575400     
   47249041.7920055     
   47249169.7911899     
   47249294.5576622     
   47249415.7001825     
   47249532.8335349     
   47249645.5783608     
   47249753.5609924     
   47249856.4132867     
   47249953.7724605     
   47250045.2809250     
   47250130.5861222     
   47250209.3403609     
   47250281.2006538     
   47250345.8285548     
   47250402.8899976     
   47250452.0551346     
   47250492.9981759     
   47250525.3972302     
   47250548.9341452     
   47250563.2943496     
   47250568.1666950     
   47104192.6394745     
   47104198.7660684     
   47104216.7076974     
   47104245.8162097     
   47104285.4554707     
   47104335.0011829     
   47104393.8407038     
   47104461.3728627     
   47104537.0077759     
   47104620.1666608     
   47104710.2816497     
   47104806.7956011     
   47104909.1619122     
   47105016.8443288     
   47105129.3167562     
   47105246.0630689     
   47105366.5769194     
   47105490.3615480     
   47105616.9295910     
   47105745.8028902     
   47105876.5123010     
   47106008.5975013     
   47106141.6068005     
   47106275.0969483     
   47106408.6329442     
   47106541.7878470     
   47106674.1425846     
   47106805.2857641     
   47106934.8134832     
   47107062.3291409     
   47107187.4432496     
   47107309.7732473     
   47107428.9433110     
   47107544.5841701     
   47107656.3329209     
   47107763.8328419     
   47107866.7332093     
   47107964.6891140     
   47108057.3612790     
   47108144.4158775     
   47108225.5243523     
   47108300.3632356     
   47108368.6139696     
   47108429.9627289     
   47108484.1002423     
   47108530.7216169     
   47108569.5261620     
   47108600.2172149     
   47108622.5019667     
   47108636.0912896     
   47108640.6995647     
   46955604.0642388     
   46955609.9774139     
   46955627.2820424     
   46955655.3356705     
   46955693.5089312     
   46955741.1853330     
   46955797.7610475     
   46955862.6446954     
   46955935.2571326     
   46956015.0312347     
   46956101.4116816     
   46956193.8547416     
   46956291.8280544     
   46956394.8104147     
   46956502.2915557     
   46956613.7719316     
   46956728.7625012     
   46956846.7845109     
   46956967.3692789     
   46957090.0579783     
   46957214.4014216     
   46957339.9598458     
   46957466.3026971     
   46957593.0084171     
   46957719.6642288     
   46957845.8659244     
   46957971.2176526     
   46958095.3317077     
   46958217.8283190     
   46958338.3354412     
   46958456.4885460     
   46958571.9304142     
   46958684.3109291     
   46958793.2868709     
   46958898.5217123     
   46958999.6854143     
   46959096.4542245     
   46959188.5104756     
   46959275.5423847     
   46959357.2438548     
   46959433.3142767     
   46959503.4583322     
   46959567.3857984     
   46959624.8113537     
   46959675.4543837     
   46959719.0387900     
   46959755.2927987     
   46959783.9487708     
   46959804.7430134     
   46959817.4155926     
   46959821.7101469     
   46799845.1464561     
   46799850.7899239     
   46799867.2917048     
   46799894.0195918     
   46799930.3555596     
   46799975.6955201     
   46800029.4490754     
   46800091.0392715     
   46800159.9023518     
   46800235.4875099     
   46800317.2566425     
   46800404.6841026     
   46800497.2564530     
   46800594.4722198     
   46800695.8416465     
   46800800.8864484     
   46800909.1395677     
   46801020.1449293     
   46801133.4571979     
   46801248.6415344     
   46801365.2733552     
   46801482.9380903     
   46801601.2309448     
   46801719.7566592     
   46801838.1292726     
   46801955.9718858     
   46802072.9164267     
   46802188.6034158     
   46802302.6817345     
   46802414.8083929     
   46802524.6483007     
   46802631.8740387     
   46802736.1656313     
   46802837.2103213     
   46802934.7023454     
   46803028.3427122     
   46803117.8389802     
   46803202.9050387     
   46803283.2608893     
   46803358.6324294     
   46803428.7512368     
   46803493.3543560     
   46803552.1840862     
   46803604.9877705     
   46803651.5175866     
   46803691.5303392     
   46803724.7872535     
   46803751.0537706     
   46803770.0993441     
   46803781.6972378     
   46803785.6243254     
   46636581.7897511     
   46636587.1015084     
   46636602.6178629     
   46636627.7220119     
   46636661.8124460     
   46636704.3026655     
   46636754.6208980     
   46636812.2098161     
   46636876.5262556     
   46636947.0409340     
   46637023.2381698     
   46637104.6156027     
   46637190.6839142     
   46637280.9665495     
   46637374.9994412     
   46637472.3307321     
   46637572.5205017     
   46637675.1404919     
   46637779.7738358     
   46637886.0147863     
   46637993.4684477     
   46638101.7505081     
   46638210.4869729     
   46638319.3139014     
   46638427.8771435     
   46638535.8320797     
   46638642.8433613     
   46638748.5846535     
   46638852.7383802     
   46638954.9954703     
   46639055.0551059     
   46639152.6244728     
   46639247.4185124     
   46639339.1596761     
   46639427.5776809     
   46639512.4092676     
   46639593.3979604     
   46639670.2938290     
   46639742.8532517     
   46639810.8386817     
   46639874.0184138     
   46639932.1663545     
   46639985.0617930     
   46640032.4891740     
   46640074.2378730     
   46640110.1019730     
   46640139.8800430     
   46640163.3749184     
   46640180.3934830     
   46640190.7464528     
   46640194.2481613     
   46465467.2211235     
   46465472.1331893     
   46465486.4640500     
   46465509.6181253     
   46465541.0162400     
   46465580.0953012     
   46465626.3079763     
   46465679.1223727     
   46465738.0217174     
   46465802.5040397     
   46465872.0818537     
   46465946.2818438     
   46466024.6445507     
   46466106.7240596     
   46466192.0876908     
   46466280.3156909     
   46466371.0009272     
   46466463.7485836     
   46466558.1758585     
   46466653.9116654     
   46466750.5963346     
   46466847.8813188     
   46466945.4288994     
   46467042.9118959     
   46467140.0133776     
   46467236.4263778     
   46467331.8536100     
   46467426.0071869     
   46467518.6083414     
   46467609.3871508     
   46467698.0822625     
   46467784.4406230     
   46467868.2172091     
   46467949.1747610     
   46468027.0835187     
   46468101.7209601     
   46468172.8715422     
   46468240.3264443     
   46468303.8833135     
   46468363.3460129     
   46468418.5243718     
   46468469.2339386     
   46468515.2957356     
   46468556.5360164     
   46468592.7860251     
   46468623.8817584     
   46468649.6637291     
   46468669.9767322     
   46468684.6696127     
   46468693.5950359     
   46468696.6092595     
   46286141.8623240     
   46286146.3005214     
   46286159.2277127     
   46286180.0760625     
   46286208.2952392     
   46286243.3520493     
   46286284.7300733     
   46286331.9293044     
   46286384.4657887     
   46286441.8712679     
   46286503.6928246     
   46286569.4925302     
   46286638.8470944     
   46286711.3475190     
   46286786.5987528     
   46286864.2193503     
   46286943.8411329     
   46287025.1088529     
   46287107.6798607     
   46287191.2237746     
   46287275.4221539     
   46287359.9681749     
   46287444.5663103     
   46287528.9320110     
   46287612.7913917     
   46287695.8809192     
   46287777.9471038     
   46287858.7461942     
   46287938.0438751     
   46288015.6149682     
   46288091.2431359     
   46288164.7205887     
   46288235.8477950     
   46288304.4331947     
   46288370.2929150     
   46288433.2504900     
   46288493.1365825     
   46288549.7887094     
   46288603.0509699     
   46288652.7737761     
   46288698.8135868     
   46288741.0326441     
   46288779.2987129     
   46288813.4848226     
   46288843.4690118     
   46288869.1340756     
   46288890.3673154     
   46288907.0602911     
   46288919.1085762     
   46288926.4115144     
   46288928.8719791     
   46098233.2783575     
   46098237.1621550     
   46098248.4489464     
   46098266.6059140     
   46098291.1188098     
   46098321.4915445     
   46098357.2457791     
   46098397.9205202     
   46098443.0717185     
   46098492.2718702     
   46098545.1096227     
   46098601.1893834     
   46098660.1309321     
   46098721.5690371     
   46098785.1530753     
   46098850.5466559     
   46098917.4272479     
   46098985.4858110     
   46099054.4264316     
   46099123.9659615     
   46099193.8336607     
   46099263.7708451     
   46099333.5305367     
   46099402.8771190     
   46099471.5859954     
   46099539.4432520     
   46099606.2453243     
   46099671.7986676     
   46099735.9194316     
   46099798.4331382     
   46099859.1743640     
   46099917.9864260     
   46099974.7210709     
   46100029.2381688     
   46100081.4054101     
   46100131.0980058     
   46100178.1983920     
   46100222.5959375     
   46100264.1866551     
   46100302.8729157     
   46100338.5631671     
   46100371.1716546     
   46100400.6181457     
   46100426.8276578     
   46100449.7301890     
   46100469.2604520     
   46100485.3576105     
   46100497.9650196     
   46100507.0299674     
   46100512.5034214     
   46100514.3397753     
   45901356.2168893     
   45901359.4593159     
   45901368.8501953     
   45901383.8997885     
   45901404.1379380     
   45901429.1136088     
   45901458.3944336     
   45901491.5662632     
   45901528.2327211     
   45901568.0147627     
   45901610.5502396     
   45901655.4934682     
   45901702.5148037     
   45901751.3002180     
   45901801.5508838     
   45901852.9827624     
   45901905.3261970     
   45901958.3255111     
   45902011.7386113     
   45902065.3365953     
   45902118.9033652     
   45902172.2352448     
   45902225.1406031     
   45902277.4394811     
   45902328.9632250     
   45902379.5541233     
   45902429.0650486     
   45902477.3591050     
   45902524.3092791     
   45902569.7980968     
   45902613.7172835     
   45902655.9674299     
   45902696.4576621     
   45902735.1053150     
   45902771.8356120     
   45902806.5813473     
   45902839.2825736     
   45902869.8862928     
   45902898.3461523     
   45902924.6221436     
   45902948.6803065     
   45902970.4924358     
   45902990.0357924     
   45903007.2928183     
   45903022.2508544     
   45903034.9018626     
   45903045.2421511     
   45903053.2721023     
   45903058.9959054     
   45903062.4212907     
   45903063.5592676     
   45695112.7537125     
   45695115.2613633     
   45695122.4820765     
   45695133.9780742     
   45695149.3320916     
   45695168.1468688     
   45695190.0446481     
   45695214.6666782     
   45695241.6727239     
   45695270.7405812     
   45695301.5656002     
   45695333.8602125     
   45695367.3534658     
   45695401.7905638     
   45695436.9324131     
   45695472.5551761     
   45695508.4498291     
   45695544.4217280     
   45695580.2901789     
   45695615.8880156     
   45695651.0611823     
   45695685.6683236     
   45695719.5803787     
   45695752.6801834     
   45695784.8620765     
   45695816.0315126     
   45695846.1046808     
   45695875.0081288     
   45695902.6783927     
   45695929.0616321     
   45695954.1132713     
   45695977.7976453     
   45696000.0876509     
   45696020.9644039     
   45696040.4169009     
   45696058.4416854     
   45696075.0425203     
   45696090.2300643     
   45696104.0215532     
   45696116.4404855     
   45696127.5163136     
   45696137.2841381     
   45696145.7844073     
   45696153.0626208     
   45696159.1690368     
   45696164.1583835     
   45696168.0895750     
   45696171.0254301     
   45696173.0323952     
   45696174.1802709     
   45696174.5419412     
   45479092.5608147     
   45479094.2339646     
   45479098.9918741     
   45479106.4584527     
   45479116.2789461     
   45479128.1193784     
   45479141.6660000     
   45479156.6247452     
   45479172.7206956     
   45479189.6975524     
   45479207.3171156     
   45479225.3587713     
   45479243.6189865     
   45479261.9108113     
   45479280.0633891     
   45479297.9214738     
   45479315.3449550     
   45479332.2083902     
   45479348.4005448     
   45479363.8239391     
   45479378.3944029     
   45479392.0406367     
   45479404.7037808     
   45479416.3369910     
   45479426.9050211     
   45479436.3838126     
   45479444.7600913     
   45479452.0309699     
   45479458.2035581     
   45479463.2945781     
   45479467.3299878     
   45479470.3446091     
   45479472.3817628     
   45479473.4929097     
   45479473.7372973     
   45479473.1816128     
   45479471.8996407     
   45479469.9719277     
   45479467.4854510     
   45479464.5332935     
   45479461.2143234     
   45479457.6328791     
   45479453.8984585     
   45479450.1254141     
   45479446.4326513     
   45479442.9433329     
   45479439.7845861     
   45479437.0872153     
   45479434.9854179     
   45479433.6165048     
   45479433.1206240     
   45252873.3148965     
   45252874.0477407     
   45252876.0325574     
   45252878.9655259     
   45252882.5648456     
   45252886.5701266     
   45252890.7417898     
   45252894.8604759     
   45252898.7264644     
   45252902.1591019     
   45252904.9962393     
   45252907.0936789     
   45252908.3246303     
   45252908.5791759     
   45252907.7637446     
   45252905.8005959     
   45252902.6273118     
   45252898.1962982     
   45252892.4742944     
   45252885.4418926     
   45252877.0930643     
   45252867.4346964     
   45252856.4861355     
   45252844.2787396     
   45252830.8554390     
   45252816.2703048     
   45252800.5881249     
   45252783.8839883     
   45252766.2428769     
   45252747.7592646     
   45252728.5367237     
   45252708.6875387     
   45252688.3323274     
   45252667.5996681     
   45252646.6257344     
   45252625.5539362     
   45252604.5345671     
   45252583.7244583     
   45252563.2866388     
   45252543.3900006     
   45252524.2089715     
   45252505.9231916     
   45252488.7171966     
   45252472.7801060     
   45252458.3053167     
   45252445.4902011     
   45252434.5358103     
   45252425.6465825     
   45252419.0300546     
   45252414.8965799     
   45252413.4590482     
   45016021.2654345     
   45016020.9464755     
   45016019.8314204     
   45016017.7001568     
   45016014.3551012     
   45016009.6205388     
   45016003.3419749     
   45015995.3854986     
   45015985.6371567     
   45015974.0023395     
   45015960.4051778     
   45015944.7879504     
   45015927.1105035     
   45015907.3496802     
   45015885.4987610     
   45015861.5669152     
   45015835.5786624     
   45015807.5733446     
   45015777.6046087     
   45015745.7398990     
   45015712.0599594     
   45015676.6583462     
   45015639.6409494     
   45015601.1255250     
   45015561.2412353     
   45015520.1281994     
   45015477.9370521     
   45015434.8285120     
   45015390.9729583     
   45015346.5500161     
   45015301.7481500     
   45015256.7642659     
   45015211.8033209     
   45015167.0779407     
   45015122.8080451     
   45015079.2204808     
   45015036.5486609     
   45014995.0322125     
   45014954.9166302     
   45014916.4529370     
   45014879.8973510     
   45014845.5109592     
   45014813.5593968     
   45014784.3125324     
   45014758.0441593     
   45014735.0316924     
   45014715.5558694     
   45014699.9004585     
   45014688.3519700     
   45014681.1993733     
   45014678.7338179     
   44768091.9824892     
   44768090.4950903     
   44768085.9385451     
   44768078.1887275     
   44768067.1443347     
   44768052.7261787     
   44768034.8764914     
   44768013.5582431     
   44767988.7544746     
   44767960.4676425     
   44767928.7189777     
   44767893.5478567     
   44767855.0111861     
   44767813.1827991     
   44767768.1528657     
   44767720.0273138     
   44767668.9272638     
   44767614.9884743     
   44767558.3608003     
   44767499.2076622     
   44767437.7055275     
   44767374.0434025     
   44767308.4223361     
   44767241.0549336     
   44767172.1648817     
   44767101.9864840     
   44767030.7642066     
   44766958.7522338     
   44766886.2140334     
   44766813.4219322     
   44766740.6567001     
   44766668.2071442     
   44766596.3697115     
   44766525.4481004     
   44766455.7528802     
   44766387.6011203     
   44766321.3160256     
   44766257.2265814     
   44766195.6672051     
   44766136.9774051     
   44766081.5014478     
   44766029.5880305     
   44765981.5899617     
   44765937.8638473     
   44765898.7697839     
   44765864.6710572     
   44765835.9338466     
   44765812.9269358     
   44765796.0214277     
   44765785.5904654     
   44765782.0089576     
   44508631.3053722     
   44508628.5284971     
   44508620.1762019     
   44508606.2334279     
   44508586.7079792     
   44508561.6297687     
   44508531.0500792     
   44508495.0408408     
   44508453.6939236     
   44508407.1204459     
   44508355.4500979     
   44508298.8304797     
   44508237.4264552     
   44508171.4195193     
   44508101.0071807     
   44508026.4023579     
   44507947.8327898     
   44507865.5404596     
   44507779.7810325     
   44507690.8233062     
   44507598.9486749     
   44507504.4506059     
   44507407.6341283     
   44507308.8153348     
   44507208.3208945     
   44507106.4875785     
   44507003.6617962     
   44506900.1991435     
   44506796.4639613     
   44506692.8289054     
   44506589.6745265     
   44506487.3888606     
   44506386.3670294     
   44506287.0108501     
   44506189.7284548     
   44506094.9339194     
   44506003.0469009     
   44505914.4922834     
   44505829.6998327     
   44505749.1038592     
   44505673.1428880     
   44505602.2593368     
   44505536.8992019     
   44505477.5117497     
   44505424.5492165     
   44505378.4665138     
   44505339.7209403     
   44505308.7718998     
   44505286.0806250     
   44505272.1099060     
   44505267.3238252     
   44237176.5139632     
   44237172.3231221     
   44237159.8109771     
   44237139.0853646     
   44237110.2767248     
   44237073.5373057     
   44237029.0403847     
   44236976.9795087     
   44236917.5677526     
   44236851.0369945     
   44236777.6372093     
   44236697.6357785     
   44236611.3168176     
   44236518.9805196     
   44236420.9425151     
   44236317.5332483     
   44236209.0973685     
   44236095.9931379     
   44235978.5918533     
   44235857.2772839     
   44235732.4451228     
   44235604.5024537     
   44235473.8672301     
   44235340.9677702     
   44235206.2422633     
   44235070.1382907     
   44234933.1123585     
   44234795.6294432     
   44234658.1625498     
   44234521.1922809     
   44234385.2064185     
   44234250.6995160     
   44234118.1725018     
   44233988.1322936     
   44233861.0914224     
   44233737.5676673     
   44233618.0836990     
   44233503.1667343     
   44233393.3481980     
   44233289.1633946     
   44233191.1511882     
   44233099.8536909     
   44233015.8159583     
   44232939.5856938     
   44232871.7129585     
   44232812.7498899     
   44232763.2504261     
   44232723.7700365     
   44232694.8654592     
   44232677.0944431     
   44232671.0154970     
   43953257.7448436     
   43953252.0132642     
   43953234.9707888     
   43953206.8626437     
   43953167.9560545     
   43953118.5394136     
   43953058.9214685     
   43952989.4305308     
   43952910.4137050     
   43952822.2361383     
   43952725.2802888     
   43952619.9452141     
   43952506.6458778     
   43952385.8124760     
   43952257.8897802     
   43952123.3365004     
   43951982.6246637     
   43951836.2390116     
   43951684.6764133     
   43951528.4452962     
   43951368.0650921     
   43951204.0656996     
   43951036.9869618     
   43950867.3781589     
   43950695.7975163     
   43950522.8117261     
   43950348.9954838     
   43950174.9310376     
   43950001.2077520     
   43949828.4216836     
   43949657.1751701     
   43949488.0764312     
   43949321.7391819     
   43949158.7822567     
   43948999.8292456     
   43948845.5081408     
   43948696.4509935     
   43948553.2935816     
   43948416.6750867     
   43948287.2377805     
   43948165.6267206     
   43948052.4894551     
   43947948.4757352     
   43947854.2372365     
   43947770.4272873     
   43947697.7006048     
   43947636.7130383     
   43947588.1213193     
   43947552.5828174     
   43947530.7553027     
   43947523.2967139     
   43656399.6743973     
   43656392.2744368     
   43656370.3289373     
   43656334.2355682     
   43656284.4130008     
   43656221.3000465     
   43656145.3548189     
   43656057.0539187     
   43655956.8916415     
   43655845.3792078     
   43655723.0440153     
   43655590.4289122     
   43655448.0914917     
   43655296.6034078     
   43655136.5497105     
   43654968.5282012     
   43654793.1488080     
   43654611.0329796     
   43654422.8130978     
   43654229.1319081     
   43654030.6419689     
   43653828.0051169     
   43653621.8919503     
   43653412.9813286     
   43653201.9598877     
   43652989.5215717     
   43652776.3671795     
   43652563.2039263     
   43652350.7450199     
   43652139.7092505     
   43651930.8205949     
   43651724.8078335     
   43651522.4041802     
   43651324.3469249     
   43651131.3770878     
   43650944.2390859     
   43650763.6804100     
   43650590.4513133     
   43650425.3045099     
   43650268.9948836     
   43650122.2792064     
   43649985.9158665     
   43649860.6646046     
   43649747.2862596     
   43649646.5425213     
   43649559.1956921     
   43649486.0084553     
   43649427.7436508     
   43649385.1640570     
   43649359.0321795     
   43649350.1100454     
   43346123.4905842     
   43346114.2953988     
   43346087.0768848     
   43346042.4006312     
   43345980.8517894     
   43345903.0341910     
   43345809.5694933     
   43345701.0963486     
   43345578.2696005     
   43345441.7595032     
   43345292.2509665     
   43345130.4428236     
   43344957.0471225     
   43344772.7884400     
   43344578.4032178     
   43344374.6391212     
   43344162.2544179     
   43343942.0173789     
   43343714.7056984     
   43343481.1059345     
   43343242.0129691     
   43342998.2294863     
   43342750.5654699     
   43342499.8377177     
   43342246.8693749     
   43341992.4894829     
   43341737.5325455     
   43341482.8381108     
   43341229.2503692     
   43340977.6177656     
   43340728.7926272     
   43340483.6308049     
   43340242.9913285     
   43340007.7360757     
   43339778.7294530     
   43339556.8380903     
   43339342.9305458     
   43339137.8770238     
   43338942.5491030     
   43338757.8194753     
   43338584.5616951     
   43338423.6499381     
   43338275.9587696     
   43338142.3629216     
   43338023.7370785     
   43337920.9556708     
   43337834.8926764     
   43337766.4214294     
   43337716.4144353     
   43337685.7431932     
   43337675.2780234     
   43021949.1741106     
   43021938.0595928     
   43021905.2064779     
   43021851.3640064     
   43021777.2990504     
   43021683.7952229     
   43021571.6520160     
   43021441.6839668     
   43021294.7198522     
   43021131.6019093     
   43020953.1850829     
   43020760.3362993     
   43020553.9337644     
   43020334.8662877     
   43020104.0326298     
   43019862.3408735     
   43019610.7078187     
   43019350.0583988     
   43019081.3251203     
   43018805.4475224     
   43018523.3716590     
   43018236.0495994     
   43017944.4389505     
   43017649.5023968     
   43017352.2072602     
   43017053.5250769     
   43016754.4311930     
   43016455.9043766     
   43016158.9264464     
   43015864.4819172     
   43015573.5576596     
   43015287.1425762     
   43015006.2272913     
   43014731.8038548     
   43014464.8654605     
   43014206.4061759     
   43013957.4206862     
   43013718.9040487     
   43013491.8514602     
   43013277.2580349     
   43013076.1185926     
   43012889.4274576     
   43012718.1782667     
   43012563.3637873     
   43012425.9757429     
   43012307.0046484     
   43012207.4396521     
   43012128.2683854     
   43012070.4768201     
   43012035.0491311     
   43012022.9675657     
   42683398.1081423     
   42683384.9551341     
   42683346.1207424     
   42683282.5536461     
   42683195.2176859     
   42683085.0909771     
   42682953.1650541     
   42682800.4440459     
   42682627.9438809     
   42682436.6915221     
   42682227.7242292     
   42682002.0888507     
   42681760.8411419     
   42681505.0451100     
   42681235.7723857     
   42680954.1016195     
   42680661.1179035     
   42680357.9122167     
   42680045.5808944     
   42679725.2251201     
   42679397.9504396     
   42679064.8662976     
   42678727.0855942     
   42678385.7242626     
   42678041.9008666     
   42677696.7362170     
   42677351.3530069     
   42677006.8754655     
   42676664.4290283     
   42676325.1400254     
   42675990.1353854     
   42675660.5423554     
   42675337.4882362     
   42675022.1001318     
   42674715.5047137     
   42674418.8279984     
   42674133.1951375     
   42673859.7302212     
   42673599.5560931     
   42673353.7941764     
   42673123.5643116     
   42672909.9846043     
   42672714.1712824     
   42672537.2385638     
   42672380.2985318     
   42672244.4610199     
   42672130.8335039     
   42672040.5210016     
   42671974.6259799     
   42671934.2482675     
   42671920.4849745     
   42329996.0334615     
   42329980.7302482     
   42329935.5901370     
   42329861.7768532     
   42329760.4662277     
   42329632.8453288     
   42329480.1116281     
   42329303.4721994     
   42329104.1429491     
   42328883.3478796     
   42328642.3183813     
   42328382.2925565     
   42328104.5145713     
   42327810.2340368     
   42327500.7054171     
   42327177.1874657     
   42326840.9426873     
   42326493.2368251     
   42326135.3383739     
   42325768.5181170     
   42325394.0486861     
   42325013.2041453     
   42324627.2595963     
   42324237.4908052     
   42323845.1738508     
   42323451.5847924     
   42323057.9993579     
   42322665.6926495     
   42322275.9388695     
   42321890.0110617     
   42321509.1808720     
   42321134.7183231     
   42320767.8916066     
   42320409.9668898     
   42320062.2081368     
   42319725.8769439     
   42319402.2323881     
   42319092.5308886     
   42318798.0260806     
   42318519.9687005     
   42318259.6064824     
   42318018.1840650     
   42317796.9429090     
   42317597.1212230     
   42317419.9538994     
   42317266.6724579     
   42317138.5049976     
   42317036.6761557     
   42316962.4070736     
   42316916.9153695     
   42316901.4151160     
   41961276.3629767     
   41961258.8080580     
   41961207.0681516     
   41961122.5371881     
   41961006.6175177     
   41960860.7190786     
   41960686.2586005     
   41960484.6588436     
   41960257.3478716     
   41960005.7583585     
   41959731.3269278     
   41959435.4935233     
   41959119.7008115     
   41958785.3936131     
   41958434.0183647     
   41958067.0226089     
   41957685.8545118     
   41957291.9624078     
   41956886.7943706     
   41956471.7978090     
   41956048.4190884     
   41955618.1031755     
   41955182.2933060     
   41954742.4306755     
   41954299.9541511     
   41953856.3000049     
   41953412.9016672     
   41952971.1894992     
   41952532.5905847     
   41952098.5285404     
   41951670.4233428     
   41951249.6911724     
   41950837.7442741     
   41950435.9908328     
   41950045.8348645     
   41949668.6761203     
   41949305.9100053     
   41948958.9275098     
   41948629.1151530     
   41948317.8549381     
   41948026.5243191     
   41947756.4961776     
   41947509.1388101     
   41947285.8159241     
   41947087.8866433     
   41946916.7055213     
   41946773.6225626     
   41946659.9832513     
   41946577.1285855     
   41946526.3951191     
   41946509.1150081     
   41576783.8656961     
   41576763.9708292     
   41576705.3763428     
   41576609.7207780     
   41576478.6467412     
   41576313.8001266     
   41576116.8293769     
   41575889.3847805     
   41575633.1178056     
   41575349.6804689     
   41575040.7247390     
   41574707.9019726     
   41574352.8623841     
   41573977.2545456     
   41573582.7249184     
   41573170.9174140     
   41572743.4729846     
   41572302.0292403     
   41571848.2200949     
   41571383.6754378     
   41570910.0208304     
   41570428.8772288     
   41569941.8607290     
   41569450.5823364     
   41568956.6477563     
   41568461.6572072     
   41567967.2052537     
   41567474.8806606     
   41566986.2662648     
   41566502.9388669     
   41566026.4691397     
   41565558.4215545     
   41565100.3543226     
   41564653.8193536     
   41564220.3622278     
   41563801.5221834     
   41563398.8321162     
   41563013.8185936     
   41562648.0018798     
   41562302.8959731     
   41561980.0086540     
   41561680.8415435     
   41561406.8901715     
   41561159.6440538     
   41560940.5867783     
   41560751.1960987     
   41560592.9440357     
   41560467.2969849     
   41560375.7158314     
   41560319.6560692     
   41560300.5679273     
   41176078.7256347     
   41176056.4191353     
   41175990.7642495     
   41175883.6574431     
   41175736.9941889     
   41175552.6682650     
   41175332.5710923     
   41175078.5911116     
   41174792.6131977     
   41174476.5181110     
   41174132.1819834     
   41173761.4758408     
   41173366.2651577     
   41172948.4094452     
   41172509.7618710     
   41172052.1689095     
   41171577.4700226     
   41171087.4973687     
   41170584.0755398     
   41170069.0213261     
   41169544.1435065     
   41169011.2426640     
   41168472.1110264     
   41167928.5323292     
   41167382.2817025     
   41166835.1255787     
   41166288.8216220     
   41165745.1186769     
   41165205.7567375     
   41164672.4669339     
   41164146.9715375     
   41163630.9839825     
   41163126.2089039     
   41162634.3421911     
   41162157.0710559     
   41161696.0741150     
   41161253.0214849     
   41160829.5748905     
   41160427.3877851     
   41160048.1054812     
   41159693.3652925     
   41159364.7966858     
   41159064.0214421     
   41158792.6538258     
   41158552.3007628     
   41158344.5620258     
   41158171.0304263     
   41158033.2920127     
   41157932.9262747     
   41157871.5063524     
   41157850.5992500     
   40758740.9755853     
   40758716.2058676     
   40758643.3440984     
   40758524.5565198     
   40758362.0025905     
   40758157.8343829     
   40757914.1960202     
   40757633.2231549     
   40757317.0424852     
   40756967.7713105     
   40756587.5171228     
   40756178.3772342     
   40755742.4384388     
   40755281.7767088     
   40754798.4569224     
   40754294.5326236     
   40753772.0458128     
   40753233.0267658     
   40752679.4938826     
   40752113.4535624     
   40751536.9001063     
   40750951.8156441     
   40750360.1700873     
   40749763.9211041     
   40749165.0141184     
   40748565.3823299     
   40747966.9467551     
   40747371.6162886     
   40746781.2877834     
   40746197.8461496     
   40745623.1644701     
   40745059.1041338     
   40744507.5149838     
   40743970.2354807     
   40743449.0928813     
   40742945.9034289     
   40742462.4725581     
   40742000.5951106     
   40741562.0555628     
   40741148.6282634     
   40740762.0776822     
   40740404.1586664     
   40740076.6167073     
   40739781.1882133     
   40739519.6007917     
   40739293.5735361     
   40739104.8173207     
   40738955.0350996     
   40738845.9222116     
   40738779.1666885     
   40738756.4495686     
   40324375.2992523     
   40324348.0385832     
   40324267.8937726     
   40324137.3108270     
   40323958.7224264     
   40323734.5474441     
   40323467.1905079     
   40323159.0416039     
   40322812.4757194     
   40322429.8525245     
   40322013.5160920     
   40321565.7946534     
   40321089.0003896     
   40320585.4292567     
   40320057.3608442     
   40319507.0582652     
   40318936.7680773     
   40318348.7202332     
   40317745.1280601     
   40317128.1882661     
   40316500.0809735     
   40315862.9697775     
   40315219.0018289     
   40314570.3079405     
   40313919.0027161     
   40313267.1847004     
   40312616.9365498     
   40311970.3252223     
   40311329.4021868     
   40310696.2036490     
   40310072.7507953     
   40309461.0500515     
   40308863.0933576     
   40308280.8584559     
   40307716.3091940     
   40307171.3958386     
   40306648.0554027     
   40306148.2119834     
   40305673.7771098     
   40305226.6501011     
   40304808.7184333     
   40304421.8581146     
   40304067.9340678     
   40303748.8005202     
   40303466.3013998     
   40303222.2707367     
   40303018.5330707     
   40302856.9038619     
   40302739.1899069     
   40302667.1897573     
   40302642.6941414     
   39872616.1879313     
   39872586.4363665     
   39872499.0142031     
   39872356.6549086     
   39872162.0713148     
   39871917.9552867     
   39871626.9774338     
   39871291.7868644     
   39870915.0109796     
   39870499.2553070     
   39870047.1033728     
   39869561.1166097     
   39869043.8343014     
   39868497.7735603     
   39867925.4293395     
   39867329.2744757     
   39866711.7597630     
   39866075.3140563     
   39865422.3444030     
   39864755.2362020     
   39864076.3533879     
   39863388.0386417     
   39862692.6136237     
   39861992.3792303     
   39861289.6158717     
   39860586.5837710     
   39859885.5232822     
   39859188.6552276     
   39858498.1812521     
   39857816.2841947     
   39857145.1284758     
   39856486.8604992     
   39855843.6090679     
   39855217.4858135     
   39854610.5856374     
   39854024.9871636     
   39853462.7532025     
   39852925.9312238     
   39852416.5538391     
   39851936.6392928     
   39851488.1919605     
   39851073.2028545     
   39850693.6501353     
   39850351.4996292     
   39850048.7053505     
   39849787.2100288     
   39849568.9456388     
   39849395.8339352     
   39849269.7869884     
   39849192.7077239     
   39849166.4904623     
   39403133.4297524     
   39403101.2192204     
   39403006.6191844     
   39402852.6555272     
   39402642.3254163     
   39402378.5971495     
   39402064.4100444     
   39401702.6743691     
   39401296.2713152     
   39400848.0530088     
   39400360.8425606     
   39399837.4341522     
   39399280.5931581     
   39398693.0563014     
   39398077.5318424     
   39397436.6997992     
   39396773.2121970     
   39396089.6933480     
   39395388.7401575     
   39394672.9224577     
   39393944.7833652     
   39393206.8396637     
   39392461.5822090     
   39391711.4763558     
   39390958.9624047     
   39390206.4560693     
   39389456.3489610     
   39388711.0090911     
   39387972.7813902     
   39387243.9882411     
   39386526.9300274     
   39385823.8856953     
   39385137.1133264     
   39384468.8507242     
   39383821.3160090     
   39383196.7082242     
   39382597.2079509     
   39382024.9779302     
   39381482.1636937     
   39380970.8942003     
   39380493.2824786     
   39380051.4262751     
   39379647.4087064     
   39379283.2989158     
   39378961.1527330     
   39378683.0133364     
   39378450.9119181     
   39378266.8683497     
   39378132.8918499     
   39378050.9816524     
   39378023.1276744     
   38915637.9005983     
   38915603.2990896     
   38915501.7267044     
   38915336.5034819     
   38915110.9119011     
   38914828.1969329     
   38914491.5661351     
   38914104.1897894     
   38913669.2010798     
   38913189.6963101     
   38912668.7351582     
   38912109.3409683     
   38911514.5010761     
   38910887.1671692     
   38910230.2556778     
   38909546.6481971     
   38908839.1919387     
   38908110.7002092     
   38907363.9529161     
   38906601.6970980     
   38905826.6474792     
   38905041.4870469     
   38904248.8676492     
   38903451.4106132     
   38902651.7073829     
   38901852.3201732     
   38901055.7826420     
   38900264.6005763     
   38899481.2525938     
   38898708.1908569     
   38897947.8417997     
   38897202.6068650     
   38896474.8632530     
   38895766.9646783     
   38895081.2421360     
   38894420.0046745     
   38893785.5401759     
   38893180.1161417     
   38892605.9804839     
   38892065.3623205     
   38891560.4727743     
   38891093.5057755     
   38890666.6388654     
   38890282.0340035     
   38889941.8383741     
   38889648.1851945     
   38889403.1945234     
   38889208.9740680     
   38889067.6199913     
   38888981.2177171     
   38888951.8427340     
   38409887.6162573     
   38409850.7320774     
   38409742.5113396     
   38409566.5662830     
   38409326.4619915     
   38409025.7166808     
   38408667.8020304     
   38408256.1435565     
   38407794.1210253     
   38407285.0689055     
   38406732.2768563     
   38406138.9902529     
   38405508.4107439     
   38404843.6968419     
   38404147.9645452     
   38403424.2879877     
   38402675.7001172     
   38401905.1933999     
   38401115.7205496     
   38400310.1952795     
   38399491.4930775     
   38398662.4520003     
   38397825.8734878     
   38396984.5231953     
   38396141.1318414     
   38395298.3960724     
   38394458.9793396     
   38393625.5127907     
   38392800.5961720     
   38391986.7987414     
   38391186.6601916     
   38390402.6915806     
   38389637.3762710     
   38388893.1708747     
   38388172.5062040     
   38387477.7882271     
   38386811.3990270     
   38386175.6977647     
   38385573.0216427     
   38385005.6868723     
   38384475.9896402     
   38383986.2070755     
   38383538.5982167     
   38383135.4049779     
   38382778.8531125     
   38382471.1531756     
   38382214.5014842     
   38382011.0810735     
   38381863.0626508     
   38381772.6055449     
   38381741.8586523     
   37885693.9953867     
   37885654.9814261     
   37885540.5672803     
   37885354.6512401     
   37885101.0741166     
   37884783.6197976     
   37884406.0158471     
   37883971.9341453     
   37883484.9915684     
   37882948.7507058     
   37882366.7206134     
   37881742.3576006     
   37881079.0660502     
   37880380.1992682     
   37879649.0603639     
   37878888.9031556     
   37878102.9331038     
   37877294.3082666     
   37876466.1402794     
   37875621.4953542     
   37874763.3952987     
   37873894.8185535     
   37873018.7012452     
   37872137.9382549     
   37871255.3843004     
   37870373.8550300     
   37869496.1281281     
   37868624.9444295     
   37867763.0090432     
   37866912.9924825     
   37866077.5318020     
   37865259.2317389     
   37864460.6658590     
   37863684.3777049     
   37862932.8819474     
   37862208.6655365     
   37861514.1888542     
   37860851.8868654     
   37860224.1702688     
   37859633.4266446     
   37859082.0216003     
   37858572.2999133     
   37858106.5866686     
   37857687.1883934     
   37857316.3941861     
   37856996.4768401     
   37856729.6939621     
   37856518.2890840     
   37856364.4927693     
   37856270.5237114     
   37856238.5898268     
   37342928.2726554     
   37342887.3306298     
   37342767.3213513     
   37342572.4183166     
   37342306.7265232     
   37341974.2833275     
   37341579.0593450     
   37341124.9593911     
   37340615.8234603     
   37340055.4277401     
   37339447.4856615     
   37338795.6489796     
   37338103.5088862     
   37337374.5971500     
   37336612.3872845     
   37335820.2957395     
   37335001.6831165     
   37334159.8554053     
   37333298.0652397     
   37332419.5131712     
   37331527.3489587     
   37330624.6728730     
   37329714.5370138     
   37328799.9466379     
   37327883.8614978     
   37326969.1971885     
   37326058.8265002     
   37325155.5807786     
   37324262.2512875     
   37323381.5905759     
   37322516.3138460     
   37321669.1003226     
   37320842.5946216     
   37320039.4081171     
   37319262.1203068     
   37318513.2801734     
   37317795.4075417     
   37317110.9944318     
   37316462.5064052     
   37315852.3839056     
   37315283.0435923     
   37314756.8796660     
   37314276.2651861     
   37313843.5533806     
   37313461.0789457     
   37313131.1593368     
   37312856.0960502     
   37312638.1758940     
   37312479.6722500     
   37312382.8463250     
   37312349.9483916     
   36781527.9913260     
   36781485.3759404     
   36781360.5252815     
   36781157.8720016     
   36780881.7685774     
   36780536.4885062     
   36780126.2275435     
   36779655.1049789     
   36779127.1649489     
   36778546.3777845     
   36777916.6413904     
   36777241.7826546     
   36776525.5588859     
   36775771.6592774     
   36774983.7063937     
   36774165.2576792     
   36773319.8069870     
   36772450.7861247     
   36771561.5664162     
   36770655.4602775     
   36769735.7228043     
   36768805.5533693     
   36767868.0972291     
   36766926.4471365     
   36765983.6449590     
   36765042.6832998     
   36764106.5071221     
   36763178.0153725     
   36762260.0626046     
   36761355.4605999     
   36760466.9799858     
   36759597.3518482     
   36758749.2693390     
   36757925.3892767     
   36757128.3337387     
   36756360.6916455     
   36755625.0203351     
   36754923.8471268     
   36754259.6708741     
   36753634.9635059     
   36753052.1715555     
   36752513.7176764     
   36752022.0021452     
   36751579.4043509     
   36751188.2842698     
   36750850.9839267     
   36750569.8288416     
   36750347.1294620     
   36750185.1825804     
   36750086.2727380     
   36750052.6736128     
   36201503.4949050     
   36201459.5178906     
   36201330.7468446     
   36201121.8518006     
   36200837.4103323     
   36200481.9091265     
   36200059.7455956     
   36199575.2295280     
   36199032.5847725     
   36198435.9509555     
   36197789.3852274     
   36197096.8640365     
   36196362.2849274     
   36195589.4683623     
   36194782.1595615     
   36193944.0303625     
   36193078.6810936     
   36192189.6424615     
   36191280.3774489     
   36190354.2832221     
   36189414.6930443     
   36188464.8781948     
   36187508.0498899     
   36186547.3612062     
   36185585.9090020     
   36184626.7358366     
   36183672.8318860     
   36182727.1368521     
   36181792.5418656     
   36180871.8913792     
   36179967.9850525     
   36179083.5796243     
   36178221.3907732     
   36177384.0949650     
   36176574.3312856     
   36175794.7032579     
   36175047.7806438     
   36174336.1012280     
   36173662.1725852     
   36173028.4738284     
   36172437.4573389     
   36171891.5504771     
   36171393.1572735     
   36170944.6601004     
   36170548.4213234     
   36170206.7849326     
   36169922.0781543     
   36169696.6130421     
   36169532.6880483     
   36169432.5895755     
   36169398.5935091     
   35602944.3287703     
   35602899.3627416     
   35602767.7707568     
   35602554.4322038     
   35602264.1211745     
   35601901.5084559     
   35601471.1635621     
   35600977.5567996     
   35600425.0613659     
   35599817.9554769     
   35599160.4245210     
   35598456.5632367     
   35597710.3779111     
   35596925.7885958     
   35596106.6313392     
   35595256.6604300     
   35594379.5506520     
   35593478.8995455     
   35592558.2296743     
   35591620.9908955     
   35590670.5626284     
   35589710.2561240     
   35588743.3167276     
   35587772.9261383     
   35586802.2046583     
   35585834.2134333     
   35584871.9566819     
   35583918.3839104     
   35582976.3921143     
   35582048.8279616     
   35581138.4899607     
   35580248.1306070     
   35579380.4585108     
   35578538.1405031     
   35577723.8037197     
   35576940.0376615     
   35576189.3962305     
   35575474.3997422     
   35574797.5369111     
   35574161.2668114     
   35573568.0208105     
   35573020.2044769     
   35572520.1994592     
   35572070.3653406     
   35571673.0414637     
   35571330.5487298     
   35571045.1913710     
   35570819.2586946     
   35570655.0268022     
   35570554.7602818     
   35570520.7138752     
   34986025.4554665     
   34985979.9375337     
   34985846.8129781     
   34985631.1357120     
   34985337.8410269     
   34984971.7480546     
   34984537.5622632     
   34984039.8779870     
   34983483.1809850     
   34982871.8510246     
   34982210.1644880     
   34981502.2969975     
   34980752.3260559     
   34979964.2336998     
   34979141.9091621     
   34978289.1515402     
   34977409.6724678     
   34976507.0987874     
   34975584.9752198     
   34974646.7670287     
   34973695.8626784     
   34972735.5764799     
   34971769.1512265     
   34970799.7608130     
   34969830.5128394     
   34968864.4511950     
   34967904.5586221     
   34966953.7592576     
   34966014.9211495     
   34965090.8587487     
   34964184.3353730     
   34963298.0656426     
   34962434.7178864     
   34961596.9165170     
   34960787.2443740     
   34960008.2450346     
   34959262.4250910     
   34958552.2563931     
   34957880.1782570     
   34957248.5996382     
   34956659.9012696     
   34956116.4377632     
   34955620.5396766     
   34955174.5155435     
   34954780.6538683     
   34954441.2250856     
   34954158.4834842     
   34953934.6690964     
   34953772.0095530     
   34953672.7219046     
   34953639.0144104     
   34351013.1822548     
   34350967.6173045     
   34350834.4469132     
   34350618.8572956     
   34350325.9023131     
   34349960.5064579     
   34349527.4678711     
   34349031.4613896     
   34348477.0416181     
   34347868.6460208     
   34347210.5980312     
   34346507.1101728     
   34345762.2871902     
   34344980.1291840     
   34344164.5347481     
   34343319.3041044     
   34342448.1422324     
   34341554.6619894     
   34340642.3872203     
   34339714.7558514     
   34338775.1229666     
   34337826.7638644     
   34336872.8770908     
   34335916.5874475     
   34334960.9489723     
   34334008.9478896     
   34333063.5055298     
   34332127.4812140     
   34331203.6751043     
   34330294.8310164     
   34329403.6391944     
   34328532.7390449     
   34327684.7218313     
   34326862.1333250     
   34326067.4764142     
   34325303.2136686     
   34324571.7698596     
   34323875.5344359     
   34323216.8639526     
   34322598.0844553     
   34322021.4938177     
   34321489.3640334     
   34321003.9434611     
   34320567.4590243     
   34320182.1183648     
   34319850.1119514     
   34319573.6151435     
   34319354.7902107     
   34319195.7883084     
   34319098.7514118     
   34319065.8142074     
   33698270.6972987     
   33698225.6608206     
   33698094.1377354     
   33697881.3963057     
   33697592.5583948     
   33697232.6030421     
   33696806.3700668     
   33696318.5636955     
   33695773.7562086     
   33695176.3916002     
   33694530.7892470     
   33693841.1475814     
   33693111.5477644     
   33692345.9573538     
   33691548.2339638     
   33690722.1289112     
   33689871.2908463     
   33688999.2693618     
   33688109.5185794     
   33687205.4007085     
   33686290.1895750     
   33685367.0741170     
   33684439.1618447     
   33683509.4822612     
   33682580.9902436     
   33681656.5693798     
   33680739.0352609     
   33679831.1387261     
   33678935.5690591     
   33678054.9571336     
   33677191.8785075     
   33676348.8564638     
   33675528.3649972     
   33674732.8317453     
   33673964.6408643     
   33673226.1358477     
   33672519.6222875     
   33671847.3705777     
   33671211.6185602     
   33670614.5741120     
   33670058.4176744     
   33669545.3047241     
   33669077.3681860     
   33668656.7207885     
   33668285.4573621     
   33667965.6570809     
   33667699.3856479     
   33667488.6974261     
   33667335.6375150     
   33667242.2437737     
   33667210.5487929     
   33028263.1124474     
   33028219.2527154     
   33028091.2825320     
   33027884.4931911     
   33027604.0153571     
   33027254.8233094     
   33026841.7392095     
   33026369.4373828     
   33025842.4486117     
   33025265.1644309     
   33024641.8414220     
   33023976.6055003     
   33023273.4561888     
   33022536.2708749     
   33021768.8090446     
   33020974.7164896     
   33020157.5294833     
   33019320.6789215     
   33018467.4944237     
   33017601.2083925     
   33016724.9600256     
   33015841.7992799     
   33014954.6907834     
   33014066.5176913     
   33013180.0854867     
   33012298.1257203     
   33011423.2996902     
   33010558.2020573     
   33009705.3643965     
   33008867.2586819     
   33008046.3007035     
   33007244.8534165     
   33006465.2302199     
   33005709.6981654     
   33004980.4810955     
   33004279.7627094     
   33003609.6895576     
   33002972.3739645     
   33002369.8968787     
   33001804.3106513     
   33001277.6417421     
   33000791.8933548     
   33000349.0480001     
   32999951.0699889     
   32999599.9078550     
   32999297.4967086     
   32999045.7605216     
   32998846.6143455     
   32998701.9664626     
   32998613.7204729     
   32998583.7773171     
   32341561.9169653     
   32341519.9562839     
   32341397.6602042     
   32341200.2744300     
   32340932.8697959     
   32340600.3472762     
   32340207.4430062     
   32339758.7333076     
   32339258.6397096     
   32338711.4339605     
   32338121.2430210     
   32337492.0540349     
   32336827.7192696     
   32336131.9610211     
   32335408.3764789     
   32334660.4425445     
   32333891.5205993     
   32333104.8612185     
   32332303.6088247     
   32331490.8062796     
   32330669.3994098     
   32329842.2414624     
   32329012.0974889     
   32328181.6486548     
   32327353.4964719     
   32326530.1669509     
   32325714.1146748     
   32324907.7267882     
   32324113.3269041     
   32323333.1789255     
   32322569.4907815     
   32321824.4180764     
   32321100.0676523     
   32320398.5010642     
   32319721.7379673     
   32319071.7594161     
   32318450.5110763     
   32317859.9063487     
   32317301.8294051     
   32316778.1381384     
   32316290.6670243     
   32315841.2298982     
   32315431.6226459     
   32315063.6258097     
   32314739.0071105     
   32314459.5238868     
   32314226.9254523     
   32314042.9553718     
   32313909.3536577     
   32313827.8588893     
   32313800.2102538     
   31638848.7589687     
   31638809.4935364     
   31638695.2072562     
   31638511.0210163     
   31638261.8668349     
   31637952.4937500     
   31637587.4737048     
   31637171.2074182     
   31636707.9302331     
   31636201.7179323     
   31635656.4925166     
   31635076.0279350     
   31634463.9557631     
   31633823.7708205     
   31633158.8367232     
   31632472.3913653     
   31631767.5523231     
   31631047.3221807     
   31630314.5937687     
   31629572.1553157     
   31628822.6955076     
   31628068.8084522     
   31627312.9985464     
   31626557.6852444     
   31625805.2077242     
   31625057.8294517     
   31624317.7426405     
   31623587.0726071     
   31622867.8820198     
   31622162.1750423     
   31621471.9013702     
   31620798.9601611     
   31620145.2038587     
   31619512.4419099     
   31618902.4443770     
   31618316.9454437     
   31617757.6468163     
   31617226.2210214     
   31616724.3145991     
   31616253.5511945     
   31615815.5345462     
   31615411.8513748     
   31615044.0741703     
   31614713.7638810     
   31614422.4725042     
   31614171.7455793     
   31613963.1245852     
   31613798.1492428     
   31613678.3597238     
   31613605.2987676     
   31613580.5137064     
   30920918.4911579     
   30920882.7888749     
   30920779.0551528     
   30920612.1950357     
   30920386.9112992     
   30920107.7113598     
   30919778.9141541     
   30919404.6569762     
   30918988.9022631     
   30918535.4443189     
   30918047.9159689     
   30917529.7951345     
   30916984.4113220     
   30916414.9520188     
   30915824.4689891     
   30915215.8844651     
   30914591.9972279     
   30913955.4885732     
   30913308.9281595     
   30912654.7797327     
   30911995.4067282     
   30911333.0777446     
   30910669.9718891     
   30910008.1839937     
   30909349.7296994     
   30908696.5504100     
   30908050.5181140     
   30907413.4400746     
   30906787.0633899     
   30906173.0794216     
   30905573.1280948     
   30904988.8020693     
   30904421.6507838     
   30903873.1843734     
   30903344.8774634     
   30902838.1728394     
   30902354.4849955     
   30901895.2035620     
   30901461.6966150     
   30901055.3138673     
   30900677.3897441     
   30900329.2463429     
   30900012.1962802     
   30899727.5454258     
   30899476.5955253     
   30899260.6467128     
   30899080.9999134     
   30898938.9591388     
   30898835.8336740     
   30898772.9401591     
   30898751.6045644     
   30188681.4463675     
   30188650.2415936     
   30188559.7934833     
   30188414.6869663     
   30188219.2924362     
   30187977.7738455     
   30187694.0967306     
   30187372.0361556     
   30187015.1845619     
   30186626.9595137     
   30186210.6113280     
   30185769.2305813     
   30185305.7554841     
   30184822.9791158     
   30184323.5565144     
   30183810.0116140     
   30183284.7440273     
   30182750.0356676     
   30182208.0572080     
   30181660.8743758     
   30181110.4540796     
   30180558.6703691     
   30180007.3102267     
   30179458.0791917     
   30178912.6068168     
   30178372.4519604     
   30177839.1079132     
   30177314.0073643     
   30176798.5272073     
   30176293.9931887     
   30175801.6844031     
   30175322.8376359     
   30174858.6515587     
   30174410.2907782     
   30173978.8897431     
   30173565.5565110     
   30173171.3763794     
   30172797.4153810     
   30172444.7236486     
   30172114.3386500     
   30171807.2882959     
   30171524.5939218     
   30171267.2731465     
   30171036.3426085     
   30170832.8205799     
   30170657.7294612     
   30170512.0981559     
   30170396.9643256     
   30170313.3765268     
   30170262.3962292     
   30170245.0997150     
   29443164.9485601     
   29443139.2323906     
   29443064.9628046     
   29442946.2853824     
   29442787.1207987     
   29442591.1742975     
   29442361.9450405     
   29442102.7353162     
   29441816.6595946     
   29441506.6534161     
   29441175.4821022     
   29440825.7492806     
   29440459.9052127     
   29440080.2549196     
   29439688.9660981     
   29439288.0768232     
   29438879.5030334     
   29438465.0457951     
   29438046.3983461     
   29437625.1529170     
   29437202.8073317     
   29436780.7713873     
   29436360.3730171     
   29435942.8642392     
   29435529.4268935     
   29435121.1781733     
   29434719.1759544     
   29434324.4239275     
   29433937.8765405     
   29433560.4437536     
   29433192.9956168     
   29432836.3666714     
   29432491.3601850     
   29432158.7522237     
   29431839.2955666     
   29431533.7234695     
   29431242.7532817     
   29430967.0899194     
   29430707.4292021     
   29430464.4610536     
   29430238.8725719     
   29430031.3509698     
   29429842.5863893     
   29429673.2745898     
   29429524.1195131     
   29429395.8357241     
   29429289.1507279     
   29429204.8071631     
   29429143.5648692     
   29429106.2028290     
   29429093.5209815     
   28685514.1188861     
   28685494.9229326     
   28685439.8344491     
   28685352.4234207     
   28685236.0275513     
   28685093.7633463     
   28684928.5369903     
   28684743.0550002     
   28684539.8346399     
   28684321.2140813     
   28684089.3623008     
   28683846.2886992     
   28683593.8524387     
   28683333.7714879     
   28683067.6313713     
   28682796.8936189     
   28682522.9039155     
   28682246.8999485     
   28681970.0189560     
   28681693.3049785     
   28681417.7158181     
   28681144.1297111     
   28680873.3517200     
   28680606.1198530     
   28680343.1109199     
   28680084.9461317     
   28679832.1964569     
   28679585.3877405     
   28679345.0056005     
   28679111.5001084     
   28678885.2902680     
   28678666.7682996     
   28678456.3037428     
   28678254.2473852     
   28678060.9350278     
   28677876.6910961     
   28677701.8321032     
   28677536.6699740     
   28677381.5152366     
   28677236.6800849     
   28677102.4813199     
   28676979.2431700     
   28676867.2999961     
   28676766.9988805     
   28676678.7021022     
   28676602.7894975     
   28676539.6607040     
   28676489.7372872     
   28676453.4647452     
   28676431.3143896     
   28676423.7850973     
   27916992.1082377     
   27916980.4791195     
   27916947.6056364     
   27916896.3264858     
   27916829.2452486     
   27916748.7433525     
   27916656.9927127     
   27916555.9680333     
   27916447.4587498     
   27916333.0805969     
   27916214.2867869     
   27916092.3787891     
   27915968.5167018     
   27915843.7292100     
   27915718.9231266     
   27915594.8925169     
   27915472.3274066     
   27915351.8220797     
   27915233.8829703     
   27915118.9361592     
   27915007.3344842     
   27914899.3642766     
   27914795.2517379     
   27914695.1689715     
   27914599.2396857     
   27914507.5445841     
   27914420.1264631     
   27914336.9950321     
   27914258.1314763     
   27914183.4927800     
   27914113.0158278     
   27914046.6213021     
   27913984.2173935     
   27913925.7033397     
   27913870.9728092     
   27913819.9171423     
   27913772.4284641     
   27913728.4026787     
   27913687.7423561     
   27913650.3595198     
   27913616.1783410     
   27913585.1377457     
   27913557.1939367     
   27913532.3228331     
   27913510.5224266     
   27913491.8150532     
   27913476.2495762     
   27913463.9034767     
   27913454.8848447     
   27913449.3342595     
   27913447.4265521     
   27138979.9835656     
   27138976.9443738     
   27138969.2331651     
   27138958.7793013     
   27138947.2808839     
   27138936.2199179     
   27138926.8770121     
   27138920.3455673     
   27138917.5454351     
   27138919.2360296     
   27138926.0288744     
   27138938.3995763     
   27138956.6992136     
   27138981.1651389     
   27139011.9311939     
   27139049.0373429     
   27139092.4387300     
   27139142.0141744     
   27139197.5741164     
   27139258.8680332     
   27139325.5913444     
   27139397.3918314     
   27139473.8755947     
   27139554.6125770     
   27139639.1416799     
   27139726.9755038     
   27139817.6047416     
   27139910.5022551     
   27140005.1268655     
   27140100.9268876     
   27140197.3434369     
   27140293.8135370     
   27140389.7730561     
   27140484.6594953     
   27140577.9146550     
   27140668.9871996     
   27140757.3351397     
   27140842.4282508     
   27140923.7504409     
   27141000.8020818     
   27141073.1023107     
   27141140.1913123     
   27141201.6325819     
   27141257.0151746     
   27141305.9559356     
   27141348.1017100     
   27141383.1315225     
   27141410.7587190     
   27141430.7330590     
   27141442.8427533     
   27141446.9164192     
   26352976.6269203     
   26352983.1202976     
   26353003.2587571     
   26353037.8581800     
   26353087.5167089     
   26353152.6326095     
   26353233.4213564     
   26353329.9319993     
   26353442.0627675     
   26353569.5758741     
   26353712.1115004     
   26353869.2009466     
   26354040.2789428     
   26354224.6951233     
   26354421.7246663     
   26354630.5781158     
   26354850.4104015     
   26355080.3290831     
   26355319.4018480     
   26355566.6632965     
   26355821.1210534     
   26356081.7612469     
   26356347.5533993     
   26356617.4547758     
   26356890.4142393     
   26357165.3756588     
   26357441.2809225     
   26357717.0726013     
   26357991.6963131     
   26358264.1028339     
   26358533.2500007     
   26358798.1044488     
   26359057.6432268     
   26359310.8553242     
   26359556.7431502     
   26359794.3239943     
   26360022.6314970     
   26360240.7171586     
   26360447.6519046     
   26360642.5277272     
   26360824.4594157     
   26360992.5863857     
   26361146.0746107     
   26361284.1186581     
   26361405.9438258     
   26361510.8083736     
   26361598.0058375     
   26361666.8674108     
   26361716.7643604     
   26361747.1104366     
   26361757.3643029     
   25560599.1951318     
   25560616.0015189     
   25560666.1664338     
   25560749.1571337     
   25560864.2506692     
   25561010.5547577     
   25561187.0279732     
   25561392.4987779     
   25561625.6833575     
   25561885.2022647     
   25562169.5958573     
   25562477.3385170     
   25562806.8516413     
   25563156.5154137     
   25563524.6793750     
   25563909.6718249     
   25564309.8080982     
   25564723.3977660     
   25565148.7508197     
   25565584.1829024     
   25566028.0196568     
   25566478.6002632     
   25566934.2802424     
   25567393.4336015     
   25567854.4544004     
   25568315.7578160     
   25568775.7807805     
   25569232.9822685     
   25569685.8433038     
   25570132.8667565     
   25570572.5769945     
   25571003.5194531     
   25571424.2601810     
   25571833.3854160     
   25572229.5012432     
   25572611.2333787     
   25572977.2271220     
   25573326.1475121     
   25573656.6797195     
   25573967.5296981     
   25574257.4251197     
   25574525.1166029     
   25574769.3792456     
   25574989.0144610     
   25575182.8521083     
   25575349.7529029     
   25575488.6110868     
   25575598.3573468     
   25575677.9619868     
   25575726.4383491     
   25575742.8462002     
   24763584.9919267     
   24763612.6082825     
   24763694.1020310     
   24763827.3173120     
   24764009.9549577     
   24764239.5992070     
   24764513.7412549     
   24764829.8012327     
   24765185.1486465     
   24765577.1210749     
   24766003.0410020     
   24766460.2307519     
   24766946.0255453     
   24767457.7847274     
   24767992.9012361     
   24768548.8093889     
   24769122.9910830     
   24769712.9805124     
   24770316.3675174     
   24770930.7996886     
   24771553.9833543     
   24772183.6835804     
   24772817.7233112     
   24773453.9817774     
   24774090.3922929     
   24774724.9395557     
   24775355.6565614     
   24775980.6212335     
   24776597.9528649     
   24777205.8084632     
   24777802.3790832     
   24778385.8862262     
   24778954.5783822     
   24779506.7277858     
   24780040.6274505     
   24780554.5885455     
   24781046.9381697     
   24781516.0175769     
   24781960.1808949     
   24782377.7943785     
   24782767.2362286     
   24783126.8970006     
   24783455.1806234     
   24783750.5060409     
   24784011.3094821     
   24784236.0473506     
   24784423.1996912     
   24784571.2741310     
   24784678.8101424     
   24784744.3835871     
   24784766.6124485     
   23963796.1098067     
   23963834.5840842     
   23963947.3001360     
   23964130.1513098     
   23964378.9703438     
   23964689.5552583     
   23965057.6995627     
   23965479.2200145     
   23965949.9806813     
   23966465.9134720     
   23967023.0354654     
   23967617.4632523     
   23968245.4244211     
   23968903.2662954     
   23969587.4620536     
   23970294.6144051     
   23971021.4570335     
   23971764.8540489     
   23972521.7977022     
   23973289.4046175     
   23974064.9107894     
   23974845.6655736     
   23975629.1248812     
   23976412.8437629     
   23977194.4685493     
   23977971.7286903     
   23978742.4284199     
   23979504.4383552     
   23980255.6871287     
   23980994.1531376     
   23981717.8564927     
   23982424.8512413     
   23983113.2179377     
   23983781.0566362     
   23984426.4803826     
   23985047.6092817     
   23985642.5652223     
   23986209.4673431     
   23986746.4283183     
   23987251.5515399     
   23987722.9292615     
   23988158.6417521     
   23988556.7574910     
   23988915.3344166     
   23989232.4222384     
   23989506.0658460     
   23989734.3099160     
   23989915.2048971     
   23990046.8145044     
   23990127.2240993     
   23990154.5462814     
   23163229.3507593     
   23163277.9614887     
   23163419.5155236     
   23163647.5565645     
   23163955.6723452     
   23164337.5653574     
   23164787.0905791     
   23165298.2830241     
   23165865.3813143     
   23166482.8478202     
   23167145.3845775     
   23167847.9443321     
   23168585.7365516     
   23169354.2286745     
   23170149.1431443     
   23170966.4509047     
   23171802.3620591     
   23172653.3143564     
   23173515.9600870     
   23174387.1518857     
   23175263.9278467     
   23176143.4962709     
   23177023.2202934     
   23177900.6025762     
   23178773.2702002     
   23179638.9598486     
   23180495.5033448     
   23181340.8135835     
   23182172.8708769     
   23182989.7097296     
   23183789.4060528     
   23184570.0648259     
   23185329.8082260     
   23186066.7642523     
   23186779.0558922     
   23187464.7908964     
   23188122.0522580     
   23188748.8895207     
   23189343.3110752     
   23189903.2776344     
   23190426.6971055     
   23190911.4210873     
   23191355.2431972     
   23191755.8993713     
   23192111.0701406     
   23192418.3846839     
   23192675.4262295     
   23192879.7383185     
   23193028.8321244     
   23193120.1978800     
   23193151.3319171     
   22364035.9053770     
   22364092.8901130     
   22364257.2495019     
   22364519.5576103     
   22364870.8025504     
   22365302.3209345     
   22365805.8255733     
   22366373.4540600     
   22366997.8093535     
   22367671.9835480     
   22368389.5646190     
   22369144.6291075     
   22369931.7244113     
   22370745.8440530     
   22371582.3986608     
   22372437.1847330     
   22373306.3526733     
   22374186.3751177     
   22375074.0162122     
   22375966.3022440     
   22376860.4938328     
   22377754.0597618     
   22378644.6524359     
   22379530.0848937     
   22380408.3092660     
   22381277.3965446     
   22382135.5175183     
   22382980.9247251     
   22383811.9352700     
   22384626.9143611     
   22385424.2594237     
   22386202.3846592     
   22386959.7059284     
   22387694.6258542     
   22388405.5190577     
   22389090.7174715     
   22389748.4957126     
   22390377.0565501     
   22390974.5165795     
   22391538.8923200     
   22392068.0870873     
   22392559.8791840     
   22393011.9121750     
   22393421.6882857     
   22393786.5662124     
   22394103.7647491     
   22394370.3733207     
   22394583.3691158     
   22394739.6366858     
   22394835.9768316     
   22394869.0717116     
   21568564.1731478     
   21568624.6479802     
   21568798.0232410     
   21569071.6989363     
   21569433.2444787     
   21569871.0082683     
   21570374.3701748     
   21570933.8042651     
   21571540.8449079     
   21572188.0076263     
   21572868.6925743     
   21573577.0853375     
   21574308.0624005     
   21575057.1045670     
   21575820.2194225     
   21576593.8727866     
   21577374.9285416     
   21578160.5959918     
   21578948.3838456     
   21579736.0599414     
   21580521.6159064     
   21581303.2360218     
   21582079.2696535     
   21582848.2066860     
   21583608.6554687     
   21584359.3228430     
   21585098.9958715     
   21585826.5249276     
   21586540.8078406     
   21587240.7748111     
   21587925.3738304     
   21588593.5563463     
   21589244.2629191     
   21589876.4086086     
   21590488.8678224     
   21591080.4583389     
   21591649.9242004     
   21592195.9171479     
   21592716.9762507     
   21593211.5053762     
   21593677.7481691     
   21594113.7602871     
   21594517.3788424     
   21594886.1894113     
   21595217.4917897     
   21595508.2672216     
   21595755.1526841     
   21595954.4330646     
   21596102.0715954     
   21596193.8161779     
   21596225.4503668     
   20779447.9429571     
   20779506.5845097     
   20779664.7670392     
   20779901.1050805     
   20780199.3252509     
   20780546.8218439     
   20780933.6718515     
   20781351.9509504     
   20781795.2497686     
   20782258.3256345     
   20782736.8475123     
   20783227.2060959     
   20783726.3702016     
   20784231.7765690     
   20784741.2441270     
   20785252.9064253     
   20785765.1577290     
   20786276.6095150     
   20786786.0549724     
   20787292.4397251     
   20787794.8374295     
   20788292.4292229     
   20788784.4862259     
   20789270.3544764     
   20789749.4418001     
   20790221.2062155     
   20790685.1455422     
   20791140.7879342     
   20791587.6830939     
   20792025.3939497     
   20792453.4885922     
   20792871.5322682     
   20793279.0792259     
   20793675.6641869     
   20794060.7931902     
   20794433.9335069     
   20794794.5022551     
   20795141.8532449     
   20795475.2614447     
   20795793.9042554     
   20796096.8384913     
   20796382.9715383     
   20796651.0245373     
   20796899.4844969     
   20797126.5408114     
   20797329.9994534     
   20797507.1646552     
   20797654.6724197     
   20797768.2514366     
   20797842.3728291     
   20797869.7272576     
   20000000.0000000     
   20000000.0000000     
   20000000.0000000     
   20000000.0000000     
   20000000.0000000     
   20000000.0000000     
   20000000.0000000     
   20000000.0000000     
   20000000.0000000     
   20000000.0000000     
   20000000.0000000     
   20000000.0000000     
   20000000.0000000     
   20000000.0000000     
   20000000.0000000     
   20000000.0000000     
   20000000.0000000     
   20000000.0000000     
   20000000.0000000     
   20000000.0000000     
   20000000.0000000     
   20000000.0000000     
   20000000.0000000     
   20000000.0000000     
   20000000.0000000     
   20000000.0000000     
   20000000.0000000     
   20000000.0000000     
   20000000.0000000     
   20000000.0000000     
   20000000.0000000     
   20000000.0000000     
   20000000.0000000     
   20000000.0000000     
   20000000.0000000     
   20000000.0000000     
   20000000.0000000     
   20000000.0000000     
   20000000.0000000     
   20000000.0000000     
   20000000.0000000     
   20000000.0000000     
   20000000.0000000     
   20000000.0000000     
   20000000.0000000     
   20000000.0000000     
   20000000.0000000     
   20000000.0000000     
   20000000.0000000     
   20000000.0000000     
   20000000.0000000     
VECTORS u double 
    0.00000E+00        -0.69185E-04         0.00000E+00
    0.00000E+00        -0.68985E-04         0.00000E+00
    0.00000E+00        -0.68416E-04         0.00000E+00
    0.00000E+00        -0.67474E-04         0.00000E+00
    0.00000E+00        -0.66174E-04         0.00000E+00
    0.00000E+00        -0.64537E-04         0.00000E+00
    0.00000E+00        -0.62588E-04         0.00000E+00
    0.00000E+00        -0.60351E-04         0.00000E+00
    0.00000E+00        -0.57851E-04         0.00000E+00
    0.00000E+00        -0.55112E-04         0.00000E+00
    0.00000E+00        -0.52158E-04         0.00000E+00
    0.00000E+00        -0.49010E-04         0.00000E+00
    0.00000E+00        -0.45691E-04         0.00000E+00
    0.00000E+00        -0.42224E-04         0.00000E+00
    0.00000E+00        -0.38628E-04         0.00000E+00
    0.00000E+00        -0.34925E-04         0.00000E+00
    0.00000E+00        -0.31136E-04         0.00000E+00
    0.00000E+00        -0.27280E-04         0.00000E+00
    0.00000E+00        -0.23380E-04         0.00000E+00
    0.00000E+00        -0.19453E-04         0.00000E+00
    0.00000E+00        -0.15521E-04         0.00000E+00
    0.00000E+00        -0.11602E-04         0.00000E+00
    0.00000E+00        -0.77174E-05         0.00000E+00
    0.00000E+00        -0.38857E-05         0.00000E+00
    0.00000E+00        -0.12682E-06         0.00000E+00
    0.00000E+00         0.35397E-05         0.00000E+00
    0.00000E+00         0.70943E-05         0.00000E+00
    0.00000E+00         0.10517E-04         0.00000E+00
    0.00000E+00         0.13789E-04         0.00000E+00
    0.00000E+00         0.16889E-04         0.00000E+00
    0.00000E+00         0.19798E-04         0.00000E+00
    0.00000E+00         0.22495E-04         0.00000E+00
    0.00000E+00         0.24959E-04         0.00000E+00
    0.00000E+00         0.27170E-04         0.00000E+00
    0.00000E+00         0.29106E-04         0.00000E+00
    0.00000E+00         0.30745E-04         0.00000E+00
    0.00000E+00         0.32064E-04         0.00000E+00
    0.00000E+00         0.33040E-04         0.00000E+00
    0.00000E+00         0.33647E-04         0.00000E+00
    0.00000E+00         0.33861E-04         0.00000E+00
    0.00000E+00         0.33653E-04         0.00000E+00
    0.00000E+00         0.32996E-04         0.00000E+00
    0.00000E+00         0.31857E-04         0.00000E+00
    0.00000E+00         0.30203E-04         0.00000E+00
    0.00000E+00         0.27995E-04         0.00000E+00
    0.00000E+00         0.25191E-04         0.00000E+00
    0.00000E+00         0.21739E-04         0.00000E+00
    0.00000E+00         0.17582E-04         0.00000E+00
    0.00000E+00         0.12643E-04         0.00000E+00
    0.00000E+00         0.68269E-05         0.00000E+00
    0.00000E+00         0.00000E+00         0.00000E+00
    0.29528E-03        -0.10380E-03         0.00000E+00
    0.28403E-03        -0.10053E-03         0.00000E+00
    0.27433E-03        -0.97343E-04         0.00000E+00
    0.26576E-03        -0.94168E-04         0.00000E+00
    0.25804E-03        -0.90947E-04         0.00000E+00
    0.25099E-03        -0.87640E-04         0.00000E+00
    0.24445E-03        -0.84224E-04         0.00000E+00
    0.23833E-03        -0.80686E-04         0.00000E+00
    0.23255E-03        -0.77021E-04         0.00000E+00
    0.22704E-03        -0.73230E-04         0.00000E+00
    0.22176E-03        -0.69317E-04         0.00000E+00
    0.21667E-03        -0.65292E-04         0.00000E+00
    0.21172E-03        -0.61163E-04         0.00000E+00
    0.20691E-03        -0.56945E-04         0.00000E+00
    0.20220E-03        -0.52650E-04         0.00000E+00
    0.19756E-03        -0.48293E-04         0.00000E+00
    0.19300E-03        -0.43890E-04         0.00000E+00
    0.18848E-03        -0.39456E-04         0.00000E+00
    0.18400E-03        -0.35008E-04         0.00000E+00
    0.17954E-03        -0.30563E-04         0.00000E+00
    0.17509E-03        -0.26138E-04         0.00000E+00
    0.17065E-03        -0.21750E-04         0.00000E+00
    0.16620E-03        -0.17416E-04         0.00000E+00
    0.16174E-03        -0.13155E-04         0.00000E+00
    0.15725E-03        -0.89840E-05         0.00000E+00
    0.15273E-03        -0.49217E-05         0.00000E+00
    0.14818E-03        -0.98610E-06         0.00000E+00
    0.14358E-03         0.28043E-05         0.00000E+00
    0.13894E-03         0.64307E-05         0.00000E+00
    0.13423E-03         0.98743E-05         0.00000E+00
    0.12946E-03         0.13116E-04         0.00000E+00
    0.12462E-03         0.16136E-04         0.00000E+00
    0.11970E-03         0.18914E-04         0.00000E+00
    0.11469E-03         0.21430E-04         0.00000E+00
    0.10959E-03         0.23664E-04         0.00000E+00
    0.10439E-03         0.25594E-04         0.00000E+00
    0.99065E-04         0.27198E-04         0.00000E+00
    0.93619E-04         0.28452E-04         0.00000E+00
    0.88035E-04         0.29335E-04         0.00000E+00
    0.82300E-04         0.29820E-04         0.00000E+00
    0.76396E-04         0.29882E-04         0.00000E+00
    0.70303E-04         0.29492E-04         0.00000E+00
    0.64000E-04         0.28623E-04         0.00000E+00
    0.57456E-04         0.27242E-04         0.00000E+00
    0.50636E-04         0.25316E-04         0.00000E+00
    0.43496E-04         0.22807E-04         0.00000E+00
    0.35977E-04         0.19676E-04         0.00000E+00
    0.28002E-04         0.15878E-04         0.00000E+00
    0.19463E-04         0.11367E-04         0.00000E+00
    0.10206E-04         0.60905E-05         0.00000E+00
    0.00000E+00         0.00000E+00         0.00000E+00
    0.56162E-03        -0.18108E-03         0.00000E+00
    0.54401E-03        -0.17451E-03         0.00000E+00
    0.52773E-03        -0.16797E-03         0.00000E+00
    0.51263E-03        -0.16149E-03         0.00000E+00
    0.49857E-03        -0.15506E-03         0.00000E+00
    0.48541E-03        -0.14870E-03         0.00000E+00
    0.47301E-03        -0.14238E-03         0.00000E+00
    0.46125E-03        -0.13611E-03         0.00000E+00
    0.45004E-03        -0.12986E-03         0.00000E+00
    0.43929E-03        -0.12364E-03         0.00000E+00
    0.42894E-03        -0.11744E-03         0.00000E+00
    0.41891E-03        -0.11125E-03         0.00000E+00
    0.40915E-03        -0.10508E-03         0.00000E+00
    0.39962E-03        -0.98933E-04         0.00000E+00
    0.39027E-03        -0.92810E-04         0.00000E+00
    0.38108E-03        -0.86717E-04         0.00000E+00
    0.37200E-03        -0.80664E-04         0.00000E+00
    0.36302E-03        -0.74657E-04         0.00000E+00
    0.35410E-03        -0.68708E-04         0.00000E+00
    0.34523E-03        -0.62828E-04         0.00000E+00
    0.33638E-03        -0.57028E-04         0.00000E+00
    0.32754E-03        -0.51321E-04         0.00000E+00
    0.31868E-03        -0.45720E-04         0.00000E+00
    0.30980E-03        -0.40239E-04         0.00000E+00
    0.30087E-03        -0.34892E-04         0.00000E+00
    0.29188E-03        -0.29694E-04         0.00000E+00
    0.28282E-03        -0.24660E-04         0.00000E+00
    0.27368E-03        -0.19805E-04         0.00000E+00
    0.26444E-03        -0.15147E-04         0.00000E+00
    0.25509E-03        -0.10700E-04         0.00000E+00
    0.24562E-03        -0.64827E-05         0.00000E+00
    0.23601E-03        -0.25116E-05         0.00000E+00
    0.22625E-03         0.11957E-05         0.00000E+00
    0.21632E-03         0.46210E-05         0.00000E+00
    0.20622E-03         0.77457E-05         0.00000E+00
    0.19592E-03         0.10551E-04         0.00000E+00
    0.18540E-03         0.13017E-04         0.00000E+00
    0.17466E-03         0.15123E-04         0.00000E+00
    0.16367E-03         0.16850E-04         0.00000E+00
    0.15240E-03         0.18176E-04         0.00000E+00
    0.14083E-03         0.19078E-04         0.00000E+00
    0.12893E-03         0.19535E-04         0.00000E+00
    0.11667E-03         0.19523E-04         0.00000E+00
    0.10402E-03         0.19020E-04         0.00000E+00
    0.90921E-04         0.18002E-04         0.00000E+00
    0.77334E-04         0.16446E-04         0.00000E+00
    0.63201E-04         0.14330E-04         0.00000E+00
    0.48462E-04         0.11637E-04         0.00000E+00
    0.33051E-04         0.83516E-05         0.00000E+00
    0.16909E-04         0.44696E-05         0.00000E+00
    0.00000E+00         0.00000E+00         0.00000E+00
    0.80147E-03        -0.28341E-03         0.00000E+00
    0.77967E-03        -0.27373E-03         0.00000E+00
    0.75898E-03        -0.26408E-03         0.00000E+00
    0.73931E-03        -0.25448E-03         0.00000E+00
    0.72055E-03        -0.24493E-03         0.00000E+00
    0.70264E-03        -0.23546E-03         0.00000E+00
    0.68547E-03        -0.22607E-03         0.00000E+00
    0.66896E-03        -0.21678E-03         0.00000E+00
    0.65304E-03        -0.20757E-03         0.00000E+00
    0.63762E-03        -0.19847E-03         0.00000E+00
    0.62265E-03        -0.18946E-03         0.00000E+00
    0.60806E-03        -0.18055E-03         0.00000E+00
    0.59380E-03        -0.17175E-03         0.00000E+00
    0.57981E-03        -0.16305E-03         0.00000E+00
    0.56604E-03        -0.15447E-03         0.00000E+00
    0.55246E-03        -0.14599E-03         0.00000E+00
    0.53903E-03        -0.13763E-03         0.00000E+00
    0.52571E-03        -0.12940E-03         0.00000E+00
    0.51247E-03        -0.12129E-03         0.00000E+00
    0.49929E-03        -0.11333E-03         0.00000E+00
    0.48612E-03        -0.10551E-03         0.00000E+00
    0.47296E-03        -0.97841E-04         0.00000E+00
    0.45978E-03        -0.90340E-04         0.00000E+00
    0.44655E-03        -0.83013E-04         0.00000E+00
    0.43325E-03        -0.75872E-04         0.00000E+00
    0.41987E-03        -0.68928E-04         0.00000E+00
    0.40639E-03        -0.62193E-04         0.00000E+00
    0.39279E-03        -0.55679E-04         0.00000E+00
    0.37904E-03        -0.49399E-04         0.00000E+00
    0.36514E-03        -0.43368E-04         0.00000E+00
    0.35107E-03        -0.37597E-04         0.00000E+00
    0.33681E-03        -0.32103E-04         0.00000E+00
    0.32233E-03        -0.26898E-04         0.00000E+00
    0.30763E-03        -0.21998E-04         0.00000E+00
    0.29269E-03        -0.17418E-04         0.00000E+00
    0.27748E-03        -0.13174E-04         0.00000E+00
    0.26198E-03        -0.92802E-05         0.00000E+00
    0.24618E-03        -0.57537E-05         0.00000E+00
    0.23005E-03        -0.26101E-05         0.00000E+00
    0.21356E-03         0.13467E-06         0.00000E+00
    0.19669E-03         0.24648E-05         0.00000E+00
    0.17942E-03         0.43645E-05         0.00000E+00
    0.16170E-03         0.58189E-05         0.00000E+00
    0.14352E-03         0.68135E-05         0.00000E+00
    0.12483E-03         0.73349E-05         0.00000E+00
    0.10560E-03         0.73715E-05         0.00000E+00
    0.85788E-04         0.69132E-05         0.00000E+00
    0.65363E-04         0.59522E-05         0.00000E+00
    0.44284E-04         0.44829E-05         0.00000E+00
    0.22512E-04         0.25009E-05         0.00000E+00
    0.00000E+00         0.00000E+00         0.00000E+00
    0.10185E-02        -0.40291E-03         0.00000E+00
    0.99374E-03        -0.39018E-03         0.00000E+00
    0.96986E-03        -0.37748E-03         0.00000E+00
    0.94682E-03        -0.36482E-03         0.00000E+00
    0.92454E-03        -0.35223E-03         0.00000E+00
    0.90296E-03        -0.33972E-03         0.00000E+00
    0.88202E-03        -0.32730E-03         0.00000E+00
    0.86166E-03        -0.31498E-03         0.00000E+00
    0.84182E-03        -0.30278E-03         0.00000E+00
    0.82244E-03        -0.29071E-03         0.00000E+00
    0.80347E-03        -0.27877E-03         0.00000E+00
    0.78484E-03        -0.26697E-03         0.00000E+00
    0.76653E-03        -0.25532E-03         0.00000E+00
    0.74847E-03        -0.24382E-03         0.00000E+00
    0.73063E-03        -0.23248E-03         0.00000E+00
    0.71297E-03        -0.22131E-03         0.00000E+00
    0.69544E-03        -0.21031E-03         0.00000E+00
    0.67802E-03        -0.19948E-03         0.00000E+00
    0.66066E-03        -0.18884E-03         0.00000E+00
    0.64334E-03        -0.17839E-03         0.00000E+00
    0.62603E-03        -0.16813E-03         0.00000E+00
    0.60871E-03        -0.15808E-03         0.00000E+00
    0.59134E-03        -0.14824E-03         0.00000E+00
    0.57390E-03        -0.13863E-03         0.00000E+00
    0.55637E-03        -0.12924E-03         0.00000E+00
    0.53872E-03        -0.12009E-03         0.00000E+00
    0.52094E-03        -0.11120E-03         0.00000E+00
    0.50301E-03        -0.10256E-03         0.00000E+00
    0.48489E-03        -0.94184E-04         0.00000E+00
    0.46659E-03        -0.86092E-04         0.00000E+00
    0.44806E-03        -0.78290E-04         0.00000E+00
    0.42930E-03        -0.70789E-04         0.00000E+00
    0.41029E-03        -0.63601E-04         0.00000E+00
    0.39100E-03        -0.56737E-04         0.00000E+00
    0.37142E-03        -0.50208E-04         0.00000E+00
    0.35153E-03        -0.44026E-04         0.00000E+00
    0.33130E-03        -0.38203E-04         0.00000E+00
    0.31071E-03        -0.32750E-04         0.00000E+00
    0.28975E-03        -0.27679E-04         0.00000E+00
    0.26839E-03        -0.23001E-04         0.00000E+00
    0.24660E-03        -0.18726E-04         0.00000E+00
    0.22437E-03        -0.14865E-04         0.00000E+00
    0.20167E-03        -0.11427E-04         0.00000E+00
    0.17847E-03        -0.84206E-05         0.00000E+00
    0.15475E-03        -0.58545E-05         0.00000E+00
    0.13048E-03        -0.37353E-05         0.00000E+00
    0.10564E-03        -0.20687E-05         0.00000E+00
    0.80196E-04        -0.85938E-06         0.00000E+00
    0.54126E-04        -0.11073E-06         0.00000E+00
    0.27402E-04         0.17539E-06         0.00000E+00
    0.00000E+00         0.00000E+00         0.00000E+00
    0.12159E-02        -0.53446E-03         0.00000E+00
    0.11890E-02        -0.51873E-03         0.00000E+00
    0.11628E-02        -0.50303E-03         0.00000E+00
    0.11372E-02        -0.48737E-03         0.00000E+00
    0.11122E-02        -0.47177E-03         0.00000E+00
    0.10878E-02        -0.45625E-03         0.00000E+00
    0.10638E-02        -0.44083E-03         0.00000E+00
    0.10404E-02        -0.42552E-03         0.00000E+00
    0.10173E-02        -0.41034E-03         0.00000E+00
    0.99455E-03        -0.39529E-03         0.00000E+00
    0.97216E-03        -0.38039E-03         0.00000E+00
    0.95004E-03        -0.36565E-03         0.00000E+00
    0.92816E-03        -0.35108E-03         0.00000E+00
    0.90648E-03        -0.33668E-03         0.00000E+00
    0.88496E-03        -0.32247E-03         0.00000E+00
    0.86357E-03        -0.30846E-03         0.00000E+00
    0.84228E-03        -0.29464E-03         0.00000E+00
    0.82105E-03        -0.28103E-03         0.00000E+00
    0.79985E-03        -0.26764E-03         0.00000E+00
    0.77866E-03        -0.25447E-03         0.00000E+00
    0.75743E-03        -0.24153E-03         0.00000E+00
    0.73616E-03        -0.22883E-03         0.00000E+00
    0.71481E-03        -0.21637E-03         0.00000E+00
    0.69335E-03        -0.20417E-03         0.00000E+00
    0.67177E-03        -0.19223E-03         0.00000E+00
    0.65004E-03        -0.18056E-03         0.00000E+00
    0.62814E-03        -0.16916E-03         0.00000E+00
    0.60604E-03        -0.15805E-03         0.00000E+00
    0.58374E-03        -0.14724E-03         0.00000E+00
    0.56120E-03        -0.13672E-03         0.00000E+00
    0.53841E-03        -0.12652E-03         0.00000E+00
    0.51534E-03        -0.11663E-03         0.00000E+00
    0.49199E-03        -0.10708E-03         0.00000E+00
    0.46833E-03        -0.97857E-04         0.00000E+00
    0.44433E-03        -0.88983E-04         0.00000E+00
    0.41999E-03        -0.80463E-04         0.00000E+00
    0.39528E-03        -0.72305E-04         0.00000E+00
    0.37018E-03        -0.64518E-04         0.00000E+00
    0.34468E-03        -0.57110E-04         0.00000E+00
    0.31876E-03        -0.50089E-04         0.00000E+00
    0.29238E-03        -0.43460E-04         0.00000E+00
    0.26555E-03        -0.37233E-04         0.00000E+00
    0.23823E-03        -0.31411E-04         0.00000E+00
    0.21041E-03        -0.26003E-04         0.00000E+00
    0.18207E-03        -0.21011E-04         0.00000E+00
    0.15318E-03        -0.16441E-04         0.00000E+00
    0.12374E-03        -0.12296E-04         0.00000E+00
    0.93718E-04        -0.85779E-05         0.00000E+00
    0.63098E-04        -0.52890E-05         0.00000E+00
    0.31865E-04        -0.24297E-05         0.00000E+00
    0.00000E+00         0.00000E+00         0.00000E+00
    0.13967E-02        -0.67455E-03         0.00000E+00
    0.13683E-02        -0.65585E-03         0.00000E+00
    0.13403E-02        -0.63717E-03         0.00000E+00
    0.13128E-02        -0.61854E-03         0.00000E+00
    0.12857E-02        -0.59997E-03         0.00000E+00
    0.12590E-02        -0.58148E-03         0.00000E+00
    0.12326E-02        -0.56309E-03         0.00000E+00
    0.12065E-02        -0.54480E-03         0.00000E+00
    0.11807E-02        -0.52664E-03         0.00000E+00
    0.11552E-02        -0.50863E-03         0.00000E+00
    0.11299E-02        -0.49076E-03         0.00000E+00
    0.11047E-02        -0.47306E-03         0.00000E+00
    0.10797E-02        -0.45553E-03         0.00000E+00
    0.10548E-02        -0.43820E-03         0.00000E+00
    0.10300E-02        -0.42105E-03         0.00000E+00
    0.10053E-02        -0.40412E-03         0.00000E+00
    0.98057E-03        -0.38740E-03         0.00000E+00
    0.95586E-03        -0.37090E-03         0.00000E+00
    0.93111E-03        -0.35464E-03         0.00000E+00
    0.90632E-03        -0.33861E-03         0.00000E+00
    0.88145E-03        -0.32284E-03         0.00000E+00
    0.85647E-03        -0.30732E-03         0.00000E+00
    0.83138E-03        -0.29206E-03         0.00000E+00
    0.80613E-03        -0.27708E-03         0.00000E+00
    0.78072E-03        -0.26238E-03         0.00000E+00
    0.75511E-03        -0.24796E-03         0.00000E+00
    0.72930E-03        -0.23383E-03         0.00000E+00
    0.70325E-03        -0.22001E-03         0.00000E+00
    0.67695E-03        -0.20649E-03         0.00000E+00
    0.65038E-03        -0.19329E-03         0.00000E+00
    0.62353E-03        -0.18042E-03         0.00000E+00
    0.59637E-03        -0.16787E-03         0.00000E+00
    0.56888E-03        -0.15566E-03         0.00000E+00
    0.54106E-03        -0.14379E-03         0.00000E+00
    0.51287E-03        -0.13227E-03         0.00000E+00
    0.48431E-03        -0.12111E-03         0.00000E+00
    0.45536E-03        -0.11032E-03         0.00000E+00
    0.42599E-03        -0.99888E-04         0.00000E+00
    0.39620E-03        -0.89835E-04         0.00000E+00
    0.36598E-03        -0.80162E-04         0.00000E+00
    0.33529E-03        -0.70875E-04         0.00000E+00
    0.30413E-03        -0.61979E-04         0.00000E+00
    0.27248E-03        -0.53477E-04         0.00000E+00
    0.24033E-03        -0.45373E-04         0.00000E+00
    0.20766E-03        -0.37671E-04         0.00000E+00
    0.17445E-03        -0.30373E-04         0.00000E+00
    0.14071E-03        -0.23481E-04         0.00000E+00
    0.10640E-03        -0.16998E-04         0.00000E+00
    0.71519E-04        -0.10923E-04         0.00000E+00
    0.36056E-04        -0.52572E-05         0.00000E+00
    0.00000E+00         0.00000E+00         0.00000E+00
    0.15637E-02        -0.82072E-03         0.00000E+00
    0.15341E-02        -0.79907E-03         0.00000E+00
    0.15048E-02        -0.77744E-03         0.00000E+00
    0.14758E-02        -0.75585E-03         0.00000E+00
    0.14470E-02        -0.73432E-03         0.00000E+00
    0.14184E-02        -0.71287E-03         0.00000E+00
    0.13901E-02        -0.69151E-03         0.00000E+00
    0.13618E-02        -0.67026E-03         0.00000E+00
    0.13338E-02        -0.64913E-03         0.00000E+00
    0.13058E-02        -0.62814E-03         0.00000E+00
    0.12780E-02        -0.60730E-03         0.00000E+00
    0.12502E-02        -0.58663E-03         0.00000E+00
    0.12224E-02        -0.56613E-03         0.00000E+00
    0.11947E-02        -0.54583E-03         0.00000E+00
    0.11670E-02        -0.52572E-03         0.00000E+00
    0.11392E-02        -0.50582E-03         0.00000E+00
    0.11114E-02        -0.48614E-03         0.00000E+00
    0.10835E-02        -0.46669E-03         0.00000E+00
    0.10555E-02        -0.44747E-03         0.00000E+00
    0.10274E-02        -0.42851E-03         0.00000E+00
    0.99911E-03        -0.40980E-03         0.00000E+00
    0.97069E-03        -0.39135E-03         0.00000E+00
    0.94210E-03        -0.37318E-03         0.00000E+00
    0.91330E-03        -0.35528E-03         0.00000E+00
    0.88428E-03        -0.33767E-03         0.00000E+00
    0.85502E-03        -0.32036E-03         0.00000E+00
    0.82551E-03        -0.30334E-03         0.00000E+00
    0.79572E-03        -0.28664E-03         0.00000E+00
    0.76564E-03        -0.27024E-03         0.00000E+00
    0.73525E-03        -0.25417E-03         0.00000E+00
    0.70453E-03        -0.23843E-03         0.00000E+00
    0.67348E-03        -0.22302E-03         0.00000E+00
    0.64206E-03        -0.20795E-03         0.00000E+00
    0.61028E-03        -0.19323E-03         0.00000E+00
    0.57811E-03        -0.17885E-03         0.00000E+00
    0.54553E-03        -0.16483E-03         0.00000E+00
    0.51255E-03        -0.15118E-03         0.00000E+00
    0.47913E-03        -0.13789E-03         0.00000E+00
    0.44527E-03        -0.12497E-03         0.00000E+00
    0.41095E-03        -0.11242E-03         0.00000E+00
    0.37616E-03        -0.10025E-03         0.00000E+00
    0.34089E-03        -0.88471E-04         0.00000E+00
    0.30513E-03        -0.77072E-04         0.00000E+00
    0.26886E-03        -0.66061E-04         0.00000E+00
    0.23208E-03        -0.55441E-04         0.00000E+00
    0.19477E-03        -0.45214E-04         0.00000E+00
    0.15693E-03        -0.35380E-04         0.00000E+00
    0.11853E-03        -0.25941E-04         0.00000E+00
    0.79587E-04        -0.16898E-04         0.00000E+00
    0.40078E-04        -0.82514E-05         0.00000E+00
    0.00000E+00         0.00000E+00         0.00000E+00
    0.17193E-02        -0.97129E-03         0.00000E+00
    0.16889E-02        -0.94669E-03         0.00000E+00
    0.16586E-02        -0.92210E-03         0.00000E+00
    0.16284E-02        -0.89756E-03         0.00000E+00
    0.15982E-02        -0.87307E-03         0.00000E+00
    0.15681E-02        -0.84865E-03         0.00000E+00
    0.15381E-02        -0.82433E-03         0.00000E+00
    0.15081E-02        -0.80010E-03         0.00000E+00
    0.14780E-02        -0.77600E-03         0.00000E+00
    0.14480E-02        -0.75203E-03         0.00000E+00
    0.14179E-02        -0.72821E-03         0.00000E+00
    0.13878E-02        -0.70455E-03         0.00000E+00
    0.13576E-02        -0.68106E-03         0.00000E+00
    0.13273E-02        -0.65776E-03         0.00000E+00
    0.12969E-02        -0.63465E-03         0.00000E+00
    0.12664E-02        -0.61176E-03         0.00000E+00
    0.12358E-02        -0.58907E-03         0.00000E+00
    0.12050E-02        -0.56662E-03         0.00000E+00
    0.11740E-02        -0.54441E-03         0.00000E+00
    0.11428E-02        -0.52244E-03         0.00000E+00
    0.11114E-02        -0.50072E-03         0.00000E+00
    0.10798E-02        -0.47927E-03         0.00000E+00
    0.10479E-02        -0.45810E-03         0.00000E+00
    0.10158E-02        -0.43720E-03         0.00000E+00
    0.98339E-03        -0.41659E-03         0.00000E+00
    0.95069E-03        -0.39627E-03         0.00000E+00
    0.91769E-03        -0.37626E-03         0.00000E+00
    0.88436E-03        -0.35655E-03         0.00000E+00
    0.85069E-03        -0.33716E-03         0.00000E+00
    0.81668E-03        -0.31809E-03         0.00000E+00
    0.78229E-03        -0.29934E-03         0.00000E+00
    0.74753E-03        -0.28093E-03         0.00000E+00
    0.71238E-03        -0.26286E-03         0.00000E+00
    0.67682E-03        -0.24513E-03         0.00000E+00
    0.64085E-03        -0.22775E-03         0.00000E+00
    0.60445E-03        -0.21072E-03         0.00000E+00
    0.56760E-03        -0.19405E-03         0.00000E+00
    0.53031E-03        -0.17774E-03         0.00000E+00
    0.49255E-03        -0.16180E-03         0.00000E+00
    0.45432E-03        -0.14623E-03         0.00000E+00
    0.41560E-03        -0.13103E-03         0.00000E+00
    0.37639E-03        -0.11620E-03         0.00000E+00
    0.33668E-03        -0.10175E-03         0.00000E+00
    0.29646E-03        -0.87687E-04         0.00000E+00
    0.25572E-03        -0.74003E-04         0.00000E+00
    0.21446E-03        -0.60703E-04         0.00000E+00
    0.17266E-03        -0.47788E-04         0.00000E+00
    0.13032E-03        -0.35260E-04         0.00000E+00
    0.87431E-04        -0.23119E-04         0.00000E+00
    0.43993E-04        -0.11366E-04         0.00000E+00
    0.00000E+00         0.00000E+00         0.00000E+00
    0.18661E-02        -0.11251E-02         0.00000E+00
    0.18351E-02        -0.10976E-02         0.00000E+00
    0.18039E-02        -0.10700E-02         0.00000E+00
    0.17727E-02        -0.10425E-02         0.00000E+00
    0.17414E-02        -0.10150E-02         0.00000E+00
    0.17100E-02        -0.98765E-03         0.00000E+00
    0.16785E-02        -0.96034E-03         0.00000E+00
    0.16469E-02        -0.93313E-03         0.00000E+00
    0.16151E-02        -0.90604E-03         0.00000E+00
    0.15832E-02        -0.87907E-03         0.00000E+00
    0.15512E-02        -0.85225E-03         0.00000E+00
    0.15190E-02        -0.82558E-03         0.00000E+00
    0.14866E-02        -0.79907E-03         0.00000E+00
    0.14540E-02        -0.77275E-03         0.00000E+00
    0.14212E-02        -0.74662E-03         0.00000E+00
    0.13882E-02        -0.72069E-03         0.00000E+00
    0.13549E-02        -0.69497E-03         0.00000E+00
    0.13214E-02        -0.66947E-03         0.00000E+00
    0.12877E-02        -0.64421E-03         0.00000E+00
    0.12536E-02        -0.61919E-03         0.00000E+00
    0.12193E-02        -0.59442E-03         0.00000E+00
    0.11847E-02        -0.56991E-03         0.00000E+00
    0.11498E-02        -0.54566E-03         0.00000E+00
    0.11145E-02        -0.52170E-03         0.00000E+00
    0.10789E-02        -0.49801E-03         0.00000E+00
    0.10430E-02        -0.47462E-03         0.00000E+00
    0.10066E-02        -0.45153E-03         0.00000E+00
    0.96996E-03        -0.42874E-03         0.00000E+00
    0.93289E-03        -0.40626E-03         0.00000E+00
    0.89542E-03        -0.38410E-03         0.00000E+00
    0.85754E-03        -0.36226E-03         0.00000E+00
    0.81924E-03        -0.34075E-03         0.00000E+00
    0.78051E-03        -0.31958E-03         0.00000E+00
    0.74134E-03        -0.29874E-03         0.00000E+00
    0.70172E-03        -0.27825E-03         0.00000E+00
    0.66164E-03        -0.25811E-03         0.00000E+00
    0.62109E-03        -0.23832E-03         0.00000E+00
    0.58006E-03        -0.21888E-03         0.00000E+00
    0.53855E-03        -0.19981E-03         0.00000E+00
    0.49655E-03        -0.18110E-03         0.00000E+00
    0.45404E-03        -0.16276E-03         0.00000E+00
    0.41102E-03        -0.14479E-03         0.00000E+00
    0.36749E-03        -0.12719E-03         0.00000E+00
    0.32343E-03        -0.10996E-03         0.00000E+00
    0.27885E-03        -0.93110E-04         0.00000E+00
    0.23373E-03        -0.76639E-04         0.00000E+00
    0.18808E-03        -0.60548E-04         0.00000E+00
    0.14188E-03        -0.44837E-04         0.00000E+00
    0.95139E-04        -0.29509E-04         0.00000E+00
    0.47846E-04        -0.14563E-04         0.00000E+00
    0.00000E+00         0.00000E+00         0.00000E+00
    0.20062E-02        -0.12816E-02         0.00000E+00
    0.19745E-02        -0.12510E-02         0.00000E+00
    0.19427E-02        -0.12205E-02         0.00000E+00
    0.19106E-02        -0.11900E-02         0.00000E+00
    0.18783E-02        -0.11595E-02         0.00000E+00
    0.18457E-02        -0.11291E-02         0.00000E+00
    0.18129E-02        -0.10988E-02         0.00000E+00
    0.17799E-02        -0.10686E-02         0.00000E+00
    0.17466E-02        -0.10385E-02         0.00000E+00
    0.17130E-02        -0.10085E-02         0.00000E+00
    0.16791E-02        -0.97862E-03         0.00000E+00
    0.16450E-02        -0.94891E-03         0.00000E+00
    0.16106E-02        -0.91936E-03         0.00000E+00
    0.15759E-02        -0.88998E-03         0.00000E+00
    0.15409E-02        -0.86079E-03         0.00000E+00
    0.15055E-02        -0.83179E-03         0.00000E+00
    0.14699E-02        -0.80299E-03         0.00000E+00
    0.14339E-02        -0.77442E-03         0.00000E+00
    0.13975E-02        -0.74606E-03         0.00000E+00
    0.13608E-02        -0.71795E-03         0.00000E+00
    0.13237E-02        -0.69007E-03         0.00000E+00
    0.12863E-02        -0.66245E-03         0.00000E+00
    0.12485E-02        -0.63510E-03         0.00000E+00
    0.12102E-02        -0.60801E-03         0.00000E+00
    0.11716E-02        -0.58120E-03         0.00000E+00
    0.11326E-02        -0.55467E-03         0.00000E+00
    0.10931E-02        -0.52844E-03         0.00000E+00
    0.10532E-02        -0.50250E-03         0.00000E+00
    0.10129E-02        -0.47687E-03         0.00000E+00
    0.97212E-03        -0.45156E-03         0.00000E+00
    0.93088E-03        -0.42656E-03         0.00000E+00
    0.88918E-03        -0.40188E-03         0.00000E+00
    0.84701E-03        -0.37753E-03         0.00000E+00
    0.80436E-03        -0.35352E-03         0.00000E+00
    0.76123E-03        -0.32984E-03         0.00000E+00
    0.71759E-03        -0.30651E-03         0.00000E+00
    0.67346E-03        -0.28353E-03         0.00000E+00
    0.62882E-03        -0.26089E-03         0.00000E+00
    0.58367E-03        -0.23861E-03         0.00000E+00
    0.53799E-03        -0.21669E-03         0.00000E+00
    0.49179E-03        -0.19514E-03         0.00000E+00
    0.44506E-03        -0.17395E-03         0.00000E+00
    0.39780E-03        -0.15312E-03         0.00000E+00
    0.35000E-03        -0.13267E-03         0.00000E+00
    0.30165E-03        -0.11258E-03         0.00000E+00
    0.25276E-03        -0.92875E-04         0.00000E+00
    0.20332E-03        -0.73543E-04         0.00000E+00
    0.15332E-03        -0.54588E-04         0.00000E+00
    0.10277E-03        -0.36012E-04         0.00000E+00
    0.51664E-04        -0.17816E-04         0.00000E+00
    0.00000E+00         0.00000E+00         0.00000E+00
    0.21414E-02        -0.14404E-02         0.00000E+00
    0.21092E-02        -0.14068E-02         0.00000E+00
    0.20767E-02        -0.13732E-02         0.00000E+00
    0.20438E-02        -0.13396E-02         0.00000E+00
    0.20106E-02        -0.13061E-02         0.00000E+00
    0.19770E-02        -0.12727E-02         0.00000E+00
    0.19430E-02        -0.12393E-02         0.00000E+00
    0.19086E-02        -0.12060E-02         0.00000E+00
    0.18738E-02        -0.11729E-02         0.00000E+00
    0.18387E-02        -0.11398E-02         0.00000E+00
    0.18032E-02        -0.11069E-02         0.00000E+00
    0.17673E-02        -0.10741E-02         0.00000E+00
    0.17310E-02        -0.10415E-02         0.00000E+00
    0.16942E-02        -0.10090E-02         0.00000E+00
    0.16571E-02        -0.97669E-03         0.00000E+00
    0.16196E-02        -0.94458E-03         0.00000E+00
    0.15817E-02        -0.91267E-03         0.00000E+00
    0.15433E-02        -0.88097E-03         0.00000E+00
    0.15045E-02        -0.84948E-03         0.00000E+00
    0.14652E-02        -0.81823E-03         0.00000E+00
    0.14256E-02        -0.78721E-03         0.00000E+00
    0.13854E-02        -0.75644E-03         0.00000E+00
    0.13448E-02        -0.72592E-03         0.00000E+00
    0.13038E-02        -0.69566E-03         0.00000E+00
    0.12622E-02        -0.66567E-03         0.00000E+00
    0.12202E-02        -0.63596E-03         0.00000E+00
    0.11778E-02        -0.60654E-03         0.00000E+00
    0.11348E-02        -0.57741E-03         0.00000E+00
    0.10913E-02        -0.54858E-03         0.00000E+00
    0.10474E-02        -0.52005E-03         0.00000E+00
    0.10029E-02        -0.49183E-03         0.00000E+00
    0.95789E-03        -0.46393E-03         0.00000E+00
    0.91239E-03        -0.43636E-03         0.00000E+00
    0.86636E-03        -0.40911E-03         0.00000E+00
    0.81981E-03        -0.38220E-03         0.00000E+00
    0.77272E-03        -0.35562E-03         0.00000E+00
    0.72509E-03        -0.32939E-03         0.00000E+00
    0.67692E-03        -0.30350E-03         0.00000E+00
    0.62821E-03        -0.27797E-03         0.00000E+00
    0.57895E-03        -0.25278E-03         0.00000E+00
    0.52913E-03        -0.22796E-03         0.00000E+00
    0.47876E-03        -0.20350E-03         0.00000E+00
    0.42783E-03        -0.17940E-03         0.00000E+00
    0.37633E-03        -0.15567E-03         0.00000E+00
    0.32428E-03        -0.13230E-03         0.00000E+00
    0.27165E-03        -0.10931E-03         0.00000E+00
    0.21846E-03        -0.86695E-04         0.00000E+00
    0.16470E-03        -0.64454E-04         0.00000E+00
    0.11037E-03        -0.42590E-04         0.00000E+00
    0.55470E-04        -0.21105E-04         0.00000E+00
    0.00000E+00         0.00000E+00         0.00000E+00
    0.22735E-02        -0.16013E-02         0.00000E+00
    0.22409E-02        -0.15646E-02         0.00000E+00
    0.22077E-02        -0.15280E-02         0.00000E+00
    0.21740E-02        -0.14913E-02         0.00000E+00
    0.21399E-02        -0.14547E-02         0.00000E+00
    0.21052E-02        -0.14182E-02         0.00000E+00
    0.20701E-02        -0.13817E-02         0.00000E+00
    0.20344E-02        -0.13454E-02         0.00000E+00
    0.19983E-02        -0.13091E-02         0.00000E+00
    0.19617E-02        -0.12729E-02         0.00000E+00
    0.19245E-02        -0.12368E-02         0.00000E+00
    0.18869E-02        -0.12009E-02         0.00000E+00
    0.18488E-02        -0.11652E-02         0.00000E+00
    0.18102E-02        -0.11295E-02         0.00000E+00
    0.17711E-02        -0.10941E-02         0.00000E+00
    0.17314E-02        -0.10588E-02         0.00000E+00
    0.16913E-02        -0.10238E-02         0.00000E+00
    0.16507E-02        -0.98889E-03         0.00000E+00
    0.16095E-02        -0.95423E-03         0.00000E+00
    0.15678E-02        -0.91979E-03         0.00000E+00
    0.15256E-02        -0.88557E-03         0.00000E+00
    0.14829E-02        -0.85160E-03         0.00000E+00
    0.14396E-02        -0.81787E-03         0.00000E+00
    0.13958E-02        -0.78440E-03         0.00000E+00
    0.13515E-02        -0.75119E-03         0.00000E+00
    0.13066E-02        -0.71825E-03         0.00000E+00
    0.12612E-02        -0.68559E-03         0.00000E+00
    0.12153E-02        -0.65321E-03         0.00000E+00
    0.11687E-02        -0.62113E-03         0.00000E+00
    0.11217E-02        -0.58935E-03         0.00000E+00
    0.10740E-02        -0.55787E-03         0.00000E+00
    0.10258E-02        -0.52670E-03         0.00000E+00
    0.97708E-03        -0.49586E-03         0.00000E+00
    0.92775E-03        -0.46533E-03         0.00000E+00
    0.87784E-03        -0.43513E-03         0.00000E+00
    0.82737E-03        -0.40527E-03         0.00000E+00
    0.77631E-03        -0.37574E-03         0.00000E+00
    0.72468E-03        -0.34656E-03         0.00000E+00
    0.67246E-03        -0.31772E-03         0.00000E+00
    0.61966E-03        -0.28924E-03         0.00000E+00
    0.56628E-03        -0.26111E-03         0.00000E+00
    0.51230E-03        -0.23334E-03         0.00000E+00
    0.45774E-03        -0.20592E-03         0.00000E+00
    0.40259E-03        -0.17888E-03         0.00000E+00
    0.34685E-03        -0.15220E-03         0.00000E+00
    0.29052E-03        -0.12589E-03         0.00000E+00
    0.23359E-03        -0.99960E-04         0.00000E+00
    0.17608E-03        -0.74402E-04         0.00000E+00
    0.11798E-03        -0.49221E-04         0.00000E+00
    0.59282E-04        -0.24420E-04         0.00000E+00
    0.00000E+00         0.00000E+00         0.00000E+00
    0.24041E-02        -0.17647E-02         0.00000E+00
    0.23709E-02        -0.17248E-02         0.00000E+00
    0.23371E-02        -0.16850E-02         0.00000E+00
    0.23026E-02        -0.16452E-02         0.00000E+00
    0.22675E-02        -0.16055E-02         0.00000E+00
    0.22318E-02        -0.15658E-02         0.00000E+00
    0.21955E-02        -0.15261E-02         0.00000E+00
    0.21586E-02        -0.14866E-02         0.00000E+00
    0.21211E-02        -0.14471E-02         0.00000E+00
    0.20831E-02        -0.14078E-02         0.00000E+00
    0.20444E-02        -0.13686E-02         0.00000E+00
    0.20051E-02        -0.13294E-02         0.00000E+00
    0.19652E-02        -0.12905E-02         0.00000E+00
    0.19247E-02        -0.12517E-02         0.00000E+00
    0.18836E-02        -0.12130E-02         0.00000E+00
    0.18420E-02        -0.11745E-02         0.00000E+00
    0.17997E-02        -0.11363E-02         0.00000E+00
    0.17569E-02        -0.10982E-02         0.00000E+00
    0.17134E-02        -0.10603E-02         0.00000E+00
    0.16693E-02        -0.10226E-02         0.00000E+00
    0.16247E-02        -0.98511E-03         0.00000E+00
    0.15794E-02        -0.94788E-03         0.00000E+00
    0.15336E-02        -0.91090E-03         0.00000E+00
    0.14871E-02        -0.87416E-03         0.00000E+00
    0.14400E-02        -0.83767E-03         0.00000E+00
    0.13923E-02        -0.80145E-03         0.00000E+00
    0.13441E-02        -0.76551E-03         0.00000E+00
    0.12952E-02        -0.72984E-03         0.00000E+00
    0.12457E-02        -0.69446E-03         0.00000E+00
    0.11955E-02        -0.65938E-03         0.00000E+00
    0.11448E-02        -0.62459E-03         0.00000E+00
    0.10935E-02        -0.59011E-03         0.00000E+00
    0.10415E-02        -0.55595E-03         0.00000E+00
    0.98890E-03        -0.52210E-03         0.00000E+00
    0.93570E-03        -0.48858E-03         0.00000E+00
    0.88187E-03        -0.45538E-03         0.00000E+00
    0.82743E-03        -0.42252E-03         0.00000E+00
    0.77236E-03        -0.39001E-03         0.00000E+00
    0.71667E-03        -0.35783E-03         0.00000E+00
    0.66036E-03        -0.32601E-03         0.00000E+00
    0.60343E-03        -0.29453E-03         0.00000E+00
    0.54588E-03        -0.26342E-03         0.00000E+00
    0.48770E-03        -0.23266E-03         0.00000E+00
    0.42890E-03        -0.20227E-03         0.00000E+00
    0.36948E-03        -0.17225E-03         0.00000E+00
    0.30944E-03        -0.14260E-03         0.00000E+00
    0.24879E-03        -0.11332E-03         0.00000E+00
    0.18751E-03        -0.84418E-04         0.00000E+00
    0.12562E-03        -0.55896E-04         0.00000E+00
    0.63117E-04        -0.27756E-04         0.00000E+00
    0.00000E+00         0.00000E+00         0.00000E+00
    0.25346E-02        -0.19306E-02         0.00000E+00
    0.25007E-02        -0.18876E-02         0.00000E+00
    0.24661E-02        -0.18445E-02         0.00000E+00
    0.24308E-02        -0.18015E-02         0.00000E+00
    0.23948E-02        -0.17585E-02         0.00000E+00
    0.23580E-02        -0.17156E-02         0.00000E+00
    0.23206E-02        -0.16727E-02         0.00000E+00
    0.22824E-02        -0.16299E-02         0.00000E+00
    0.22436E-02        -0.15872E-02         0.00000E+00
    0.22040E-02        -0.15446E-02         0.00000E+00
    0.21637E-02        -0.15022E-02         0.00000E+00
    0.21228E-02        -0.14598E-02         0.00000E+00
    0.20812E-02        -0.14176E-02         0.00000E+00
    0.20388E-02        -0.13755E-02         0.00000E+00
    0.19958E-02        -0.13336E-02         0.00000E+00
    0.19521E-02        -0.12918E-02         0.00000E+00
    0.19078E-02        -0.12502E-02         0.00000E+00
    0.18627E-02        -0.12088E-02         0.00000E+00
    0.18170E-02        -0.11677E-02         0.00000E+00
    0.17706E-02        -0.11267E-02         0.00000E+00
    0.17235E-02        -0.10859E-02         0.00000E+00
    0.16758E-02        -0.10454E-02         0.00000E+00
    0.16273E-02        -0.10051E-02         0.00000E+00
    0.15782E-02        -0.96499E-03         0.00000E+00
    0.15284E-02        -0.92518E-03         0.00000E+00
    0.14780E-02        -0.88562E-03         0.00000E+00
    0.14269E-02        -0.84634E-03         0.00000E+00
    0.13751E-02        -0.80733E-03         0.00000E+00
    0.13226E-02        -0.76860E-03         0.00000E+00
    0.12694E-02        -0.73016E-03         0.00000E+00
    0.12156E-02        -0.69202E-03         0.00000E+00
    0.11612E-02        -0.65418E-03         0.00000E+00
    0.11060E-02        -0.61665E-03         0.00000E+00
    0.10502E-02        -0.57944E-03         0.00000E+00
    0.99369E-03        -0.54254E-03         0.00000E+00
    0.93654E-03        -0.50598E-03         0.00000E+00
    0.87872E-03        -0.46974E-03         0.00000E+00
    0.82023E-03        -0.43385E-03         0.00000E+00
    0.76107E-03        -0.39830E-03         0.00000E+00
    0.70126E-03        -0.36309E-03         0.00000E+00
    0.64078E-03        -0.32824E-03         0.00000E+00
    0.57964E-03        -0.29375E-03         0.00000E+00
    0.51784E-03        -0.25962E-03         0.00000E+00
    0.45539E-03        -0.22585E-03         0.00000E+00
    0.39228E-03        -0.19245E-03         0.00000E+00
    0.32852E-03        -0.15942E-03         0.00000E+00
    0.26410E-03        -0.12677E-03         0.00000E+00
    0.19904E-03        -0.94503E-04         0.00000E+00
    0.13334E-03        -0.62616E-04         0.00000E+00
    0.66989E-04        -0.31114E-04         0.00000E+00
    0.00000E+00         0.00000E+00         0.00000E+00
    0.26660E-02        -0.20996E-02         0.00000E+00
    0.26315E-02        -0.20533E-02         0.00000E+00
    0.25961E-02        -0.20069E-02         0.00000E+00
    0.25599E-02        -0.19606E-02         0.00000E+00
    0.25228E-02        -0.19143E-02         0.00000E+00
    0.24850E-02        -0.18680E-02         0.00000E+00
    0.24463E-02        -0.18218E-02         0.00000E+00
    0.24068E-02        -0.17757E-02         0.00000E+00
    0.23666E-02        -0.17297E-02         0.00000E+00
    0.23255E-02        -0.16838E-02         0.00000E+00
    0.22837E-02        -0.16380E-02         0.00000E+00
    0.22410E-02        -0.15923E-02         0.00000E+00
    0.21976E-02        -0.15467E-02         0.00000E+00
    0.21534E-02        -0.15013E-02         0.00000E+00
    0.21085E-02        -0.14560E-02         0.00000E+00
    0.20628E-02        -0.14109E-02         0.00000E+00
    0.20163E-02        -0.13659E-02         0.00000E+00
    0.19690E-02        -0.13212E-02         0.00000E+00
    0.19210E-02        -0.12766E-02         0.00000E+00
    0.18723E-02        -0.12323E-02         0.00000E+00
    0.18228E-02        -0.11881E-02         0.00000E+00
    0.17725E-02        -0.11442E-02         0.00000E+00
    0.17215E-02        -0.11005E-02         0.00000E+00
    0.16698E-02        -0.10571E-02         0.00000E+00
    0.16173E-02        -0.10139E-02         0.00000E+00
    0.15641E-02        -0.97091E-03         0.00000E+00
    0.15101E-02        -0.92822E-03         0.00000E+00
    0.14554E-02        -0.88580E-03         0.00000E+00
    0.14000E-02        -0.84367E-03         0.00000E+00
    0.13438E-02        -0.80182E-03         0.00000E+00
    0.12869E-02        -0.76026E-03         0.00000E+00
    0.12293E-02        -0.71901E-03         0.00000E+00
    0.11710E-02        -0.67806E-03         0.00000E+00
    0.11119E-02        -0.63743E-03         0.00000E+00
    0.10522E-02        -0.59711E-03         0.00000E+00
    0.99166E-03        -0.55713E-03         0.00000E+00
    0.93045E-03        -0.51747E-03         0.00000E+00
    0.86852E-03        -0.47815E-03         0.00000E+00
    0.80589E-03        -0.43918E-03         0.00000E+00
    0.74255E-03        -0.40056E-03         0.00000E+00
    0.67851E-03        -0.36229E-03         0.00000E+00
    0.61376E-03        -0.32437E-03         0.00000E+00
    0.54831E-03        -0.28682E-03         0.00000E+00
    0.48217E-03        -0.24964E-03         0.00000E+00
    0.41534E-03        -0.21283E-03         0.00000E+00
    0.34782E-03        -0.17640E-03         0.00000E+00
    0.27961E-03        -0.14034E-03         0.00000E+00
    0.21072E-03        -0.10467E-03         0.00000E+00
    0.14116E-03        -0.69390E-04         0.00000E+00
    0.70913E-04        -0.34498E-04         0.00000E+00
    0.00000E+00         0.00000E+00         0.00000E+00
    0.27997E-02        -0.22722E-02         0.00000E+00
    0.27643E-02        -0.22224E-02         0.00000E+00
    0.27280E-02        -0.21726E-02         0.00000E+00
    0.26908E-02        -0.21229E-02         0.00000E+00
    0.26527E-02        -0.20731E-02         0.00000E+00
    0.26136E-02        -0.20235E-02         0.00000E+00
    0.25737E-02        -0.19739E-02         0.00000E+00
    0.25328E-02        -0.19244E-02         0.00000E+00
    0.24911E-02        -0.18749E-02         0.00000E+00
    0.24485E-02        -0.18256E-02         0.00000E+00
    0.24050E-02        -0.17763E-02         0.00000E+00
    0.23606E-02        -0.17272E-02         0.00000E+00
    0.23154E-02        -0.16782E-02         0.00000E+00
    0.22693E-02        -0.16293E-02         0.00000E+00
    0.22224E-02        -0.15806E-02         0.00000E+00
    0.21746E-02        -0.15321E-02         0.00000E+00
    0.21260E-02        -0.14837E-02         0.00000E+00
    0.20765E-02        -0.14355E-02         0.00000E+00
    0.20262E-02        -0.13875E-02         0.00000E+00
    0.19751E-02        -0.13397E-02         0.00000E+00
    0.19232E-02        -0.12921E-02         0.00000E+00
    0.18704E-02        -0.12447E-02         0.00000E+00
    0.18168E-02        -0.11975E-02         0.00000E+00
    0.17624E-02        -0.11506E-02         0.00000E+00
    0.17072E-02        -0.11039E-02         0.00000E+00
    0.16512E-02        -0.10575E-02         0.00000E+00
    0.15943E-02        -0.10113E-02         0.00000E+00
    0.15367E-02        -0.96545E-03         0.00000E+00
    0.14783E-02        -0.91984E-03         0.00000E+00
    0.14191E-02        -0.87452E-03         0.00000E+00
    0.13591E-02        -0.82948E-03         0.00000E+00
    0.12984E-02        -0.78475E-03         0.00000E+00
    0.12368E-02        -0.74032E-03         0.00000E+00
    0.11745E-02        -0.69621E-03         0.00000E+00
    0.11114E-02        -0.65241E-03         0.00000E+00
    0.10475E-02        -0.60895E-03         0.00000E+00
    0.98289E-03        -0.56582E-03         0.00000E+00
    0.91749E-03        -0.52302E-03         0.00000E+00
    0.85134E-03        -0.48058E-03         0.00000E+00
    0.78444E-03        -0.43848E-03         0.00000E+00
    0.71679E-03        -0.39674E-03         0.00000E+00
    0.64839E-03        -0.35536E-03         0.00000E+00
    0.57925E-03        -0.31435E-03         0.00000E+00
    0.50938E-03        -0.27370E-03         0.00000E+00
    0.43877E-03        -0.23344E-03         0.00000E+00
    0.36743E-03        -0.19356E-03         0.00000E+00
    0.29537E-03        -0.15406E-03         0.00000E+00
    0.22260E-03        -0.11495E-03         0.00000E+00
    0.14911E-03        -0.76234E-04         0.00000E+00
    0.74905E-04        -0.37916E-04         0.00000E+00
    0.00000E+00         0.00000E+00         0.00000E+00
    0.29364E-02        -0.24487E-02         0.00000E+00
    0.29001E-02        -0.23954E-02         0.00000E+00
    0.28628E-02        -0.23421E-02         0.00000E+00
    0.28245E-02        -0.22889E-02         0.00000E+00
    0.27852E-02        -0.22356E-02         0.00000E+00
    0.27449E-02        -0.21825E-02         0.00000E+00
    0.27035E-02        -0.21293E-02         0.00000E+00
    0.26612E-02        -0.20763E-02         0.00000E+00
    0.26180E-02        -0.20233E-02         0.00000E+00
    0.25737E-02        -0.19704E-02         0.00000E+00
    0.25285E-02        -0.19177E-02         0.00000E+00
    0.24824E-02        -0.18650E-02         0.00000E+00
    0.24353E-02        -0.18125E-02         0.00000E+00
    0.23873E-02        -0.17601E-02         0.00000E+00
    0.23383E-02        -0.17078E-02         0.00000E+00
    0.22884E-02        -0.16557E-02         0.00000E+00
    0.22376E-02        -0.16038E-02         0.00000E+00
    0.21858E-02        -0.15521E-02         0.00000E+00
    0.21332E-02        -0.15005E-02         0.00000E+00
    0.20797E-02        -0.14492E-02         0.00000E+00
    0.20252E-02        -0.13980E-02         0.00000E+00
    0.19699E-02        -0.13471E-02         0.00000E+00
    0.19137E-02        -0.12964E-02         0.00000E+00
    0.18566E-02        -0.12459E-02         0.00000E+00
    0.17986E-02        -0.11957E-02         0.00000E+00
    0.17397E-02        -0.11457E-02         0.00000E+00
    0.16800E-02        -0.10960E-02         0.00000E+00
    0.16194E-02        -0.10465E-02         0.00000E+00
    0.15580E-02        -0.99735E-03         0.00000E+00
    0.14957E-02        -0.94847E-03         0.00000E+00
    0.14326E-02        -0.89988E-03         0.00000E+00
    0.13686E-02        -0.85159E-03         0.00000E+00
    0.13038E-02        -0.80361E-03         0.00000E+00
    0.12381E-02        -0.75595E-03         0.00000E+00
    0.11717E-02        -0.70861E-03         0.00000E+00
    0.11044E-02        -0.66160E-03         0.00000E+00
    0.10363E-02        -0.61492E-03         0.00000E+00
    0.96737E-03        -0.56859E-03         0.00000E+00
    0.89764E-03        -0.52260E-03         0.00000E+00
    0.82712E-03        -0.47697E-03         0.00000E+00
    0.75580E-03        -0.43170E-03         0.00000E+00
    0.68368E-03        -0.38680E-03         0.00000E+00
    0.61079E-03        -0.34226E-03         0.00000E+00
    0.53711E-03        -0.29811E-03         0.00000E+00
    0.46266E-03        -0.25434E-03         0.00000E+00
    0.38744E-03        -0.21095E-03         0.00000E+00
    0.31145E-03        -0.16796E-03         0.00000E+00
    0.23471E-03        -0.12536E-03         0.00000E+00
    0.15722E-03        -0.83168E-04         0.00000E+00
    0.78980E-04        -0.41379E-04         0.00000E+00
    0.00000E+00         0.00000E+00         0.00000E+00
    0.30771E-02        -0.26299E-02         0.00000E+00
    0.30398E-02        -0.25730E-02         0.00000E+00
    0.30014E-02        -0.25161E-02         0.00000E+00
    0.29618E-02        -0.24592E-02         0.00000E+00
    0.29212E-02        -0.24023E-02         0.00000E+00
    0.28795E-02        -0.23455E-02         0.00000E+00
    0.28368E-02        -0.22887E-02         0.00000E+00
    0.27929E-02        -0.22320E-02         0.00000E+00
    0.27480E-02        -0.21754E-02         0.00000E+00
    0.27021E-02        -0.21189E-02         0.00000E+00
    0.26551E-02        -0.20625E-02         0.00000E+00
    0.26071E-02        -0.20062E-02         0.00000E+00
    0.25580E-02        -0.19500E-02         0.00000E+00
    0.25079E-02        -0.18939E-02         0.00000E+00
    0.24569E-02        -0.18380E-02         0.00000E+00
    0.24048E-02        -0.17823E-02         0.00000E+00
    0.23517E-02        -0.17267E-02         0.00000E+00
    0.22976E-02        -0.16713E-02         0.00000E+00
    0.22426E-02        -0.16161E-02         0.00000E+00
    0.21865E-02        -0.15611E-02         0.00000E+00
    0.21295E-02        -0.15063E-02         0.00000E+00
    0.20716E-02        -0.14517E-02         0.00000E+00
    0.20127E-02        -0.13974E-02         0.00000E+00
    0.19528E-02        -0.13432E-02         0.00000E+00
    0.18920E-02        -0.12894E-02         0.00000E+00
    0.18302E-02        -0.12357E-02         0.00000E+00
    0.17675E-02        -0.11824E-02         0.00000E+00
    0.17039E-02        -0.11293E-02         0.00000E+00
    0.16394E-02        -0.10765E-02         0.00000E+00
    0.15740E-02        -0.10239E-02         0.00000E+00
    0.15076E-02        -0.97170E-03         0.00000E+00
    0.14404E-02        -0.91977E-03         0.00000E+00
    0.13723E-02        -0.86815E-03         0.00000E+00
    0.13032E-02        -0.81686E-03         0.00000E+00
    0.12333E-02        -0.76588E-03         0.00000E+00
    0.11625E-02        -0.71525E-03         0.00000E+00
    0.10909E-02        -0.66495E-03         0.00000E+00
    0.10184E-02        -0.61500E-03         0.00000E+00
    0.94499E-03        -0.56540E-03         0.00000E+00
    0.87077E-03        -0.51616E-03         0.00000E+00
    0.79570E-03        -0.46729E-03         0.00000E+00
    0.71979E-03        -0.41879E-03         0.00000E+00
    0.64306E-03        -0.37067E-03         0.00000E+00
    0.56549E-03        -0.32294E-03         0.00000E+00
    0.48711E-03        -0.27559E-03         0.00000E+00
    0.40792E-03        -0.22864E-03         0.00000E+00
    0.32792E-03        -0.18209E-03         0.00000E+00
    0.24712E-03        -0.13595E-03         0.00000E+00
    0.16553E-03        -0.90214E-04         0.00000E+00
    0.83154E-04        -0.44897E-04         0.00000E+00
    0.00000E+00         0.00000E+00         0.00000E+00
    0.32225E-02        -0.28164E-02         0.00000E+00
    0.31841E-02        -0.27557E-02         0.00000E+00
    0.31444E-02        -0.26950E-02         0.00000E+00
    0.31036E-02        -0.26343E-02         0.00000E+00
    0.30616E-02        -0.25737E-02         0.00000E+00
    0.30184E-02        -0.25131E-02         0.00000E+00
    0.29740E-02        -0.24525E-02         0.00000E+00
    0.29285E-02        -0.23921E-02         0.00000E+00
    0.28819E-02        -0.23317E-02         0.00000E+00
    0.28342E-02        -0.22714E-02         0.00000E+00
    0.27853E-02        -0.22112E-02         0.00000E+00
    0.27353E-02        -0.21511E-02         0.00000E+00
    0.26842E-02        -0.20912E-02         0.00000E+00
    0.26320E-02        -0.20314E-02         0.00000E+00
    0.25787E-02        -0.19717E-02         0.00000E+00
    0.25244E-02        -0.19122E-02         0.00000E+00
    0.24689E-02        -0.18528E-02         0.00000E+00
    0.24124E-02        -0.17937E-02         0.00000E+00
    0.23549E-02        -0.17347E-02         0.00000E+00
    0.22963E-02        -0.16759E-02         0.00000E+00
    0.22367E-02        -0.16173E-02         0.00000E+00
    0.21760E-02        -0.15590E-02         0.00000E+00
    0.21143E-02        -0.15009E-02         0.00000E+00
    0.20516E-02        -0.14430E-02         0.00000E+00
    0.19878E-02        -0.13853E-02         0.00000E+00
    0.19231E-02        -0.13280E-02         0.00000E+00
    0.18574E-02        -0.12708E-02         0.00000E+00
    0.17907E-02        -0.12140E-02         0.00000E+00
    0.17230E-02        -0.11574E-02         0.00000E+00
    0.16543E-02        -0.11012E-02         0.00000E+00
    0.15847E-02        -0.10452E-02         0.00000E+00
    0.15141E-02        -0.98951E-03         0.00000E+00
    0.14425E-02        -0.93416E-03         0.00000E+00
    0.13700E-02        -0.87914E-03         0.00000E+00
    0.12966E-02        -0.82444E-03         0.00000E+00
    0.12222E-02        -0.77008E-03         0.00000E+00
    0.11469E-02        -0.71607E-03         0.00000E+00
    0.10707E-02        -0.66242E-03         0.00000E+00
    0.99359E-03        -0.60912E-03         0.00000E+00
    0.91558E-03        -0.55619E-03         0.00000E+00
    0.83667E-03        -0.50363E-03         0.00000E+00
    0.75687E-03        -0.45146E-03         0.00000E+00
    0.67619E-03        -0.39967E-03         0.00000E+00
    0.59464E-03        -0.34827E-03         0.00000E+00
    0.51222E-03        -0.29728E-03         0.00000E+00
    0.42895E-03        -0.24669E-03         0.00000E+00
    0.34483E-03        -0.19650E-03         0.00000E+00
    0.25987E-03        -0.14674E-03         0.00000E+00
    0.17407E-03        -0.97398E-04         0.00000E+00
    0.87443E-04        -0.48483E-04         0.00000E+00
    0.00000E+00         0.00000E+00         0.00000E+00
    0.33734E-02        -0.30087E-02         0.00000E+00
    0.33337E-02        -0.29441E-02         0.00000E+00
    0.32927E-02        -0.28795E-02         0.00000E+00
    0.32504E-02        -0.28149E-02         0.00000E+00
    0.32069E-02        -0.27503E-02         0.00000E+00
    0.31621E-02        -0.26858E-02         0.00000E+00
    0.31161E-02        -0.26214E-02         0.00000E+00
    0.30688E-02        -0.25570E-02         0.00000E+00
    0.30203E-02        -0.24927E-02         0.00000E+00
    0.29707E-02        -0.24285E-02         0.00000E+00
    0.29198E-02        -0.23644E-02         0.00000E+00
    0.28677E-02        -0.23004E-02         0.00000E+00
    0.28145E-02        -0.22365E-02         0.00000E+00
    0.27601E-02        -0.21728E-02         0.00000E+00
    0.27045E-02        -0.21092E-02         0.00000E+00
    0.26478E-02        -0.20458E-02         0.00000E+00
    0.25899E-02        -0.19826E-02         0.00000E+00
    0.25309E-02        -0.19195E-02         0.00000E+00
    0.24707E-02        -0.18566E-02         0.00000E+00
    0.24094E-02        -0.17940E-02         0.00000E+00
    0.23471E-02        -0.17315E-02         0.00000E+00
    0.22836E-02        -0.16693E-02         0.00000E+00
    0.22190E-02        -0.16073E-02         0.00000E+00
    0.21533E-02        -0.15455E-02         0.00000E+00
    0.20866E-02        -0.14840E-02         0.00000E+00
    0.20188E-02        -0.14227E-02         0.00000E+00
    0.19499E-02        -0.13617E-02         0.00000E+00
    0.18800E-02        -0.13010E-02         0.00000E+00
    0.18090E-02        -0.12406E-02         0.00000E+00
    0.17370E-02        -0.11804E-02         0.00000E+00
    0.16640E-02        -0.11206E-02         0.00000E+00
    0.15899E-02        -0.10611E-02         0.00000E+00
    0.15148E-02        -0.10019E-02         0.00000E+00
    0.14388E-02        -0.94302E-03         0.00000E+00
    0.13617E-02        -0.88450E-03         0.00000E+00
    0.12837E-02        -0.82631E-03         0.00000E+00
    0.12046E-02        -0.76849E-03         0.00000E+00
    0.11246E-02        -0.71102E-03         0.00000E+00
    0.10436E-02        -0.65392E-03         0.00000E+00
    0.96172E-03        -0.59720E-03         0.00000E+00
    0.87886E-03        -0.54086E-03         0.00000E+00
    0.79505E-03        -0.48492E-03         0.00000E+00
    0.71031E-03        -0.42936E-03         0.00000E+00
    0.62466E-03        -0.37422E-03         0.00000E+00
    0.53809E-03        -0.31948E-03         0.00000E+00
    0.45062E-03        -0.26515E-03         0.00000E+00
    0.36225E-03        -0.21126E-03         0.00000E+00
    0.27300E-03        -0.15778E-03         0.00000E+00
    0.18286E-03        -0.10475E-03         0.00000E+00
    0.91862E-04        -0.52151E-04         0.00000E+00
    0.00000E+00         0.00000E+00         0.00000E+00
    0.35304E-02        -0.32075E-02         0.00000E+00
    0.34893E-02        -0.31388E-02         0.00000E+00
    0.34468E-02        -0.30702E-02         0.00000E+00
    0.34030E-02        -0.30015E-02         0.00000E+00
    0.33578E-02        -0.29329E-02         0.00000E+00
    0.33113E-02        -0.28643E-02         0.00000E+00
    0.32635E-02        -0.27958E-02         0.00000E+00
    0.32143E-02        -0.27274E-02         0.00000E+00
    0.31639E-02        -0.26590E-02         0.00000E+00
    0.31122E-02        -0.25907E-02         0.00000E+00
    0.30592E-02        -0.25226E-02         0.00000E+00
    0.30050E-02        -0.24545E-02         0.00000E+00
    0.29494E-02        -0.23866E-02         0.00000E+00
    0.28927E-02        -0.23188E-02         0.00000E+00
    0.28347E-02        -0.22512E-02         0.00000E+00
    0.27755E-02        -0.21837E-02         0.00000E+00
    0.27150E-02        -0.21164E-02         0.00000E+00
    0.26534E-02        -0.20493E-02         0.00000E+00
    0.25905E-02        -0.19824E-02         0.00000E+00
    0.25264E-02        -0.19157E-02         0.00000E+00
    0.24612E-02        -0.18492E-02         0.00000E+00
    0.23948E-02        -0.17829E-02         0.00000E+00
    0.23272E-02        -0.17169E-02         0.00000E+00
    0.22585E-02        -0.16511E-02         0.00000E+00
    0.21887E-02        -0.15856E-02         0.00000E+00
    0.21177E-02        -0.15203E-02         0.00000E+00
    0.20455E-02        -0.14553E-02         0.00000E+00
    0.19723E-02        -0.13906E-02         0.00000E+00
    0.18979E-02        -0.13261E-02         0.00000E+00
    0.18225E-02        -0.12620E-02         0.00000E+00
    0.17459E-02        -0.11982E-02         0.00000E+00
    0.16683E-02        -0.11347E-02         0.00000E+00
    0.15896E-02        -0.10716E-02         0.00000E+00
    0.15098E-02        -0.10087E-02         0.00000E+00
    0.14290E-02        -0.94627E-03         0.00000E+00
    0.13471E-02        -0.88414E-03         0.00000E+00
    0.12642E-02        -0.82238E-03         0.00000E+00
    0.11803E-02        -0.76099E-03         0.00000E+00
    0.10953E-02        -0.69998E-03         0.00000E+00
    0.10094E-02        -0.63935E-03         0.00000E+00
    0.92243E-03        -0.57912E-03         0.00000E+00
    0.83448E-03        -0.51929E-03         0.00000E+00
    0.74556E-03        -0.45987E-03         0.00000E+00
    0.65566E-03        -0.40086E-03         0.00000E+00
    0.56481E-03        -0.34227E-03         0.00000E+00
    0.47300E-03        -0.28412E-03         0.00000E+00
    0.38024E-03        -0.22640E-03         0.00000E+00
    0.28656E-03        -0.16912E-03         0.00000E+00
    0.19195E-03        -0.11229E-03         0.00000E+00
    0.96427E-04        -0.55915E-04         0.00000E+00
    0.00000E+00         0.00000E+00         0.00000E+00
    0.36942E-02        -0.34135E-02         0.00000E+00
    0.36515E-02        -0.33406E-02         0.00000E+00
    0.36074E-02        -0.32677E-02         0.00000E+00
    0.35619E-02        -0.31948E-02         0.00000E+00
    0.35149E-02        -0.31219E-02         0.00000E+00
    0.34666E-02        -0.30491E-02         0.00000E+00
    0.34168E-02        -0.29764E-02         0.00000E+00
    0.33657E-02        -0.29037E-02         0.00000E+00
    0.33132E-02        -0.28311E-02         0.00000E+00
    0.32593E-02        -0.27586E-02         0.00000E+00
    0.32041E-02        -0.26862E-02         0.00000E+00
    0.31475E-02        -0.26140E-02         0.00000E+00
    0.30896E-02        -0.25419E-02         0.00000E+00
    0.30304E-02        -0.24699E-02         0.00000E+00
    0.29698E-02        -0.23980E-02         0.00000E+00
    0.29080E-02        -0.23264E-02         0.00000E+00
    0.28448E-02        -0.22549E-02         0.00000E+00
    0.27804E-02        -0.21835E-02         0.00000E+00
    0.27147E-02        -0.21124E-02         0.00000E+00
    0.26478E-02        -0.20415E-02         0.00000E+00
    0.25796E-02        -0.19708E-02         0.00000E+00
    0.25101E-02        -0.19004E-02         0.00000E+00
    0.24394E-02        -0.18302E-02         0.00000E+00
    0.23675E-02        -0.17602E-02         0.00000E+00
    0.22944E-02        -0.16905E-02         0.00000E+00
    0.22201E-02        -0.16211E-02         0.00000E+00
    0.21446E-02        -0.15519E-02         0.00000E+00
    0.20679E-02        -0.14831E-02         0.00000E+00
    0.19900E-02        -0.14145E-02         0.00000E+00
    0.19110E-02        -0.13463E-02         0.00000E+00
    0.18308E-02        -0.12783E-02         0.00000E+00
    0.17494E-02        -0.12107E-02         0.00000E+00
    0.16669E-02        -0.11435E-02         0.00000E+00
    0.15833E-02        -0.10765E-02         0.00000E+00
    0.14986E-02        -0.10100E-02         0.00000E+00
    0.14128E-02        -0.94378E-03         0.00000E+00
    0.13259E-02        -0.87795E-03         0.00000E+00
    0.12379E-02        -0.81251E-03         0.00000E+00
    0.11489E-02        -0.74746E-03         0.00000E+00
    0.10587E-02        -0.68280E-03         0.00000E+00
    0.96754E-03        -0.61855E-03         0.00000E+00
    0.87531E-03        -0.55471E-03         0.00000E+00
    0.78205E-03        -0.49129E-03         0.00000E+00
    0.68776E-03        -0.42831E-03         0.00000E+00
    0.59247E-03        -0.36576E-03         0.00000E+00
    0.49617E-03        -0.30365E-03         0.00000E+00
    0.39887E-03        -0.24199E-03         0.00000E+00
    0.30060E-03        -0.18079E-03         0.00000E+00
    0.20136E-03        -0.12005E-03         0.00000E+00
    0.10115E-03        -0.59788E-04         0.00000E+00
    0.00000E+00         0.00000E+00         0.00000E+00
    0.38652E-02        -0.36273E-02         0.00000E+00
    0.38209E-02        -0.35499E-02         0.00000E+00
    0.37750E-02        -0.34726E-02         0.00000E+00
    0.37276E-02        -0.33953E-02         0.00000E+00
    0.36788E-02        -0.33181E-02         0.00000E+00
    0.36285E-02        -0.32408E-02         0.00000E+00
    0.35766E-02        -0.31637E-02         0.00000E+00
    0.35234E-02        -0.30866E-02         0.00000E+00
    0.34686E-02        -0.30096E-02         0.00000E+00
    0.34125E-02        -0.29328E-02         0.00000E+00
    0.33549E-02        -0.28560E-02         0.00000E+00
    0.32959E-02        -0.27793E-02         0.00000E+00
    0.32354E-02        -0.27028E-02         0.00000E+00
    0.31736E-02        -0.26264E-02         0.00000E+00
    0.31104E-02        -0.25502E-02         0.00000E+00
    0.30458E-02        -0.24742E-02         0.00000E+00
    0.29799E-02        -0.23983E-02         0.00000E+00
    0.29125E-02        -0.23226E-02         0.00000E+00
    0.28439E-02        -0.22471E-02         0.00000E+00
    0.27739E-02        -0.21719E-02         0.00000E+00
    0.27026E-02        -0.20968E-02         0.00000E+00
    0.26299E-02        -0.20220E-02         0.00000E+00
    0.25560E-02        -0.19475E-02         0.00000E+00
    0.24808E-02        -0.18732E-02         0.00000E+00
    0.24042E-02        -0.17992E-02         0.00000E+00
    0.23265E-02        -0.17254E-02         0.00000E+00
    0.22474E-02        -0.16520E-02         0.00000E+00
    0.21671E-02        -0.15788E-02         0.00000E+00
    0.20856E-02        -0.15059E-02         0.00000E+00
    0.20028E-02        -0.14334E-02         0.00000E+00
    0.19188E-02        -0.13612E-02         0.00000E+00
    0.18336E-02        -0.12893E-02         0.00000E+00
    0.17472E-02        -0.12178E-02         0.00000E+00
    0.16597E-02        -0.11467E-02         0.00000E+00
    0.15709E-02        -0.10759E-02         0.00000E+00
    0.14810E-02        -0.10054E-02         0.00000E+00
    0.13899E-02        -0.93540E-03         0.00000E+00
    0.12977E-02        -0.86576E-03         0.00000E+00
    0.12044E-02        -0.79652E-03         0.00000E+00
    0.11099E-02        -0.72770E-03         0.00000E+00
    0.10143E-02        -0.65929E-03         0.00000E+00
    0.91766E-03        -0.59131E-03         0.00000E+00
    0.81990E-03        -0.52376E-03         0.00000E+00
    0.72106E-03        -0.45666E-03         0.00000E+00
    0.62116E-03        -0.39001E-03         0.00000E+00
    0.52020E-03        -0.32381E-03         0.00000E+00
    0.41820E-03        -0.25809E-03         0.00000E+00
    0.31517E-03        -0.19284E-03         0.00000E+00
    0.21112E-03        -0.12807E-03         0.00000E+00
    0.10606E-03        -0.63786E-04         0.00000E+00
    0.00000E+00         0.00000E+00         0.00000E+00
    0.40440E-02        -0.38495E-02         0.00000E+00
    0.39979E-02        -0.37676E-02         0.00000E+00
    0.39502E-02        -0.36856E-02         0.00000E+00
    0.39009E-02        -0.36037E-02         0.00000E+00
    0.38500E-02        -0.35219E-02         0.00000E+00
    0.37975E-02        -0.34401E-02         0.00000E+00
    0.37435E-02        -0.33584E-02         0.00000E+00
    0.36879E-02        -0.32767E-02         0.00000E+00
    0.36309E-02        -0.31951E-02         0.00000E+00
    0.35723E-02        -0.31137E-02         0.00000E+00
    0.35122E-02        -0.30323E-02         0.00000E+00
    0.34506E-02        -0.29511E-02         0.00000E+00
    0.33875E-02        -0.28700E-02         0.00000E+00
    0.33229E-02        -0.27890E-02         0.00000E+00
    0.32569E-02        -0.27083E-02         0.00000E+00
    0.31894E-02        -0.26276E-02         0.00000E+00
    0.31205E-02        -0.25472E-02         0.00000E+00
    0.30501E-02        -0.24670E-02         0.00000E+00
    0.29783E-02        -0.23870E-02         0.00000E+00
    0.29052E-02        -0.23072E-02         0.00000E+00
    0.28306E-02        -0.22276E-02         0.00000E+00
    0.27546E-02        -0.21483E-02         0.00000E+00
    0.26773E-02        -0.20692E-02         0.00000E+00
    0.25986E-02        -0.19904E-02         0.00000E+00
    0.25185E-02        -0.19119E-02         0.00000E+00
    0.24371E-02        -0.18337E-02         0.00000E+00
    0.23544E-02        -0.17557E-02         0.00000E+00
    0.22703E-02        -0.16781E-02         0.00000E+00
    0.21850E-02        -0.16008E-02         0.00000E+00
    0.20983E-02        -0.15238E-02         0.00000E+00
    0.20104E-02        -0.14471E-02         0.00000E+00
    0.19212E-02        -0.13708E-02         0.00000E+00
    0.18307E-02        -0.12949E-02         0.00000E+00
    0.17390E-02        -0.12193E-02         0.00000E+00
    0.16460E-02        -0.11441E-02         0.00000E+00
    0.15519E-02        -0.10693E-02         0.00000E+00
    0.14565E-02        -0.99494E-03         0.00000E+00
    0.13599E-02        -0.92094E-03         0.00000E+00
    0.12621E-02        -0.84736E-03         0.00000E+00
    0.11631E-02        -0.77420E-03         0.00000E+00
    0.10630E-02        -0.70148E-03         0.00000E+00
    0.96167E-03        -0.62921E-03         0.00000E+00
    0.85923E-03        -0.55738E-03         0.00000E+00
    0.75566E-03        -0.48601E-03         0.00000E+00
    0.65097E-03        -0.41511E-03         0.00000E+00
    0.54518E-03        -0.34469E-03         0.00000E+00
    0.43828E-03        -0.27475E-03         0.00000E+00
    0.33031E-03        -0.20531E-03         0.00000E+00
    0.22126E-03        -0.13636E-03         0.00000E+00
    0.11115E-03        -0.67924E-04         0.00000E+00
    0.00000E+00         0.00000E+00         0.00000E+00
    0.42312E-02        -0.40808E-02         0.00000E+00
    0.41832E-02        -0.39941E-02         0.00000E+00
    0.41334E-02        -0.39074E-02         0.00000E+00
    0.40820E-02        -0.38207E-02         0.00000E+00
    0.40289E-02        -0.37341E-02         0.00000E+00
    0.39742E-02        -0.36475E-02         0.00000E+00
    0.39179E-02        -0.35610E-02         0.00000E+00
    0.38599E-02        -0.34745E-02         0.00000E+00
    0.38003E-02        -0.33882E-02         0.00000E+00
    0.37391E-02        -0.33019E-02         0.00000E+00
    0.36764E-02        -0.32158E-02         0.00000E+00
    0.36120E-02        -0.31298E-02         0.00000E+00
    0.35461E-02        -0.30439E-02         0.00000E+00
    0.34787E-02        -0.29582E-02         0.00000E+00
    0.34097E-02        -0.28726E-02         0.00000E+00
    0.33392E-02        -0.27873E-02         0.00000E+00
    0.32671E-02        -0.27021E-02         0.00000E+00
    0.31936E-02        -0.26171E-02         0.00000E+00
    0.31185E-02        -0.25324E-02         0.00000E+00
    0.30420E-02        -0.24479E-02         0.00000E+00
    0.29640E-02        -0.23636E-02         0.00000E+00
    0.28846E-02        -0.22795E-02         0.00000E+00
    0.28037E-02        -0.21958E-02         0.00000E+00
    0.27213E-02        -0.21123E-02         0.00000E+00
    0.26376E-02        -0.20291E-02         0.00000E+00
    0.25524E-02        -0.19462E-02         0.00000E+00
    0.24658E-02        -0.18635E-02         0.00000E+00
    0.23778E-02        -0.17813E-02         0.00000E+00
    0.22885E-02        -0.16993E-02         0.00000E+00
    0.21978E-02        -0.16177E-02         0.00000E+00
    0.21057E-02        -0.15364E-02         0.00000E+00
    0.20123E-02        -0.14555E-02         0.00000E+00
    0.19176E-02        -0.13750E-02         0.00000E+00
    0.18216E-02        -0.12948E-02         0.00000E+00
    0.17243E-02        -0.12151E-02         0.00000E+00
    0.16256E-02        -0.11357E-02         0.00000E+00
    0.15257E-02        -0.10567E-02         0.00000E+00
    0.14246E-02        -0.97823E-03         0.00000E+00
    0.13221E-02        -0.90013E-03         0.00000E+00
    0.12185E-02        -0.82248E-03         0.00000E+00
    0.11136E-02        -0.74528E-03         0.00000E+00
    0.10075E-02        -0.66854E-03         0.00000E+00
    0.90017E-03        -0.59227E-03         0.00000E+00
    0.79167E-03        -0.51647E-03         0.00000E+00
    0.68200E-03        -0.44117E-03         0.00000E+00
    0.57116E-03        -0.36635E-03         0.00000E+00
    0.45918E-03        -0.29204E-03         0.00000E+00
    0.34606E-03        -0.21824E-03         0.00000E+00
    0.23181E-03        -0.14497E-03         0.00000E+00
    0.11645E-03        -0.72215E-04         0.00000E+00
    0.00000E+00         0.00000E+00         0.00000E+00
    0.44273E-02        -0.43220E-02         0.00000E+00
    0.43771E-02        -0.42303E-02         0.00000E+00
    0.43252E-02        -0.41386E-02         0.00000E+00
    0.42716E-02        -0.40469E-02         0.00000E+00
    0.42162E-02        -0.39552E-02         0.00000E+00
    0.41591E-02        -0.38636E-02         0.00000E+00
    0.41002E-02        -0.37721E-02         0.00000E+00
    0.40397E-02        -0.36806E-02         0.00000E+00
    0.39775E-02        -0.35893E-02         0.00000E+00
    0.39136E-02        -0.34981E-02         0.00000E+00
    0.38480E-02        -0.34069E-02         0.00000E+00
    0.37808E-02        -0.33159E-02         0.00000E+00
    0.37119E-02        -0.32251E-02         0.00000E+00
    0.36414E-02        -0.31344E-02         0.00000E+00
    0.35693E-02        -0.30439E-02         0.00000E+00
    0.34956E-02        -0.29536E-02         0.00000E+00
    0.34202E-02        -0.28634E-02         0.00000E+00
    0.33433E-02        -0.27735E-02         0.00000E+00
    0.32649E-02        -0.26838E-02         0.00000E+00
    0.31848E-02        -0.25944E-02         0.00000E+00
    0.31032E-02        -0.25052E-02         0.00000E+00
    0.30201E-02        -0.24162E-02         0.00000E+00
    0.29355E-02        -0.23275E-02         0.00000E+00
    0.28494E-02        -0.22391E-02         0.00000E+00
    0.27617E-02        -0.21511E-02         0.00000E+00
    0.26726E-02        -0.20633E-02         0.00000E+00
    0.25820E-02        -0.19758E-02         0.00000E+00
    0.24899E-02        -0.18886E-02         0.00000E+00
    0.23964E-02        -0.18018E-02         0.00000E+00
    0.23015E-02        -0.17154E-02         0.00000E+00
    0.22051E-02        -0.16293E-02         0.00000E+00
    0.21074E-02        -0.15436E-02         0.00000E+00
    0.20082E-02        -0.14583E-02         0.00000E+00
    0.19077E-02        -0.13733E-02         0.00000E+00
    0.18058E-02        -0.12888E-02         0.00000E+00
    0.17025E-02        -0.12047E-02         0.00000E+00
    0.15979E-02        -0.11211E-02         0.00000E+00
    0.14920E-02        -0.10378E-02         0.00000E+00
    0.13847E-02        -0.95503E-03         0.00000E+00
    0.12761E-02        -0.87269E-03         0.00000E+00
    0.11663E-02        -0.79083E-03         0.00000E+00
    0.10552E-02        -0.70945E-03         0.00000E+00
    0.94281E-03        -0.62855E-03         0.00000E+00
    0.82918E-03        -0.54815E-03         0.00000E+00
    0.71432E-03        -0.46825E-03         0.00000E+00
    0.59824E-03        -0.38887E-03         0.00000E+00
    0.48095E-03        -0.31001E-03         0.00000E+00
    0.36247E-03        -0.23169E-03         0.00000E+00
    0.24280E-03        -0.15391E-03         0.00000E+00
    0.12198E-03        -0.76675E-04         0.00000E+00
    0.00000E+00         0.00000E+00         0.00000E+00
    0.46326E-02        -0.45737E-02         0.00000E+00
    0.45803E-02        -0.44767E-02         0.00000E+00
    0.45261E-02        -0.43798E-02         0.00000E+00
    0.44700E-02        -0.42829E-02         0.00000E+00
    0.44122E-02        -0.41860E-02         0.00000E+00
    0.43525E-02        -0.40891E-02         0.00000E+00
    0.42910E-02        -0.39924E-02         0.00000E+00
    0.42278E-02        -0.38957E-02         0.00000E+00
    0.41628E-02        -0.37991E-02         0.00000E+00
    0.40960E-02        -0.37027E-02         0.00000E+00
    0.40274E-02        -0.36063E-02         0.00000E+00
    0.39572E-02        -0.35102E-02         0.00000E+00
    0.38852E-02        -0.34141E-02         0.00000E+00
    0.38115E-02        -0.33182E-02         0.00000E+00
    0.37361E-02        -0.32225E-02         0.00000E+00
    0.36590E-02        -0.31270E-02         0.00000E+00
    0.35802E-02        -0.30317E-02         0.00000E+00
    0.34998E-02        -0.29366E-02         0.00000E+00
    0.34177E-02        -0.28418E-02         0.00000E+00
    0.33340E-02        -0.27472E-02         0.00000E+00
    0.32486E-02        -0.26528E-02         0.00000E+00
    0.31617E-02        -0.25587E-02         0.00000E+00
    0.30731E-02        -0.24649E-02         0.00000E+00
    0.29830E-02        -0.23714E-02         0.00000E+00
    0.28913E-02        -0.22782E-02         0.00000E+00
    0.27980E-02        -0.21853E-02         0.00000E+00
    0.27032E-02        -0.20928E-02         0.00000E+00
    0.26069E-02        -0.20006E-02         0.00000E+00
    0.25090E-02        -0.19087E-02         0.00000E+00
    0.24097E-02        -0.18172E-02         0.00000E+00
    0.23088E-02        -0.17261E-02         0.00000E+00
    0.22065E-02        -0.16354E-02         0.00000E+00
    0.21027E-02        -0.15451E-02         0.00000E+00
    0.19975E-02        -0.14552E-02         0.00000E+00
    0.18908E-02        -0.13657E-02         0.00000E+00
    0.17827E-02        -0.12767E-02         0.00000E+00
    0.16732E-02        -0.11880E-02         0.00000E+00
    0.15622E-02        -0.10999E-02         0.00000E+00
    0.14500E-02        -0.10122E-02         0.00000E+00
    0.13363E-02        -0.92500E-03         0.00000E+00
    0.12213E-02        -0.83828E-03         0.00000E+00
    0.11049E-02        -0.75206E-03         0.00000E+00
    0.98728E-03        -0.66634E-03         0.00000E+00
    0.86830E-03        -0.58114E-03         0.00000E+00
    0.74802E-03        -0.49646E-03         0.00000E+00
    0.62647E-03        -0.41232E-03         0.00000E+00
    0.50365E-03        -0.32873E-03         0.00000E+00
    0.37957E-03        -0.24569E-03         0.00000E+00
    0.25427E-03        -0.16322E-03         0.00000E+00
    0.12774E-03        -0.81319E-04         0.00000E+00
    0.00000E+00         0.00000E+00         0.00000E+00
    0.48478E-02        -0.48366E-02         0.00000E+00
    0.47931E-02        -0.47342E-02         0.00000E+00
    0.47364E-02        -0.46317E-02         0.00000E+00
    0.46779E-02        -0.45293E-02         0.00000E+00
    0.46174E-02        -0.44270E-02         0.00000E+00
    0.45550E-02        -0.43247E-02         0.00000E+00
    0.44908E-02        -0.42225E-02         0.00000E+00
    0.44246E-02        -0.41203E-02         0.00000E+00
    0.43567E-02        -0.40183E-02         0.00000E+00
    0.42868E-02        -0.39164E-02         0.00000E+00
    0.42152E-02        -0.38146E-02         0.00000E+00
    0.41417E-02        -0.37130E-02         0.00000E+00
    0.40664E-02        -0.36115E-02         0.00000E+00
    0.39893E-02        -0.35102E-02         0.00000E+00
    0.39104E-02        -0.34090E-02         0.00000E+00
    0.38298E-02        -0.33081E-02         0.00000E+00
    0.37474E-02        -0.32074E-02         0.00000E+00
    0.36633E-02        -0.31069E-02         0.00000E+00
    0.35774E-02        -0.30067E-02         0.00000E+00
    0.34898E-02        -0.29067E-02         0.00000E+00
    0.34005E-02        -0.28070E-02         0.00000E+00
    0.33096E-02        -0.27075E-02         0.00000E+00
    0.32169E-02        -0.26084E-02         0.00000E+00
    0.31226E-02        -0.25095E-02         0.00000E+00
    0.30267E-02        -0.24110E-02         0.00000E+00
    0.29291E-02        -0.23128E-02         0.00000E+00
    0.28299E-02        -0.22149E-02         0.00000E+00
    0.27290E-02        -0.21174E-02         0.00000E+00
    0.26266E-02        -0.20203E-02         0.00000E+00
    0.25226E-02        -0.19235E-02         0.00000E+00
    0.24171E-02        -0.18272E-02         0.00000E+00
    0.23100E-02        -0.17312E-02         0.00000E+00
    0.22013E-02        -0.16357E-02         0.00000E+00
    0.20912E-02        -0.15406E-02         0.00000E+00
    0.19795E-02        -0.14459E-02         0.00000E+00
    0.18663E-02        -0.13517E-02         0.00000E+00
    0.17517E-02        -0.12579E-02         0.00000E+00
    0.16356E-02        -0.11647E-02         0.00000E+00
    0.15181E-02        -0.10719E-02         0.00000E+00
    0.13991E-02        -0.97957E-03         0.00000E+00
    0.12787E-02        -0.88778E-03         0.00000E+00
    0.11569E-02        -0.79651E-03         0.00000E+00
    0.10337E-02        -0.70576E-03         0.00000E+00
    0.90911E-03        -0.61555E-03         0.00000E+00
    0.78318E-03        -0.52589E-03         0.00000E+00
    0.65592E-03        -0.43678E-03         0.00000E+00
    0.52733E-03        -0.34825E-03         0.00000E+00
    0.39742E-03        -0.26030E-03         0.00000E+00
    0.26622E-03        -0.17293E-03         0.00000E+00
    0.13374E-03        -0.86161E-04         0.00000E+00
    0.00000E+00         0.00000E+00         0.00000E+00
    0.50733E-02        -0.51115E-02         0.00000E+00
    0.50161E-02        -0.50033E-02         0.00000E+00
    0.49568E-02        -0.48951E-02         0.00000E+00
    0.48955E-02        -0.47870E-02         0.00000E+00
    0.48323E-02        -0.46789E-02         0.00000E+00
    0.47671E-02        -0.45709E-02         0.00000E+00
    0.46999E-02        -0.44630E-02         0.00000E+00
    0.46307E-02        -0.43551E-02         0.00000E+00
    0.45596E-02        -0.42474E-02         0.00000E+00
    0.44865E-02        -0.41398E-02         0.00000E+00
    0.44116E-02        -0.40323E-02         0.00000E+00
    0.43347E-02        -0.39249E-02         0.00000E+00
    0.42559E-02        -0.38178E-02         0.00000E+00
    0.41753E-02        -0.37108E-02         0.00000E+00
    0.40928E-02        -0.36040E-02         0.00000E+00
    0.40084E-02        -0.34974E-02         0.00000E+00
    0.39222E-02        -0.33910E-02         0.00000E+00
    0.38342E-02        -0.32849E-02         0.00000E+00
    0.37444E-02        -0.31790E-02         0.00000E+00
    0.36527E-02        -0.30734E-02         0.00000E+00
    0.35593E-02        -0.29680E-02         0.00000E+00
    0.34641E-02        -0.28630E-02         0.00000E+00
    0.33672E-02        -0.27582E-02         0.00000E+00
    0.32685E-02        -0.26538E-02         0.00000E+00
    0.31681E-02        -0.25497E-02         0.00000E+00
    0.30660E-02        -0.24459E-02         0.00000E+00
    0.29621E-02        -0.23425E-02         0.00000E+00
    0.28566E-02        -0.22395E-02         0.00000E+00
    0.27494E-02        -0.21369E-02         0.00000E+00
    0.26406E-02        -0.20346E-02         0.00000E+00
    0.25301E-02        -0.19328E-02         0.00000E+00
    0.24180E-02        -0.18313E-02         0.00000E+00
    0.23043E-02        -0.17303E-02         0.00000E+00
    0.21890E-02        -0.16298E-02         0.00000E+00
    0.20722E-02        -0.15297E-02         0.00000E+00
    0.19537E-02        -0.14301E-02         0.00000E+00
    0.18337E-02        -0.13310E-02         0.00000E+00
    0.17122E-02        -0.12323E-02         0.00000E+00
    0.15891E-02        -0.11342E-02         0.00000E+00
    0.14646E-02        -0.10366E-02         0.00000E+00
    0.13386E-02        -0.93948E-03         0.00000E+00
    0.12111E-02        -0.84293E-03         0.00000E+00
    0.10821E-02        -0.74693E-03         0.00000E+00
    0.95171E-03        -0.65149E-03         0.00000E+00
    0.81989E-03        -0.55662E-03         0.00000E+00
    0.68666E-03        -0.46233E-03         0.00000E+00
    0.55205E-03        -0.36864E-03         0.00000E+00
    0.41605E-03        -0.27555E-03         0.00000E+00
    0.27871E-03        -0.18307E-03         0.00000E+00
    0.14002E-03        -0.91219E-04         0.00000E+00
    0.00000E+00         0.00000E+00         0.00000E+00
    0.53095E-02        -0.53990E-02         0.00000E+00
    0.52496E-02        -0.52848E-02         0.00000E+00
    0.51876E-02        -0.51707E-02         0.00000E+00
    0.51235E-02        -0.50566E-02         0.00000E+00
    0.50573E-02        -0.49425E-02         0.00000E+00
    0.49891E-02        -0.48285E-02         0.00000E+00
    0.49188E-02        -0.47146E-02         0.00000E+00
    0.48464E-02        -0.46008E-02         0.00000E+00
    0.47720E-02        -0.44870E-02         0.00000E+00
    0.46955E-02        -0.43734E-02         0.00000E+00
    0.46171E-02        -0.42600E-02         0.00000E+00
    0.45367E-02        -0.41467E-02         0.00000E+00
    0.44543E-02        -0.40336E-02         0.00000E+00
    0.43699E-02        -0.39206E-02         0.00000E+00
    0.42835E-02        -0.38079E-02         0.00000E+00
    0.41953E-02        -0.36954E-02         0.00000E+00
    0.41051E-02        -0.35831E-02         0.00000E+00
    0.40130E-02        -0.34710E-02         0.00000E+00
    0.39189E-02        -0.33592E-02         0.00000E+00
    0.38231E-02        -0.32477E-02         0.00000E+00
    0.37253E-02        -0.31365E-02         0.00000E+00
    0.36257E-02        -0.30256E-02         0.00000E+00
    0.35242E-02        -0.29150E-02         0.00000E+00
    0.34210E-02        -0.28047E-02         0.00000E+00
    0.33159E-02        -0.26948E-02         0.00000E+00
    0.32090E-02        -0.25852E-02         0.00000E+00
    0.31004E-02        -0.24760E-02         0.00000E+00
    0.29899E-02        -0.23672E-02         0.00000E+00
    0.28778E-02        -0.22588E-02         0.00000E+00
    0.27639E-02        -0.21507E-02         0.00000E+00
    0.26483E-02        -0.20432E-02         0.00000E+00
    0.25309E-02        -0.19360E-02         0.00000E+00
    0.24119E-02        -0.18293E-02         0.00000E+00
    0.22913E-02        -0.17231E-02         0.00000E+00
    0.21689E-02        -0.16174E-02         0.00000E+00
    0.20450E-02        -0.15121E-02         0.00000E+00
    0.19194E-02        -0.14073E-02         0.00000E+00
    0.17922E-02        -0.13031E-02         0.00000E+00
    0.16634E-02        -0.11994E-02         0.00000E+00
    0.15330E-02        -0.10962E-02         0.00000E+00
    0.14011E-02        -0.99355E-03         0.00000E+00
    0.12677E-02        -0.89148E-03         0.00000E+00
    0.11327E-02        -0.78998E-03         0.00000E+00
    0.99620E-03        -0.68907E-03         0.00000E+00
    0.85822E-03        -0.58875E-03         0.00000E+00
    0.71877E-03        -0.48904E-03         0.00000E+00
    0.57786E-03        -0.38995E-03         0.00000E+00
    0.43551E-03        -0.29149E-03         0.00000E+00
    0.29174E-03        -0.19367E-03         0.00000E+00
    0.14656E-03        -0.96506E-04         0.00000E+00
    0.00000E+00         0.00000E+00         0.00000E+00
    0.55570E-02        -0.57000E-02         0.00000E+00
    0.54943E-02        -0.55795E-02         0.00000E+00
    0.54294E-02        -0.54591E-02         0.00000E+00
    0.53623E-02        -0.53387E-02         0.00000E+00
    0.52930E-02        -0.52184E-02         0.00000E+00
    0.52215E-02        -0.50981E-02         0.00000E+00
    0.51479E-02        -0.49779E-02         0.00000E+00
    0.50721E-02        -0.48579E-02         0.00000E+00
    0.49943E-02        -0.47379E-02         0.00000E+00
    0.49143E-02        -0.46180E-02         0.00000E+00
    0.48322E-02        -0.44983E-02         0.00000E+00
    0.47480E-02        -0.43788E-02         0.00000E+00
    0.46617E-02        -0.42594E-02         0.00000E+00
    0.45734E-02        -0.41403E-02         0.00000E+00
    0.44831E-02        -0.40213E-02         0.00000E+00
    0.43907E-02        -0.39026E-02         0.00000E+00
    0.42963E-02        -0.37841E-02         0.00000E+00
    0.41999E-02        -0.36659E-02         0.00000E+00
    0.41015E-02        -0.35479E-02         0.00000E+00
    0.40011E-02        -0.34302E-02         0.00000E+00
    0.38988E-02        -0.33128E-02         0.00000E+00
    0.37946E-02        -0.31958E-02         0.00000E+00
    0.36884E-02        -0.30790E-02         0.00000E+00
    0.35803E-02        -0.29626E-02         0.00000E+00
    0.34704E-02        -0.28466E-02         0.00000E+00
    0.33585E-02        -0.27309E-02         0.00000E+00
    0.32448E-02        -0.26157E-02         0.00000E+00
    0.31292E-02        -0.25008E-02         0.00000E+00
    0.30119E-02        -0.23863E-02         0.00000E+00
    0.28927E-02        -0.22723E-02         0.00000E+00
    0.27717E-02        -0.21587E-02         0.00000E+00
    0.26489E-02        -0.20456E-02         0.00000E+00
    0.25243E-02        -0.19329E-02         0.00000E+00
    0.23981E-02        -0.18208E-02         0.00000E+00
    0.22700E-02        -0.17091E-02         0.00000E+00
    0.21403E-02        -0.15979E-02         0.00000E+00
    0.20089E-02        -0.14872E-02         0.00000E+00
    0.18757E-02        -0.13771E-02         0.00000E+00
    0.17409E-02        -0.12676E-02         0.00000E+00
    0.16045E-02        -0.11586E-02         0.00000E+00
    0.14665E-02        -0.10501E-02         0.00000E+00
    0.13268E-02        -0.94228E-03         0.00000E+00
    0.11855E-02        -0.83503E-03         0.00000E+00
    0.10427E-02        -0.72839E-03         0.00000E+00
    0.89825E-03        -0.62238E-03         0.00000E+00
    0.75229E-03        -0.51700E-03         0.00000E+00
    0.60481E-03        -0.41226E-03         0.00000E+00
    0.45583E-03        -0.30818E-03         0.00000E+00
    0.30535E-03        -0.20477E-03         0.00000E+00
    0.15340E-03        -0.10204E-03         0.00000E+00
    0.00000E+00         0.00000E+00         0.00000E+00
    0.58162E-02        -0.60152E-02         0.00000E+00
    0.57505E-02        -0.58882E-02         0.00000E+00
    0.56825E-02        -0.57612E-02         0.00000E+00
    0.56122E-02        -0.56343E-02         0.00000E+00
    0.55397E-02        -0.55074E-02         0.00000E+00
    0.54648E-02        -0.53805E-02         0.00000E+00
    0.53877E-02        -0.52538E-02         0.00000E+00
    0.53084E-02        -0.51271E-02         0.00000E+00
    0.52269E-02        -0.50006E-02         0.00000E+00
    0.51431E-02        -0.48742E-02         0.00000E+00
    0.50572E-02        -0.47480E-02         0.00000E+00
    0.49691E-02        -0.46219E-02         0.00000E+00
    0.48788E-02        -0.44960E-02         0.00000E+00
    0.47863E-02        -0.43703E-02         0.00000E+00
    0.46917E-02        -0.42449E-02         0.00000E+00
    0.45950E-02        -0.41196E-02         0.00000E+00
    0.44962E-02        -0.39947E-02         0.00000E+00
    0.43953E-02        -0.38699E-02         0.00000E+00
    0.42924E-02        -0.37455E-02         0.00000E+00
    0.41873E-02        -0.36214E-02         0.00000E+00
    0.40802E-02        -0.34975E-02         0.00000E+00
    0.39711E-02        -0.33740E-02         0.00000E+00
    0.38600E-02        -0.32509E-02         0.00000E+00
    0.37469E-02        -0.31281E-02         0.00000E+00
    0.36318E-02        -0.30056E-02         0.00000E+00
    0.35148E-02        -0.28836E-02         0.00000E+00
    0.33958E-02        -0.27620E-02         0.00000E+00
    0.32748E-02        -0.26408E-02         0.00000E+00
    0.31520E-02        -0.25200E-02         0.00000E+00
    0.30272E-02        -0.23996E-02         0.00000E+00
    0.29006E-02        -0.22798E-02         0.00000E+00
    0.27721E-02        -0.21604E-02         0.00000E+00
    0.26418E-02        -0.20414E-02         0.00000E+00
    0.25096E-02        -0.19230E-02         0.00000E+00
    0.23756E-02        -0.18051E-02         0.00000E+00
    0.22399E-02        -0.16878E-02         0.00000E+00
    0.21023E-02        -0.15710E-02         0.00000E+00
    0.19630E-02        -0.14547E-02         0.00000E+00
    0.18220E-02        -0.13390E-02         0.00000E+00
    0.16792E-02        -0.12239E-02         0.00000E+00
    0.15347E-02        -0.11094E-02         0.00000E+00
    0.13885E-02        -0.99550E-03         0.00000E+00
    0.12407E-02        -0.88223E-03         0.00000E+00
    0.10912E-02        -0.76959E-03         0.00000E+00
    0.94006E-03        -0.65760E-03         0.00000E+00
    0.78731E-03        -0.54628E-03         0.00000E+00
    0.63297E-03        -0.43563E-03         0.00000E+00
    0.47705E-03        -0.32566E-03         0.00000E+00
    0.31957E-03        -0.21639E-03         0.00000E+00
    0.16054E-03        -0.10784E-03         0.00000E+00
    0.00000E+00         0.00000E+00         0.00000E+00
    0.60876E-02        -0.63455E-02         0.00000E+00
    0.60187E-02        -0.62116E-02         0.00000E+00
    0.59475E-02        -0.60777E-02         0.00000E+00
    0.58739E-02        -0.59439E-02         0.00000E+00
    0.57978E-02        -0.58101E-02         0.00000E+00
    0.57195E-02        -0.56764E-02         0.00000E+00
    0.56387E-02        -0.55428E-02         0.00000E+00
    0.55557E-02        -0.54093E-02         0.00000E+00
    0.54703E-02        -0.52759E-02         0.00000E+00
    0.53826E-02        -0.51426E-02         0.00000E+00
    0.52926E-02        -0.50095E-02         0.00000E+00
    0.52003E-02        -0.48766E-02         0.00000E+00
    0.51058E-02        -0.47439E-02         0.00000E+00
    0.50090E-02        -0.46114E-02         0.00000E+00
    0.49100E-02        -0.44791E-02         0.00000E+00
    0.48087E-02        -0.43471E-02         0.00000E+00
    0.47053E-02        -0.42153E-02         0.00000E+00
    0.45997E-02        -0.40838E-02         0.00000E+00
    0.44919E-02        -0.39526E-02         0.00000E+00
    0.43820E-02        -0.38217E-02         0.00000E+00
    0.42699E-02        -0.36911E-02         0.00000E+00
    0.41557E-02        -0.35608E-02         0.00000E+00
    0.40394E-02        -0.34309E-02         0.00000E+00
    0.39210E-02        -0.33014E-02         0.00000E+00
    0.38006E-02        -0.31723E-02         0.00000E+00
    0.36781E-02        -0.30436E-02         0.00000E+00
    0.35535E-02        -0.29153E-02         0.00000E+00
    0.34270E-02        -0.27874E-02         0.00000E+00
    0.32984E-02        -0.26600E-02         0.00000E+00
    0.31678E-02        -0.25331E-02         0.00000E+00
    0.30353E-02        -0.24066E-02         0.00000E+00
    0.29009E-02        -0.22806E-02         0.00000E+00
    0.27645E-02        -0.21552E-02         0.00000E+00
    0.26262E-02        -0.20302E-02         0.00000E+00
    0.24860E-02        -0.19058E-02         0.00000E+00
    0.23439E-02        -0.17820E-02         0.00000E+00
    0.22000E-02        -0.16587E-02         0.00000E+00
    0.20542E-02        -0.15360E-02         0.00000E+00
    0.19066E-02        -0.14139E-02         0.00000E+00
    0.17572E-02        -0.12924E-02         0.00000E+00
    0.16060E-02        -0.11715E-02         0.00000E+00
    0.14530E-02        -0.10513E-02         0.00000E+00
    0.12983E-02        -0.93169E-03         0.00000E+00
    0.11419E-02        -0.81277E-03         0.00000E+00
    0.98372E-03        -0.69453E-03         0.00000E+00
    0.82388E-03        -0.57697E-03         0.00000E+00
    0.66237E-03        -0.46012E-03         0.00000E+00
    0.49921E-03        -0.34398E-03         0.00000E+00
    0.33441E-03        -0.22858E-03         0.00000E+00
    0.16800E-03        -0.11391E-03         0.00000E+00
    0.00000E+00         0.00000E+00         0.00000E+00
    0.63716E-02        -0.66917E-02         0.00000E+00
    0.62995E-02        -0.65506E-02         0.00000E+00
    0.62248E-02        -0.64095E-02         0.00000E+00
    0.61476E-02        -0.62684E-02         0.00000E+00
    0.60680E-02        -0.61275E-02         0.00000E+00
    0.59859E-02        -0.59865E-02         0.00000E+00
    0.59013E-02        -0.58457E-02         0.00000E+00
    0.58143E-02        -0.57050E-02         0.00000E+00
    0.57248E-02        -0.55644E-02         0.00000E+00
    0.56330E-02        -0.54240E-02         0.00000E+00
    0.55387E-02        -0.52837E-02         0.00000E+00
    0.54421E-02        -0.51436E-02         0.00000E+00
    0.53431E-02        -0.50038E-02         0.00000E+00
    0.52418E-02        -0.48641E-02         0.00000E+00
    0.51381E-02        -0.47247E-02         0.00000E+00
    0.50321E-02        -0.45855E-02         0.00000E+00
    0.49239E-02        -0.44466E-02         0.00000E+00
    0.48133E-02        -0.43079E-02         0.00000E+00
    0.47005E-02        -0.41696E-02         0.00000E+00
    0.45854E-02        -0.40316E-02         0.00000E+00
    0.44681E-02        -0.38940E-02         0.00000E+00
    0.43486E-02        -0.37567E-02         0.00000E+00
    0.42268E-02        -0.36197E-02         0.00000E+00
    0.41029E-02        -0.34832E-02         0.00000E+00
    0.39769E-02        -0.33470E-02         0.00000E+00
    0.38487E-02        -0.32113E-02         0.00000E+00
    0.37183E-02        -0.30760E-02         0.00000E+00
    0.35859E-02        -0.29412E-02         0.00000E+00
    0.34513E-02        -0.28069E-02         0.00000E+00
    0.33147E-02        -0.26730E-02         0.00000E+00
    0.31761E-02        -0.25396E-02         0.00000E+00
    0.30354E-02        -0.24067E-02         0.00000E+00
    0.28926E-02        -0.22744E-02         0.00000E+00
    0.27479E-02        -0.21426E-02         0.00000E+00
    0.26012E-02        -0.20114E-02         0.00000E+00
    0.24525E-02        -0.18807E-02         0.00000E+00
    0.23019E-02        -0.17507E-02         0.00000E+00
    0.21494E-02        -0.16212E-02         0.00000E+00
    0.19949E-02        -0.14924E-02         0.00000E+00
    0.18386E-02        -0.13642E-02         0.00000E+00
    0.16804E-02        -0.12367E-02         0.00000E+00
    0.15204E-02        -0.11098E-02         0.00000E+00
    0.13585E-02        -0.98357E-03         0.00000E+00
    0.11948E-02        -0.85806E-03         0.00000E+00
    0.10293E-02        -0.73325E-03         0.00000E+00
    0.86207E-03        -0.60916E-03         0.00000E+00
    0.69308E-03        -0.48581E-03         0.00000E+00
    0.52235E-03        -0.36320E-03         0.00000E+00
    0.34992E-03        -0.24136E-03         0.00000E+00
    0.17579E-03        -0.12029E-03         0.00000E+00
    0.00000E+00         0.00000E+00         0.00000E+00
    0.66689E-02        -0.70546E-02         0.00000E+00
    0.65932E-02        -0.69060E-02         0.00000E+00
    0.65149E-02        -0.67573E-02         0.00000E+00
    0.64341E-02        -0.66087E-02         0.00000E+00
    0.63506E-02        -0.64602E-02         0.00000E+00
    0.62645E-02        -0.63117E-02         0.00000E+00
    0.61759E-02        -0.61634E-02         0.00000E+00
    0.60847E-02        -0.60151E-02         0.00000E+00
    0.59910E-02        -0.58670E-02         0.00000E+00
    0.58948E-02        -0.57190E-02         0.00000E+00
    0.57961E-02        -0.55712E-02         0.00000E+00
    0.56949E-02        -0.54236E-02         0.00000E+00
    0.55913E-02        -0.52762E-02         0.00000E+00
    0.54851E-02        -0.51291E-02         0.00000E+00
    0.53766E-02        -0.49822E-02         0.00000E+00
    0.52656E-02        -0.48355E-02         0.00000E+00
    0.51523E-02        -0.46891E-02         0.00000E+00
    0.50365E-02        -0.45430E-02         0.00000E+00
    0.49184E-02        -0.43973E-02         0.00000E+00
    0.47979E-02        -0.42518E-02         0.00000E+00
    0.46752E-02        -0.41068E-02         0.00000E+00
    0.45500E-02        -0.39621E-02         0.00000E+00
    0.44227E-02        -0.38177E-02         0.00000E+00
    0.42930E-02        -0.36738E-02         0.00000E+00
    0.41610E-02        -0.35303E-02         0.00000E+00
    0.40269E-02        -0.33873E-02         0.00000E+00
    0.38905E-02        -0.32447E-02         0.00000E+00
    0.37519E-02        -0.31025E-02         0.00000E+00
    0.36111E-02        -0.29609E-02         0.00000E+00
    0.34681E-02        -0.28197E-02         0.00000E+00
    0.33230E-02        -0.26791E-02         0.00000E+00
    0.31758E-02        -0.25390E-02         0.00000E+00
    0.30265E-02        -0.23995E-02         0.00000E+00
    0.28750E-02        -0.22605E-02         0.00000E+00
    0.27215E-02        -0.21221E-02         0.00000E+00
    0.25660E-02        -0.19844E-02         0.00000E+00
    0.24084E-02        -0.18472E-02         0.00000E+00
    0.22488E-02        -0.17107E-02         0.00000E+00
    0.20872E-02        -0.15748E-02         0.00000E+00
    0.19236E-02        -0.14396E-02         0.00000E+00
    0.17581E-02        -0.13050E-02         0.00000E+00
    0.15907E-02        -0.11712E-02         0.00000E+00
    0.14213E-02        -0.10380E-02         0.00000E+00
    0.12501E-02        -0.90558E-03         0.00000E+00
    0.10769E-02        -0.77389E-03         0.00000E+00
    0.90194E-03        -0.64295E-03         0.00000E+00
    0.72513E-03        -0.51277E-03         0.00000E+00
    0.54651E-03        -0.38337E-03         0.00000E+00
    0.36610E-03        -0.25477E-03         0.00000E+00
    0.18392E-03        -0.12697E-03         0.00000E+00
    0.00000E+00         0.00000E+00         0.00000E+00
    0.69797E-02        -0.74353E-02         0.00000E+00
    0.69004E-02        -0.72787E-02         0.00000E+00
    0.68183E-02        -0.71221E-02         0.00000E+00
    0.67335E-02        -0.69656E-02         0.00000E+00
    0.66460E-02        -0.68092E-02         0.00000E+00
    0.65558E-02        -0.66528E-02         0.00000E+00
    0.64630E-02        -0.64965E-02         0.00000E+00
    0.63675E-02        -0.63404E-02         0.00000E+00
    0.62693E-02        -0.61843E-02         0.00000E+00
    0.61685E-02        -0.60285E-02         0.00000E+00
    0.60651E-02        -0.58728E-02         0.00000E+00
    0.59591E-02        -0.57173E-02         0.00000E+00
    0.58505E-02        -0.55621E-02         0.00000E+00
    0.57394E-02        -0.54070E-02         0.00000E+00
    0.56257E-02        -0.52523E-02         0.00000E+00
    0.55096E-02        -0.50978E-02         0.00000E+00
    0.53909E-02        -0.49436E-02         0.00000E+00
    0.52697E-02        -0.47897E-02         0.00000E+00
    0.51461E-02        -0.46361E-02         0.00000E+00
    0.50200E-02        -0.44829E-02         0.00000E+00
    0.48914E-02        -0.43300E-02         0.00000E+00
    0.47605E-02        -0.41776E-02         0.00000E+00
    0.46272E-02        -0.40255E-02         0.00000E+00
    0.44914E-02        -0.38738E-02         0.00000E+00
    0.43534E-02        -0.37226E-02         0.00000E+00
    0.42130E-02        -0.35719E-02         0.00000E+00
    0.40702E-02        -0.34216E-02         0.00000E+00
    0.39252E-02        -0.32718E-02         0.00000E+00
    0.37779E-02        -0.31225E-02         0.00000E+00
    0.36283E-02        -0.29737E-02         0.00000E+00
    0.34765E-02        -0.28255E-02         0.00000E+00
    0.33224E-02        -0.26779E-02         0.00000E+00
    0.31662E-02        -0.25308E-02         0.00000E+00
    0.30078E-02        -0.23843E-02         0.00000E+00
    0.28472E-02        -0.22384E-02         0.00000E+00
    0.26844E-02        -0.20931E-02         0.00000E+00
    0.25195E-02        -0.19485E-02         0.00000E+00
    0.23526E-02        -0.18045E-02         0.00000E+00
    0.21835E-02        -0.16613E-02         0.00000E+00
    0.20124E-02        -0.15187E-02         0.00000E+00
    0.18392E-02        -0.13768E-02         0.00000E+00
    0.16641E-02        -0.12356E-02         0.00000E+00
    0.14869E-02        -0.10952E-02         0.00000E+00
    0.13077E-02        -0.95547E-03         0.00000E+00
    0.11266E-02        -0.81655E-03         0.00000E+00
    0.94356E-03        -0.67841E-03         0.00000E+00
    0.75859E-03        -0.54108E-03         0.00000E+00
    0.57173E-03        -0.40455E-03         0.00000E+00
    0.38299E-03        -0.26885E-03         0.00000E+00
    0.19241E-03        -0.13400E-03         0.00000E+00
    0.00000E+00         0.00000E+00         0.00000E+00
    0.73048E-02        -0.78346E-02         0.00000E+00
    0.72216E-02        -0.76697E-02         0.00000E+00
    0.71355E-02        -0.75048E-02         0.00000E+00
    0.70466E-02        -0.73400E-02         0.00000E+00
    0.69549E-02        -0.71752E-02         0.00000E+00
    0.68603E-02        -0.70106E-02         0.00000E+00
    0.67630E-02        -0.68460E-02         0.00000E+00
    0.66629E-02        -0.66816E-02         0.00000E+00
    0.65600E-02        -0.65173E-02         0.00000E+00
    0.64544E-02        -0.63532E-02         0.00000E+00
    0.63461E-02        -0.61892E-02         0.00000E+00
    0.62351E-02        -0.60255E-02         0.00000E+00
    0.61214E-02        -0.58620E-02         0.00000E+00
    0.60050E-02        -0.56987E-02         0.00000E+00
    0.58860E-02        -0.55357E-02         0.00000E+00
    0.57643E-02        -0.53730E-02         0.00000E+00
    0.56401E-02        -0.52106E-02         0.00000E+00
    0.55132E-02        -0.50485E-02         0.00000E+00
    0.53838E-02        -0.48867E-02         0.00000E+00
    0.52518E-02        -0.47253E-02         0.00000E+00
    0.51173E-02        -0.45643E-02         0.00000E+00
    0.49802E-02        -0.44037E-02         0.00000E+00
    0.48407E-02        -0.42435E-02         0.00000E+00
    0.46986E-02        -0.40837E-02         0.00000E+00
    0.45541E-02        -0.39244E-02         0.00000E+00
    0.44072E-02        -0.37656E-02         0.00000E+00
    0.42579E-02        -0.36073E-02         0.00000E+00
    0.41061E-02        -0.34495E-02         0.00000E+00
    0.39520E-02        -0.32922E-02         0.00000E+00
    0.37955E-02        -0.31354E-02         0.00000E+00
    0.36366E-02        -0.29792E-02         0.00000E+00
    0.34755E-02        -0.28236E-02         0.00000E+00
    0.33120E-02        -0.26686E-02         0.00000E+00
    0.31462E-02        -0.25142E-02         0.00000E+00
    0.29782E-02        -0.23604E-02         0.00000E+00
    0.28080E-02        -0.22073E-02         0.00000E+00
    0.26355E-02        -0.20549E-02         0.00000E+00
    0.24609E-02        -0.19031E-02         0.00000E+00
    0.22840E-02        -0.17521E-02         0.00000E+00
    0.21050E-02        -0.16017E-02         0.00000E+00
    0.19239E-02        -0.14521E-02         0.00000E+00
    0.17406E-02        -0.13033E-02         0.00000E+00
    0.15553E-02        -0.11552E-02         0.00000E+00
    0.13679E-02        -0.10079E-02         0.00000E+00
    0.11785E-02        -0.86135E-03         0.00000E+00
    0.98697E-03        -0.71566E-03         0.00000E+00
    0.79350E-03        -0.57081E-03         0.00000E+00
    0.59804E-03        -0.42680E-03         0.00000E+00
    0.40062E-03        -0.28365E-03         0.00000E+00
    0.20127E-03        -0.14138E-03         0.00000E+00
    0.00000E+00         0.00000E+00         0.00000E+00
    0.76445E-02        -0.82535E-02         0.00000E+00
    0.75572E-02        -0.80799E-02         0.00000E+00
    0.74669E-02        -0.79063E-02         0.00000E+00
    0.73737E-02        -0.77328E-02         0.00000E+00
    0.72775E-02        -0.75594E-02         0.00000E+00
    0.71784E-02        -0.73860E-02         0.00000E+00
    0.70764E-02        -0.72127E-02         0.00000E+00
    0.69714E-02        -0.70396E-02         0.00000E+00
    0.68637E-02        -0.68666E-02         0.00000E+00
    0.67530E-02        -0.66938E-02         0.00000E+00
    0.66396E-02        -0.65212E-02         0.00000E+00
    0.65233E-02        -0.63488E-02         0.00000E+00
    0.64042E-02        -0.61767E-02         0.00000E+00
    0.62823E-02        -0.60048E-02         0.00000E+00
    0.61577E-02        -0.58331E-02         0.00000E+00
    0.60303E-02        -0.56618E-02         0.00000E+00
    0.59002E-02        -0.54908E-02         0.00000E+00
    0.57674E-02        -0.53201E-02         0.00000E+00
    0.56319E-02        -0.51497E-02         0.00000E+00
    0.54937E-02        -0.49798E-02         0.00000E+00
    0.53529E-02        -0.48102E-02         0.00000E+00
    0.52095E-02        -0.46411E-02         0.00000E+00
    0.50635E-02        -0.44724E-02         0.00000E+00
    0.49148E-02        -0.43041E-02         0.00000E+00
    0.47636E-02        -0.41363E-02         0.00000E+00
    0.46099E-02        -0.39690E-02         0.00000E+00
    0.44536E-02        -0.38022E-02         0.00000E+00
    0.42948E-02        -0.36360E-02         0.00000E+00
    0.41336E-02        -0.34703E-02         0.00000E+00
    0.39699E-02        -0.33051E-02         0.00000E+00
    0.38037E-02        -0.31406E-02         0.00000E+00
    0.36351E-02        -0.29766E-02         0.00000E+00
    0.34641E-02        -0.28133E-02         0.00000E+00
    0.32907E-02        -0.26506E-02         0.00000E+00
    0.31150E-02        -0.24886E-02         0.00000E+00
    0.29369E-02        -0.23272E-02         0.00000E+00
    0.27565E-02        -0.21666E-02         0.00000E+00
    0.25738E-02        -0.20066E-02         0.00000E+00
    0.23888E-02        -0.18474E-02         0.00000E+00
    0.22016E-02        -0.16890E-02         0.00000E+00
    0.20122E-02        -0.15313E-02         0.00000E+00
    0.18205E-02        -0.13743E-02         0.00000E+00
    0.16267E-02        -0.12182E-02         0.00000E+00
    0.14307E-02        -0.10629E-02         0.00000E+00
    0.12325E-02        -0.90843E-03         0.00000E+00
    0.10323E-02        -0.75480E-03         0.00000E+00
    0.82990E-03        -0.60204E-03         0.00000E+00
    0.62548E-03        -0.45017E-03         0.00000E+00
    0.41900E-03        -0.29919E-03         0.00000E+00
    0.21050E-03        -0.14913E-03         0.00000E+00
    0.00000E+00         0.00000E+00         0.00000E+00
    0.79994E-02        -0.86930E-02         0.00000E+00
    0.79078E-02        -0.85103E-02         0.00000E+00
    0.78130E-02        -0.83277E-02         0.00000E+00
    0.77153E-02        -0.81450E-02         0.00000E+00
    0.76144E-02        -0.79624E-02         0.00000E+00
    0.75105E-02        -0.77800E-02         0.00000E+00
    0.74035E-02        -0.75976E-02         0.00000E+00
    0.72936E-02        -0.74154E-02         0.00000E+00
    0.71806E-02        -0.72333E-02         0.00000E+00
    0.70647E-02        -0.70514E-02         0.00000E+00
    0.69458E-02        -0.68697E-02         0.00000E+00
    0.68240E-02        -0.66882E-02         0.00000E+00
    0.66993E-02        -0.65070E-02         0.00000E+00
    0.65717E-02        -0.63260E-02         0.00000E+00
    0.64412E-02        -0.61454E-02         0.00000E+00
    0.63078E-02        -0.59650E-02         0.00000E+00
    0.61716E-02        -0.57849E-02         0.00000E+00
    0.60326E-02        -0.56052E-02         0.00000E+00
    0.58908E-02        -0.54259E-02         0.00000E+00
    0.57461E-02        -0.52470E-02         0.00000E+00
    0.55988E-02        -0.50684E-02         0.00000E+00
    0.54487E-02        -0.48903E-02         0.00000E+00
    0.52959E-02        -0.47127E-02         0.00000E+00
    0.51403E-02        -0.45355E-02         0.00000E+00
    0.49821E-02        -0.43588E-02         0.00000E+00
    0.48213E-02        -0.41826E-02         0.00000E+00
    0.46578E-02        -0.40070E-02         0.00000E+00
    0.44917E-02        -0.38319E-02         0.00000E+00
    0.43230E-02        -0.36573E-02         0.00000E+00
    0.41517E-02        -0.34834E-02         0.00000E+00
    0.39779E-02        -0.33101E-02         0.00000E+00
    0.38015E-02        -0.31374E-02         0.00000E+00
    0.36227E-02        -0.29653E-02         0.00000E+00
    0.34413E-02        -0.27939E-02         0.00000E+00
    0.32575E-02        -0.26232E-02         0.00000E+00
    0.30713E-02        -0.24532E-02         0.00000E+00
    0.28826E-02        -0.22839E-02         0.00000E+00
    0.26915E-02        -0.21154E-02         0.00000E+00
    0.24981E-02        -0.19476E-02         0.00000E+00
    0.23023E-02        -0.17806E-02         0.00000E+00
    0.21042E-02        -0.16144E-02         0.00000E+00
    0.19038E-02        -0.14490E-02         0.00000E+00
    0.17011E-02        -0.12845E-02         0.00000E+00
    0.14961E-02        -0.11207E-02         0.00000E+00
    0.12889E-02        -0.95789E-03         0.00000E+00
    0.10795E-02        -0.79593E-03         0.00000E+00
    0.86785E-03        -0.63487E-03         0.00000E+00
    0.65408E-03        -0.47473E-03         0.00000E+00
    0.43816E-03        -0.31553E-03         0.00000E+00
    0.22013E-03        -0.15728E-03         0.00000E+00
    0.00000E+00         0.00000E+00         0.00000E+00
    0.83699E-02        -0.91543E-02         0.00000E+00
    0.82737E-02        -0.89621E-02         0.00000E+00
    0.81744E-02        -0.87698E-02         0.00000E+00
    0.80718E-02        -0.85776E-02         0.00000E+00
    0.79660E-02        -0.83855E-02         0.00000E+00
    0.78571E-02        -0.81935E-02         0.00000E+00
    0.77450E-02        -0.80016E-02         0.00000E+00
    0.76297E-02        -0.78098E-02         0.00000E+00
    0.75114E-02        -0.76182E-02         0.00000E+00
    0.73899E-02        -0.74267E-02         0.00000E+00
    0.72654E-02        -0.72355E-02         0.00000E+00
    0.71378E-02        -0.70445E-02         0.00000E+00
    0.70072E-02        -0.68538E-02         0.00000E+00
    0.68735E-02        -0.66633E-02         0.00000E+00
    0.67369E-02        -0.64731E-02         0.00000E+00
    0.65972E-02        -0.62833E-02         0.00000E+00
    0.64547E-02        -0.60938E-02         0.00000E+00
    0.63091E-02        -0.59046E-02         0.00000E+00
    0.61607E-02        -0.57158E-02         0.00000E+00
    0.60093E-02        -0.55275E-02         0.00000E+00
    0.58551E-02        -0.53395E-02         0.00000E+00
    0.56980E-02        -0.51520E-02         0.00000E+00
    0.55381E-02        -0.49650E-02         0.00000E+00
    0.53754E-02        -0.47785E-02         0.00000E+00
    0.52099E-02        -0.45924E-02         0.00000E+00
    0.50416E-02        -0.44069E-02         0.00000E+00
    0.48706E-02        -0.42220E-02         0.00000E+00
    0.46969E-02        -0.40376E-02         0.00000E+00
    0.45204E-02        -0.38538E-02         0.00000E+00
    0.43413E-02        -0.36707E-02         0.00000E+00
    0.41595E-02        -0.34881E-02         0.00000E+00
    0.39750E-02        -0.33062E-02         0.00000E+00
    0.37880E-02        -0.31250E-02         0.00000E+00
    0.35983E-02        -0.29445E-02         0.00000E+00
    0.34061E-02        -0.27647E-02         0.00000E+00
    0.32113E-02        -0.25856E-02         0.00000E+00
    0.30140E-02        -0.24072E-02         0.00000E+00
    0.28143E-02        -0.22297E-02         0.00000E+00
    0.26120E-02        -0.20529E-02         0.00000E+00
    0.24073E-02        -0.18769E-02         0.00000E+00
    0.22001E-02        -0.17018E-02         0.00000E+00
    0.19905E-02        -0.15275E-02         0.00000E+00
    0.17786E-02        -0.13541E-02         0.00000E+00
    0.15643E-02        -0.11815E-02         0.00000E+00
    0.13476E-02        -0.10099E-02         0.00000E+00
    0.11287E-02        -0.83917E-03         0.00000E+00
    0.90740E-03        -0.66938E-03         0.00000E+00
    0.68388E-03        -0.50056E-03         0.00000E+00
    0.45813E-03        -0.33271E-03         0.00000E+00
    0.23016E-03        -0.16585E-03         0.00000E+00
    0.00000E+00         0.00000E+00         0.00000E+00
    0.87565E-02        -0.96385E-02         0.00000E+00
    0.86556E-02        -0.94362E-02         0.00000E+00
    0.85514E-02        -0.92339E-02         0.00000E+00
    0.84438E-02        -0.90317E-02         0.00000E+00
    0.83329E-02        -0.88296E-02         0.00000E+00
    0.82186E-02        -0.86275E-02         0.00000E+00
    0.81011E-02        -0.84256E-02         0.00000E+00
    0.79803E-02        -0.82238E-02         0.00000E+00
    0.78563E-02        -0.80222E-02         0.00000E+00
    0.77291E-02        -0.78208E-02         0.00000E+00
    0.75986E-02        -0.76195E-02         0.00000E+00
    0.74650E-02        -0.74186E-02         0.00000E+00
    0.73282E-02        -0.72179E-02         0.00000E+00
    0.71882E-02        -0.70174E-02         0.00000E+00
    0.70451E-02        -0.68173E-02         0.00000E+00
    0.68989E-02        -0.66175E-02         0.00000E+00
    0.67497E-02        -0.64181E-02         0.00000E+00
    0.65974E-02        -0.62190E-02         0.00000E+00
    0.64420E-02        -0.60203E-02         0.00000E+00
    0.62836E-02        -0.58221E-02         0.00000E+00
    0.61223E-02        -0.56243E-02         0.00000E+00
    0.59579E-02        -0.54269E-02         0.00000E+00
    0.57906E-02        -0.52300E-02         0.00000E+00
    0.56204E-02        -0.50337E-02         0.00000E+00
    0.54472E-02        -0.48379E-02         0.00000E+00
    0.52712E-02        -0.46426E-02         0.00000E+00
    0.50923E-02        -0.44479E-02         0.00000E+00
    0.49106E-02        -0.42538E-02         0.00000E+00
    0.47261E-02        -0.40603E-02         0.00000E+00
    0.45387E-02        -0.38674E-02         0.00000E+00
    0.43486E-02        -0.36752E-02         0.00000E+00
    0.41557E-02        -0.34836E-02         0.00000E+00
    0.39601E-02        -0.32928E-02         0.00000E+00
    0.37618E-02        -0.31027E-02         0.00000E+00
    0.35608E-02        -0.29133E-02         0.00000E+00
    0.33572E-02        -0.27247E-02         0.00000E+00
    0.31509E-02        -0.25368E-02         0.00000E+00
    0.29420E-02        -0.23498E-02         0.00000E+00
    0.27306E-02        -0.21636E-02         0.00000E+00
    0.25165E-02        -0.19782E-02         0.00000E+00
    0.23000E-02        -0.17937E-02         0.00000E+00
    0.20809E-02        -0.16100E-02         0.00000E+00
    0.18593E-02        -0.14273E-02         0.00000E+00
    0.16353E-02        -0.12454E-02         0.00000E+00
    0.14088E-02        -0.10646E-02         0.00000E+00
    0.11799E-02        -0.88463E-03         0.00000E+00
    0.94858E-03        -0.70567E-03         0.00000E+00
    0.71492E-03        -0.52771E-03         0.00000E+00
    0.47892E-03        -0.35077E-03         0.00000E+00
    0.24061E-03        -0.17486E-03         0.00000E+00
    0.00000E+00         0.00000E+00         0.00000E+00
    0.91598E-02        -0.10147E-01         0.00000E+00
    0.90539E-02        -0.99339E-02         0.00000E+00
    0.89445E-02        -0.97211E-02         0.00000E+00
    0.88317E-02        -0.95084E-02         0.00000E+00
    0.87154E-02        -0.92957E-02         0.00000E+00
    0.85956E-02        -0.90832E-02         0.00000E+00
    0.84724E-02        -0.88707E-02         0.00000E+00
    0.83458E-02        -0.86585E-02         0.00000E+00
    0.82158E-02        -0.84464E-02         0.00000E+00
    0.80825E-02        -0.82344E-02         0.00000E+00
    0.79459E-02        -0.80228E-02         0.00000E+00
    0.78059E-02        -0.78113E-02         0.00000E+00
    0.76626E-02        -0.76001E-02         0.00000E+00
    0.75161E-02        -0.73893E-02         0.00000E+00
    0.73663E-02        -0.71787E-02         0.00000E+00
    0.72133E-02        -0.69685E-02         0.00000E+00
    0.70570E-02        -0.67586E-02         0.00000E+00
    0.68976E-02        -0.65492E-02         0.00000E+00
    0.67350E-02        -0.63401E-02         0.00000E+00
    0.65693E-02        -0.61315E-02         0.00000E+00
    0.64005E-02        -0.59233E-02         0.00000E+00
    0.62285E-02        -0.57156E-02         0.00000E+00
    0.60535E-02        -0.55084E-02         0.00000E+00
    0.58755E-02        -0.53018E-02         0.00000E+00
    0.56944E-02        -0.50957E-02         0.00000E+00
    0.55103E-02        -0.48901E-02         0.00000E+00
    0.53232E-02        -0.46852E-02         0.00000E+00
    0.51331E-02        -0.44808E-02         0.00000E+00
    0.49402E-02        -0.42771E-02         0.00000E+00
    0.47443E-02        -0.40741E-02         0.00000E+00
    0.45455E-02        -0.38717E-02         0.00000E+00
    0.43438E-02        -0.36701E-02         0.00000E+00
    0.41393E-02        -0.34691E-02         0.00000E+00
    0.39320E-02        -0.32689E-02         0.00000E+00
    0.37219E-02        -0.30695E-02         0.00000E+00
    0.35090E-02        -0.28709E-02         0.00000E+00
    0.32934E-02        -0.26731E-02         0.00000E+00
    0.30751E-02        -0.24761E-02         0.00000E+00
    0.28540E-02        -0.22799E-02         0.00000E+00
    0.26303E-02        -0.20846E-02         0.00000E+00
    0.24039E-02        -0.18902E-02         0.00000E+00
    0.21749E-02        -0.16968E-02         0.00000E+00
    0.19433E-02        -0.15042E-02         0.00000E+00
    0.17092E-02        -0.13127E-02         0.00000E+00
    0.14724E-02        -0.11221E-02         0.00000E+00
    0.12332E-02        -0.93244E-03         0.00000E+00
    0.99145E-03        -0.74384E-03         0.00000E+00
    0.74723E-03        -0.55628E-03         0.00000E+00
    0.50057E-03        -0.36977E-03         0.00000E+00
    0.25148E-03        -0.18434E-03         0.00000E+00
    0.00000E+00         0.00000E+00         0.00000E+00
    0.95802E-02        -0.10680E-01         0.00000E+00
    0.94691E-02        -0.10456E-01         0.00000E+00
    0.93543E-02        -0.10233E-01         0.00000E+00
    0.92359E-02        -0.10009E-01         0.00000E+00
    0.91139E-02        -0.97851E-02         0.00000E+00
    0.89883E-02        -0.95615E-02         0.00000E+00
    0.88592E-02        -0.93381E-02         0.00000E+00
    0.87265E-02        -0.91148E-02         0.00000E+00
    0.85904E-02        -0.88917E-02         0.00000E+00
    0.84507E-02        -0.86688E-02         0.00000E+00
    0.83075E-02        -0.84461E-02         0.00000E+00
    0.81609E-02        -0.82237E-02         0.00000E+00
    0.80109E-02        -0.80016E-02         0.00000E+00
    0.78575E-02        -0.77797E-02         0.00000E+00
    0.77007E-02        -0.75582E-02         0.00000E+00
    0.75405E-02        -0.73371E-02         0.00000E+00
    0.73770E-02        -0.71163E-02         0.00000E+00
    0.72102E-02        -0.68959E-02         0.00000E+00
    0.70401E-02        -0.66760E-02         0.00000E+00
    0.68667E-02        -0.64565E-02         0.00000E+00
    0.66901E-02        -0.62375E-02         0.00000E+00
    0.65102E-02        -0.60189E-02         0.00000E+00
    0.63271E-02        -0.58009E-02         0.00000E+00
    0.61409E-02        -0.55834E-02         0.00000E+00
    0.59515E-02        -0.53665E-02         0.00000E+00
    0.57590E-02        -0.51502E-02         0.00000E+00
    0.55634E-02        -0.49345E-02         0.00000E+00
    0.53647E-02        -0.47195E-02         0.00000E+00
    0.51629E-02        -0.45051E-02         0.00000E+00
    0.49582E-02        -0.42913E-02         0.00000E+00
    0.47503E-02        -0.40783E-02         0.00000E+00
    0.45396E-02        -0.38660E-02         0.00000E+00
    0.43258E-02        -0.36545E-02         0.00000E+00
    0.41091E-02        -0.34437E-02         0.00000E+00
    0.38895E-02        -0.32337E-02         0.00000E+00
    0.36670E-02        -0.30246E-02         0.00000E+00
    0.34416E-02        -0.28163E-02         0.00000E+00
    0.32134E-02        -0.26088E-02         0.00000E+00
    0.29824E-02        -0.24022E-02         0.00000E+00
    0.27486E-02        -0.21966E-02         0.00000E+00
    0.25121E-02        -0.19918E-02         0.00000E+00
    0.22727E-02        -0.17880E-02         0.00000E+00
    0.20307E-02        -0.15852E-02         0.00000E+00
    0.17860E-02        -0.13833E-02         0.00000E+00
    0.15387E-02        -0.11825E-02         0.00000E+00
    0.12886E-02        -0.98272E-03         0.00000E+00
    0.10360E-02        -0.78399E-03         0.00000E+00
    0.78083E-03        -0.58632E-03         0.00000E+00
    0.52308E-03        -0.38976E-03         0.00000E+00
    0.26279E-03        -0.19431E-03         0.00000E+00
    0.00000E+00         0.00000E+00         0.00000E+00
    0.10018E-01        -0.11240E-01         0.00000E+00
    0.99016E-02        -0.11005E-01         0.00000E+00
    0.97811E-02        -0.10769E-01         0.00000E+00
    0.96569E-02        -0.10534E-01         0.00000E+00
    0.95290E-02        -0.10299E-01         0.00000E+00
    0.93973E-02        -0.10064E-01         0.00000E+00
    0.92620E-02        -0.98288E-02         0.00000E+00
    0.91229E-02        -0.95940E-02         0.00000E+00
    0.89802E-02        -0.93593E-02         0.00000E+00
    0.88339E-02        -0.91249E-02         0.00000E+00
    0.86840E-02        -0.88907E-02         0.00000E+00
    0.85305E-02        -0.86568E-02         0.00000E+00
    0.83734E-02        -0.84232E-02         0.00000E+00
    0.82128E-02        -0.81898E-02         0.00000E+00
    0.80486E-02        -0.79568E-02         0.00000E+00
    0.78810E-02        -0.77242E-02         0.00000E+00
    0.77099E-02        -0.74920E-02         0.00000E+00
    0.75354E-02        -0.72602E-02         0.00000E+00
    0.73574E-02        -0.70288E-02         0.00000E+00
    0.71760E-02        -0.67979E-02         0.00000E+00
    0.69913E-02        -0.65675E-02         0.00000E+00
    0.68032E-02        -0.63376E-02         0.00000E+00
    0.66117E-02        -0.61082E-02         0.00000E+00
    0.64170E-02        -0.58794E-02         0.00000E+00
    0.62190E-02        -0.56511E-02         0.00000E+00
    0.60177E-02        -0.54235E-02         0.00000E+00
    0.58132E-02        -0.51965E-02         0.00000E+00
    0.56055E-02        -0.49702E-02         0.00000E+00
    0.53946E-02        -0.47446E-02         0.00000E+00
    0.51805E-02        -0.45196E-02         0.00000E+00
    0.49633E-02        -0.42954E-02         0.00000E+00
    0.47430E-02        -0.40720E-02         0.00000E+00
    0.45196E-02        -0.38493E-02         0.00000E+00
    0.42932E-02        -0.36274E-02         0.00000E+00
    0.40637E-02        -0.34064E-02         0.00000E+00
    0.38312E-02        -0.31862E-02         0.00000E+00
    0.35957E-02        -0.29668E-02         0.00000E+00
    0.33573E-02        -0.27484E-02         0.00000E+00
    0.31159E-02        -0.25308E-02         0.00000E+00
    0.28716E-02        -0.23142E-02         0.00000E+00
    0.26245E-02        -0.20986E-02         0.00000E+00
    0.23744E-02        -0.18840E-02         0.00000E+00
    0.21216E-02        -0.16703E-02         0.00000E+00
    0.18659E-02        -0.14577E-02         0.00000E+00
    0.16075E-02        -0.12461E-02         0.00000E+00
    0.13463E-02        -0.10356E-02         0.00000E+00
    0.10824E-02        -0.82622E-03         0.00000E+00
    0.81576E-03        -0.61794E-03         0.00000E+00
    0.54648E-03        -0.41079E-03         0.00000E+00
    0.27455E-03        -0.20480E-03         0.00000E+00
    0.00000E+00         0.00000E+00         0.00000E+00
    0.10474E-01        -0.11828E-01         0.00000E+00
    0.10352E-01        -0.11581E-01         0.00000E+00
    0.10225E-01        -0.11333E-01         0.00000E+00
    0.10095E-01        -0.11086E-01         0.00000E+00
    0.99610E-02        -0.10838E-01         0.00000E+00
    0.98229E-02        -0.10591E-01         0.00000E+00
    0.96811E-02        -0.10344E-01         0.00000E+00
    0.95354E-02        -0.10097E-01         0.00000E+00
    0.93859E-02        -0.98504E-02         0.00000E+00
    0.92326E-02        -0.96039E-02         0.00000E+00
    0.90756E-02        -0.93576E-02         0.00000E+00
    0.89148E-02        -0.91116E-02         0.00000E+00
    0.87504E-02        -0.88659E-02         0.00000E+00
    0.85823E-02        -0.86205E-02         0.00000E+00
    0.84105E-02        -0.83755E-02         0.00000E+00
    0.82351E-02        -0.81309E-02         0.00000E+00
    0.80561E-02        -0.78866E-02         0.00000E+00
    0.78734E-02        -0.76428E-02         0.00000E+00
    0.76873E-02        -0.73994E-02         0.00000E+00
    0.74976E-02        -0.71566E-02         0.00000E+00
    0.73044E-02        -0.69142E-02         0.00000E+00
    0.71077E-02        -0.66723E-02         0.00000E+00
    0.69075E-02        -0.64310E-02         0.00000E+00
    0.67039E-02        -0.61903E-02         0.00000E+00
    0.64969E-02        -0.59502E-02         0.00000E+00
    0.62866E-02        -0.57107E-02         0.00000E+00
    0.60728E-02        -0.54719E-02         0.00000E+00
    0.58557E-02        -0.52338E-02         0.00000E+00
    0.56353E-02        -0.49963E-02         0.00000E+00
    0.54116E-02        -0.47596E-02         0.00000E+00
    0.51846E-02        -0.45237E-02         0.00000E+00
    0.49545E-02        -0.42885E-02         0.00000E+00
    0.47210E-02        -0.40541E-02         0.00000E+00
    0.44845E-02        -0.38206E-02         0.00000E+00
    0.42447E-02        -0.35879E-02         0.00000E+00
    0.40018E-02        -0.33561E-02         0.00000E+00
    0.37558E-02        -0.31251E-02         0.00000E+00
    0.35067E-02        -0.28951E-02         0.00000E+00
    0.32546E-02        -0.26661E-02         0.00000E+00
    0.29994E-02        -0.24380E-02         0.00000E+00
    0.27412E-02        -0.22109E-02         0.00000E+00
    0.24801E-02        -0.19849E-02         0.00000E+00
    0.22160E-02        -0.17599E-02         0.00000E+00
    0.19489E-02        -0.15359E-02         0.00000E+00
    0.16790E-02        -0.13130E-02         0.00000E+00
    0.14062E-02        -0.10913E-02         0.00000E+00
    0.11305E-02        -0.87066E-03         0.00000E+00
    0.85205E-03        -0.65120E-03         0.00000E+00
    0.57078E-03        -0.43292E-03         0.00000E+00
    0.28676E-03        -0.21585E-03         0.00000E+00
    0.00000E+00         0.00000E+00         0.00000E+00
    0.10949E-01        -0.12445E-01         0.00000E+00
    0.10820E-01        -0.12185E-01         0.00000E+00
    0.10688E-01        -0.11925E-01         0.00000E+00
    0.10551E-01        -0.11665E-01         0.00000E+00
    0.10410E-01        -0.11405E-01         0.00000E+00
    0.10266E-01        -0.11145E-01         0.00000E+00
    0.10117E-01        -0.10885E-01         0.00000E+00
    0.99642E-02        -0.10625E-01         0.00000E+00
    0.98076E-02        -0.10366E-01         0.00000E+00
    0.96471E-02        -0.10107E-01         0.00000E+00
    0.94826E-02        -0.98479E-02         0.00000E+00
    0.93143E-02        -0.95893E-02         0.00000E+00
    0.91422E-02        -0.93309E-02         0.00000E+00
    0.89662E-02        -0.90729E-02         0.00000E+00
    0.87865E-02        -0.88153E-02         0.00000E+00
    0.86030E-02        -0.85580E-02         0.00000E+00
    0.84157E-02        -0.83011E-02         0.00000E+00
    0.82247E-02        -0.80447E-02         0.00000E+00
    0.80300E-02        -0.77888E-02         0.00000E+00
    0.78316E-02        -0.75334E-02         0.00000E+00
    0.76296E-02        -0.72784E-02         0.00000E+00
    0.74240E-02        -0.70241E-02         0.00000E+00
    0.72147E-02        -0.67703E-02         0.00000E+00
    0.70019E-02        -0.65171E-02         0.00000E+00
    0.67856E-02        -0.62645E-02         0.00000E+00
    0.65657E-02        -0.60126E-02         0.00000E+00
    0.63423E-02        -0.57613E-02         0.00000E+00
    0.61155E-02        -0.55108E-02         0.00000E+00
    0.58852E-02        -0.52609E-02         0.00000E+00
    0.56515E-02        -0.50119E-02         0.00000E+00
    0.54144E-02        -0.47636E-02         0.00000E+00
    0.51739E-02        -0.45161E-02         0.00000E+00
    0.49301E-02        -0.42694E-02         0.00000E+00
    0.46830E-02        -0.40236E-02         0.00000E+00
    0.44326E-02        -0.37787E-02         0.00000E+00
    0.41789E-02        -0.35347E-02         0.00000E+00
    0.39220E-02        -0.32916E-02         0.00000E+00
    0.36618E-02        -0.30495E-02         0.00000E+00
    0.33985E-02        -0.28084E-02         0.00000E+00
    0.31320E-02        -0.25682E-02         0.00000E+00
    0.28624E-02        -0.23291E-02         0.00000E+00
    0.25897E-02        -0.20910E-02         0.00000E+00
    0.23139E-02        -0.18541E-02         0.00000E+00
    0.20351E-02        -0.16182E-02         0.00000E+00
    0.17532E-02        -0.13834E-02         0.00000E+00
    0.14683E-02        -0.11498E-02         0.00000E+00
    0.11805E-02        -0.91743E-03         0.00000E+00
    0.88970E-03        -0.68621E-03         0.00000E+00
    0.59601E-03        -0.45621E-03         0.00000E+00
    0.29944E-03        -0.22747E-03         0.00000E+00
    0.00000E+00         0.00000E+00         0.00000E+00
    0.11442E-01        -0.13093E-01         0.00000E+00
    0.11307E-01        -0.12820E-01         0.00000E+00
    0.11168E-01        -0.12546E-01         0.00000E+00
    0.11025E-01        -0.12273E-01         0.00000E+00
    0.10877E-01        -0.11999E-01         0.00000E+00
    0.10726E-01        -0.11726E-01         0.00000E+00
    0.10570E-01        -0.11453E-01         0.00000E+00
    0.10410E-01        -0.11180E-01         0.00000E+00
    0.10246E-01        -0.10907E-01         0.00000E+00
    0.10078E-01        -0.10635E-01         0.00000E+00
    0.99054E-02        -0.10363E-01         0.00000E+00
    0.97292E-02        -0.10091E-01         0.00000E+00
    0.95491E-02        -0.98193E-02         0.00000E+00
    0.93650E-02        -0.95480E-02         0.00000E+00
    0.91769E-02        -0.92771E-02         0.00000E+00
    0.89849E-02        -0.90067E-02         0.00000E+00
    0.87890E-02        -0.87366E-02         0.00000E+00
    0.85893E-02        -0.84670E-02         0.00000E+00
    0.83857E-02        -0.81979E-02         0.00000E+00
    0.81783E-02        -0.79292E-02         0.00000E+00
    0.79672E-02        -0.76612E-02         0.00000E+00
    0.77522E-02        -0.73937E-02         0.00000E+00
    0.75336E-02        -0.71267E-02         0.00000E+00
    0.73112E-02        -0.68604E-02         0.00000E+00
    0.70851E-02        -0.65948E-02         0.00000E+00
    0.68554E-02        -0.63298E-02         0.00000E+00
    0.66220E-02        -0.60655E-02         0.00000E+00
    0.63851E-02        -0.58019E-02         0.00000E+00
    0.61445E-02        -0.55391E-02         0.00000E+00
    0.59004E-02        -0.52770E-02         0.00000E+00
    0.56528E-02        -0.50158E-02         0.00000E+00
    0.54016E-02        -0.47554E-02         0.00000E+00
    0.51470E-02        -0.44958E-02         0.00000E+00
    0.48889E-02        -0.42372E-02         0.00000E+00
    0.46275E-02        -0.39794E-02         0.00000E+00
    0.43626E-02        -0.37226E-02         0.00000E+00
    0.40943E-02        -0.34667E-02         0.00000E+00
    0.38227E-02        -0.32118E-02         0.00000E+00
    0.35478E-02        -0.29580E-02         0.00000E+00
    0.32696E-02        -0.27052E-02         0.00000E+00
    0.29881E-02        -0.24534E-02         0.00000E+00
    0.27034E-02        -0.22027E-02         0.00000E+00
    0.24155E-02        -0.19532E-02         0.00000E+00
    0.21244E-02        -0.17048E-02         0.00000E+00
    0.18302E-02        -0.14575E-02         0.00000E+00
    0.15328E-02        -0.12115E-02         0.00000E+00
    0.12323E-02        -0.96664E-03         0.00000E+00
    0.92876E-03        -0.72305E-03         0.00000E+00
    0.62218E-03        -0.48073E-03         0.00000E+00
    0.31258E-03        -0.23971E-03         0.00000E+00
    0.00000E+00         0.00000E+00         0.00000E+00
    0.11955E-01        -0.13773E-01         0.00000E+00
    0.11813E-01        -0.13486E-01         0.00000E+00
    0.11667E-01        -0.13198E-01         0.00000E+00
    0.11517E-01        -0.12911E-01         0.00000E+00
    0.11362E-01        -0.12624E-01         0.00000E+00
    0.11203E-01        -0.12337E-01         0.00000E+00
    0.11040E-01        -0.12050E-01         0.00000E+00
    0.10872E-01        -0.11763E-01         0.00000E+00
    0.10700E-01        -0.11476E-01         0.00000E+00
    0.10524E-01        -0.11190E-01         0.00000E+00
    0.10344E-01        -0.10904E-01         0.00000E+00
    0.10160E-01        -0.10618E-01         0.00000E+00
    0.99713E-02        -0.10332E-01         0.00000E+00
    0.97787E-02        -0.10047E-01         0.00000E+00
    0.95819E-02        -0.97623E-02         0.00000E+00
    0.93812E-02        -0.94779E-02         0.00000E+00
    0.91763E-02        -0.91940E-02         0.00000E+00
    0.89675E-02        -0.89106E-02         0.00000E+00
    0.87547E-02        -0.86276E-02         0.00000E+00
    0.85379E-02        -0.83452E-02         0.00000E+00
    0.83172E-02        -0.80633E-02         0.00000E+00
    0.80926E-02        -0.77820E-02         0.00000E+00
    0.78641E-02        -0.75013E-02         0.00000E+00
    0.76318E-02        -0.72213E-02         0.00000E+00
    0.73956E-02        -0.69419E-02         0.00000E+00
    0.71557E-02        -0.66632E-02         0.00000E+00
    0.69120E-02        -0.63852E-02         0.00000E+00
    0.66645E-02        -0.61079E-02         0.00000E+00
    0.64133E-02        -0.58315E-02         0.00000E+00
    0.61584E-02        -0.55558E-02         0.00000E+00
    0.58998E-02        -0.52810E-02         0.00000E+00
    0.56376E-02        -0.50070E-02         0.00000E+00
    0.53718E-02        -0.47339E-02         0.00000E+00
    0.51024E-02        -0.44617E-02         0.00000E+00
    0.48294E-02        -0.41905E-02         0.00000E+00
    0.45529E-02        -0.39202E-02         0.00000E+00
    0.42729E-02        -0.36509E-02         0.00000E+00
    0.39894E-02        -0.33826E-02         0.00000E+00
    0.37025E-02        -0.31154E-02         0.00000E+00
    0.34121E-02        -0.28492E-02         0.00000E+00
    0.31184E-02        -0.25842E-02         0.00000E+00
    0.28212E-02        -0.23202E-02         0.00000E+00
    0.25208E-02        -0.20575E-02         0.00000E+00
    0.22170E-02        -0.17959E-02         0.00000E+00
    0.19099E-02        -0.15355E-02         0.00000E+00
    0.15996E-02        -0.12763E-02         0.00000E+00
    0.12860E-02        -0.10184E-02         0.00000E+00
    0.96923E-03        -0.76183E-03         0.00000E+00
    0.64929E-03        -0.50654E-03         0.00000E+00
    0.32620E-03        -0.25259E-03         0.00000E+00
    0.00000E+00         0.00000E+00         0.00000E+00
    0.12487E-01        -0.14487E-01         0.00000E+00
    0.12338E-01        -0.14185E-01         0.00000E+00
    0.12185E-01        -0.13883E-01         0.00000E+00
    0.12028E-01        -0.13581E-01         0.00000E+00
    0.11865E-01        -0.13279E-01         0.00000E+00
    0.11699E-01        -0.12977E-01         0.00000E+00
    0.11528E-01        -0.12676E-01         0.00000E+00
    0.11352E-01        -0.12374E-01         0.00000E+00
    0.11172E-01        -0.12073E-01         0.00000E+00
    0.10988E-01        -0.11772E-01         0.00000E+00
    0.10799E-01        -0.11471E-01         0.00000E+00
    0.10606E-01        -0.11171E-01         0.00000E+00
    0.10409E-01        -0.10871E-01         0.00000E+00
    0.10208E-01        -0.10571E-01         0.00000E+00
    0.10002E-01        -0.10272E-01         0.00000E+00
    0.97919E-02        -0.99730E-02         0.00000E+00
    0.95777E-02        -0.96745E-02         0.00000E+00
    0.93595E-02        -0.93766E-02         0.00000E+00
    0.91370E-02        -0.90791E-02         0.00000E+00
    0.89105E-02        -0.87822E-02         0.00000E+00
    0.86799E-02        -0.84858E-02         0.00000E+00
    0.84453E-02        -0.81901E-02         0.00000E+00
    0.82066E-02        -0.78949E-02         0.00000E+00
    0.79640E-02        -0.76004E-02         0.00000E+00
    0.77173E-02        -0.73066E-02         0.00000E+00
    0.74667E-02        -0.70135E-02         0.00000E+00
    0.72123E-02        -0.67212E-02         0.00000E+00
    0.69539E-02        -0.64296E-02         0.00000E+00
    0.66916E-02        -0.61388E-02         0.00000E+00
    0.64255E-02        -0.58489E-02         0.00000E+00
    0.61557E-02        -0.55597E-02         0.00000E+00
    0.58820E-02        -0.52715E-02         0.00000E+00
    0.56046E-02        -0.49842E-02         0.00000E+00
    0.53234E-02        -0.46978E-02         0.00000E+00
    0.50385E-02        -0.44124E-02         0.00000E+00
    0.47500E-02        -0.41280E-02         0.00000E+00
    0.44578E-02        -0.38446E-02         0.00000E+00
    0.41620E-02        -0.35622E-02         0.00000E+00
    0.38627E-02        -0.32809E-02         0.00000E+00
    0.35597E-02        -0.30008E-02         0.00000E+00
    0.32532E-02        -0.27217E-02         0.00000E+00
    0.29432E-02        -0.24439E-02         0.00000E+00
    0.26298E-02        -0.21672E-02         0.00000E+00
    0.23128E-02        -0.18917E-02         0.00000E+00
    0.19925E-02        -0.16175E-02         0.00000E+00
    0.16687E-02        -0.13446E-02         0.00000E+00
    0.13416E-02        -0.10730E-02         0.00000E+00
    0.10111E-02        -0.80265E-03         0.00000E+00
    0.67736E-03        -0.53371E-03         0.00000E+00
    0.34031E-03        -0.26615E-03         0.00000E+00
    0.00000E+00         0.00000E+00         0.00000E+00
    0.13039E-01        -0.15237E-01         0.00000E+00
    0.12883E-01        -0.14919E-01         0.00000E+00
    0.12722E-01        -0.14602E-01         0.00000E+00
    0.12557E-01        -0.14285E-01         0.00000E+00
    0.12387E-01        -0.13967E-01         0.00000E+00
    0.12212E-01        -0.13650E-01         0.00000E+00
    0.12033E-01        -0.13333E-01         0.00000E+00
    0.11849E-01        -0.13017E-01         0.00000E+00
    0.11661E-01        -0.12700E-01         0.00000E+00
    0.11468E-01        -0.12384E-01         0.00000E+00
    0.11271E-01        -0.12068E-01         0.00000E+00
    0.11069E-01        -0.11752E-01         0.00000E+00
    0.10863E-01        -0.11437E-01         0.00000E+00
    0.10652E-01        -0.11122E-01         0.00000E+00
    0.10437E-01        -0.10807E-01         0.00000E+00
    0.10217E-01        -0.10493E-01         0.00000E+00
    0.99934E-02        -0.10179E-01         0.00000E+00
    0.97653E-02        -0.98661E-02         0.00000E+00
    0.95329E-02        -0.95534E-02         0.00000E+00
    0.92962E-02        -0.92413E-02         0.00000E+00
    0.90554E-02        -0.89298E-02         0.00000E+00
    0.88103E-02        -0.86188E-02         0.00000E+00
    0.85611E-02        -0.83085E-02         0.00000E+00
    0.83077E-02        -0.79989E-02         0.00000E+00
    0.80502E-02        -0.76900E-02         0.00000E+00
    0.77886E-02        -0.73818E-02         0.00000E+00
    0.75230E-02        -0.70744E-02         0.00000E+00
    0.72533E-02        -0.67677E-02         0.00000E+00
    0.69796E-02        -0.64619E-02         0.00000E+00
    0.67020E-02        -0.61569E-02         0.00000E+00
    0.64203E-02        -0.58528E-02         0.00000E+00
    0.61348E-02        -0.55496E-02         0.00000E+00
    0.58453E-02        -0.52474E-02         0.00000E+00
    0.55520E-02        -0.49461E-02         0.00000E+00
    0.52549E-02        -0.46458E-02         0.00000E+00
    0.49539E-02        -0.43465E-02         0.00000E+00
    0.46491E-02        -0.40483E-02         0.00000E+00
    0.43406E-02        -0.37511E-02         0.00000E+00
    0.40283E-02        -0.34551E-02         0.00000E+00
    0.37123E-02        -0.31602E-02         0.00000E+00
    0.33927E-02        -0.28665E-02         0.00000E+00
    0.30694E-02        -0.25740E-02         0.00000E+00
    0.27425E-02        -0.22827E-02         0.00000E+00
    0.24119E-02        -0.19926E-02         0.00000E+00
    0.20779E-02        -0.17039E-02         0.00000E+00
    0.17402E-02        -0.14164E-02         0.00000E+00
    0.13991E-02        -0.11303E-02         0.00000E+00
    0.10545E-02        -0.84563E-03         0.00000E+00
    0.70639E-03        -0.56231E-03         0.00000E+00
    0.35490E-03        -0.28042E-03         0.00000E+00
    0.00000E+00         0.00000E+00         0.00000E+00
    0.13611E-01        -0.16023E-01         0.00000E+00
    0.13448E-01        -0.15690E-01         0.00000E+00
    0.13279E-01        -0.15357E-01         0.00000E+00
    0.13106E-01        -0.15023E-01         0.00000E+00
    0.12927E-01        -0.14690E-01         0.00000E+00
    0.12744E-01        -0.14357E-01         0.00000E+00
    0.12557E-01        -0.14024E-01         0.00000E+00
    0.12364E-01        -0.13691E-01         0.00000E+00
    0.12167E-01        -0.13358E-01         0.00000E+00
    0.11965E-01        -0.13026E-01         0.00000E+00
    0.11759E-01        -0.12694E-01         0.00000E+00
    0.11548E-01        -0.12362E-01         0.00000E+00
    0.11332E-01        -0.12031E-01         0.00000E+00
    0.11111E-01        -0.11700E-01         0.00000E+00
    0.10887E-01        -0.11369E-01         0.00000E+00
    0.10657E-01        -0.11039E-01         0.00000E+00
    0.10423E-01        -0.10710E-01         0.00000E+00
    0.10185E-01        -0.10380E-01         0.00000E+00
    0.99423E-02        -0.10052E-01         0.00000E+00
    0.96951E-02        -0.97237E-02         0.00000E+00
    0.94436E-02        -0.93962E-02         0.00000E+00
    0.91878E-02        -0.90693E-02         0.00000E+00
    0.89276E-02        -0.87432E-02         0.00000E+00
    0.86631E-02        -0.84177E-02         0.00000E+00
    0.83943E-02        -0.80929E-02         0.00000E+00
    0.81214E-02        -0.77689E-02         0.00000E+00
    0.78442E-02        -0.74456E-02         0.00000E+00
    0.75628E-02        -0.71232E-02         0.00000E+00
    0.72773E-02        -0.68015E-02         0.00000E+00
    0.69876E-02        -0.64808E-02         0.00000E+00
    0.66939E-02        -0.61610E-02         0.00000E+00
    0.63960E-02        -0.58421E-02         0.00000E+00
    0.60942E-02        -0.55241E-02         0.00000E+00
    0.57883E-02        -0.52072E-02         0.00000E+00
    0.54784E-02        -0.48912E-02         0.00000E+00
    0.51645E-02        -0.45764E-02         0.00000E+00
    0.48468E-02        -0.42626E-02         0.00000E+00
    0.45251E-02        -0.39499E-02         0.00000E+00
    0.41995E-02        -0.36383E-02         0.00000E+00
    0.38701E-02        -0.33280E-02         0.00000E+00
    0.35368E-02        -0.30188E-02         0.00000E+00
    0.31997E-02        -0.27109E-02         0.00000E+00
    0.28589E-02        -0.24042E-02         0.00000E+00
    0.25144E-02        -0.20988E-02         0.00000E+00
    0.21661E-02        -0.17948E-02         0.00000E+00
    0.18141E-02        -0.14921E-02         0.00000E+00
    0.14585E-02        -0.11908E-02         0.00000E+00
    0.10992E-02        -0.89087E-03         0.00000E+00
    0.73639E-03        -0.59242E-03         0.00000E+00
    0.36997E-03        -0.29546E-03         0.00000E+00
    0.00000E+00         0.00000E+00         0.00000E+00
    0.14204E-01        -0.16849E-01         0.00000E+00
    0.14032E-01        -0.16499E-01         0.00000E+00
    0.13855E-01        -0.16149E-01         0.00000E+00
    0.13673E-01        -0.15798E-01         0.00000E+00
    0.13487E-01        -0.15448E-01         0.00000E+00
    0.13295E-01        -0.15098E-01         0.00000E+00
    0.13098E-01        -0.14748E-01         0.00000E+00
    0.12897E-01        -0.14399E-01         0.00000E+00
    0.12690E-01        -0.14049E-01         0.00000E+00
    0.12479E-01        -0.13700E-01         0.00000E+00
    0.12263E-01        -0.13352E-01         0.00000E+00
    0.12042E-01        -0.13003E-01         0.00000E+00
    0.11817E-01        -0.12655E-01         0.00000E+00
    0.11587E-01        -0.12307E-01         0.00000E+00
    0.11352E-01        -0.11960E-01         0.00000E+00
    0.11112E-01        -0.11613E-01         0.00000E+00
    0.10868E-01        -0.11266E-01         0.00000E+00
    0.10619E-01        -0.10921E-01         0.00000E+00
    0.10365E-01        -0.10575E-01         0.00000E+00
    0.10107E-01        -0.10230E-01         0.00000E+00
    0.98447E-02        -0.98862E-02         0.00000E+00
    0.95776E-02        -0.95427E-02         0.00000E+00
    0.93061E-02        -0.91998E-02         0.00000E+00
    0.90301E-02        -0.88577E-02         0.00000E+00
    0.87497E-02        -0.85163E-02         0.00000E+00
    0.84650E-02        -0.81756E-02         0.00000E+00
    0.81758E-02        -0.78358E-02         0.00000E+00
    0.78824E-02        -0.74967E-02         0.00000E+00
    0.75846E-02        -0.71586E-02         0.00000E+00
    0.72825E-02        -0.68213E-02         0.00000E+00
    0.69763E-02        -0.64849E-02         0.00000E+00
    0.66657E-02        -0.61495E-02         0.00000E+00
    0.63510E-02        -0.58151E-02         0.00000E+00
    0.60321E-02        -0.54817E-02         0.00000E+00
    0.57091E-02        -0.51494E-02         0.00000E+00
    0.53820E-02        -0.48181E-02         0.00000E+00
    0.50507E-02        -0.44879E-02         0.00000E+00
    0.47155E-02        -0.41589E-02         0.00000E+00
    0.43761E-02        -0.38311E-02         0.00000E+00
    0.40328E-02        -0.35044E-02         0.00000E+00
    0.36855E-02        -0.31790E-02         0.00000E+00
    0.33343E-02        -0.28549E-02         0.00000E+00
    0.29791E-02        -0.25320E-02         0.00000E+00
    0.26201E-02        -0.22105E-02         0.00000E+00
    0.22571E-02        -0.18904E-02         0.00000E+00
    0.18904E-02        -0.15717E-02         0.00000E+00
    0.15198E-02        -0.12543E-02         0.00000E+00
    0.11454E-02        -0.93849E-03         0.00000E+00
    0.76735E-03        -0.62413E-03         0.00000E+00
    0.38552E-03        -0.31129E-03         0.00000E+00
    0.00000E+00         0.00000E+00         0.00000E+00
    0.14816E-01        -0.17716E-01         0.00000E+00
    0.14636E-01        -0.17348E-01         0.00000E+00
    0.14451E-01        -0.16980E-01         0.00000E+00
    0.14260E-01        -0.16612E-01         0.00000E+00
    0.14065E-01        -0.16244E-01         0.00000E+00
    0.13864E-01        -0.15877E-01         0.00000E+00
    0.13658E-01        -0.15509E-01         0.00000E+00
    0.13447E-01        -0.15142E-01         0.00000E+00
    0.13231E-01        -0.14775E-01         0.00000E+00
    0.13010E-01        -0.14408E-01         0.00000E+00
    0.12784E-01        -0.14042E-01         0.00000E+00
    0.12554E-01        -0.13676E-01         0.00000E+00
    0.12318E-01        -0.13310E-01         0.00000E+00
    0.12077E-01        -0.12945E-01         0.00000E+00
    0.11832E-01        -0.12580E-01         0.00000E+00
    0.11581E-01        -0.12215E-01         0.00000E+00
    0.11326E-01        -0.11851E-01         0.00000E+00
    0.11066E-01        -0.11488E-01         0.00000E+00
    0.10802E-01        -0.11125E-01         0.00000E+00
    0.10532E-01        -0.10763E-01         0.00000E+00
    0.10258E-01        -0.10401E-01         0.00000E+00
    0.99798E-02        -0.10040E-01         0.00000E+00
    0.96966E-02        -0.96797E-02         0.00000E+00
    0.94087E-02        -0.93200E-02         0.00000E+00
    0.91163E-02        -0.89612E-02         0.00000E+00
    0.88193E-02        -0.86031E-02         0.00000E+00
    0.85179E-02        -0.82458E-02         0.00000E+00
    0.82119E-02        -0.78894E-02         0.00000E+00
    0.79015E-02        -0.75338E-02         0.00000E+00
    0.75867E-02        -0.71792E-02         0.00000E+00
    0.72674E-02        -0.68255E-02         0.00000E+00
    0.69438E-02        -0.64728E-02         0.00000E+00
    0.66158E-02        -0.61211E-02         0.00000E+00
    0.62835E-02        -0.57704E-02         0.00000E+00
    0.59470E-02        -0.54208E-02         0.00000E+00
    0.56061E-02        -0.50723E-02         0.00000E+00
    0.52610E-02        -0.47250E-02         0.00000E+00
    0.49117E-02        -0.43788E-02         0.00000E+00
    0.45582E-02        -0.40338E-02         0.00000E+00
    0.42006E-02        -0.36901E-02         0.00000E+00
    0.38388E-02        -0.33476E-02         0.00000E+00
    0.34729E-02        -0.30064E-02         0.00000E+00
    0.31030E-02        -0.26666E-02         0.00000E+00
    0.27290E-02        -0.23281E-02         0.00000E+00
    0.23510E-02        -0.19911E-02         0.00000E+00
    0.19690E-02        -0.16554E-02         0.00000E+00
    0.15830E-02        -0.13213E-02         0.00000E+00
    0.11931E-02        -0.98863E-03         0.00000E+00
    0.79926E-03        -0.65751E-03         0.00000E+00
    0.40155E-03        -0.32795E-03         0.00000E+00
    0.00000E+00         0.00000E+00         0.00000E+00
    0.15450E-01        -0.18625E-01         0.00000E+00
    0.15261E-01        -0.18239E-01         0.00000E+00
    0.15066E-01        -0.17852E-01         0.00000E+00
    0.14867E-01        -0.17466E-01         0.00000E+00
    0.14662E-01        -0.17080E-01         0.00000E+00
    0.14451E-01        -0.16694E-01         0.00000E+00
    0.14236E-01        -0.16308E-01         0.00000E+00
    0.14015E-01        -0.15922E-01         0.00000E+00
    0.13789E-01        -0.15537E-01         0.00000E+00
    0.13558E-01        -0.15152E-01         0.00000E+00
    0.13322E-01        -0.14767E-01         0.00000E+00
    0.13081E-01        -0.14382E-01         0.00000E+00
    0.12834E-01        -0.13998E-01         0.00000E+00
    0.12583E-01        -0.13614E-01         0.00000E+00
    0.12327E-01        -0.13231E-01         0.00000E+00
    0.12065E-01        -0.12848E-01         0.00000E+00
    0.11799E-01        -0.12466E-01         0.00000E+00
    0.11528E-01        -0.12084E-01         0.00000E+00
    0.11252E-01        -0.11702E-01         0.00000E+00
    0.10971E-01        -0.11322E-01         0.00000E+00
    0.10685E-01        -0.10942E-01         0.00000E+00
    0.10394E-01        -0.10562E-01         0.00000E+00
    0.10099E-01        -0.10184E-01         0.00000E+00
    0.97988E-02        -0.98058E-02         0.00000E+00
    0.94939E-02        -0.94286E-02         0.00000E+00
    0.91844E-02        -0.90523E-02         0.00000E+00
    0.88702E-02        -0.86767E-02         0.00000E+00
    0.85513E-02        -0.83020E-02         0.00000E+00
    0.82279E-02        -0.79282E-02         0.00000E+00
    0.78998E-02        -0.75554E-02         0.00000E+00
    0.75673E-02        -0.71835E-02         0.00000E+00
    0.72301E-02        -0.68126E-02         0.00000E+00
    0.68885E-02        -0.64427E-02         0.00000E+00
    0.65424E-02        -0.60739E-02         0.00000E+00
    0.61919E-02        -0.57062E-02         0.00000E+00
    0.58369E-02        -0.53397E-02         0.00000E+00
    0.54775E-02        -0.49742E-02         0.00000E+00
    0.51138E-02        -0.46100E-02         0.00000E+00
    0.47457E-02        -0.42471E-02         0.00000E+00
    0.43733E-02        -0.38854E-02         0.00000E+00
    0.39966E-02        -0.35250E-02         0.00000E+00
    0.36157E-02        -0.31659E-02         0.00000E+00
    0.32305E-02        -0.28082E-02         0.00000E+00
    0.28411E-02        -0.24519E-02         0.00000E+00
    0.24476E-02        -0.20970E-02         0.00000E+00
    0.20499E-02        -0.17436E-02         0.00000E+00
    0.16480E-02        -0.13917E-02         0.00000E+00
    0.12421E-02        -0.10414E-02         0.00000E+00
    0.83211E-03        -0.69265E-03         0.00000E+00
    0.41806E-03        -0.34550E-03         0.00000E+00
    0.00000E+00         0.00000E+00         0.00000E+00
    0.16103E-01        -0.19579E-01         0.00000E+00
    0.15905E-01        -0.19173E-01         0.00000E+00
    0.15701E-01        -0.18768E-01         0.00000E+00
    0.15492E-01        -0.18362E-01         0.00000E+00
    0.15277E-01        -0.17957E-01         0.00000E+00
    0.15057E-01        -0.17551E-01         0.00000E+00
    0.14832E-01        -0.17146E-01         0.00000E+00
    0.14601E-01        -0.16741E-01         0.00000E+00
    0.14364E-01        -0.16336E-01         0.00000E+00
    0.14123E-01        -0.15932E-01         0.00000E+00
    0.13876E-01        -0.15527E-01         0.00000E+00
    0.13624E-01        -0.15124E-01         0.00000E+00
    0.13367E-01        -0.14720E-01         0.00000E+00
    0.13104E-01        -0.14317E-01         0.00000E+00
    0.12836E-01        -0.13914E-01         0.00000E+00
    0.12564E-01        -0.13512E-01         0.00000E+00
    0.12286E-01        -0.13111E-01         0.00000E+00
    0.12003E-01        -0.12710E-01         0.00000E+00
    0.11715E-01        -0.12309E-01         0.00000E+00
    0.11422E-01        -0.11909E-01         0.00000E+00
    0.11124E-01        -0.11510E-01         0.00000E+00
    0.10821E-01        -0.11111E-01         0.00000E+00
    0.10513E-01        -0.10713E-01         0.00000E+00
    0.10200E-01        -0.10316E-01         0.00000E+00
    0.98824E-02        -0.99198E-02         0.00000E+00
    0.95599E-02        -0.95242E-02         0.00000E+00
    0.92326E-02        -0.91295E-02         0.00000E+00
    0.89005E-02        -0.87357E-02         0.00000E+00
    0.85636E-02        -0.83427E-02         0.00000E+00
    0.82219E-02        -0.79508E-02         0.00000E+00
    0.78756E-02        -0.75598E-02         0.00000E+00
    0.75246E-02        -0.71698E-02         0.00000E+00
    0.71689E-02        -0.67809E-02         0.00000E+00
    0.68086E-02        -0.63930E-02         0.00000E+00
    0.64437E-02        -0.60063E-02         0.00000E+00
    0.60742E-02        -0.56208E-02         0.00000E+00
    0.57001E-02        -0.52364E-02         0.00000E+00
    0.53215E-02        -0.48533E-02         0.00000E+00
    0.49384E-02        -0.44714E-02         0.00000E+00
    0.45509E-02        -0.40908E-02         0.00000E+00
    0.41589E-02        -0.37115E-02         0.00000E+00
    0.37624E-02        -0.33336E-02         0.00000E+00
    0.33616E-02        -0.29571E-02         0.00000E+00
    0.29564E-02        -0.25821E-02         0.00000E+00
    0.25469E-02        -0.22085E-02         0.00000E+00
    0.21331E-02        -0.18364E-02         0.00000E+00
    0.17149E-02        -0.14659E-02         0.00000E+00
    0.12925E-02        -0.10970E-02         0.00000E+00
    0.86588E-03        -0.72965E-03         0.00000E+00
    0.43503E-03        -0.36398E-03         0.00000E+00
    0.00000E+00         0.00000E+00         0.00000E+00
    0.16777E-01        -0.20580E-01         0.00000E+00
    0.16569E-01        -0.20154E-01         0.00000E+00
    0.16355E-01        -0.19728E-01         0.00000E+00
    0.16136E-01        -0.19302E-01         0.00000E+00
    0.15911E-01        -0.18876E-01         0.00000E+00
    0.15681E-01        -0.18451E-01         0.00000E+00
    0.15445E-01        -0.18025E-01         0.00000E+00
    0.15203E-01        -0.17600E-01         0.00000E+00
    0.14956E-01        -0.17175E-01         0.00000E+00
    0.14704E-01        -0.16750E-01         0.00000E+00
    0.14446E-01        -0.16326E-01         0.00000E+00
    0.14183E-01        -0.15902E-01         0.00000E+00
    0.13914E-01        -0.15478E-01         0.00000E+00
    0.13640E-01        -0.15055E-01         0.00000E+00
    0.13361E-01        -0.14632E-01         0.00000E+00
    0.13076E-01        -0.14210E-01         0.00000E+00
    0.12786E-01        -0.13788E-01         0.00000E+00
    0.12491E-01        -0.13367E-01         0.00000E+00
    0.12191E-01        -0.12946E-01         0.00000E+00
    0.11885E-01        -0.12526E-01         0.00000E+00
    0.11575E-01        -0.12106E-01         0.00000E+00
    0.11259E-01        -0.11688E-01         0.00000E+00
    0.10938E-01        -0.11269E-01         0.00000E+00
    0.10612E-01        -0.10852E-01         0.00000E+00
    0.10282E-01        -0.10436E-01         0.00000E+00
    0.99457E-02        -0.10020E-01         0.00000E+00
    0.96048E-02        -0.96052E-02         0.00000E+00
    0.92590E-02        -0.91913E-02         0.00000E+00
    0.89083E-02        -0.87783E-02         0.00000E+00
    0.85527E-02        -0.83663E-02         0.00000E+00
    0.81922E-02        -0.79553E-02         0.00000E+00
    0.78269E-02        -0.75453E-02         0.00000E+00
    0.74568E-02        -0.71363E-02         0.00000E+00
    0.70819E-02        -0.67285E-02         0.00000E+00
    0.67022E-02        -0.63219E-02         0.00000E+00
    0.63177E-02        -0.59164E-02         0.00000E+00
    0.59286E-02        -0.55121E-02         0.00000E+00
    0.55348E-02        -0.51090E-02         0.00000E+00
    0.51363E-02        -0.47073E-02         0.00000E+00
    0.47332E-02        -0.43069E-02         0.00000E+00
    0.43254E-02        -0.39078E-02         0.00000E+00
    0.39131E-02        -0.35101E-02         0.00000E+00
    0.34962E-02        -0.31139E-02         0.00000E+00
    0.30748E-02        -0.27191E-02         0.00000E+00
    0.26488E-02        -0.23258E-02         0.00000E+00
    0.22184E-02        -0.19341E-02         0.00000E+00
    0.17836E-02        -0.15440E-02         0.00000E+00
    0.13443E-02        -0.11555E-02         0.00000E+00
    0.90054E-03        -0.76859E-03         0.00000E+00
    0.45245E-03        -0.38343E-03         0.00000E+00
    0.00000E+00         0.00000E+00         0.00000E+00
    0.17470E-01        -0.21630E-01         0.00000E+00
    0.17252E-01        -0.21183E-01         0.00000E+00
    0.17028E-01        -0.20736E-01         0.00000E+00
    0.16799E-01        -0.20288E-01         0.00000E+00
    0.16563E-01        -0.19842E-01         0.00000E+00
    0.16322E-01        -0.19395E-01         0.00000E+00
    0.16075E-01        -0.18948E-01         0.00000E+00
    0.15823E-01        -0.18502E-01         0.00000E+00
    0.15565E-01        -0.18055E-01         0.00000E+00
    0.15301E-01        -0.17610E-01         0.00000E+00
    0.15032E-01        -0.17164E-01         0.00000E+00
    0.14757E-01        -0.16719E-01         0.00000E+00
    0.14476E-01        -0.16274E-01         0.00000E+00
    0.14190E-01        -0.15829E-01         0.00000E+00
    0.13899E-01        -0.15385E-01         0.00000E+00
    0.13602E-01        -0.14942E-01         0.00000E+00
    0.13300E-01        -0.14499E-01         0.00000E+00
    0.12992E-01        -0.14056E-01         0.00000E+00
    0.12679E-01        -0.13614E-01         0.00000E+00
    0.12361E-01        -0.13173E-01         0.00000E+00
    0.12037E-01        -0.12733E-01         0.00000E+00
    0.11709E-01        -0.12293E-01         0.00000E+00
    0.11375E-01        -0.11854E-01         0.00000E+00
    0.11035E-01        -0.11415E-01         0.00000E+00
    0.10691E-01        -0.10978E-01         0.00000E+00
    0.10341E-01        -0.10541E-01         0.00000E+00
    0.99865E-02        -0.10105E-01         0.00000E+00
    0.96267E-02        -0.96700E-02         0.00000E+00
    0.92618E-02        -0.92360E-02         0.00000E+00
    0.88918E-02        -0.88029E-02         0.00000E+00
    0.85168E-02        -0.83708E-02         0.00000E+00
    0.81369E-02        -0.79398E-02         0.00000E+00
    0.77519E-02        -0.75099E-02         0.00000E+00
    0.73620E-02        -0.70811E-02         0.00000E+00
    0.69671E-02        -0.66535E-02         0.00000E+00
    0.65674E-02        -0.62271E-02         0.00000E+00
    0.61628E-02        -0.58019E-02         0.00000E+00
    0.57533E-02        -0.53780E-02         0.00000E+00
    0.53390E-02        -0.49554E-02         0.00000E+00
    0.49200E-02        -0.45341E-02         0.00000E+00
    0.44961E-02        -0.41142E-02         0.00000E+00
    0.40675E-02        -0.36957E-02         0.00000E+00
    0.36341E-02        -0.32787E-02         0.00000E+00
    0.31961E-02        -0.28632E-02         0.00000E+00
    0.27533E-02        -0.24493E-02         0.00000E+00
    0.23059E-02        -0.20369E-02         0.00000E+00
    0.18539E-02        -0.16261E-02         0.00000E+00
    0.13973E-02        -0.12170E-02         0.00000E+00
    0.93607E-03        -0.80959E-03         0.00000E+00
    0.47030E-03        -0.40391E-03         0.00000E+00
    0.00000E+00         0.00000E+00         0.00000E+00
    0.18183E-01        -0.22731E-01         0.00000E+00
    0.17954E-01        -0.22261E-01         0.00000E+00
    0.17720E-01        -0.21792E-01         0.00000E+00
    0.17479E-01        -0.21323E-01         0.00000E+00
    0.17233E-01        -0.20854E-01         0.00000E+00
    0.16981E-01        -0.20385E-01         0.00000E+00
    0.16723E-01        -0.19916E-01         0.00000E+00
    0.16459E-01        -0.19447E-01         0.00000E+00
    0.16189E-01        -0.18979E-01         0.00000E+00
    0.15914E-01        -0.18511E-01         0.00000E+00
    0.15632E-01        -0.18043E-01         0.00000E+00
    0.15346E-01        -0.17576E-01         0.00000E+00
    0.15053E-01        -0.17109E-01         0.00000E+00
    0.14755E-01        -0.16642E-01         0.00000E+00
    0.14451E-01        -0.16176E-01         0.00000E+00
    0.14141E-01        -0.15710E-01         0.00000E+00
    0.13826E-01        -0.15245E-01         0.00000E+00
    0.13506E-01        -0.14780E-01         0.00000E+00
    0.13180E-01        -0.14316E-01         0.00000E+00
    0.12848E-01        -0.13853E-01         0.00000E+00
    0.12512E-01        -0.13390E-01         0.00000E+00
    0.12169E-01        -0.12928E-01         0.00000E+00
    0.11822E-01        -0.12467E-01         0.00000E+00
    0.11468E-01        -0.12006E-01         0.00000E+00
    0.11110E-01        -0.11547E-01         0.00000E+00
    0.10746E-01        -0.11088E-01         0.00000E+00
    0.10377E-01        -0.10630E-01         0.00000E+00
    0.10003E-01        -0.10173E-01         0.00000E+00
    0.96236E-02        -0.97167E-02         0.00000E+00
    0.92389E-02        -0.92616E-02         0.00000E+00
    0.88491E-02        -0.88075E-02         0.00000E+00
    0.84541E-02        -0.83545E-02         0.00000E+00
    0.80539E-02        -0.79025E-02         0.00000E+00
    0.76486E-02        -0.74517E-02         0.00000E+00
    0.72383E-02        -0.70021E-02         0.00000E+00
    0.68229E-02        -0.65537E-02         0.00000E+00
    0.64024E-02        -0.61066E-02         0.00000E+00
    0.59770E-02        -0.56607E-02         0.00000E+00
    0.55465E-02        -0.52162E-02         0.00000E+00
    0.51111E-02        -0.47730E-02         0.00000E+00
    0.46707E-02        -0.43313E-02         0.00000E+00
    0.42254E-02        -0.38910E-02         0.00000E+00
    0.37752E-02        -0.34522E-02         0.00000E+00
    0.33201E-02        -0.30149E-02         0.00000E+00
    0.28602E-02        -0.25791E-02         0.00000E+00
    0.23954E-02        -0.21450E-02         0.00000E+00
    0.19259E-02        -0.17126E-02         0.00000E+00
    0.14515E-02        -0.12818E-02         0.00000E+00
    0.97242E-03        -0.85274E-03         0.00000E+00
    0.48857E-03        -0.42546E-03         0.00000E+00
    0.00000E+00         0.00000E+00         0.00000E+00
    0.18914E-01        -0.23885E-01         0.00000E+00
    0.18675E-01        -0.23392E-01         0.00000E+00
    0.18429E-01        -0.22900E-01         0.00000E+00
    0.18178E-01        -0.22407E-01         0.00000E+00
    0.17920E-01        -0.21915E-01         0.00000E+00
    0.17656E-01        -0.21423E-01         0.00000E+00
    0.17386E-01        -0.20931E-01         0.00000E+00
    0.17111E-01        -0.20439E-01         0.00000E+00
    0.16829E-01        -0.19947E-01         0.00000E+00
    0.16541E-01        -0.19456E-01         0.00000E+00
    0.16248E-01        -0.18965E-01         0.00000E+00
    0.15948E-01        -0.18475E-01         0.00000E+00
    0.15643E-01        -0.17984E-01         0.00000E+00
    0.15332E-01        -0.17495E-01         0.00000E+00
    0.15016E-01        -0.17005E-01         0.00000E+00
    0.14693E-01        -0.16516E-01         0.00000E+00
    0.14365E-01        -0.16028E-01         0.00000E+00
    0.14031E-01        -0.15540E-01         0.00000E+00
    0.13692E-01        -0.15053E-01         0.00000E+00
    0.13347E-01        -0.14566E-01         0.00000E+00
    0.12996E-01        -0.14080E-01         0.00000E+00
    0.12640E-01        -0.13595E-01         0.00000E+00
    0.12278E-01        -0.13111E-01         0.00000E+00
    0.11911E-01        -0.12627E-01         0.00000E+00
    0.11538E-01        -0.12144E-01         0.00000E+00
    0.11160E-01        -0.11662E-01         0.00000E+00
    0.10777E-01        -0.11181E-01         0.00000E+00
    0.10388E-01        -0.10701E-01         0.00000E+00
    0.99933E-02        -0.10222E-01         0.00000E+00
    0.95936E-02        -0.97434E-02         0.00000E+00
    0.91885E-02        -0.92662E-02         0.00000E+00
    0.87781E-02        -0.87900E-02         0.00000E+00
    0.83624E-02        -0.83150E-02         0.00000E+00
    0.79414E-02        -0.78411E-02         0.00000E+00
    0.75152E-02        -0.73685E-02         0.00000E+00
    0.70838E-02        -0.68970E-02         0.00000E+00
    0.66471E-02        -0.64268E-02         0.00000E+00
    0.62053E-02        -0.59579E-02         0.00000E+00
    0.57583E-02        -0.54904E-02         0.00000E+00
    0.53062E-02        -0.50242E-02         0.00000E+00
    0.48490E-02        -0.45595E-02         0.00000E+00
    0.43867E-02        -0.40963E-02         0.00000E+00
    0.39193E-02        -0.36345E-02         0.00000E+00
    0.34468E-02        -0.31743E-02         0.00000E+00
    0.29693E-02        -0.27157E-02         0.00000E+00
    0.24869E-02        -0.22588E-02         0.00000E+00
    0.19994E-02        -0.18035E-02         0.00000E+00
    0.15069E-02        -0.13499E-02         0.00000E+00
    0.10095E-02        -0.89814E-03         0.00000E+00
    0.50722E-03        -0.44814E-03         0.00000E+00
    0.00000E+00         0.00000E+00         0.00000E+00
    0.19664E-01        -0.25095E-01         0.00000E+00
    0.19413E-01        -0.24578E-01         0.00000E+00
    0.19156E-01        -0.24061E-01         0.00000E+00
    0.18892E-01        -0.23544E-01         0.00000E+00
    0.18623E-01        -0.23028E-01         0.00000E+00
    0.18347E-01        -0.22511E-01         0.00000E+00
    0.18065E-01        -0.21995E-01         0.00000E+00
    0.17777E-01        -0.21479E-01         0.00000E+00
    0.17483E-01        -0.20963E-01         0.00000E+00
    0.17183E-01        -0.20448E-01         0.00000E+00
    0.16877E-01        -0.19932E-01         0.00000E+00
    0.16565E-01        -0.19417E-01         0.00000E+00
    0.16246E-01        -0.18903E-01         0.00000E+00
    0.15922E-01        -0.18389E-01         0.00000E+00
    0.15593E-01        -0.17875E-01         0.00000E+00
    0.15257E-01        -0.17362E-01         0.00000E+00
    0.14915E-01        -0.16849E-01         0.00000E+00
    0.14568E-01        -0.16337E-01         0.00000E+00
    0.14215E-01        -0.15826E-01         0.00000E+00
    0.13856E-01        -0.15315E-01         0.00000E+00
    0.13491E-01        -0.14805E-01         0.00000E+00
    0.13121E-01        -0.14295E-01         0.00000E+00
    0.12745E-01        -0.13787E-01         0.00000E+00
    0.12363E-01        -0.13279E-01         0.00000E+00
    0.11975E-01        -0.12772E-01         0.00000E+00
    0.11583E-01        -0.12265E-01         0.00000E+00
    0.11184E-01        -0.11760E-01         0.00000E+00
    0.10780E-01        -0.11255E-01         0.00000E+00
    0.10370E-01        -0.10752E-01         0.00000E+00
    0.99551E-02        -0.10249E-01         0.00000E+00
    0.95345E-02        -0.97479E-02         0.00000E+00
    0.91084E-02        -0.92476E-02         0.00000E+00
    0.86768E-02        -0.87483E-02         0.00000E+00
    0.82399E-02        -0.82502E-02         0.00000E+00
    0.77975E-02        -0.77533E-02         0.00000E+00
    0.73497E-02        -0.72577E-02         0.00000E+00
    0.68965E-02        -0.67633E-02         0.00000E+00
    0.64380E-02        -0.62703E-02         0.00000E+00
    0.59742E-02        -0.57786E-02         0.00000E+00
    0.55051E-02        -0.52883E-02         0.00000E+00
    0.50307E-02        -0.47995E-02         0.00000E+00
    0.45510E-02        -0.43121E-02         0.00000E+00
    0.40661E-02        -0.38263E-02         0.00000E+00
    0.35759E-02        -0.33420E-02         0.00000E+00
    0.30806E-02        -0.28594E-02         0.00000E+00
    0.25800E-02        -0.23784E-02         0.00000E+00
    0.20743E-02        -0.18992E-02         0.00000E+00
    0.15634E-02        -0.14216E-02         0.00000E+00
    0.10474E-02        -0.94591E-03         0.00000E+00
    0.52623E-03        -0.47201E-03         0.00000E+00
    0.00000E+00         0.00000E+00         0.00000E+00
    0.20430E-01        -0.26362E-01         0.00000E+00
    0.20167E-01        -0.25820E-01         0.00000E+00
    0.19898E-01        -0.25278E-01         0.00000E+00
    0.19623E-01        -0.24736E-01         0.00000E+00
    0.19341E-01        -0.24194E-01         0.00000E+00
    0.19053E-01        -0.23652E-01         0.00000E+00
    0.18758E-01        -0.23111E-01         0.00000E+00
    0.18457E-01        -0.22569E-01         0.00000E+00
    0.18151E-01        -0.22028E-01         0.00000E+00
    0.17837E-01        -0.21487E-01         0.00000E+00
    0.17518E-01        -0.20946E-01         0.00000E+00
    0.17193E-01        -0.20406E-01         0.00000E+00
    0.16862E-01        -0.19866E-01         0.00000E+00
    0.16524E-01        -0.19327E-01         0.00000E+00
    0.16181E-01        -0.18788E-01         0.00000E+00
    0.15831E-01        -0.18249E-01         0.00000E+00
    0.15476E-01        -0.17711E-01         0.00000E+00
    0.15114E-01        -0.17173E-01         0.00000E+00
    0.14747E-01        -0.16637E-01         0.00000E+00
    0.14374E-01        -0.16100E-01         0.00000E+00
    0.13995E-01        -0.15565E-01         0.00000E+00
    0.13610E-01        -0.15030E-01         0.00000E+00
    0.13219E-01        -0.14496E-01         0.00000E+00
    0.12823E-01        -0.13962E-01         0.00000E+00
    0.12420E-01        -0.13430E-01         0.00000E+00
    0.12012E-01        -0.12898E-01         0.00000E+00
    0.11598E-01        -0.12367E-01         0.00000E+00
    0.11179E-01        -0.11837E-01         0.00000E+00
    0.10754E-01        -0.11309E-01         0.00000E+00
    0.10323E-01        -0.10781E-01         0.00000E+00
    0.98865E-02        -0.10254E-01         0.00000E+00
    0.94444E-02        -0.97280E-02         0.00000E+00
    0.89967E-02        -0.92034E-02         0.00000E+00
    0.85434E-02        -0.86799E-02         0.00000E+00
    0.80845E-02        -0.81576E-02         0.00000E+00
    0.76201E-02        -0.76366E-02         0.00000E+00
    0.71501E-02        -0.71168E-02         0.00000E+00
    0.66747E-02        -0.65984E-02         0.00000E+00
    0.61937E-02        -0.60814E-02         0.00000E+00
    0.57073E-02        -0.55658E-02         0.00000E+00
    0.52154E-02        -0.50516E-02         0.00000E+00
    0.47181E-02        -0.45390E-02         0.00000E+00
    0.42153E-02        -0.40279E-02         0.00000E+00
    0.37072E-02        -0.35183E-02         0.00000E+00
    0.31936E-02        -0.30105E-02         0.00000E+00
    0.26747E-02        -0.25043E-02         0.00000E+00
    0.21504E-02        -0.19998E-02         0.00000E+00
    0.16208E-02        -0.14971E-02         0.00000E+00
    0.10858E-02        -0.99616E-03         0.00000E+00
    0.54555E-03        -0.49712E-03         0.00000E+00
    0.00000E+00         0.00000E+00         0.00000E+00
    0.21212E-01        -0.27690E-01         0.00000E+00
    0.20937E-01        -0.27122E-01         0.00000E+00
    0.20655E-01        -0.26553E-01         0.00000E+00
    0.20367E-01        -0.25984E-01         0.00000E+00
    0.20073E-01        -0.25416E-01         0.00000E+00
    0.19772E-01        -0.24848E-01         0.00000E+00
    0.19464E-01        -0.24279E-01         0.00000E+00
    0.19151E-01        -0.23711E-01         0.00000E+00
    0.18830E-01        -0.23144E-01         0.00000E+00
    0.18504E-01        -0.22576E-01         0.00000E+00
    0.18171E-01        -0.22009E-01         0.00000E+00
    0.17833E-01        -0.21442E-01         0.00000E+00
    0.17487E-01        -0.20876E-01         0.00000E+00
    0.17136E-01        -0.20310E-01         0.00000E+00
    0.16779E-01        -0.19744E-01         0.00000E+00
    0.16415E-01        -0.19179E-01         0.00000E+00
    0.16046E-01        -0.18614E-01         0.00000E+00
    0.15670E-01        -0.18050E-01         0.00000E+00
    0.15288E-01        -0.17487E-01         0.00000E+00
    0.14900E-01        -0.16924E-01         0.00000E+00
    0.14507E-01        -0.16362E-01         0.00000E+00
    0.14107E-01        -0.15800E-01         0.00000E+00
    0.13701E-01        -0.15240E-01         0.00000E+00
    0.13290E-01        -0.14680E-01         0.00000E+00
    0.12872E-01        -0.14120E-01         0.00000E+00
    0.12449E-01        -0.13562E-01         0.00000E+00
    0.12019E-01        -0.13005E-01         0.00000E+00
    0.11584E-01        -0.12448E-01         0.00000E+00
    0.11143E-01        -0.11893E-01         0.00000E+00
    0.10696E-01        -0.11338E-01         0.00000E+00
    0.10244E-01        -0.10785E-01         0.00000E+00
    0.97853E-02        -0.10232E-01         0.00000E+00
    0.93212E-02        -0.96811E-02         0.00000E+00
    0.88513E-02        -0.91310E-02         0.00000E+00
    0.83757E-02        -0.85821E-02         0.00000E+00
    0.78944E-02        -0.80345E-02         0.00000E+00
    0.74074E-02        -0.74882E-02         0.00000E+00
    0.69147E-02        -0.69432E-02         0.00000E+00
    0.64164E-02        -0.63995E-02         0.00000E+00
    0.59124E-02        -0.58573E-02         0.00000E+00
    0.54028E-02        -0.53166E-02         0.00000E+00
    0.48876E-02        -0.47774E-02         0.00000E+00
    0.43667E-02        -0.42397E-02         0.00000E+00
    0.38403E-02        -0.37037E-02         0.00000E+00
    0.33083E-02        -0.31692E-02         0.00000E+00
    0.27707E-02        -0.26365E-02         0.00000E+00
    0.22276E-02        -0.21055E-02         0.00000E+00
    0.16790E-02        -0.15764E-02         0.00000E+00
    0.11248E-02        -0.10490E-02         0.00000E+00
    0.56516E-03        -0.52354E-03         0.00000E+00
    0.00000E+00         0.00000E+00         0.00000E+00
    0.22008E-01        -0.29081E-01         0.00000E+00
    0.21721E-01        -0.28485E-01         0.00000E+00
    0.21426E-01        -0.27888E-01         0.00000E+00
    0.21125E-01        -0.27292E-01         0.00000E+00
    0.20817E-01        -0.26696E-01         0.00000E+00
    0.20503E-01        -0.26100E-01         0.00000E+00
    0.20182E-01        -0.25504E-01         0.00000E+00
    0.19855E-01        -0.24908E-01         0.00000E+00
    0.19521E-01        -0.24312E-01         0.00000E+00
    0.19181E-01        -0.23717E-01         0.00000E+00
    0.18835E-01        -0.23122E-01         0.00000E+00
    0.18482E-01        -0.22528E-01         0.00000E+00
    0.18123E-01        -0.21934E-01         0.00000E+00
    0.17757E-01        -0.21340E-01         0.00000E+00
    0.17386E-01        -0.20746E-01         0.00000E+00
    0.17008E-01        -0.20154E-01         0.00000E+00
    0.16624E-01        -0.19561E-01         0.00000E+00
    0.16233E-01        -0.18969E-01         0.00000E+00
    0.15837E-01        -0.18378E-01         0.00000E+00
    0.15434E-01        -0.17787E-01         0.00000E+00
    0.15025E-01        -0.17197E-01         0.00000E+00
    0.14610E-01        -0.16608E-01         0.00000E+00
    0.14190E-01        -0.16020E-01         0.00000E+00
    0.13763E-01        -0.15432E-01         0.00000E+00
    0.13329E-01        -0.14845E-01         0.00000E+00
    0.12890E-01        -0.14259E-01         0.00000E+00
    0.12445E-01        -0.13673E-01         0.00000E+00
    0.11994E-01        -0.13089E-01         0.00000E+00
    0.11537E-01        -0.12506E-01         0.00000E+00
    0.11074E-01        -0.11923E-01         0.00000E+00
    0.10605E-01        -0.11342E-01         0.00000E+00
    0.10130E-01        -0.10762E-01         0.00000E+00
    0.96496E-02        -0.10183E-01         0.00000E+00
    0.91629E-02        -0.96046E-02         0.00000E+00
    0.86703E-02        -0.90278E-02         0.00000E+00
    0.81719E-02        -0.84523E-02         0.00000E+00
    0.76677E-02        -0.78780E-02         0.00000E+00
    0.71576E-02        -0.73052E-02         0.00000E+00
    0.66416E-02        -0.67336E-02         0.00000E+00
    0.61199E-02        -0.61636E-02         0.00000E+00
    0.55923E-02        -0.55949E-02         0.00000E+00
    0.50590E-02        -0.50278E-02         0.00000E+00
    0.45198E-02        -0.44623E-02         0.00000E+00
    0.39749E-02        -0.38984E-02         0.00000E+00
    0.34243E-02        -0.33361E-02         0.00000E+00
    0.28679E-02        -0.27756E-02         0.00000E+00
    0.23057E-02        -0.22167E-02         0.00000E+00
    0.17379E-02        -0.16597E-02         0.00000E+00
    0.11643E-02        -0.11046E-02         0.00000E+00
    0.58499E-03        -0.55131E-03         0.00000E+00
    0.00000E+00         0.00000E+00         0.00000E+00
    0.22818E-01        -0.30537E-01         0.00000E+00
    0.22517E-01        -0.29911E-01         0.00000E+00
    0.22209E-01        -0.29286E-01         0.00000E+00
    0.21894E-01        -0.28661E-01         0.00000E+00
    0.21573E-01        -0.28036E-01         0.00000E+00
    0.21245E-01        -0.27411E-01         0.00000E+00
    0.20910E-01        -0.26786E-01         0.00000E+00
    0.20569E-01        -0.26161E-01         0.00000E+00
    0.20221E-01        -0.25537E-01         0.00000E+00
    0.19867E-01        -0.24912E-01         0.00000E+00
    0.19507E-01        -0.24288E-01         0.00000E+00
    0.19140E-01        -0.23665E-01         0.00000E+00
    0.18766E-01        -0.23042E-01         0.00000E+00
    0.18386E-01        -0.22419E-01         0.00000E+00
    0.18000E-01        -0.21797E-01         0.00000E+00
    0.17607E-01        -0.21175E-01         0.00000E+00
    0.17208E-01        -0.20553E-01         0.00000E+00
    0.16803E-01        -0.19932E-01         0.00000E+00
    0.16391E-01        -0.19312E-01         0.00000E+00
    0.15974E-01        -0.18692E-01         0.00000E+00
    0.15550E-01        -0.18073E-01         0.00000E+00
    0.15119E-01        -0.17455E-01         0.00000E+00
    0.14683E-01        -0.16837E-01         0.00000E+00
    0.14240E-01        -0.16220E-01         0.00000E+00
    0.13791E-01        -0.15604E-01         0.00000E+00
    0.13337E-01        -0.14989E-01         0.00000E+00
    0.12875E-01        -0.14375E-01         0.00000E+00
    0.12408E-01        -0.13761E-01         0.00000E+00
    0.11935E-01        -0.13149E-01         0.00000E+00
    0.11456E-01        -0.12537E-01         0.00000E+00
    0.10970E-01        -0.11926E-01         0.00000E+00
    0.10478E-01        -0.11317E-01         0.00000E+00
    0.99809E-02        -0.10709E-01         0.00000E+00
    0.94773E-02        -0.10101E-01         0.00000E+00
    0.89676E-02        -0.94955E-02         0.00000E+00
    0.84519E-02        -0.88907E-02         0.00000E+00
    0.79302E-02        -0.82873E-02         0.00000E+00
    0.74025E-02        -0.76852E-02         0.00000E+00
    0.68688E-02        -0.70844E-02         0.00000E+00
    0.63291E-02        -0.64851E-02         0.00000E+00
    0.57835E-02        -0.58872E-02         0.00000E+00
    0.52318E-02        -0.52909E-02         0.00000E+00
    0.46743E-02        -0.46961E-02         0.00000E+00
    0.41107E-02        -0.41029E-02         0.00000E+00
    0.35413E-02        -0.35114E-02         0.00000E+00
    0.29659E-02        -0.29216E-02         0.00000E+00
    0.23845E-02        -0.23336E-02         0.00000E+00
    0.17973E-02        -0.17473E-02         0.00000E+00
    0.12041E-02        -0.11630E-02         0.00000E+00
    0.60499E-03        -0.58050E-03         0.00000E+00
    0.00000E+00         0.00000E+00         0.00000E+00
    0.23638E-01        -0.32060E-01         0.00000E+00
    0.23323E-01        -0.31404E-01         0.00000E+00
    0.23001E-01        -0.30749E-01         0.00000E+00
    0.22672E-01        -0.30093E-01         0.00000E+00
    0.22337E-01        -0.29438E-01         0.00000E+00
    0.21995E-01        -0.28783E-01         0.00000E+00
    0.21646E-01        -0.28127E-01         0.00000E+00
    0.21291E-01        -0.27473E-01         0.00000E+00
    0.20929E-01        -0.26818E-01         0.00000E+00
    0.20560E-01        -0.26163E-01         0.00000E+00
    0.20185E-01        -0.25509E-01         0.00000E+00
    0.19804E-01        -0.24855E-01         0.00000E+00
    0.19415E-01        -0.24202E-01         0.00000E+00
    0.19021E-01        -0.23549E-01         0.00000E+00
    0.18619E-01        -0.22896E-01         0.00000E+00
    0.18212E-01        -0.22244E-01         0.00000E+00
    0.17798E-01        -0.21592E-01         0.00000E+00
    0.17377E-01        -0.20941E-01         0.00000E+00
    0.16951E-01        -0.20290E-01         0.00000E+00
    0.16517E-01        -0.19640E-01         0.00000E+00
    0.16078E-01        -0.18991E-01         0.00000E+00
    0.15632E-01        -0.18342E-01         0.00000E+00
    0.15180E-01        -0.17694E-01         0.00000E+00
    0.14721E-01        -0.17047E-01         0.00000E+00
    0.14257E-01        -0.16400E-01         0.00000E+00
    0.13786E-01        -0.15754E-01         0.00000E+00
    0.13308E-01        -0.15110E-01         0.00000E+00
    0.12825E-01        -0.14466E-01         0.00000E+00
    0.12335E-01        -0.13823E-01         0.00000E+00
    0.11839E-01        -0.13180E-01         0.00000E+00
    0.11337E-01        -0.12539E-01         0.00000E+00
    0.10829E-01        -0.11899E-01         0.00000E+00
    0.10314E-01        -0.11260E-01         0.00000E+00
    0.97934E-02        -0.10623E-01         0.00000E+00
    0.92665E-02        -0.99861E-02         0.00000E+00
    0.87334E-02        -0.93508E-02         0.00000E+00
    0.81941E-02        -0.87167E-02         0.00000E+00
    0.76487E-02        -0.80839E-02         0.00000E+00
    0.70972E-02        -0.74525E-02         0.00000E+00
    0.65395E-02        -0.68226E-02         0.00000E+00
    0.59756E-02        -0.61940E-02         0.00000E+00
    0.54056E-02        -0.55670E-02         0.00000E+00
    0.48295E-02        -0.49416E-02         0.00000E+00
    0.42472E-02        -0.43177E-02         0.00000E+00
    0.36588E-02        -0.36955E-02         0.00000E+00
    0.30643E-02        -0.30750E-02         0.00000E+00
    0.24637E-02        -0.24563E-02         0.00000E+00
    0.18569E-02        -0.18394E-02         0.00000E+00
    0.12441E-02        -0.12243E-02         0.00000E+00
    0.62509E-03        -0.61118E-03         0.00000E+00
    0.00000E+00         0.00000E+00         0.00000E+00
    0.24466E-01        -0.33653E-01         0.00000E+00
    0.24137E-01        -0.32966E-01         0.00000E+00
    0.23801E-01        -0.32279E-01         0.00000E+00
    0.23458E-01        -0.31592E-01         0.00000E+00
    0.23108E-01        -0.30905E-01         0.00000E+00
    0.22752E-01        -0.30218E-01         0.00000E+00
    0.22389E-01        -0.29531E-01         0.00000E+00
    0.22019E-01        -0.28845E-01         0.00000E+00
    0.21642E-01        -0.28159E-01         0.00000E+00
    0.21259E-01        -0.27473E-01         0.00000E+00
    0.20869E-01        -0.26787E-01         0.00000E+00
    0.20472E-01        -0.26101E-01         0.00000E+00
    0.20069E-01        -0.25416E-01         0.00000E+00
    0.19659E-01        -0.24732E-01         0.00000E+00
    0.19243E-01        -0.24047E-01         0.00000E+00
    0.18820E-01        -0.23364E-01         0.00000E+00
    0.18390E-01        -0.22680E-01         0.00000E+00
    0.17955E-01        -0.21997E-01         0.00000E+00
    0.17512E-01        -0.21315E-01         0.00000E+00
    0.17063E-01        -0.20633E-01         0.00000E+00
    0.16608E-01        -0.19952E-01         0.00000E+00
    0.16147E-01        -0.19271E-01         0.00000E+00
    0.15679E-01        -0.18592E-01         0.00000E+00
    0.15204E-01        -0.17912E-01         0.00000E+00
    0.14723E-01        -0.17234E-01         0.00000E+00
    0.14236E-01        -0.16556E-01         0.00000E+00
    0.13743E-01        -0.15880E-01         0.00000E+00
    0.13243E-01        -0.15204E-01         0.00000E+00
    0.12736E-01        -0.14529E-01         0.00000E+00
    0.12224E-01        -0.13855E-01         0.00000E+00
    0.11705E-01        -0.13182E-01         0.00000E+00
    0.11180E-01        -0.12510E-01         0.00000E+00
    0.10648E-01        -0.11839E-01         0.00000E+00
    0.10110E-01        -0.11169E-01         0.00000E+00
    0.95659E-02        -0.10501E-01         0.00000E+00
    0.90154E-02        -0.98332E-02         0.00000E+00
    0.84585E-02        -0.91670E-02         0.00000E+00
    0.78954E-02        -0.85022E-02         0.00000E+00
    0.73259E-02        -0.78387E-02         0.00000E+00
    0.67501E-02        -0.71766E-02         0.00000E+00
    0.61680E-02        -0.65160E-02         0.00000E+00
    0.55796E-02        -0.58568E-02         0.00000E+00
    0.49849E-02        -0.51992E-02         0.00000E+00
    0.43839E-02        -0.45432E-02         0.00000E+00
    0.37766E-02        -0.38888E-02         0.00000E+00
    0.31630E-02        -0.32361E-02         0.00000E+00
    0.25430E-02        -0.25852E-02         0.00000E+00
    0.19167E-02        -0.19360E-02         0.00000E+00
    0.12841E-02        -0.12888E-02         0.00000E+00
    0.64523E-03        -0.64340E-03         0.00000E+00
    0.00000E+00         0.00000E+00         0.00000E+00
    0.25301E-01        -0.35318E-01         0.00000E+00
    0.24957E-01        -0.34598E-01         0.00000E+00
    0.24606E-01        -0.33878E-01         0.00000E+00
    0.24249E-01        -0.33158E-01         0.00000E+00
    0.23884E-01        -0.32438E-01         0.00000E+00
    0.23513E-01        -0.31719E-01         0.00000E+00
    0.23134E-01        -0.30999E-01         0.00000E+00
    0.22749E-01        -0.30280E-01         0.00000E+00
    0.22358E-01        -0.29561E-01         0.00000E+00
    0.21959E-01        -0.28842E-01         0.00000E+00
    0.21554E-01        -0.28123E-01         0.00000E+00
    0.21142E-01        -0.27405E-01         0.00000E+00
    0.20724E-01        -0.26687E-01         0.00000E+00
    0.20299E-01        -0.25969E-01         0.00000E+00
    0.19867E-01        -0.25252E-01         0.00000E+00
    0.19429E-01        -0.24535E-01         0.00000E+00
    0.18984E-01        -0.23818E-01         0.00000E+00
    0.18532E-01        -0.23102E-01         0.00000E+00
    0.18074E-01        -0.22387E-01         0.00000E+00
    0.17610E-01        -0.21672E-01         0.00000E+00
    0.17139E-01        -0.20958E-01         0.00000E+00
    0.16661E-01        -0.20244E-01         0.00000E+00
    0.16177E-01        -0.19531E-01         0.00000E+00
    0.15687E-01        -0.18819E-01         0.00000E+00
    0.15190E-01        -0.18107E-01         0.00000E+00
    0.14686E-01        -0.17396E-01         0.00000E+00
    0.14176E-01        -0.16686E-01         0.00000E+00
    0.13660E-01        -0.15977E-01         0.00000E+00
    0.13137E-01        -0.15269E-01         0.00000E+00
    0.12608E-01        -0.14561E-01         0.00000E+00
    0.12072E-01        -0.13855E-01         0.00000E+00
    0.11530E-01        -0.13150E-01         0.00000E+00
    0.10981E-01        -0.12445E-01         0.00000E+00
    0.10426E-01        -0.11742E-01         0.00000E+00
    0.98648E-02        -0.11040E-01         0.00000E+00
    0.92968E-02        -0.10339E-01         0.00000E+00
    0.87223E-02        -0.96392E-02         0.00000E+00
    0.81414E-02        -0.89408E-02         0.00000E+00
    0.75541E-02        -0.82437E-02         0.00000E+00
    0.69603E-02        -0.75479E-02         0.00000E+00
    0.63600E-02        -0.68536E-02         0.00000E+00
    0.57532E-02        -0.61608E-02         0.00000E+00
    0.51400E-02        -0.54695E-02         0.00000E+00
    0.45202E-02        -0.47797E-02         0.00000E+00
    0.38940E-02        -0.40916E-02         0.00000E+00
    0.32613E-02        -0.34052E-02         0.00000E+00
    0.26221E-02        -0.27204E-02         0.00000E+00
    0.19764E-02        -0.20375E-02         0.00000E+00
    0.13241E-02        -0.13564E-02         0.00000E+00
    0.66532E-03        -0.67723E-03         0.00000E+00
    0.00000E+00         0.00000E+00         0.00000E+00
    0.26139E-01        -0.37058E-01         0.00000E+00
    0.25780E-01        -0.36303E-01         0.00000E+00
    0.25414E-01        -0.35549E-01         0.00000E+00
    0.25041E-01        -0.34795E-01         0.00000E+00
    0.24661E-01        -0.34041E-01         0.00000E+00
    0.24274E-01        -0.33287E-01         0.00000E+00
    0.23881E-01        -0.32533E-01         0.00000E+00
    0.23481E-01        -0.31780E-01         0.00000E+00
    0.23074E-01        -0.31026E-01         0.00000E+00
    0.22660E-01        -0.30273E-01         0.00000E+00
    0.22239E-01        -0.29520E-01         0.00000E+00
    0.21812E-01        -0.28767E-01         0.00000E+00
    0.21378E-01        -0.28015E-01         0.00000E+00
    0.20937E-01        -0.27263E-01         0.00000E+00
    0.20490E-01        -0.26511E-01         0.00000E+00
    0.20036E-01        -0.25760E-01         0.00000E+00
    0.19575E-01        -0.25009E-01         0.00000E+00
    0.19108E-01        -0.24259E-01         0.00000E+00
    0.18635E-01        -0.23509E-01         0.00000E+00
    0.18154E-01        -0.22759E-01         0.00000E+00
    0.17667E-01        -0.22010E-01         0.00000E+00
    0.17174E-01        -0.21262E-01         0.00000E+00
    0.16674E-01        -0.20514E-01         0.00000E+00
    0.16167E-01        -0.19767E-01         0.00000E+00
    0.15654E-01        -0.19021E-01         0.00000E+00
    0.15134E-01        -0.18275E-01         0.00000E+00
    0.14608E-01        -0.17531E-01         0.00000E+00
    0.14075E-01        -0.16787E-01         0.00000E+00
    0.13536E-01        -0.16043E-01         0.00000E+00
    0.12990E-01        -0.15301E-01         0.00000E+00
    0.12437E-01        -0.14560E-01         0.00000E+00
    0.11878E-01        -0.13820E-01         0.00000E+00
    0.11313E-01        -0.13080E-01         0.00000E+00
    0.10740E-01        -0.12342E-01         0.00000E+00
    0.10162E-01        -0.11605E-01         0.00000E+00
    0.95762E-02        -0.10869E-01         0.00000E+00
    0.89843E-02        -0.10134E-01         0.00000E+00
    0.83858E-02        -0.94004E-02         0.00000E+00
    0.77806E-02        -0.86681E-02         0.00000E+00
    0.71689E-02        -0.79372E-02         0.00000E+00
    0.65505E-02        -0.72076E-02         0.00000E+00
    0.59255E-02        -0.64795E-02         0.00000E+00
    0.52939E-02        -0.57529E-02         0.00000E+00
    0.46556E-02        -0.50278E-02         0.00000E+00
    0.40106E-02        -0.43043E-02         0.00000E+00
    0.33590E-02        -0.35825E-02         0.00000E+00
    0.27006E-02        -0.28623E-02         0.00000E+00
    0.20356E-02        -0.21440E-02         0.00000E+00
    0.13638E-02        -0.14274E-02         0.00000E+00
    0.68527E-03        -0.71274E-03         0.00000E+00
    0.00000E+00         0.00000E+00         0.00000E+00
    0.26977E-01        -0.38874E-01         0.00000E+00
    0.26602E-01        -0.38084E-01         0.00000E+00
    0.26221E-01        -0.37295E-01         0.00000E+00
    0.25832E-01        -0.36505E-01         0.00000E+00
    0.25437E-01        -0.35715E-01         0.00000E+00
    0.25034E-01        -0.34926E-01         0.00000E+00
    0.24625E-01        -0.34136E-01         0.00000E+00
    0.24209E-01        -0.33347E-01         0.00000E+00
    0.23786E-01        -0.32558E-01         0.00000E+00
    0.23357E-01        -0.31769E-01         0.00000E+00
    0.22921E-01        -0.30980E-01         0.00000E+00
    0.22478E-01        -0.30191E-01         0.00000E+00
    0.22028E-01        -0.29403E-01         0.00000E+00
    0.21572E-01        -0.28615E-01         0.00000E+00
    0.21109E-01        -0.27828E-01         0.00000E+00
    0.20639E-01        -0.27040E-01         0.00000E+00
    0.20163E-01        -0.26254E-01         0.00000E+00
    0.19680E-01        -0.25467E-01         0.00000E+00
    0.19190E-01        -0.24681E-01         0.00000E+00
    0.18694E-01        -0.23896E-01         0.00000E+00
    0.18191E-01        -0.23111E-01         0.00000E+00
    0.17682E-01        -0.22326E-01         0.00000E+00
    0.17165E-01        -0.21543E-01         0.00000E+00
    0.16643E-01        -0.20759E-01         0.00000E+00
    0.16113E-01        -0.19977E-01         0.00000E+00
    0.15577E-01        -0.19195E-01         0.00000E+00
    0.15035E-01        -0.18414E-01         0.00000E+00
    0.14486E-01        -0.17634E-01         0.00000E+00
    0.13930E-01        -0.16854E-01         0.00000E+00
    0.13367E-01        -0.16075E-01         0.00000E+00
    0.12798E-01        -0.15298E-01         0.00000E+00
    0.12222E-01        -0.14521E-01         0.00000E+00
    0.11640E-01        -0.13745E-01         0.00000E+00
    0.11051E-01        -0.12970E-01         0.00000E+00
    0.10455E-01        -0.12196E-01         0.00000E+00
    0.98523E-02        -0.11424E-01         0.00000E+00
    0.92431E-02        -0.10652E-01         0.00000E+00
    0.86271E-02        -0.98818E-02         0.00000E+00
    0.80044E-02        -0.91128E-02         0.00000E+00
    0.73750E-02        -0.83450E-02         0.00000E+00
    0.67387E-02        -0.75786E-02         0.00000E+00
    0.60957E-02        -0.68135E-02         0.00000E+00
    0.54459E-02        -0.60499E-02         0.00000E+00
    0.47892E-02        -0.52878E-02         0.00000E+00
    0.41258E-02        -0.45273E-02         0.00000E+00
    0.34554E-02        -0.37684E-02         0.00000E+00
    0.27782E-02        -0.30112E-02         0.00000E+00
    0.20940E-02        -0.22556E-02         0.00000E+00
    0.14030E-02        -0.15019E-02         0.00000E+00
    0.70496E-03        -0.74999E-03         0.00000E+00
    0.00000E+00         0.00000E+00         0.00000E+00
    0.27811E-01        -0.40770E-01         0.00000E+00
    0.27420E-01        -0.39943E-01         0.00000E+00
    0.27023E-01        -0.39116E-01         0.00000E+00
    0.26618E-01        -0.38289E-01         0.00000E+00
    0.26207E-01        -0.37463E-01         0.00000E+00
    0.25788E-01        -0.36636E-01         0.00000E+00
    0.25363E-01        -0.35809E-01         0.00000E+00
    0.24932E-01        -0.34983E-01         0.00000E+00
    0.24493E-01        -0.34156E-01         0.00000E+00
    0.24048E-01        -0.33330E-01         0.00000E+00
    0.23596E-01        -0.32504E-01         0.00000E+00
    0.23137E-01        -0.31678E-01         0.00000E+00
    0.22671E-01        -0.30853E-01         0.00000E+00
    0.22199E-01        -0.30027E-01         0.00000E+00
    0.21720E-01        -0.29203E-01         0.00000E+00
    0.21235E-01        -0.28378E-01         0.00000E+00
    0.20743E-01        -0.27554E-01         0.00000E+00
    0.20244E-01        -0.26730E-01         0.00000E+00
    0.19738E-01        -0.25906E-01         0.00000E+00
    0.19226E-01        -0.25083E-01         0.00000E+00
    0.18707E-01        -0.24261E-01         0.00000E+00
    0.18182E-01        -0.23439E-01         0.00000E+00
    0.17650E-01        -0.22617E-01         0.00000E+00
    0.17111E-01        -0.21797E-01         0.00000E+00
    0.16566E-01        -0.20976E-01         0.00000E+00
    0.16014E-01        -0.20157E-01         0.00000E+00
    0.15455E-01        -0.19338E-01         0.00000E+00
    0.14889E-01        -0.18519E-01         0.00000E+00
    0.14317E-01        -0.17702E-01         0.00000E+00
    0.13738E-01        -0.16885E-01         0.00000E+00
    0.13153E-01        -0.16070E-01         0.00000E+00
    0.12561E-01        -0.15255E-01         0.00000E+00
    0.11961E-01        -0.14441E-01         0.00000E+00
    0.11356E-01        -0.13628E-01         0.00000E+00
    0.10743E-01        -0.12815E-01         0.00000E+00
    0.10124E-01        -0.12005E-01         0.00000E+00
    0.94972E-02        -0.11195E-01         0.00000E+00
    0.88641E-02        -0.10386E-01         0.00000E+00
    0.82241E-02        -0.95783E-02         0.00000E+00
    0.75773E-02        -0.87720E-02         0.00000E+00
    0.69235E-02        -0.79670E-02         0.00000E+00
    0.62628E-02        -0.71634E-02         0.00000E+00
    0.55951E-02        -0.63611E-02         0.00000E+00
    0.49204E-02        -0.55603E-02         0.00000E+00
    0.42388E-02        -0.47610E-02         0.00000E+00
    0.35500E-02        -0.39632E-02         0.00000E+00
    0.28543E-02        -0.31671E-02         0.00000E+00
    0.21514E-02        -0.23727E-02         0.00000E+00
    0.14414E-02        -0.15800E-02         0.00000E+00
    0.72430E-03        -0.78905E-03         0.00000E+00
    0.00000E+00         0.00000E+00         0.00000E+00
    0.28637E-01        -0.42748E-01         0.00000E+00
    0.28230E-01        -0.41882E-01         0.00000E+00
    0.27816E-01        -0.41016E-01         0.00000E+00
    0.27395E-01        -0.40151E-01         0.00000E+00
    0.26968E-01        -0.39285E-01         0.00000E+00
    0.26533E-01        -0.38420E-01         0.00000E+00
    0.26092E-01        -0.37555E-01         0.00000E+00
    0.25644E-01        -0.36689E-01         0.00000E+00
    0.25189E-01        -0.35824E-01         0.00000E+00
    0.24728E-01        -0.34959E-01         0.00000E+00
    0.24260E-01        -0.34095E-01         0.00000E+00
    0.23785E-01        -0.33230E-01         0.00000E+00
    0.23304E-01        -0.32366E-01         0.00000E+00
    0.22816E-01        -0.31502E-01         0.00000E+00
    0.22321E-01        -0.30638E-01         0.00000E+00
    0.21820E-01        -0.29774E-01         0.00000E+00
    0.21312E-01        -0.28911E-01         0.00000E+00
    0.20797E-01        -0.28048E-01         0.00000E+00
    0.20276E-01        -0.27186E-01         0.00000E+00
    0.19748E-01        -0.26324E-01         0.00000E+00
    0.19213E-01        -0.25462E-01         0.00000E+00
    0.18672E-01        -0.24601E-01         0.00000E+00
    0.18124E-01        -0.23740E-01         0.00000E+00
    0.17569E-01        -0.22880E-01         0.00000E+00
    0.17008E-01        -0.22020E-01         0.00000E+00
    0.16440E-01        -0.21161E-01         0.00000E+00
    0.15866E-01        -0.20303E-01         0.00000E+00
    0.15284E-01        -0.19445E-01         0.00000E+00
    0.14696E-01        -0.18588E-01         0.00000E+00
    0.14101E-01        -0.17732E-01         0.00000E+00
    0.13499E-01        -0.16876E-01         0.00000E+00
    0.12891E-01        -0.16022E-01         0.00000E+00
    0.12275E-01        -0.15168E-01         0.00000E+00
    0.11653E-01        -0.14315E-01         0.00000E+00
    0.11024E-01        -0.13463E-01         0.00000E+00
    0.10388E-01        -0.12612E-01         0.00000E+00
    0.97451E-02        -0.11762E-01         0.00000E+00
    0.90952E-02        -0.10913E-01         0.00000E+00
    0.84384E-02        -0.10066E-01         0.00000E+00
    0.77745E-02        -0.92189E-02         0.00000E+00
    0.71036E-02        -0.83736E-02         0.00000E+00
    0.64256E-02        -0.75296E-02         0.00000E+00
    0.57405E-02        -0.66869E-02         0.00000E+00
    0.50483E-02        -0.58455E-02         0.00000E+00
    0.43489E-02        -0.50057E-02         0.00000E+00
    0.36423E-02        -0.41673E-02         0.00000E+00
    0.29285E-02        -0.33305E-02         0.00000E+00
    0.22074E-02        -0.24953E-02         0.00000E+00
    0.14789E-02        -0.16618E-02         0.00000E+00
    0.74315E-03        -0.82998E-03         0.00000E+00
    0.00000E+00         0.00000E+00         0.00000E+00
    0.29451E-01        -0.44808E-01         0.00000E+00
    0.29027E-01        -0.43902E-01         0.00000E+00
    0.28596E-01        -0.42997E-01         0.00000E+00
    0.28159E-01        -0.42091E-01         0.00000E+00
    0.27715E-01        -0.41185E-01         0.00000E+00
    0.27264E-01        -0.40280E-01         0.00000E+00
    0.26806E-01        -0.39374E-01         0.00000E+00
    0.26342E-01        -0.38469E-01         0.00000E+00
    0.25871E-01        -0.37564E-01         0.00000E+00
    0.25394E-01        -0.36659E-01         0.00000E+00
    0.24909E-01        -0.35753E-01         0.00000E+00
    0.24419E-01        -0.34849E-01         0.00000E+00
    0.23921E-01        -0.33944E-01         0.00000E+00
    0.23417E-01        -0.33039E-01         0.00000E+00
    0.22907E-01        -0.32135E-01         0.00000E+00
    0.22390E-01        -0.31231E-01         0.00000E+00
    0.21866E-01        -0.30328E-01         0.00000E+00
    0.21336E-01        -0.29424E-01         0.00000E+00
    0.20799E-01        -0.28521E-01         0.00000E+00
    0.20255E-01        -0.27618E-01         0.00000E+00
    0.19705E-01        -0.26716E-01         0.00000E+00
    0.19148E-01        -0.25814E-01         0.00000E+00
    0.18585E-01        -0.24912E-01         0.00000E+00
    0.18014E-01        -0.24011E-01         0.00000E+00
    0.17438E-01        -0.23111E-01         0.00000E+00
    0.16854E-01        -0.22211E-01         0.00000E+00
    0.16264E-01        -0.21311E-01         0.00000E+00
    0.15667E-01        -0.20412E-01         0.00000E+00
    0.15063E-01        -0.19514E-01         0.00000E+00
    0.14452E-01        -0.18616E-01         0.00000E+00
    0.13835E-01        -0.17720E-01         0.00000E+00
    0.13210E-01        -0.16823E-01         0.00000E+00
    0.12579E-01        -0.15928E-01         0.00000E+00
    0.11941E-01        -0.15034E-01         0.00000E+00
    0.11296E-01        -0.14140E-01         0.00000E+00
    0.10644E-01        -0.13247E-01         0.00000E+00
    0.99848E-02        -0.12355E-01         0.00000E+00
    0.93187E-02        -0.11465E-01         0.00000E+00
    0.86455E-02        -0.10575E-01         0.00000E+00
    0.79652E-02        -0.96864E-02         0.00000E+00
    0.72777E-02        -0.87989E-02         0.00000E+00
    0.65830E-02        -0.79127E-02         0.00000E+00
    0.58811E-02        -0.70277E-02         0.00000E+00
    0.51719E-02        -0.61440E-02         0.00000E+00
    0.44554E-02        -0.52617E-02         0.00000E+00
    0.37315E-02        -0.43809E-02         0.00000E+00
    0.30002E-02        -0.35015E-02         0.00000E+00
    0.22614E-02        -0.26236E-02         0.00000E+00
    0.15152E-02        -0.17474E-02         0.00000E+00
    0.76138E-03        -0.87284E-03         0.00000E+00
    0.00000E+00         0.00000E+00         0.00000E+00
    0.30248E-01        -0.46954E-01         0.00000E+00
    0.29807E-01        -0.46007E-01         0.00000E+00
    0.29359E-01        -0.45060E-01         0.00000E+00
    0.28904E-01        -0.44112E-01         0.00000E+00
    0.28443E-01        -0.43165E-01         0.00000E+00
    0.27976E-01        -0.42218E-01         0.00000E+00
    0.27502E-01        -0.41270E-01         0.00000E+00
    0.27021E-01        -0.40323E-01         0.00000E+00
    0.26534E-01        -0.39376E-01         0.00000E+00
    0.26040E-01        -0.38429E-01         0.00000E+00
    0.25540E-01        -0.37482E-01         0.00000E+00
    0.25033E-01        -0.36536E-01         0.00000E+00
    0.24520E-01        -0.35589E-01         0.00000E+00
    0.24000E-01        -0.34642E-01         0.00000E+00
    0.23474E-01        -0.33696E-01         0.00000E+00
    0.22941E-01        -0.32750E-01         0.00000E+00
    0.22402E-01        -0.31804E-01         0.00000E+00
    0.21856E-01        -0.30859E-01         0.00000E+00
    0.21303E-01        -0.29913E-01         0.00000E+00
    0.20744E-01        -0.28968E-01         0.00000E+00
    0.20179E-01        -0.28024E-01         0.00000E+00
    0.19607E-01        -0.27079E-01         0.00000E+00
    0.19028E-01        -0.26135E-01         0.00000E+00
    0.18443E-01        -0.25192E-01         0.00000E+00
    0.17851E-01        -0.24248E-01         0.00000E+00
    0.17252E-01        -0.23306E-01         0.00000E+00
    0.16646E-01        -0.22363E-01         0.00000E+00
    0.16034E-01        -0.21422E-01         0.00000E+00
    0.15415E-01        -0.20480E-01         0.00000E+00
    0.14789E-01        -0.19540E-01         0.00000E+00
    0.14156E-01        -0.18600E-01         0.00000E+00
    0.13517E-01        -0.17661E-01         0.00000E+00
    0.12870E-01        -0.16722E-01         0.00000E+00
    0.12217E-01        -0.15784E-01         0.00000E+00
    0.11557E-01        -0.14847E-01         0.00000E+00
    0.10889E-01        -0.13911E-01         0.00000E+00
    0.10214E-01        -0.12975E-01         0.00000E+00
    0.95327E-02        -0.12041E-01         0.00000E+00
    0.88439E-02        -0.11107E-01         0.00000E+00
    0.81478E-02        -0.10175E-01         0.00000E+00
    0.74444E-02        -0.92435E-02         0.00000E+00
    0.67337E-02        -0.83132E-02         0.00000E+00
    0.60157E-02        -0.73841E-02         0.00000E+00
    0.52902E-02        -0.64562E-02         0.00000E+00
    0.45573E-02        -0.55296E-02         0.00000E+00
    0.38168E-02        -0.46043E-02         0.00000E+00
    0.30688E-02        -0.36804E-02         0.00000E+00
    0.23132E-02        -0.27580E-02         0.00000E+00
    0.15499E-02        -0.18370E-02         0.00000E+00
    0.77883E-03        -0.91770E-03         0.00000E+00
    0.00000E+00         0.00000E+00         0.00000E+00
    0.31021E-01        -0.49188E-01         0.00000E+00
    0.30563E-01        -0.48197E-01         0.00000E+00
    0.30097E-01        -0.47206E-01         0.00000E+00
    0.29626E-01        -0.46216E-01         0.00000E+00
    0.29148E-01        -0.45225E-01         0.00000E+00
    0.28663E-01        -0.44235E-01         0.00000E+00
    0.28173E-01        -0.43244E-01         0.00000E+00
    0.27675E-01        -0.42254E-01         0.00000E+00
    0.27172E-01        -0.41263E-01         0.00000E+00
    0.26662E-01        -0.40273E-01         0.00000E+00
    0.26146E-01        -0.39283E-01         0.00000E+00
    0.25623E-01        -0.38292E-01         0.00000E+00
    0.25094E-01        -0.37302E-01         0.00000E+00
    0.24558E-01        -0.36312E-01         0.00000E+00
    0.24017E-01        -0.35322E-01         0.00000E+00
    0.23468E-01        -0.34333E-01         0.00000E+00
    0.22914E-01        -0.33343E-01         0.00000E+00
    0.22353E-01        -0.32354E-01         0.00000E+00
    0.21785E-01        -0.31364E-01         0.00000E+00
    0.21211E-01        -0.30375E-01         0.00000E+00
    0.20631E-01        -0.29387E-01         0.00000E+00
    0.20044E-01        -0.28398E-01         0.00000E+00
    0.19450E-01        -0.27410E-01         0.00000E+00
    0.18850E-01        -0.26422E-01         0.00000E+00
    0.18243E-01        -0.25435E-01         0.00000E+00
    0.17630E-01        -0.24448E-01         0.00000E+00
    0.17010E-01        -0.23461E-01         0.00000E+00
    0.16383E-01        -0.22474E-01         0.00000E+00
    0.15749E-01        -0.21489E-01         0.00000E+00
    0.15109E-01        -0.20503E-01         0.00000E+00
    0.14462E-01        -0.19518E-01         0.00000E+00
    0.13808E-01        -0.18534E-01         0.00000E+00
    0.13146E-01        -0.17550E-01         0.00000E+00
    0.12478E-01        -0.16567E-01         0.00000E+00
    0.11803E-01        -0.15585E-01         0.00000E+00
    0.11121E-01        -0.14604E-01         0.00000E+00
    0.10432E-01        -0.13623E-01         0.00000E+00
    0.97353E-02        -0.12643E-01         0.00000E+00
    0.90315E-02        -0.11664E-01         0.00000E+00
    0.83205E-02        -0.10685E-01         0.00000E+00
    0.76021E-02        -0.97080E-02         0.00000E+00
    0.68763E-02        -0.87317E-02         0.00000E+00
    0.61429E-02        -0.77565E-02         0.00000E+00
    0.54021E-02        -0.67824E-02         0.00000E+00
    0.46537E-02        -0.58095E-02         0.00000E+00
    0.38976E-02        -0.48378E-02         0.00000E+00
    0.31338E-02        -0.38674E-02         0.00000E+00
    0.23622E-02        -0.28984E-02         0.00000E+00
    0.15827E-02        -0.19308E-02         0.00000E+00
    0.79535E-03        -0.96461E-03         0.00000E+00
    0.00000E+00         0.00000E+00         0.00000E+00
    0.31766E-01        -0.51510E-01         0.00000E+00
    0.31289E-01        -0.50474E-01         0.00000E+00
    0.30806E-01        -0.49439E-01         0.00000E+00
    0.30317E-01        -0.48403E-01         0.00000E+00
    0.29822E-01        -0.47368E-01         0.00000E+00
    0.29321E-01        -0.46333E-01         0.00000E+00
    0.28813E-01        -0.45297E-01         0.00000E+00
    0.28300E-01        -0.44262E-01         0.00000E+00
    0.27780E-01        -0.43226E-01         0.00000E+00
    0.27254E-01        -0.42191E-01         0.00000E+00
    0.26721E-01        -0.41156E-01         0.00000E+00
    0.26183E-01        -0.40120E-01         0.00000E+00
    0.25638E-01        -0.39085E-01         0.00000E+00
    0.25088E-01        -0.38050E-01         0.00000E+00
    0.24530E-01        -0.37015E-01         0.00000E+00
    0.23967E-01        -0.35980E-01         0.00000E+00
    0.23398E-01        -0.34945E-01         0.00000E+00
    0.22822E-01        -0.33910E-01         0.00000E+00
    0.22240E-01        -0.32875E-01         0.00000E+00
    0.21651E-01        -0.31841E-01         0.00000E+00
    0.21056E-01        -0.30806E-01         0.00000E+00
    0.20455E-01        -0.29772E-01         0.00000E+00
    0.19847E-01        -0.28738E-01         0.00000E+00
    0.19233E-01        -0.27704E-01         0.00000E+00
    0.18612E-01        -0.26671E-01         0.00000E+00
    0.17984E-01        -0.25637E-01         0.00000E+00
    0.17350E-01        -0.24604E-01         0.00000E+00
    0.16710E-01        -0.23572E-01         0.00000E+00
    0.16062E-01        -0.22539E-01         0.00000E+00
    0.15408E-01        -0.21508E-01         0.00000E+00
    0.14747E-01        -0.20476E-01         0.00000E+00
    0.14079E-01        -0.19445E-01         0.00000E+00
    0.13404E-01        -0.18414E-01         0.00000E+00
    0.12723E-01        -0.17384E-01         0.00000E+00
    0.12034E-01        -0.16355E-01         0.00000E+00
    0.11338E-01        -0.15326E-01         0.00000E+00
    0.10635E-01        -0.14298E-01         0.00000E+00
    0.99242E-02        -0.13271E-01         0.00000E+00
    0.92065E-02        -0.12244E-01         0.00000E+00
    0.84815E-02        -0.11218E-01         0.00000E+00
    0.77491E-02        -0.10193E-01         0.00000E+00
    0.70091E-02        -0.91686E-02         0.00000E+00
    0.62616E-02        -0.81454E-02         0.00000E+00
    0.55064E-02        -0.71231E-02         0.00000E+00
    0.47435E-02        -0.61019E-02         0.00000E+00
    0.39728E-02        -0.50818E-02         0.00000E+00
    0.31943E-02        -0.40628E-02         0.00000E+00
    0.24078E-02        -0.30451E-02         0.00000E+00
    0.16133E-02        -0.20287E-02         0.00000E+00
    0.81074E-03        -0.10136E-02         0.00000E+00
    0.00000E+00         0.00000E+00         0.00000E+00
    0.32474E-01        -0.53922E-01         0.00000E+00
    0.31979E-01        -0.52840E-01         0.00000E+00
    0.31479E-01        -0.51759E-01         0.00000E+00
    0.30972E-01        -0.50677E-01         0.00000E+00
    0.30460E-01        -0.49595E-01         0.00000E+00
    0.29942E-01        -0.48513E-01         0.00000E+00
    0.29417E-01        -0.47431E-01         0.00000E+00
    0.28887E-01        -0.46349E-01         0.00000E+00
    0.28351E-01        -0.45267E-01         0.00000E+00
    0.27809E-01        -0.44185E-01         0.00000E+00
    0.27261E-01        -0.43103E-01         0.00000E+00
    0.26707E-01        -0.42021E-01         0.00000E+00
    0.26147E-01        -0.40939E-01         0.00000E+00
    0.25581E-01        -0.39857E-01         0.00000E+00
    0.25009E-01        -0.38775E-01         0.00000E+00
    0.24432E-01        -0.37693E-01         0.00000E+00
    0.23847E-01        -0.36611E-01         0.00000E+00
    0.23257E-01        -0.35529E-01         0.00000E+00
    0.22661E-01        -0.34447E-01         0.00000E+00
    0.22058E-01        -0.33366E-01         0.00000E+00
    0.21450E-01        -0.32284E-01         0.00000E+00
    0.20835E-01        -0.31202E-01         0.00000E+00
    0.20213E-01        -0.30120E-01         0.00000E+00
    0.19586E-01        -0.29039E-01         0.00000E+00
    0.18952E-01        -0.27958E-01         0.00000E+00
    0.18311E-01        -0.26876E-01         0.00000E+00
    0.17664E-01        -0.25795E-01         0.00000E+00
    0.17010E-01        -0.24715E-01         0.00000E+00
    0.16350E-01        -0.23634E-01         0.00000E+00
    0.15683E-01        -0.22554E-01         0.00000E+00
    0.15009E-01        -0.21474E-01         0.00000E+00
    0.14328E-01        -0.20394E-01         0.00000E+00
    0.13641E-01        -0.19315E-01         0.00000E+00
    0.12946E-01        -0.18236E-01         0.00000E+00
    0.12245E-01        -0.17158E-01         0.00000E+00
    0.11536E-01        -0.16080E-01         0.00000E+00
    0.10820E-01        -0.15002E-01         0.00000E+00
    0.10097E-01        -0.13925E-01         0.00000E+00
    0.93667E-02        -0.12849E-01         0.00000E+00
    0.86288E-02        -0.11773E-01         0.00000E+00
    0.78835E-02        -0.10699E-01         0.00000E+00
    0.71306E-02        -0.96244E-02         0.00000E+00
    0.63700E-02        -0.85511E-02         0.00000E+00
    0.56017E-02        -0.74786E-02         0.00000E+00
    0.48256E-02        -0.64070E-02         0.00000E+00
    0.40416E-02        -0.53364E-02         0.00000E+00
    0.32496E-02        -0.42668E-02         0.00000E+00
    0.24496E-02        -0.31983E-02         0.00000E+00
    0.16413E-02        -0.21310E-02         0.00000E+00
    0.82483E-03        -0.10649E-02         0.00000E+00
    0.00000E+00         0.00000E+00         0.00000E+00
    0.33138E-01        -0.56426E-01         0.00000E+00
    0.32626E-01        -0.55296E-01         0.00000E+00
    0.32107E-01        -0.54167E-01         0.00000E+00
    0.31583E-01        -0.53037E-01         0.00000E+00
    0.31054E-01        -0.51907E-01         0.00000E+00
    0.30518E-01        -0.50777E-01         0.00000E+00
    0.29978E-01        -0.49647E-01         0.00000E+00
    0.29431E-01        -0.48517E-01         0.00000E+00
    0.28879E-01        -0.47387E-01         0.00000E+00
    0.28321E-01        -0.46257E-01         0.00000E+00
    0.27758E-01        -0.45126E-01         0.00000E+00
    0.27189E-01        -0.43996E-01         0.00000E+00
    0.26614E-01        -0.42866E-01         0.00000E+00
    0.26034E-01        -0.41735E-01         0.00000E+00
    0.25447E-01        -0.40605E-01         0.00000E+00
    0.24855E-01        -0.39474E-01         0.00000E+00
    0.24257E-01        -0.38343E-01         0.00000E+00
    0.23654E-01        -0.37213E-01         0.00000E+00
    0.23044E-01        -0.36082E-01         0.00000E+00
    0.22428E-01        -0.34951E-01         0.00000E+00
    0.21806E-01        -0.33820E-01         0.00000E+00
    0.21179E-01        -0.32689E-01         0.00000E+00
    0.20545E-01        -0.31558E-01         0.00000E+00
    0.19904E-01        -0.30427E-01         0.00000E+00
    0.19258E-01        -0.29296E-01         0.00000E+00
    0.18605E-01        -0.28165E-01         0.00000E+00
    0.17946E-01        -0.27034E-01         0.00000E+00
    0.17280E-01        -0.25904E-01         0.00000E+00
    0.16608E-01        -0.24773E-01         0.00000E+00
    0.15929E-01        -0.23643E-01         0.00000E+00
    0.15244E-01        -0.22512E-01         0.00000E+00
    0.14551E-01        -0.21382E-01         0.00000E+00
    0.13852E-01        -0.20252E-01         0.00000E+00
    0.13146E-01        -0.19123E-01         0.00000E+00
    0.12433E-01        -0.17993E-01         0.00000E+00
    0.11713E-01        -0.16864E-01         0.00000E+00
    0.10986E-01        -0.15736E-01         0.00000E+00
    0.10251E-01        -0.14607E-01         0.00000E+00
    0.95095E-02        -0.13480E-01         0.00000E+00
    0.87602E-02        -0.12352E-01         0.00000E+00
    0.80034E-02        -0.11226E-01         0.00000E+00
    0.72389E-02        -0.10099E-01         0.00000E+00
    0.64668E-02        -0.89740E-02         0.00000E+00
    0.56868E-02        -0.78492E-02         0.00000E+00
    0.48989E-02        -0.67251E-02         0.00000E+00
    0.41030E-02        -0.56019E-02         0.00000E+00
    0.32990E-02        -0.44796E-02         0.00000E+00
    0.24868E-02        -0.33581E-02         0.00000E+00
    0.16663E-02        -0.22377E-02         0.00000E+00
    0.83741E-03        -0.11183E-02         0.00000E+00
    0.00000E+00         0.00000E+00         0.00000E+00
    0.33751E-01        -0.59023E-01         0.00000E+00
    0.33220E-01        -0.57843E-01         0.00000E+00
    0.32684E-01        -0.56664E-01         0.00000E+00
    0.32142E-01        -0.55484E-01         0.00000E+00
    0.31595E-01        -0.54305E-01         0.00000E+00
    0.31043E-01        -0.53125E-01         0.00000E+00
    0.30486E-01        -0.51946E-01         0.00000E+00
    0.29924E-01        -0.50766E-01         0.00000E+00
    0.29356E-01        -0.49586E-01         0.00000E+00
    0.28783E-01        -0.48406E-01         0.00000E+00
    0.28205E-01        -0.47226E-01         0.00000E+00
    0.27621E-01        -0.46046E-01         0.00000E+00
    0.27032E-01        -0.44865E-01         0.00000E+00
    0.26437E-01        -0.43685E-01         0.00000E+00
    0.25837E-01        -0.42504E-01         0.00000E+00
    0.25232E-01        -0.41323E-01         0.00000E+00
    0.24621E-01        -0.40142E-01         0.00000E+00
    0.24004E-01        -0.38960E-01         0.00000E+00
    0.23382E-01        -0.37779E-01         0.00000E+00
    0.22754E-01        -0.36597E-01         0.00000E+00
    0.22120E-01        -0.35416E-01         0.00000E+00
    0.21480E-01        -0.34234E-01         0.00000E+00
    0.20835E-01        -0.33052E-01         0.00000E+00
    0.20183E-01        -0.31869E-01         0.00000E+00
    0.19525E-01        -0.30687E-01         0.00000E+00
    0.18862E-01        -0.29505E-01         0.00000E+00
    0.18191E-01        -0.28322E-01         0.00000E+00
    0.17515E-01        -0.27140E-01         0.00000E+00
    0.16832E-01        -0.25957E-01         0.00000E+00
    0.16143E-01        -0.24775E-01         0.00000E+00
    0.15447E-01        -0.23592E-01         0.00000E+00
    0.14745E-01        -0.22410E-01         0.00000E+00
    0.14035E-01        -0.21227E-01         0.00000E+00
    0.13319E-01        -0.20045E-01         0.00000E+00
    0.12596E-01        -0.18863E-01         0.00000E+00
    0.11866E-01        -0.17681E-01         0.00000E+00
    0.11129E-01        -0.16499E-01         0.00000E+00
    0.10384E-01        -0.15317E-01         0.00000E+00
    0.96327E-02        -0.14136E-01         0.00000E+00
    0.88735E-02        -0.12955E-01         0.00000E+00
    0.81067E-02        -0.11774E-01         0.00000E+00
    0.73323E-02        -0.10594E-01         0.00000E+00
    0.65501E-02        -0.94144E-02         0.00000E+00
    0.57600E-02        -0.82352E-02         0.00000E+00
    0.49620E-02        -0.70566E-02         0.00000E+00
    0.41559E-02        -0.58786E-02         0.00000E+00
    0.33416E-02        -0.47012E-02         0.00000E+00
    0.25189E-02        -0.35247E-02         0.00000E+00
    0.16879E-02        -0.23489E-02         0.00000E+00
    0.84826E-03        -0.11740E-02         0.00000E+00
    0.00000E+00         0.00000E+00         0.00000E+00
    0.34303E-01        -0.61712E-01         0.00000E+00
    0.33753E-01        -0.60482E-01         0.00000E+00
    0.33199E-01        -0.59251E-01         0.00000E+00
    0.32640E-01        -0.58021E-01         0.00000E+00
    0.32076E-01        -0.56790E-01         0.00000E+00
    0.31508E-01        -0.55559E-01         0.00000E+00
    0.30934E-01        -0.54328E-01         0.00000E+00
    0.30356E-01        -0.53097E-01         0.00000E+00
    0.29773E-01        -0.51866E-01         0.00000E+00
    0.29186E-01        -0.50634E-01         0.00000E+00
    0.28593E-01        -0.49403E-01         0.00000E+00
    0.27995E-01        -0.48171E-01         0.00000E+00
    0.27392E-01        -0.46939E-01         0.00000E+00
    0.26785E-01        -0.45706E-01         0.00000E+00
    0.26172E-01        -0.44473E-01         0.00000E+00
    0.25554E-01        -0.43241E-01         0.00000E+00
    0.24931E-01        -0.42007E-01         0.00000E+00
    0.24302E-01        -0.40774E-01         0.00000E+00
    0.23668E-01        -0.39540E-01         0.00000E+00
    0.23029E-01        -0.38306E-01         0.00000E+00
    0.22384E-01        -0.37072E-01         0.00000E+00
    0.21734E-01        -0.35837E-01         0.00000E+00
    0.21078E-01        -0.34602E-01         0.00000E+00
    0.20416E-01        -0.33367E-01         0.00000E+00
    0.19749E-01        -0.32132E-01         0.00000E+00
    0.19075E-01        -0.30896E-01         0.00000E+00
    0.18395E-01        -0.29660E-01         0.00000E+00
    0.17710E-01        -0.28424E-01         0.00000E+00
    0.17018E-01        -0.27187E-01         0.00000E+00
    0.16320E-01        -0.25951E-01         0.00000E+00
    0.15615E-01        -0.24714E-01         0.00000E+00
    0.14904E-01        -0.23477E-01         0.00000E+00
    0.14186E-01        -0.22241E-01         0.00000E+00
    0.13461E-01        -0.21004E-01         0.00000E+00
    0.12730E-01        -0.19767E-01         0.00000E+00
    0.11991E-01        -0.18529E-01         0.00000E+00
    0.11246E-01        -0.17292E-01         0.00000E+00
    0.10493E-01        -0.16055E-01         0.00000E+00
    0.97334E-02        -0.14818E-01         0.00000E+00
    0.89660E-02        -0.13582E-01         0.00000E+00
    0.81911E-02        -0.12345E-01         0.00000E+00
    0.74085E-02        -0.11109E-01         0.00000E+00
    0.66182E-02        -0.98727E-02         0.00000E+00
    0.58199E-02        -0.86369E-02         0.00000E+00
    0.50136E-02        -0.74015E-02         0.00000E+00
    0.41991E-02        -0.61665E-02         0.00000E+00
    0.33764E-02        -0.49320E-02         0.00000E+00
    0.25452E-02        -0.36980E-02         0.00000E+00
    0.17055E-02        -0.24647E-02         0.00000E+00
    0.85716E-03        -0.12320E-02         0.00000E+00
    0.00000E+00         0.00000E+00         0.00000E+00
    0.34784E-01        -0.64495E-01         0.00000E+00
    0.34216E-01        -0.63212E-01         0.00000E+00
    0.33644E-01        -0.61929E-01         0.00000E+00
    0.33067E-01        -0.60645E-01         0.00000E+00
    0.32487E-01        -0.59362E-01         0.00000E+00
    0.31902E-01        -0.58078E-01         0.00000E+00
    0.31313E-01        -0.56794E-01         0.00000E+00
    0.30720E-01        -0.55510E-01         0.00000E+00
    0.30122E-01        -0.54226E-01         0.00000E+00
    0.29520E-01        -0.52942E-01         0.00000E+00
    0.28914E-01        -0.51657E-01         0.00000E+00
    0.28303E-01        -0.50372E-01         0.00000E+00
    0.27688E-01        -0.49086E-01         0.00000E+00
    0.27068E-01        -0.47800E-01         0.00000E+00
    0.26443E-01        -0.46514E-01         0.00000E+00
    0.25814E-01        -0.45228E-01         0.00000E+00
    0.25179E-01        -0.43941E-01         0.00000E+00
    0.24540E-01        -0.42653E-01         0.00000E+00
    0.23896E-01        -0.41365E-01         0.00000E+00
    0.23247E-01        -0.40077E-01         0.00000E+00
    0.22593E-01        -0.38788E-01         0.00000E+00
    0.21933E-01        -0.37499E-01         0.00000E+00
    0.21268E-01        -0.36210E-01         0.00000E+00
    0.20597E-01        -0.34920E-01         0.00000E+00
    0.19921E-01        -0.33629E-01         0.00000E+00
    0.19240E-01        -0.32339E-01         0.00000E+00
    0.18552E-01        -0.31047E-01         0.00000E+00
    0.17859E-01        -0.29756E-01         0.00000E+00
    0.17160E-01        -0.28464E-01         0.00000E+00
    0.16454E-01        -0.27171E-01         0.00000E+00
    0.15742E-01        -0.25879E-01         0.00000E+00
    0.15024E-01        -0.24586E-01         0.00000E+00
    0.14300E-01        -0.23292E-01         0.00000E+00
    0.13568E-01        -0.21999E-01         0.00000E+00
    0.12830E-01        -0.20705E-01         0.00000E+00
    0.12086E-01        -0.19411E-01         0.00000E+00
    0.11334E-01        -0.18117E-01         0.00000E+00
    0.10575E-01        -0.16822E-01         0.00000E+00
    0.98089E-02        -0.15528E-01         0.00000E+00
    0.90354E-02        -0.14233E-01         0.00000E+00
    0.82543E-02        -0.12938E-01         0.00000E+00
    0.74656E-02        -0.11644E-01         0.00000E+00
    0.66692E-02        -0.10349E-01         0.00000E+00
    0.58647E-02        -0.90544E-02         0.00000E+00
    0.50523E-02        -0.77600E-02         0.00000E+00
    0.42316E-02        -0.64659E-02         0.00000E+00
    0.34025E-02        -0.51719E-02         0.00000E+00
    0.25650E-02        -0.38783E-02         0.00000E+00
    0.17188E-02        -0.25851E-02         0.00000E+00
    0.86387E-03        -0.12923E-02         0.00000E+00
    0.00000E+00         0.00000E+00         0.00000E+00
    0.35182E-01        -0.67371E-01         0.00000E+00
    0.34596E-01        -0.66034E-01         0.00000E+00
    0.34006E-01        -0.64696E-01         0.00000E+00
    0.33413E-01        -0.63359E-01         0.00000E+00
    0.32816E-01        -0.62021E-01         0.00000E+00
    0.32216E-01        -0.60683E-01         0.00000E+00
    0.31612E-01        -0.59344E-01         0.00000E+00
    0.31004E-01        -0.58006E-01         0.00000E+00
    0.30393E-01        -0.56667E-01         0.00000E+00
    0.29777E-01        -0.55328E-01         0.00000E+00
    0.29158E-01        -0.53988E-01         0.00000E+00
    0.28535E-01        -0.52648E-01         0.00000E+00
    0.27908E-01        -0.51308E-01         0.00000E+00
    0.27277E-01        -0.49967E-01         0.00000E+00
    0.26642E-01        -0.48626E-01         0.00000E+00
    0.26002E-01        -0.47284E-01         0.00000E+00
    0.25358E-01        -0.45941E-01         0.00000E+00
    0.24710E-01        -0.44599E-01         0.00000E+00
    0.24057E-01        -0.43255E-01         0.00000E+00
    0.23399E-01        -0.41911E-01         0.00000E+00
    0.22737E-01        -0.40566E-01         0.00000E+00
    0.22070E-01        -0.39221E-01         0.00000E+00
    0.21398E-01        -0.37875E-01         0.00000E+00
    0.20720E-01        -0.36528E-01         0.00000E+00
    0.20037E-01        -0.35181E-01         0.00000E+00
    0.19349E-01        -0.33833E-01         0.00000E+00
    0.18656E-01        -0.32485E-01         0.00000E+00
    0.17957E-01        -0.31136E-01         0.00000E+00
    0.17252E-01        -0.29787E-01         0.00000E+00
    0.16541E-01        -0.28437E-01         0.00000E+00
    0.15824E-01        -0.27086E-01         0.00000E+00
    0.15101E-01        -0.25735E-01         0.00000E+00
    0.14372E-01        -0.24383E-01         0.00000E+00
    0.13636E-01        -0.23031E-01         0.00000E+00
    0.12894E-01        -0.21678E-01         0.00000E+00
    0.12145E-01        -0.20325E-01         0.00000E+00
    0.11389E-01        -0.18971E-01         0.00000E+00
    0.10626E-01        -0.17617E-01         0.00000E+00
    0.98562E-02        -0.16263E-01         0.00000E+00
    0.90788E-02        -0.14909E-01         0.00000E+00
    0.82939E-02        -0.13554E-01         0.00000E+00
    0.75014E-02        -0.12199E-01         0.00000E+00
    0.67011E-02        -0.10843E-01         0.00000E+00
    0.58929E-02        -0.94878E-02         0.00000E+00
    0.50766E-02        -0.81323E-02         0.00000E+00
    0.42520E-02        -0.67767E-02         0.00000E+00
    0.34190E-02        -0.54211E-02         0.00000E+00
    0.25775E-02        -0.40656E-02         0.00000E+00
    0.17273E-02        -0.27102E-02         0.00000E+00
    0.86815E-03        -0.13550E-02         0.00000E+00
    0.00000E+00         0.00000E+00         0.00000E+00
    0.35486E-01        -0.70340E-01         0.00000E+00
    0.34882E-01        -0.68947E-01         0.00000E+00
    0.34275E-01        -0.67553E-01         0.00000E+00
    0.33665E-01        -0.66160E-01         0.00000E+00
    0.33053E-01        -0.64766E-01         0.00000E+00
    0.32437E-01        -0.63372E-01         0.00000E+00
    0.31819E-01        -0.61978E-01         0.00000E+00
    0.31198E-01        -0.60583E-01         0.00000E+00
    0.30574E-01        -0.59188E-01         0.00000E+00
    0.29946E-01        -0.57793E-01         0.00000E+00
    0.29316E-01        -0.56397E-01         0.00000E+00
    0.28682E-01        -0.55001E-01         0.00000E+00
    0.28044E-01        -0.53604E-01         0.00000E+00
    0.27403E-01        -0.52206E-01         0.00000E+00
    0.26759E-01        -0.50808E-01         0.00000E+00
    0.26111E-01        -0.49409E-01         0.00000E+00
    0.25459E-01        -0.48010E-01         0.00000E+00
    0.24803E-01        -0.46610E-01         0.00000E+00
    0.24143E-01        -0.45209E-01         0.00000E+00
    0.23479E-01        -0.43807E-01         0.00000E+00
    0.22810E-01        -0.42404E-01         0.00000E+00
    0.22137E-01        -0.41001E-01         0.00000E+00
    0.21459E-01        -0.39597E-01         0.00000E+00
    0.20777E-01        -0.38192E-01         0.00000E+00
    0.20090E-01        -0.36786E-01         0.00000E+00
    0.19398E-01        -0.35380E-01         0.00000E+00
    0.18700E-01        -0.33973E-01         0.00000E+00
    0.17997E-01        -0.32565E-01         0.00000E+00
    0.17289E-01        -0.31156E-01         0.00000E+00
    0.16575E-01        -0.29746E-01         0.00000E+00
    0.15856E-01        -0.28335E-01         0.00000E+00
    0.15130E-01        -0.26924E-01         0.00000E+00
    0.14399E-01        -0.25512E-01         0.00000E+00
    0.13661E-01        -0.24099E-01         0.00000E+00
    0.12917E-01        -0.22686E-01         0.00000E+00
    0.12166E-01        -0.21272E-01         0.00000E+00
    0.11408E-01        -0.19857E-01         0.00000E+00
    0.10644E-01        -0.18441E-01         0.00000E+00
    0.98723E-02        -0.17025E-01         0.00000E+00
    0.90935E-02        -0.15609E-01         0.00000E+00
    0.83073E-02        -0.14191E-01         0.00000E+00
    0.75135E-02        -0.12774E-01         0.00000E+00
    0.67120E-02        -0.11356E-01         0.00000E+00
    0.59025E-02        -0.99371E-02         0.00000E+00
    0.50850E-02        -0.85182E-02         0.00000E+00
    0.42591E-02        -0.70990E-02         0.00000E+00
    0.34249E-02        -0.56795E-02         0.00000E+00
    0.25820E-02        -0.42598E-02         0.00000E+00
    0.17304E-02        -0.28399E-02         0.00000E+00
    0.86975E-03        -0.14200E-02         0.00000E+00
    0.00000E+00         0.00000E+00         0.00000E+00
    0.35682E-01        -0.73399E-01         0.00000E+00
    0.35060E-01        -0.71949E-01         0.00000E+00
    0.34437E-01        -0.70498E-01         0.00000E+00
    0.33811E-01        -0.69047E-01         0.00000E+00
    0.33184E-01        -0.67596E-01         0.00000E+00
    0.32554E-01        -0.66145E-01         0.00000E+00
    0.31923E-01        -0.64693E-01         0.00000E+00
    0.31289E-01        -0.63241E-01         0.00000E+00
    0.30653E-01        -0.61789E-01         0.00000E+00
    0.30015E-01        -0.60335E-01         0.00000E+00
    0.29374E-01        -0.58882E-01         0.00000E+00
    0.28731E-01        -0.57427E-01         0.00000E+00
    0.28085E-01        -0.55972E-01         0.00000E+00
    0.27436E-01        -0.54517E-01         0.00000E+00
    0.26784E-01        -0.53060E-01         0.00000E+00
    0.26129E-01        -0.51603E-01         0.00000E+00
    0.25471E-01        -0.50144E-01         0.00000E+00
    0.24809E-01        -0.48685E-01         0.00000E+00
    0.24144E-01        -0.47225E-01         0.00000E+00
    0.23475E-01        -0.45764E-01         0.00000E+00
    0.22803E-01        -0.44302E-01         0.00000E+00
    0.22126E-01        -0.42839E-01         0.00000E+00
    0.21445E-01        -0.41375E-01         0.00000E+00
    0.20761E-01        -0.39911E-01         0.00000E+00
    0.20071E-01        -0.38445E-01         0.00000E+00
    0.19377E-01        -0.36978E-01         0.00000E+00
    0.18678E-01        -0.35510E-01         0.00000E+00
    0.17974E-01        -0.34040E-01         0.00000E+00
    0.17265E-01        -0.32570E-01         0.00000E+00
    0.16551E-01        -0.31099E-01         0.00000E+00
    0.15831E-01        -0.29627E-01         0.00000E+00
    0.15106E-01        -0.28154E-01         0.00000E+00
    0.14375E-01        -0.26679E-01         0.00000E+00
    0.13637E-01        -0.25204E-01         0.00000E+00
    0.12894E-01        -0.23728E-01         0.00000E+00
    0.12144E-01        -0.22251E-01         0.00000E+00
    0.11388E-01        -0.20773E-01         0.00000E+00
    0.10624E-01        -0.19293E-01         0.00000E+00
    0.98540E-02        -0.17814E-01         0.00000E+00
    0.90766E-02        -0.16333E-01         0.00000E+00
    0.82919E-02        -0.14851E-01         0.00000E+00
    0.74997E-02        -0.13369E-01         0.00000E+00
    0.66997E-02        -0.11886E-01         0.00000E+00
    0.58919E-02        -0.10402E-01         0.00000E+00
    0.50760E-02        -0.89176E-02         0.00000E+00
    0.42518E-02        -0.74325E-02         0.00000E+00
    0.34191E-02        -0.59469E-02         0.00000E+00
    0.25778E-02        -0.44608E-02         0.00000E+00
    0.17276E-02        -0.29743E-02         0.00000E+00
    0.86842E-03        -0.14873E-02         0.00000E+00
    0.00000E+00         0.00000E+00         0.00000E+00
    0.35755E-01        -0.76547E-01         0.00000E+00
    0.35116E-01        -0.75038E-01         0.00000E+00
    0.34477E-01        -0.73529E-01         0.00000E+00
    0.33836E-01        -0.72019E-01         0.00000E+00
    0.33195E-01        -0.70509E-01         0.00000E+00
    0.32553E-01        -0.68999E-01         0.00000E+00
    0.31909E-01        -0.67489E-01         0.00000E+00
    0.31265E-01        -0.65977E-01         0.00000E+00
    0.30619E-01        -0.64466E-01         0.00000E+00
    0.29971E-01        -0.62953E-01         0.00000E+00
    0.29322E-01        -0.61440E-01         0.00000E+00
    0.28671E-01        -0.59926E-01         0.00000E+00
    0.28018E-01        -0.58412E-01         0.00000E+00
    0.27363E-01        -0.56896E-01         0.00000E+00
    0.26706E-01        -0.55380E-01         0.00000E+00
    0.26046E-01        -0.53862E-01         0.00000E+00
    0.25384E-01        -0.52344E-01         0.00000E+00
    0.24719E-01        -0.50824E-01         0.00000E+00
    0.24051E-01        -0.49304E-01         0.00000E+00
    0.23380E-01        -0.47782E-01         0.00000E+00
    0.22706E-01        -0.46259E-01         0.00000E+00
    0.22029E-01        -0.44734E-01         0.00000E+00
    0.21348E-01        -0.43209E-01         0.00000E+00
    0.20663E-01        -0.41682E-01         0.00000E+00
    0.19974E-01        -0.40154E-01         0.00000E+00
    0.19281E-01        -0.38625E-01         0.00000E+00
    0.18583E-01        -0.37094E-01         0.00000E+00
    0.17881E-01        -0.35563E-01         0.00000E+00
    0.17174E-01        -0.34029E-01         0.00000E+00
    0.16462E-01        -0.32495E-01         0.00000E+00
    0.15745E-01        -0.30959E-01         0.00000E+00
    0.15023E-01        -0.29422E-01         0.00000E+00
    0.14295E-01        -0.27884E-01         0.00000E+00
    0.13561E-01        -0.26344E-01         0.00000E+00
    0.12821E-01        -0.24803E-01         0.00000E+00
    0.12075E-01        -0.23261E-01         0.00000E+00
    0.11323E-01        -0.21718E-01         0.00000E+00
    0.10564E-01        -0.20173E-01         0.00000E+00
    0.97981E-02        -0.18627E-01         0.00000E+00
    0.90252E-02        -0.17081E-01         0.00000E+00
    0.82451E-02        -0.15533E-01         0.00000E+00
    0.74575E-02        -0.13983E-01         0.00000E+00
    0.66623E-02        -0.12433E-01         0.00000E+00
    0.58592E-02        -0.10882E-01         0.00000E+00
    0.50480E-02        -0.93302E-02         0.00000E+00
    0.42286E-02        -0.77771E-02         0.00000E+00
    0.34007E-02        -0.62233E-02         0.00000E+00
    0.25641E-02        -0.46686E-02         0.00000E+00
    0.17185E-02        -0.31131E-02         0.00000E+00
    0.86392E-03        -0.15569E-02         0.00000E+00
    0.00000E+00         0.00000E+00         0.00000E+00
    0.35688E-01        -0.79780E-01         0.00000E+00
    0.35033E-01        -0.78211E-01         0.00000E+00
    0.34379E-01        -0.76642E-01         0.00000E+00
    0.33725E-01        -0.75072E-01         0.00000E+00
    0.33071E-01        -0.73502E-01         0.00000E+00
    0.32418E-01        -0.71931E-01         0.00000E+00
    0.31764E-01        -0.70360E-01         0.00000E+00
    0.31110E-01        -0.68789E-01         0.00000E+00
    0.30456E-01        -0.67217E-01         0.00000E+00
    0.29801E-01        -0.65644E-01         0.00000E+00
    0.29145E-01        -0.64070E-01         0.00000E+00
    0.28489E-01        -0.62495E-01         0.00000E+00
    0.27831E-01        -0.60919E-01         0.00000E+00
    0.27172E-01        -0.59343E-01         0.00000E+00
    0.26512E-01        -0.57765E-01         0.00000E+00
    0.25850E-01        -0.56186E-01         0.00000E+00
    0.25187E-01        -0.54605E-01         0.00000E+00
    0.24521E-01        -0.53024E-01         0.00000E+00
    0.23854E-01        -0.51441E-01         0.00000E+00
    0.23184E-01        -0.49857E-01         0.00000E+00
    0.22511E-01        -0.48271E-01         0.00000E+00
    0.21835E-01        -0.46684E-01         0.00000E+00
    0.21157E-01        -0.45095E-01         0.00000E+00
    0.20475E-01        -0.43505E-01         0.00000E+00
    0.19790E-01        -0.41913E-01         0.00000E+00
    0.19100E-01        -0.40320E-01         0.00000E+00
    0.18407E-01        -0.38725E-01         0.00000E+00
    0.17710E-01        -0.37129E-01         0.00000E+00
    0.17009E-01        -0.35531E-01         0.00000E+00
    0.16303E-01        -0.33932E-01         0.00000E+00
    0.15592E-01        -0.32331E-01         0.00000E+00
    0.14876E-01        -0.30728E-01         0.00000E+00
    0.14154E-01        -0.29124E-01         0.00000E+00
    0.13427E-01        -0.27518E-01         0.00000E+00
    0.12694E-01        -0.25911E-01         0.00000E+00
    0.11956E-01        -0.24302E-01         0.00000E+00
    0.11211E-01        -0.22691E-01         0.00000E+00
    0.10459E-01        -0.21079E-01         0.00000E+00
    0.97014E-02        -0.19466E-01         0.00000E+00
    0.89364E-02        -0.17851E-01         0.00000E+00
    0.81642E-02        -0.16234E-01         0.00000E+00
    0.73847E-02        -0.14617E-01         0.00000E+00
    0.65976E-02        -0.12998E-01         0.00000E+00
    0.58027E-02        -0.11377E-01         0.00000E+00
    0.49997E-02        -0.97553E-02         0.00000E+00
    0.41884E-02        -0.81323E-02         0.00000E+00
    0.33686E-02        -0.65081E-02         0.00000E+00
    0.25401E-02        -0.48827E-02         0.00000E+00
    0.17026E-02        -0.32562E-02         0.00000E+00
    0.85601E-03        -0.16286E-02         0.00000E+00
    0.00000E+00         0.00000E+00         0.00000E+00
    0.35462E-01        -0.83093E-01         0.00000E+00
    0.34793E-01        -0.81463E-01         0.00000E+00
    0.34126E-01        -0.79832E-01         0.00000E+00
    0.33460E-01        -0.78201E-01         0.00000E+00
    0.32795E-01        -0.76569E-01         0.00000E+00
    0.32132E-01        -0.74937E-01         0.00000E+00
    0.31470E-01        -0.73305E-01         0.00000E+00
    0.30809E-01        -0.71671E-01         0.00000E+00
    0.30148E-01        -0.70037E-01         0.00000E+00
    0.29489E-01        -0.68402E-01         0.00000E+00
    0.28829E-01        -0.66766E-01         0.00000E+00
    0.28170E-01        -0.65129E-01         0.00000E+00
    0.27511E-01        -0.63491E-01         0.00000E+00
    0.26851E-01        -0.61852E-01         0.00000E+00
    0.26191E-01        -0.60211E-01         0.00000E+00
    0.25530E-01        -0.58569E-01         0.00000E+00
    0.24868E-01        -0.56925E-01         0.00000E+00
    0.24205E-01        -0.55280E-01         0.00000E+00
    0.23541E-01        -0.53634E-01         0.00000E+00
    0.22875E-01        -0.51985E-01         0.00000E+00
    0.22207E-01        -0.50336E-01         0.00000E+00
    0.21536E-01        -0.48684E-01         0.00000E+00
    0.20864E-01        -0.47031E-01         0.00000E+00
    0.20188E-01        -0.45376E-01         0.00000E+00
    0.19510E-01        -0.43719E-01         0.00000E+00
    0.18829E-01        -0.42060E-01         0.00000E+00
    0.18144E-01        -0.40399E-01         0.00000E+00
    0.17455E-01        -0.38737E-01         0.00000E+00
    0.16762E-01        -0.37073E-01         0.00000E+00
    0.16066E-01        -0.35407E-01         0.00000E+00
    0.15364E-01        -0.33739E-01         0.00000E+00
    0.14658E-01        -0.32069E-01         0.00000E+00
    0.13947E-01        -0.30397E-01         0.00000E+00
    0.13231E-01        -0.28723E-01         0.00000E+00
    0.12509E-01        -0.27048E-01         0.00000E+00
    0.11781E-01        -0.25370E-01         0.00000E+00
    0.11047E-01        -0.23691E-01         0.00000E+00
    0.10307E-01        -0.22010E-01         0.00000E+00
    0.95606E-02        -0.20327E-01         0.00000E+00
    0.88072E-02        -0.18642E-01         0.00000E+00
    0.80467E-02        -0.16956E-01         0.00000E+00
    0.72789E-02        -0.15267E-01         0.00000E+00
    0.65036E-02        -0.13577E-01         0.00000E+00
    0.57205E-02        -0.11886E-01         0.00000E+00
    0.49293E-02        -0.10192E-01         0.00000E+00
    0.41299E-02        -0.84973E-02         0.00000E+00
    0.33219E-02        -0.68008E-02         0.00000E+00
    0.25052E-02        -0.51028E-02         0.00000E+00
    0.16794E-02        -0.34033E-02         0.00000E+00
    0.84445E-03        -0.17023E-02         0.00000E+00
    0.00000E+00         0.00000E+00         0.00000E+00
    0.35058E-01        -0.86480E-01         0.00000E+00
    0.34376E-01        -0.84786E-01         0.00000E+00
    0.33697E-01        -0.83093E-01         0.00000E+00
    0.33021E-01        -0.81399E-01         0.00000E+00
    0.32348E-01        -0.79705E-01         0.00000E+00
    0.31678E-01        -0.78010E-01         0.00000E+00
    0.31010E-01        -0.76315E-01         0.00000E+00
    0.30344E-01        -0.74618E-01         0.00000E+00
    0.29681E-01        -0.72921E-01         0.00000E+00
    0.29019E-01        -0.71223E-01         0.00000E+00
    0.28358E-01        -0.69524E-01         0.00000E+00
    0.27700E-01        -0.67823E-01         0.00000E+00
    0.27042E-01        -0.66121E-01         0.00000E+00
    0.26384E-01        -0.64418E-01         0.00000E+00
    0.25728E-01        -0.62713E-01         0.00000E+00
    0.25071E-01        -0.61006E-01         0.00000E+00
    0.24415E-01        -0.59298E-01         0.00000E+00
    0.23758E-01        -0.57588E-01         0.00000E+00
    0.23100E-01        -0.55876E-01         0.00000E+00
    0.22442E-01        -0.54163E-01         0.00000E+00
    0.21783E-01        -0.52448E-01         0.00000E+00
    0.21121E-01        -0.50730E-01         0.00000E+00
    0.20459E-01        -0.49011E-01         0.00000E+00
    0.19794E-01        -0.47289E-01         0.00000E+00
    0.19127E-01        -0.45566E-01         0.00000E+00
    0.18457E-01        -0.43840E-01         0.00000E+00
    0.17784E-01        -0.42112E-01         0.00000E+00
    0.17108E-01        -0.40382E-01         0.00000E+00
    0.16428E-01        -0.38650E-01         0.00000E+00
    0.15745E-01        -0.36916E-01         0.00000E+00
    0.15057E-01        -0.35180E-01         0.00000E+00
    0.14365E-01        -0.33441E-01         0.00000E+00
    0.13668E-01        -0.31700E-01         0.00000E+00
    0.12966E-01        -0.29957E-01         0.00000E+00
    0.12259E-01        -0.28212E-01         0.00000E+00
    0.11547E-01        -0.26464E-01         0.00000E+00
    0.10828E-01        -0.24714E-01         0.00000E+00
    0.10103E-01        -0.22962E-01         0.00000E+00
    0.93724E-02        -0.21208E-01         0.00000E+00
    0.86346E-02        -0.19452E-01         0.00000E+00
    0.78899E-02        -0.17694E-01         0.00000E+00
    0.71379E-02        -0.15933E-01         0.00000E+00
    0.63783E-02        -0.14171E-01         0.00000E+00
    0.56110E-02        -0.12406E-01         0.00000E+00
    0.48357E-02        -0.10640E-01         0.00000E+00
    0.40520E-02        -0.88712E-02         0.00000E+00
    0.32598E-02        -0.71007E-02         0.00000E+00
    0.24587E-02        -0.53282E-02         0.00000E+00
    0.16485E-02        -0.35540E-02         0.00000E+00
    0.82905E-03        -0.17779E-02         0.00000E+00
    0.00000E+00         0.00000E+00         0.00000E+00
    0.34453E-01        -0.89930E-01         0.00000E+00
    0.33760E-01        -0.88173E-01         0.00000E+00
    0.33072E-01        -0.86416E-01         0.00000E+00
    0.32388E-01        -0.84658E-01         0.00000E+00
    0.31709E-01        -0.82900E-01         0.00000E+00
    0.31035E-01        -0.81141E-01         0.00000E+00
    0.30364E-01        -0.79382E-01         0.00000E+00
    0.29697E-01        -0.77621E-01         0.00000E+00
    0.29034E-01        -0.75860E-01         0.00000E+00
    0.28374E-01        -0.74097E-01         0.00000E+00
    0.27716E-01        -0.72333E-01         0.00000E+00
    0.27061E-01        -0.70568E-01         0.00000E+00
    0.26408E-01        -0.68801E-01         0.00000E+00
    0.25758E-01        -0.67032E-01         0.00000E+00
    0.25108E-01        -0.65262E-01         0.00000E+00
    0.24460E-01        -0.63490E-01         0.00000E+00
    0.23813E-01        -0.61716E-01         0.00000E+00
    0.23167E-01        -0.59940E-01         0.00000E+00
    0.22521E-01        -0.58162E-01         0.00000E+00
    0.21874E-01        -0.56382E-01         0.00000E+00
    0.21228E-01        -0.54600E-01         0.00000E+00
    0.20580E-01        -0.52815E-01         0.00000E+00
    0.19932E-01        -0.51029E-01         0.00000E+00
    0.19282E-01        -0.49240E-01         0.00000E+00
    0.18630E-01        -0.47448E-01         0.00000E+00
    0.17976E-01        -0.45654E-01         0.00000E+00
    0.17320E-01        -0.43858E-01         0.00000E+00
    0.16661E-01        -0.42059E-01         0.00000E+00
    0.15998E-01        -0.40258E-01         0.00000E+00
    0.15333E-01        -0.38455E-01         0.00000E+00
    0.14663E-01        -0.36648E-01         0.00000E+00
    0.13990E-01        -0.34840E-01         0.00000E+00
    0.13312E-01        -0.33028E-01         0.00000E+00
    0.12629E-01        -0.31214E-01         0.00000E+00
    0.11942E-01        -0.29398E-01         0.00000E+00
    0.11249E-01        -0.27579E-01         0.00000E+00
    0.10550E-01        -0.25758E-01         0.00000E+00
    0.98449E-02        -0.23934E-01         0.00000E+00
    0.91337E-02        -0.22107E-01         0.00000E+00
    0.84159E-02        -0.20278E-01         0.00000E+00
    0.76912E-02        -0.18447E-01         0.00000E+00
    0.69593E-02        -0.16613E-01         0.00000E+00
    0.62199E-02        -0.14776E-01         0.00000E+00
    0.54726E-02        -0.12937E-01         0.00000E+00
    0.47173E-02        -0.11096E-01         0.00000E+00
    0.39536E-02        -0.92524E-02         0.00000E+00
    0.31812E-02        -0.74065E-02         0.00000E+00
    0.24000E-02        -0.55582E-02         0.00000E+00
    0.16095E-02        -0.37077E-02         0.00000E+00
    0.80960E-03        -0.18549E-02         0.00000E+00
    0.00000E+00         0.00000E+00         0.00000E+00
    0.33621E-01        -0.93432E-01         0.00000E+00
    0.32920E-01        -0.91610E-01         0.00000E+00
    0.32226E-01        -0.89788E-01         0.00000E+00
    0.31538E-01        -0.87966E-01         0.00000E+00
    0.30857E-01        -0.86143E-01         0.00000E+00
    0.30182E-01        -0.84319E-01         0.00000E+00
    0.29512E-01        -0.82495E-01         0.00000E+00
    0.28848E-01        -0.80669E-01         0.00000E+00
    0.28189E-01        -0.78842E-01         0.00000E+00
    0.27534E-01        -0.77014E-01         0.00000E+00
    0.26884E-01        -0.75184E-01         0.00000E+00
    0.26238E-01        -0.73353E-01         0.00000E+00
    0.25595E-01        -0.71520E-01         0.00000E+00
    0.24955E-01        -0.69686E-01         0.00000E+00
    0.24318E-01        -0.67849E-01         0.00000E+00
    0.23683E-01        -0.66010E-01         0.00000E+00
    0.23050E-01        -0.64169E-01         0.00000E+00
    0.22419E-01        -0.62326E-01         0.00000E+00
    0.21788E-01        -0.60481E-01         0.00000E+00
    0.21159E-01        -0.58633E-01         0.00000E+00
    0.20530E-01        -0.56783E-01         0.00000E+00
    0.19901E-01        -0.54931E-01         0.00000E+00
    0.19272E-01        -0.53075E-01         0.00000E+00
    0.18642E-01        -0.51218E-01         0.00000E+00
    0.18011E-01        -0.49357E-01         0.00000E+00
    0.17378E-01        -0.47494E-01         0.00000E+00
    0.16743E-01        -0.45629E-01         0.00000E+00
    0.16106E-01        -0.43760E-01         0.00000E+00
    0.15466E-01        -0.41889E-01         0.00000E+00
    0.14824E-01        -0.40015E-01         0.00000E+00
    0.14177E-01        -0.38138E-01         0.00000E+00
    0.13527E-01        -0.36258E-01         0.00000E+00
    0.12873E-01        -0.34375E-01         0.00000E+00
    0.12215E-01        -0.32490E-01         0.00000E+00
    0.11551E-01        -0.30601E-01         0.00000E+00
    0.10882E-01        -0.28710E-01         0.00000E+00
    0.10208E-01        -0.26816E-01         0.00000E+00
    0.95278E-02        -0.24919E-01         0.00000E+00
    0.88413E-02        -0.23019E-01         0.00000E+00
    0.81483E-02        -0.21116E-01         0.00000E+00
    0.74483E-02        -0.19210E-01         0.00000E+00
    0.67410E-02        -0.17302E-01         0.00000E+00
    0.60263E-02        -0.15390E-01         0.00000E+00
    0.53036E-02        -0.13476E-01         0.00000E+00
    0.45728E-02        -0.11559E-01         0.00000E+00
    0.38336E-02        -0.96392E-02         0.00000E+00
    0.30855E-02        -0.77167E-02         0.00000E+00
    0.23284E-02        -0.57915E-02         0.00000E+00
    0.15620E-02        -0.38636E-02         0.00000E+00
    0.78593E-03        -0.19331E-02         0.00000E+00
    0.00000E+00         0.00000E+00         0.00000E+00
    0.32535E-01        -0.96971E-01         0.00000E+00
    0.31830E-01        -0.95083E-01         0.00000E+00
    0.31133E-01        -0.93195E-01         0.00000E+00
    0.30446E-01        -0.91307E-01         0.00000E+00
    0.29767E-01        -0.89418E-01         0.00000E+00
    0.29095E-01        -0.87529E-01         0.00000E+00
    0.28432E-01        -0.85638E-01         0.00000E+00
    0.27775E-01        -0.83746E-01         0.00000E+00
    0.27125E-01        -0.81853E-01         0.00000E+00
    0.26481E-01        -0.79959E-01         0.00000E+00
    0.25843E-01        -0.78062E-01         0.00000E+00
    0.25210E-01        -0.76164E-01         0.00000E+00
    0.24582E-01        -0.74265E-01         0.00000E+00
    0.23959E-01        -0.72363E-01         0.00000E+00
    0.23339E-01        -0.70459E-01         0.00000E+00
    0.22723E-01        -0.68552E-01         0.00000E+00
    0.22110E-01        -0.66644E-01         0.00000E+00
    0.21499E-01        -0.64733E-01         0.00000E+00
    0.20891E-01        -0.62819E-01         0.00000E+00
    0.20284E-01        -0.60903E-01         0.00000E+00
    0.19678E-01        -0.58985E-01         0.00000E+00
    0.19074E-01        -0.57063E-01         0.00000E+00
    0.18469E-01        -0.55139E-01         0.00000E+00
    0.17865E-01        -0.53212E-01         0.00000E+00
    0.17259E-01        -0.51282E-01         0.00000E+00
    0.16653E-01        -0.49349E-01         0.00000E+00
    0.16046E-01        -0.47413E-01         0.00000E+00
    0.15436E-01        -0.45474E-01         0.00000E+00
    0.14824E-01        -0.43532E-01         0.00000E+00
    0.14210E-01        -0.41587E-01         0.00000E+00
    0.13592E-01        -0.39638E-01         0.00000E+00
    0.12971E-01        -0.37687E-01         0.00000E+00
    0.12346E-01        -0.35732E-01         0.00000E+00
    0.11717E-01        -0.33775E-01         0.00000E+00
    0.11083E-01        -0.31813E-01         0.00000E+00
    0.10444E-01        -0.29849E-01         0.00000E+00
    0.97991E-02        -0.27882E-01         0.00000E+00
    0.91487E-02        -0.25911E-01         0.00000E+00
    0.84919E-02        -0.23937E-01         0.00000E+00
    0.78286E-02        -0.21960E-01         0.00000E+00
    0.71584E-02        -0.19979E-01         0.00000E+00
    0.64808E-02        -0.17996E-01         0.00000E+00
    0.57957E-02        -0.16009E-01         0.00000E+00
    0.51025E-02        -0.14019E-01         0.00000E+00
    0.44010E-02        -0.12025E-01         0.00000E+00
    0.36909E-02        -0.10029E-01         0.00000E+00
    0.29718E-02        -0.80294E-02         0.00000E+00
    0.22435E-02        -0.60267E-02         0.00000E+00
    0.15056E-02        -0.40209E-02         0.00000E+00
    0.75787E-03        -0.20120E-02         0.00000E+00
    0.00000E+00         0.00000E+00         0.00000E+00
    0.31164E-01        -0.10052E+00         0.00000E+00
    0.30460E-01        -0.98570E-01         0.00000E+00
    0.29766E-01        -0.96616E-01         0.00000E+00
    0.29084E-01        -0.94661E-01         0.00000E+00
    0.28412E-01        -0.92706E-01         0.00000E+00
    0.27751E-01        -0.90750E-01         0.00000E+00
    0.27098E-01        -0.88792E-01         0.00000E+00
    0.26455E-01        -0.86833E-01         0.00000E+00
    0.25820E-01        -0.84873E-01         0.00000E+00
    0.25193E-01        -0.82911E-01         0.00000E+00
    0.24573E-01        -0.80948E-01         0.00000E+00
    0.23960E-01        -0.78982E-01         0.00000E+00
    0.23353E-01        -0.77015E-01         0.00000E+00
    0.22752E-01        -0.75045E-01         0.00000E+00
    0.22157E-01        -0.73073E-01         0.00000E+00
    0.21565E-01        -0.71099E-01         0.00000E+00
    0.20978E-01        -0.69122E-01         0.00000E+00
    0.20395E-01        -0.67142E-01         0.00000E+00
    0.19814E-01        -0.65160E-01         0.00000E+00
    0.19236E-01        -0.63175E-01         0.00000E+00
    0.18660E-01        -0.61187E-01         0.00000E+00
    0.18086E-01        -0.59197E-01         0.00000E+00
    0.17512E-01        -0.57203E-01         0.00000E+00
    0.16939E-01        -0.55206E-01         0.00000E+00
    0.16366E-01        -0.53206E-01         0.00000E+00
    0.15793E-01        -0.51203E-01         0.00000E+00
    0.15218E-01        -0.49196E-01         0.00000E+00
    0.14642E-01        -0.47187E-01         0.00000E+00
    0.14065E-01        -0.45174E-01         0.00000E+00
    0.13484E-01        -0.43158E-01         0.00000E+00
    0.12901E-01        -0.41138E-01         0.00000E+00
    0.12315E-01        -0.39115E-01         0.00000E+00
    0.11725E-01        -0.37088E-01         0.00000E+00
    0.11131E-01        -0.35058E-01         0.00000E+00
    0.10532E-01        -0.33024E-01         0.00000E+00
    0.99280E-02        -0.30987E-01         0.00000E+00
    0.93187E-02        -0.28947E-01         0.00000E+00
    0.87035E-02        -0.26902E-01         0.00000E+00
    0.80821E-02        -0.24855E-01         0.00000E+00
    0.74540E-02        -0.22803E-01         0.00000E+00
    0.68188E-02        -0.20748E-01         0.00000E+00
    0.61763E-02        -0.18689E-01         0.00000E+00
    0.55259E-02        -0.16627E-01         0.00000E+00
    0.48674E-02        -0.14561E-01         0.00000E+00
    0.42003E-02        -0.12492E-01         0.00000E+00
    0.35244E-02        -0.10419E-01         0.00000E+00
    0.28392E-02        -0.83420E-02         0.00000E+00
    0.21445E-02        -0.62618E-02         0.00000E+00
    0.14400E-02        -0.41781E-02         0.00000E+00
    0.72522E-03        -0.20908E-02         0.00000E+00
    0.00000E+00         0.00000E+00         0.00000E+00
    0.29476E-01        -0.10407E+00         0.00000E+00
    0.28779E-01        -0.10205E+00         0.00000E+00
    0.28095E-01        -0.10002E+00         0.00000E+00
    0.27424E-01        -0.98002E-01         0.00000E+00
    0.26767E-01        -0.95979E-01         0.00000E+00
    0.26121E-01        -0.93956E-01         0.00000E+00
    0.25487E-01        -0.91931E-01         0.00000E+00
    0.24864E-01        -0.89904E-01         0.00000E+00
    0.24251E-01        -0.87877E-01         0.00000E+00
    0.23648E-01        -0.85847E-01         0.00000E+00
    0.23054E-01        -0.83816E-01         0.00000E+00
    0.22468E-01        -0.81782E-01         0.00000E+00
    0.21889E-01        -0.79746E-01         0.00000E+00
    0.21318E-01        -0.77708E-01         0.00000E+00
    0.20753E-01        -0.75668E-01         0.00000E+00
    0.20194E-01        -0.73625E-01         0.00000E+00
    0.19640E-01        -0.71580E-01         0.00000E+00
    0.19090E-01        -0.69531E-01         0.00000E+00
    0.18545E-01        -0.67480E-01         0.00000E+00
    0.18003E-01        -0.65426E-01         0.00000E+00
    0.17463E-01        -0.63369E-01         0.00000E+00
    0.16926E-01        -0.61309E-01         0.00000E+00
    0.16390E-01        -0.59246E-01         0.00000E+00
    0.15855E-01        -0.57180E-01         0.00000E+00
    0.15321E-01        -0.55110E-01         0.00000E+00
    0.14787E-01        -0.53037E-01         0.00000E+00
    0.14252E-01        -0.50961E-01         0.00000E+00
    0.13717E-01        -0.48881E-01         0.00000E+00
    0.13179E-01        -0.46797E-01         0.00000E+00
    0.12639E-01        -0.44710E-01         0.00000E+00
    0.12097E-01        -0.42620E-01         0.00000E+00
    0.11552E-01        -0.40526E-01         0.00000E+00
    0.11003E-01        -0.38428E-01         0.00000E+00
    0.10450E-01        -0.36326E-01         0.00000E+00
    0.98925E-02        -0.34221E-01         0.00000E+00
    0.93299E-02        -0.32112E-01         0.00000E+00
    0.87619E-02        -0.29999E-01         0.00000E+00
    0.81880E-02        -0.27882E-01         0.00000E+00
    0.76077E-02        -0.25761E-01         0.00000E+00
    0.70206E-02        -0.23636E-01         0.00000E+00
    0.64263E-02        -0.21508E-01         0.00000E+00
    0.58244E-02        -0.19375E-01         0.00000E+00
    0.52145E-02        -0.17238E-01         0.00000E+00
    0.45962E-02        -0.15098E-01         0.00000E+00
    0.39690E-02        -0.12953E-01         0.00000E+00
    0.33326E-02        -0.10804E-01         0.00000E+00
    0.26866E-02        -0.86513E-02         0.00000E+00
    0.20307E-02        -0.64945E-02         0.00000E+00
    0.13645E-02        -0.43337E-02         0.00000E+00
    0.68774E-03        -0.21688E-02         0.00000E+00
    0.00000E+00         0.00000E+00         0.00000E+00
    0.27436E-01        -0.10756E+00         0.00000E+00
    0.26753E-01        -0.10547E+00         0.00000E+00
    0.26086E-01        -0.10339E+00         0.00000E+00
    0.25435E-01        -0.10130E+00         0.00000E+00
    0.24800E-01        -0.99205E-01         0.00000E+00
    0.24179E-01        -0.97113E-01         0.00000E+00
    0.23572E-01        -0.95021E-01         0.00000E+00
    0.22978E-01        -0.92926E-01         0.00000E+00
    0.22396E-01        -0.90830E-01         0.00000E+00
    0.21825E-01        -0.88733E-01         0.00000E+00
    0.21264E-01        -0.86633E-01         0.00000E+00
    0.20713E-01        -0.84531E-01         0.00000E+00
    0.20172E-01        -0.82427E-01         0.00000E+00
    0.19638E-01        -0.80321E-01         0.00000E+00
    0.19112E-01        -0.78212E-01         0.00000E+00
    0.18593E-01        -0.76101E-01         0.00000E+00
    0.18080E-01        -0.73986E-01         0.00000E+00
    0.17573E-01        -0.71870E-01         0.00000E+00
    0.17070E-01        -0.69750E-01         0.00000E+00
    0.16571E-01        -0.67627E-01         0.00000E+00
    0.16075E-01        -0.65502E-01         0.00000E+00
    0.15583E-01        -0.63373E-01         0.00000E+00
    0.15092E-01        -0.61241E-01         0.00000E+00
    0.14603E-01        -0.59106E-01         0.00000E+00
    0.14115E-01        -0.56968E-01         0.00000E+00
    0.13627E-01        -0.54826E-01         0.00000E+00
    0.13138E-01        -0.52681E-01         0.00000E+00
    0.12649E-01        -0.50532E-01         0.00000E+00
    0.12159E-01        -0.48380E-01         0.00000E+00
    0.11667E-01        -0.46224E-01         0.00000E+00
    0.11172E-01        -0.44064E-01         0.00000E+00
    0.10674E-01        -0.41900E-01         0.00000E+00
    0.10173E-01        -0.39733E-01         0.00000E+00
    0.96678E-02        -0.37562E-01         0.00000E+00
    0.91580E-02        -0.35387E-01         0.00000E+00
    0.86432E-02        -0.33207E-01         0.00000E+00
    0.81228E-02        -0.31024E-01         0.00000E+00
    0.75965E-02        -0.28836E-01         0.00000E+00
    0.70636E-02        -0.26645E-01         0.00000E+00
    0.65238E-02        -0.24448E-01         0.00000E+00
    0.59766E-02        -0.22248E-01         0.00000E+00
    0.54215E-02        -0.20043E-01         0.00000E+00
    0.48581E-02        -0.17834E-01         0.00000E+00
    0.42859E-02        -0.15621E-01         0.00000E+00
    0.37045E-02        -0.13403E-01         0.00000E+00
    0.31134E-02        -0.11180E-01         0.00000E+00
    0.25124E-02        -0.89532E-02         0.00000E+00
    0.19009E-02        -0.67217E-02         0.00000E+00
    0.12786E-02        -0.44856E-02         0.00000E+00
    0.64508E-03        -0.22451E-02         0.00000E+00
    0.00000E+00         0.00000E+00         0.00000E+00
    0.25005E-01        -0.11097E+00         0.00000E+00
    0.24346E-01        -0.10881E+00         0.00000E+00
    0.23707E-01        -0.10666E+00         0.00000E+00
    0.23086E-01        -0.10450E+00         0.00000E+00
    0.22484E-01        -0.10234E+00         0.00000E+00
    0.21897E-01        -0.10018E+00         0.00000E+00
    0.21327E-01        -0.98019E-01         0.00000E+00
    0.20772E-01        -0.95857E-01         0.00000E+00
    0.20230E-01        -0.93692E-01         0.00000E+00
    0.19701E-01        -0.91526E-01         0.00000E+00
    0.19184E-01        -0.89358E-01         0.00000E+00
    0.18679E-01        -0.87188E-01         0.00000E+00
    0.18183E-01        -0.85016E-01         0.00000E+00
    0.17697E-01        -0.82842E-01         0.00000E+00
    0.17219E-01        -0.80665E-01         0.00000E+00
    0.16749E-01        -0.78485E-01         0.00000E+00
    0.16285E-01        -0.76303E-01         0.00000E+00
    0.15828E-01        -0.74119E-01         0.00000E+00
    0.15376E-01        -0.71932E-01         0.00000E+00
    0.14928E-01        -0.69742E-01         0.00000E+00
    0.14485E-01        -0.67549E-01         0.00000E+00
    0.14044E-01        -0.65353E-01         0.00000E+00
    0.13606E-01        -0.63154E-01         0.00000E+00
    0.13170E-01        -0.60952E-01         0.00000E+00
    0.12735E-01        -0.58746E-01         0.00000E+00
    0.12301E-01        -0.56538E-01         0.00000E+00
    0.11866E-01        -0.54326E-01         0.00000E+00
    0.11431E-01        -0.52111E-01         0.00000E+00
    0.10995E-01        -0.49892E-01         0.00000E+00
    0.10557E-01        -0.47670E-01         0.00000E+00
    0.10116E-01        -0.45443E-01         0.00000E+00
    0.96729E-02        -0.43214E-01         0.00000E+00
    0.92261E-02        -0.40980E-01         0.00000E+00
    0.87753E-02        -0.38742E-01         0.00000E+00
    0.83200E-02        -0.36500E-01         0.00000E+00
    0.78596E-02        -0.34254E-01         0.00000E+00
    0.73936E-02        -0.32003E-01         0.00000E+00
    0.69215E-02        -0.29748E-01         0.00000E+00
    0.64428E-02        -0.27489E-01         0.00000E+00
    0.59570E-02        -0.25225E-01         0.00000E+00
    0.54635E-02        -0.22956E-01         0.00000E+00
    0.49618E-02        -0.20683E-01         0.00000E+00
    0.44515E-02        -0.18405E-01         0.00000E+00
    0.39321E-02        -0.16122E-01         0.00000E+00
    0.34030E-02        -0.13834E-01         0.00000E+00
    0.28638E-02        -0.11541E-01         0.00000E+00
    0.23140E-02        -0.92429E-02         0.00000E+00
    0.17532E-02        -0.69399E-02         0.00000E+00
    0.11809E-02        -0.46317E-02         0.00000E+00
    0.59662E-03        -0.23184E-02         0.00000E+00
    0.00000E+00         0.00000E+00         0.00000E+00
    0.22145E-01        -0.11423E+00         0.00000E+00
    0.21523E-01        -0.11201E+00         0.00000E+00
    0.20923E-01        -0.10978E+00         0.00000E+00
    0.20345E-01        -0.10756E+00         0.00000E+00
    0.19788E-01        -0.10533E+00         0.00000E+00
    0.19249E-01        -0.10310E+00         0.00000E+00
    0.18728E-01        -0.10087E+00         0.00000E+00
    0.18223E-01        -0.98641E-01         0.00000E+00
    0.17734E-01        -0.96409E-01         0.00000E+00
    0.17259E-01        -0.94174E-01         0.00000E+00
    0.16797E-01        -0.91938E-01         0.00000E+00
    0.16347E-01        -0.89701E-01         0.00000E+00
    0.15908E-01        -0.87461E-01         0.00000E+00
    0.15479E-01        -0.85219E-01         0.00000E+00
    0.15059E-01        -0.82975E-01         0.00000E+00
    0.14647E-01        -0.80729E-01         0.00000E+00
    0.14243E-01        -0.78481E-01         0.00000E+00
    0.13844E-01        -0.76230E-01         0.00000E+00
    0.13452E-01        -0.73977E-01         0.00000E+00
    0.13064E-01        -0.71721E-01         0.00000E+00
    0.12680E-01        -0.69463E-01         0.00000E+00
    0.12300E-01        -0.67203E-01         0.00000E+00
    0.11922E-01        -0.64940E-01         0.00000E+00
    0.11546E-01        -0.62674E-01         0.00000E+00
    0.11172E-01        -0.60405E-01         0.00000E+00
    0.10798E-01        -0.58133E-01         0.00000E+00
    0.10424E-01        -0.55858E-01         0.00000E+00
    0.10050E-01        -0.53580E-01         0.00000E+00
    0.96744E-02        -0.51299E-01         0.00000E+00
    0.92972E-02        -0.49014E-01         0.00000E+00
    0.89179E-02        -0.46726E-01         0.00000E+00
    0.85357E-02        -0.44434E-01         0.00000E+00
    0.81501E-02        -0.42139E-01         0.00000E+00
    0.77606E-02        -0.39839E-01         0.00000E+00
    0.73666E-02        -0.37535E-01         0.00000E+00
    0.69676E-02        -0.35227E-01         0.00000E+00
    0.65630E-02        -0.32914E-01         0.00000E+00
    0.61523E-02        -0.30597E-01         0.00000E+00
    0.57349E-02        -0.28275E-01         0.00000E+00
    0.53102E-02        -0.25949E-01         0.00000E+00
    0.48778E-02        -0.23617E-01         0.00000E+00
    0.44370E-02        -0.21280E-01         0.00000E+00
    0.39872E-02        -0.18938E-01         0.00000E+00
    0.35279E-02        -0.16591E-01         0.00000E+00
    0.30586E-02        -0.14238E-01         0.00000E+00
    0.25786E-02        -0.11879E-01         0.00000E+00
    0.20875E-02        -0.95148E-02         0.00000E+00
    0.15846E-02        -0.71448E-02         0.00000E+00
    0.10694E-02        -0.47691E-02         0.00000E+00
    0.54136E-03        -0.23875E-02         0.00000E+00
    0.00000E+00         0.00000E+00         0.00000E+00
    0.18814E-01        -0.11728E+00         0.00000E+00
    0.18245E-01        -0.11499E+00         0.00000E+00
    0.17701E-01        -0.11269E+00         0.00000E+00
    0.17182E-01        -0.11040E+00         0.00000E+00
    0.16685E-01        -0.10810E+00         0.00000E+00
    0.16208E-01        -0.10581E+00         0.00000E+00
    0.15751E-01        -0.10351E+00         0.00000E+00
    0.15312E-01        -0.10121E+00         0.00000E+00
    0.14889E-01        -0.98910E-01         0.00000E+00
    0.14481E-01        -0.96609E-01         0.00000E+00
    0.14087E-01        -0.94305E-01         0.00000E+00
    0.13705E-01        -0.92001E-01         0.00000E+00
    0.13334E-01        -0.89695E-01         0.00000E+00
    0.12973E-01        -0.87387E-01         0.00000E+00
    0.12622E-01        -0.85078E-01         0.00000E+00
    0.12278E-01        -0.82767E-01         0.00000E+00
    0.11942E-01        -0.80455E-01         0.00000E+00
    0.11612E-01        -0.78141E-01         0.00000E+00
    0.11287E-01        -0.75826E-01         0.00000E+00
    0.10967E-01        -0.73508E-01         0.00000E+00
    0.10651E-01        -0.71189E-01         0.00000E+00
    0.10338E-01        -0.68868E-01         0.00000E+00
    0.10028E-01        -0.66545E-01         0.00000E+00
    0.97189E-02        -0.64220E-01         0.00000E+00
    0.94115E-02        -0.61893E-01         0.00000E+00
    0.91047E-02        -0.59563E-01         0.00000E+00
    0.87980E-02        -0.57231E-01         0.00000E+00
    0.84908E-02        -0.54896E-01         0.00000E+00
    0.81826E-02        -0.52558E-01         0.00000E+00
    0.78728E-02        -0.50217E-01         0.00000E+00
    0.75609E-02        -0.47873E-01         0.00000E+00
    0.72463E-02        -0.45526E-01         0.00000E+00
    0.69285E-02        -0.43175E-01         0.00000E+00
    0.66070E-02        -0.40820E-01         0.00000E+00
    0.62812E-02        -0.38462E-01         0.00000E+00
    0.59506E-02        -0.36099E-01         0.00000E+00
    0.56147E-02        -0.33731E-01         0.00000E+00
    0.52727E-02        -0.31359E-01         0.00000E+00
    0.49243E-02        -0.28982E-01         0.00000E+00
    0.45687E-02        -0.26600E-01         0.00000E+00
    0.42053E-02        -0.24212E-01         0.00000E+00
    0.38336E-02        -0.21819E-01         0.00000E+00
    0.34528E-02        -0.19420E-01         0.00000E+00
    0.30623E-02        -0.17015E-01         0.00000E+00
    0.26615E-02        -0.14604E-01         0.00000E+00
    0.22496E-02        -0.12186E-01         0.00000E+00
    0.18260E-02        -0.97624E-02         0.00000E+00
    0.13899E-02        -0.73319E-02         0.00000E+00
    0.94065E-03        -0.48947E-02         0.00000E+00
    0.47757E-03        -0.24507E-02         0.00000E+00
    0.00000E+00         0.00000E+00         0.00000E+00
    0.14972E-01        -0.12002E+00         0.00000E+00
    0.14477E-01        -0.11766E+00         0.00000E+00
    0.14010E-01        -0.11530E+00         0.00000E+00
    0.13569E-01        -0.11294E+00         0.00000E+00
    0.13152E-01        -0.11057E+00         0.00000E+00
    0.12758E-01        -0.10821E+00         0.00000E+00
    0.12383E-01        -0.10584E+00         0.00000E+00
    0.12026E-01        -0.10348E+00         0.00000E+00
    0.11686E-01        -0.10111E+00         0.00000E+00
    0.11360E-01        -0.98740E-01         0.00000E+00
    0.11047E-01        -0.96372E-01         0.00000E+00
    0.10747E-01        -0.94003E-01         0.00000E+00
    0.10456E-01        -0.91633E-01         0.00000E+00
    0.10175E-01        -0.89263E-01         0.00000E+00
    0.99019E-02        -0.86892E-01         0.00000E+00
    0.96361E-02        -0.84521E-01         0.00000E+00
    0.93766E-02        -0.82150E-01         0.00000E+00
    0.91225E-02        -0.79777E-01         0.00000E+00
    0.88731E-02        -0.77405E-01         0.00000E+00
    0.86277E-02        -0.75031E-01         0.00000E+00
    0.83856E-02        -0.72657E-01         0.00000E+00
    0.81462E-02        -0.70282E-01         0.00000E+00
    0.79089E-02        -0.67906E-01         0.00000E+00
    0.76731E-02        -0.65529E-01         0.00000E+00
    0.74384E-02        -0.63151E-01         0.00000E+00
    0.72041E-02        -0.60771E-01         0.00000E+00
    0.69699E-02        -0.58389E-01         0.00000E+00
    0.67352E-02        -0.56005E-01         0.00000E+00
    0.64995E-02        -0.53619E-01         0.00000E+00
    0.62625E-02        -0.51231E-01         0.00000E+00
    0.60236E-02        -0.48840E-01         0.00000E+00
    0.57824E-02        -0.46446E-01         0.00000E+00
    0.55383E-02        -0.44049E-01         0.00000E+00
    0.52910E-02        -0.41648E-01         0.00000E+00
    0.50399E-02        -0.39244E-01         0.00000E+00
    0.47845E-02        -0.36836E-01         0.00000E+00
    0.45244E-02        -0.34423E-01         0.00000E+00
    0.42588E-02        -0.32005E-01         0.00000E+00
    0.39873E-02        -0.29582E-01         0.00000E+00
    0.37093E-02        -0.27154E-01         0.00000E+00
    0.34240E-02        -0.24720E-01         0.00000E+00
    0.31308E-02        -0.22280E-01         0.00000E+00
    0.28289E-02        -0.19834E-01         0.00000E+00
    0.25175E-02        -0.17381E-01         0.00000E+00
    0.21959E-02        -0.14921E-01         0.00000E+00
    0.18631E-02        -0.12454E-01         0.00000E+00
    0.15183E-02        -0.99786E-02         0.00000E+00
    0.11605E-02        -0.74959E-02         0.00000E+00
    0.78887E-03        -0.50054E-02         0.00000E+00
    0.40241E-03        -0.25068E-02         0.00000E+00
    0.00000E+00         0.00000E+00         0.00000E+00
    0.10579E-01        -0.12233E+00         0.00000E+00
    0.10186E-01        -0.11990E+00         0.00000E+00
    0.98235E-02        -0.11747E+00         0.00000E+00
    0.94887E-02        -0.11504E+00         0.00000E+00
    0.91784E-02        -0.11261E+00         0.00000E+00
    0.88895E-02        -0.11018E+00         0.00000E+00
    0.86194E-02        -0.10775E+00         0.00000E+00
    0.83654E-02        -0.10532E+00         0.00000E+00
    0.81256E-02        -0.10288E+00         0.00000E+00
    0.78981E-02        -0.10045E+00         0.00000E+00
    0.76813E-02        -0.98024E-01         0.00000E+00
    0.74738E-02        -0.95596E-01         0.00000E+00
    0.72745E-02        -0.93168E-01         0.00000E+00
    0.70823E-02        -0.90742E-01         0.00000E+00
    0.68963E-02        -0.88318E-01         0.00000E+00
    0.67156E-02        -0.85894E-01         0.00000E+00
    0.65397E-02        -0.83472E-01         0.00000E+00
    0.63677E-02        -0.81050E-01         0.00000E+00
    0.61992E-02        -0.78630E-01         0.00000E+00
    0.60335E-02        -0.76210E-01         0.00000E+00
    0.58702E-02        -0.73791E-01         0.00000E+00
    0.57088E-02        -0.71372E-01         0.00000E+00
    0.55488E-02        -0.68953E-01         0.00000E+00
    0.53900E-02        -0.66534E-01         0.00000E+00
    0.52318E-02        -0.64115E-01         0.00000E+00
    0.50739E-02        -0.61696E-01         0.00000E+00
    0.49160E-02        -0.59275E-01         0.00000E+00
    0.47576E-02        -0.56853E-01         0.00000E+00
    0.45986E-02        -0.54430E-01         0.00000E+00
    0.44384E-02        -0.52006E-01         0.00000E+00
    0.42769E-02        -0.49579E-01         0.00000E+00
    0.41135E-02        -0.47150E-01         0.00000E+00
    0.39481E-02        -0.44718E-01         0.00000E+00
    0.37802E-02        -0.42283E-01         0.00000E+00
    0.36094E-02        -0.39844E-01         0.00000E+00
    0.34353E-02        -0.37402E-01         0.00000E+00
    0.32575E-02        -0.34955E-01         0.00000E+00
    0.30755E-02        -0.32504E-01         0.00000E+00
    0.28889E-02        -0.30048E-01         0.00000E+00
    0.26971E-02        -0.27586E-01         0.00000E+00
    0.24994E-02        -0.25118E-01         0.00000E+00
    0.22951E-02        -0.22643E-01         0.00000E+00
    0.20836E-02        -0.20162E-01         0.00000E+00
    0.18639E-02        -0.17673E-01         0.00000E+00
    0.16351E-02        -0.15176E-01         0.00000E+00
    0.13960E-02        -0.12670E-01         0.00000E+00
    0.11454E-02        -0.10156E-01         0.00000E+00
    0.88182E-03        -0.76316E-02         0.00000E+00
    0.60389E-03        -0.50976E-02         0.00000E+00
    0.31023E-03        -0.25537E-02         0.00000E+00
    0.00000E+00         0.00000E+00         0.00000E+00
    0.55923E-02        -0.12404E+00         0.00000E+00
    0.53470E-02        -0.12154E+00         0.00000E+00
    0.51345E-02        -0.11904E+00         0.00000E+00
    0.49464E-02        -0.11654E+00         0.00000E+00
    0.47772E-02        -0.11404E+00         0.00000E+00
    0.46230E-02        -0.11155E+00         0.00000E+00
    0.44810E-02        -0.10906E+00         0.00000E+00
    0.43489E-02        -0.10657E+00         0.00000E+00
    0.42253E-02        -0.10408E+00         0.00000E+00
    0.41087E-02        -0.10160E+00         0.00000E+00
    0.39981E-02        -0.99119E-01         0.00000E+00
    0.38927E-02        -0.96644E-01         0.00000E+00
    0.37917E-02        -0.94173E-01         0.00000E+00
    0.36946E-02        -0.91706E-01         0.00000E+00
    0.36007E-02        -0.89242E-01         0.00000E+00
    0.35097E-02        -0.86780E-01         0.00000E+00
    0.34212E-02        -0.84322E-01         0.00000E+00
    0.33347E-02        -0.81866E-01         0.00000E+00
    0.32500E-02        -0.79413E-01         0.00000E+00
    0.31667E-02        -0.76961E-01         0.00000E+00
    0.30847E-02        -0.74512E-01         0.00000E+00
    0.30036E-02        -0.72064E-01         0.00000E+00
    0.29233E-02        -0.69617E-01         0.00000E+00
    0.28435E-02        -0.67171E-01         0.00000E+00
    0.27640E-02        -0.64725E-01         0.00000E+00
    0.26847E-02        -0.62280E-01         0.00000E+00
    0.26053E-02        -0.59834E-01         0.00000E+00
    0.25257E-02        -0.57389E-01         0.00000E+00
    0.24456E-02        -0.54942E-01         0.00000E+00
    0.23650E-02        -0.52494E-01         0.00000E+00
    0.22836E-02        -0.50045E-01         0.00000E+00
    0.22012E-02        -0.47594E-01         0.00000E+00
    0.21177E-02        -0.45140E-01         0.00000E+00
    0.20329E-02        -0.42684E-01         0.00000E+00
    0.19464E-02        -0.40224E-01         0.00000E+00
    0.18582E-02        -0.37761E-01         0.00000E+00
    0.17679E-02        -0.35294E-01         0.00000E+00
    0.16754E-02        -0.32823E-01         0.00000E+00
    0.15802E-02        -0.30346E-01         0.00000E+00
    0.14821E-02        -0.27864E-01         0.00000E+00
    0.13806E-02        -0.25376E-01         0.00000E+00
    0.12753E-02        -0.22881E-01         0.00000E+00
    0.11657E-02        -0.20379E-01         0.00000E+00
    0.10511E-02        -0.17869E-01         0.00000E+00
    0.93077E-03        -0.15350E-01         0.00000E+00
    0.80360E-03        -0.12821E-01         0.00000E+00
    0.66835E-03        -0.10282E-01         0.00000E+00
    0.52329E-03        -0.77315E-02         0.00000E+00
    0.36608E-03        -0.51684E-02         0.00000E+00
    0.19333E-03        -0.25916E-02         0.00000E+00
    0.00000E+00         0.00000E+00         0.00000E+00
    0.00000E+00        -0.12479E+00         0.00000E+00
    0.00000E+00        -0.12223E+00         0.00000E+00
    0.00000E+00        -0.11967E+00         0.00000E+00
    0.00000E+00        -0.11713E+00         0.00000E+00
    0.00000E+00        -0.11459E+00         0.00000E+00
    0.00000E+00        -0.11206E+00         0.00000E+00
    0.00000E+00        -0.10954E+00         0.00000E+00
    0.00000E+00        -0.10702E+00         0.00000E+00
    0.00000E+00        -0.10451E+00         0.00000E+00
    0.00000E+00        -0.10201E+00         0.00000E+00
    0.00000E+00        -0.99508E-01         0.00000E+00
    0.00000E+00        -0.97015E-01         0.00000E+00
    0.00000E+00        -0.94527E-01         0.00000E+00
    0.00000E+00        -0.92043E-01         0.00000E+00
    0.00000E+00        -0.89564E-01         0.00000E+00
    0.00000E+00        -0.87089E-01         0.00000E+00
    0.00000E+00        -0.84617E-01         0.00000E+00
    0.00000E+00        -0.82149E-01         0.00000E+00
    0.00000E+00        -0.79683E-01         0.00000E+00
    0.00000E+00        -0.77220E-01         0.00000E+00
    0.00000E+00        -0.74760E-01         0.00000E+00
    0.00000E+00        -0.72301E-01         0.00000E+00
    0.00000E+00        -0.69845E-01         0.00000E+00
    0.00000E+00        -0.67389E-01         0.00000E+00
    0.00000E+00        -0.64934E-01         0.00000E+00
    0.00000E+00        -0.62480E-01         0.00000E+00
    0.00000E+00        -0.60026E-01         0.00000E+00
    0.00000E+00        -0.57572E-01         0.00000E+00
    0.00000E+00        -0.55117E-01         0.00000E+00
    0.00000E+00        -0.52662E-01         0.00000E+00
    0.00000E+00        -0.50205E-01         0.00000E+00
    0.00000E+00        -0.47746E-01         0.00000E+00
    0.00000E+00        -0.45285E-01         0.00000E+00
    0.00000E+00        -0.42822E-01         0.00000E+00
    0.00000E+00        -0.40355E-01         0.00000E+00
    0.00000E+00        -0.37885E-01         0.00000E+00
    0.00000E+00        -0.35411E-01         0.00000E+00
    0.00000E+00        -0.32933E-01         0.00000E+00
    0.00000E+00        -0.30450E-01         0.00000E+00
    0.00000E+00        -0.27961E-01         0.00000E+00
    0.00000E+00        -0.25467E-01         0.00000E+00
    0.00000E+00        -0.22965E-01         0.00000E+00
    0.00000E+00        -0.20456E-01         0.00000E+00
    0.00000E+00        -0.17940E-01         0.00000E+00
    0.00000E+00        -0.15414E-01         0.00000E+00
    0.00000E+00        -0.12878E-01         0.00000E+00
    0.00000E+00        -0.10331E-01         0.00000E+00
    0.00000E+00        -0.77714E-02         0.00000E+00
    0.00000E+00        -0.51981E-02         0.00000E+00
    0.00000E+00        -0.26086E-02         0.00000E+00
    0.00000E+00         0.00000E+00         0.00000E+00
CELL_DATA       5000
VECTORS vDarcy double 
    0.39132E-08         0.17011E-11         0.00000E+00
    0.39119E-08         0.46318E-11         0.00000E+00
    0.39096E-08         0.69945E-11         0.00000E+00
    0.39064E-08         0.89241E-11         0.00000E+00
    0.39025E-08         0.10517E-10         0.00000E+00
    0.38980E-08         0.11844E-10         0.00000E+00
    0.38931E-08         0.12955E-10         0.00000E+00
    0.38877E-08         0.13892E-10         0.00000E+00
    0.38820E-08         0.14683E-10         0.00000E+00
    0.38760E-08         0.15353E-10         0.00000E+00
    0.38697E-08         0.15918E-10         0.00000E+00
    0.38632E-08         0.16394E-10         0.00000E+00
    0.38566E-08         0.16793E-10         0.00000E+00
    0.38498E-08         0.17124E-10         0.00000E+00
    0.38429E-08         0.17394E-10         0.00000E+00
    0.38359E-08         0.17611E-10         0.00000E+00
    0.38288E-08         0.17778E-10         0.00000E+00
    0.38217E-08         0.17902E-10         0.00000E+00
    0.38145E-08         0.17984E-10         0.00000E+00
    0.38073E-08         0.18029E-10         0.00000E+00
    0.38001E-08         0.18038E-10         0.00000E+00
    0.37929E-08         0.18014E-10         0.00000E+00
    0.37857E-08         0.17958E-10         0.00000E+00
    0.37785E-08         0.17872E-10         0.00000E+00
    0.37714E-08         0.17755E-10         0.00000E+00
    0.37643E-08         0.17610E-10         0.00000E+00
    0.37573E-08         0.17437E-10         0.00000E+00
    0.37504E-08         0.17235E-10         0.00000E+00
    0.37436E-08         0.17005E-10         0.00000E+00
    0.37368E-08         0.16746E-10         0.00000E+00
    0.37302E-08         0.16458E-10         0.00000E+00
    0.37236E-08         0.16140E-10         0.00000E+00
    0.37173E-08         0.15791E-10         0.00000E+00
    0.37110E-08         0.15410E-10         0.00000E+00
    0.37049E-08         0.14994E-10         0.00000E+00
    0.36990E-08         0.14543E-10         0.00000E+00
    0.36933E-08         0.14054E-10         0.00000E+00
    0.36878E-08         0.13523E-10         0.00000E+00
    0.36825E-08         0.12947E-10         0.00000E+00
    0.36774E-08         0.12322E-10         0.00000E+00
    0.36727E-08         0.11642E-10         0.00000E+00
    0.36681E-08         0.10901E-10         0.00000E+00
    0.36639E-08         0.10090E-10         0.00000E+00
    0.36601E-08         0.91998E-11         0.00000E+00
    0.36566E-08         0.82167E-11         0.00000E+00
    0.36535E-08         0.71238E-11         0.00000E+00
    0.36509E-08         0.58988E-11         0.00000E+00
    0.36489E-08         0.45113E-11         0.00000E+00
    0.36474E-08         0.29199E-11         0.00000E+00
    0.36466E-08         0.10663E-11         0.00000E+00
    0.37644E-08         0.35697E-11         0.00000E+00
    0.37642E-08         0.10031E-10         0.00000E+00
    0.37637E-08         0.15594E-10         0.00000E+00
    0.37629E-08         0.20395E-10         0.00000E+00
    0.37617E-08         0.24546E-10         0.00000E+00
    0.37601E-08         0.28142E-10         0.00000E+00
    0.37581E-08         0.31262E-10         0.00000E+00
    0.37558E-08         0.33970E-10         0.00000E+00
    0.37532E-08         0.36320E-10         0.00000E+00
    0.37503E-08         0.38359E-10         0.00000E+00
    0.37471E-08         0.40123E-10         0.00000E+00
    0.37437E-08         0.41644E-10         0.00000E+00
    0.37400E-08         0.42948E-10         0.00000E+00
    0.37362E-08         0.44058E-10         0.00000E+00
    0.37322E-08         0.44993E-10         0.00000E+00
    0.37280E-08         0.45769E-10         0.00000E+00
    0.37237E-08         0.46398E-10         0.00000E+00
    0.37194E-08         0.46894E-10         0.00000E+00
    0.37149E-08         0.47264E-10         0.00000E+00
    0.37103E-08         0.47518E-10         0.00000E+00
    0.37057E-08         0.47661E-10         0.00000E+00
    0.37011E-08         0.47701E-10         0.00000E+00
    0.36964E-08         0.47641E-10         0.00000E+00
    0.36917E-08         0.47485E-10         0.00000E+00
    0.36870E-08         0.47236E-10         0.00000E+00
    0.36823E-08         0.46897E-10         0.00000E+00
    0.36777E-08         0.46468E-10         0.00000E+00
    0.36731E-08         0.45950E-10         0.00000E+00
    0.36685E-08         0.45344E-10         0.00000E+00
    0.36640E-08         0.44649E-10         0.00000E+00
    0.36596E-08         0.43863E-10         0.00000E+00
    0.36552E-08         0.42986E-10         0.00000E+00
    0.36510E-08         0.42014E-10         0.00000E+00
    0.36469E-08         0.40944E-10         0.00000E+00
    0.36429E-08         0.39772E-10         0.00000E+00
    0.36391E-08         0.38493E-10         0.00000E+00
    0.36354E-08         0.37100E-10         0.00000E+00
    0.36319E-08         0.35587E-10         0.00000E+00
    0.36286E-08         0.33945E-10         0.00000E+00
    0.36255E-08         0.32163E-10         0.00000E+00
    0.36226E-08         0.30230E-10         0.00000E+00
    0.36199E-08         0.28131E-10         0.00000E+00
    0.36175E-08         0.25850E-10         0.00000E+00
    0.36154E-08         0.23365E-10         0.00000E+00
    0.36135E-08         0.20652E-10         0.00000E+00
    0.36120E-08         0.17683E-10         0.00000E+00
    0.36108E-08         0.14422E-10         0.00000E+00
    0.36099E-08         0.10827E-10         0.00000E+00
    0.36094E-08         0.68478E-11         0.00000E+00
    0.36091E-08         0.24235E-11         0.00000E+00
    0.36526E-08         0.37748E-11         0.00000E+00
    0.36526E-08         0.10942E-10         0.00000E+00
    0.36525E-08         0.17526E-10         0.00000E+00
    0.36523E-08         0.23533E-10         0.00000E+00
    0.36520E-08         0.28987E-10         0.00000E+00
    0.36515E-08         0.33919E-10         0.00000E+00
    0.36509E-08         0.38363E-10         0.00000E+00
    0.36501E-08         0.42355E-10         0.00000E+00
    0.36491E-08         0.45931E-10         0.00000E+00
    0.36480E-08         0.49122E-10         0.00000E+00
    0.36467E-08         0.51960E-10         0.00000E+00
    0.36452E-08         0.54472E-10         0.00000E+00
    0.36435E-08         0.56684E-10         0.00000E+00
    0.36417E-08         0.58617E-10         0.00000E+00
    0.36397E-08         0.60292E-10         0.00000E+00
    0.36376E-08         0.61727E-10         0.00000E+00
    0.36354E-08         0.62938E-10         0.00000E+00
    0.36330E-08         0.63937E-10         0.00000E+00
    0.36306E-08         0.64737E-10         0.00000E+00
    0.36281E-08         0.65349E-10         0.00000E+00
    0.36255E-08         0.65781E-10         0.00000E+00
    0.36229E-08         0.66041E-10         0.00000E+00
    0.36202E-08         0.66136E-10         0.00000E+00
    0.36175E-08         0.66071E-10         0.00000E+00
    0.36147E-08         0.65849E-10         0.00000E+00
    0.36120E-08         0.65475E-10         0.00000E+00
    0.36092E-08         0.64950E-10         0.00000E+00
    0.36065E-08         0.64277E-10         0.00000E+00
    0.36037E-08         0.63455E-10         0.00000E+00
    0.36010E-08         0.62484E-10         0.00000E+00
    0.35984E-08         0.61364E-10         0.00000E+00
    0.35958E-08         0.60092E-10         0.00000E+00
    0.35933E-08         0.58665E-10         0.00000E+00
    0.35908E-08         0.57080E-10         0.00000E+00
    0.35885E-08         0.55331E-10         0.00000E+00
    0.35862E-08         0.53414E-10         0.00000E+00
    0.35841E-08         0.51321E-10         0.00000E+00
    0.35820E-08         0.49044E-10         0.00000E+00
    0.35801E-08         0.46575E-10         0.00000E+00
    0.35784E-08         0.43904E-10         0.00000E+00
    0.35768E-08         0.41017E-10         0.00000E+00
    0.35753E-08         0.37903E-10         0.00000E+00
    0.35740E-08         0.34547E-10         0.00000E+00
    0.35729E-08         0.30934E-10         0.00000E+00
    0.35719E-08         0.27045E-10         0.00000E+00
    0.35712E-08         0.22865E-10         0.00000E+00
    0.35705E-08         0.18374E-10         0.00000E+00
    0.35701E-08         0.13557E-10         0.00000E+00
    0.35698E-08         0.84003E-11         0.00000E+00
    0.35697E-08         0.28961E-11         0.00000E+00
    0.35692E-08         0.37268E-11         0.00000E+00
    0.35693E-08         0.10881E-10         0.00000E+00
    0.35694E-08         0.17594E-10         0.00000E+00
    0.35695E-08         0.23870E-10         0.00000E+00
    0.35696E-08         0.29716E-10         0.00000E+00
    0.35696E-08         0.35139E-10         0.00000E+00
    0.35697E-08         0.40151E-10         0.00000E+00
    0.35696E-08         0.44765E-10         0.00000E+00
    0.35695E-08         0.48995E-10         0.00000E+00
    0.35693E-08         0.52856E-10         0.00000E+00
    0.35690E-08         0.56365E-10         0.00000E+00
    0.35686E-08         0.59537E-10         0.00000E+00
    0.35681E-08         0.62388E-10         0.00000E+00
    0.35675E-08         0.64932E-10         0.00000E+00
    0.35669E-08         0.67185E-10         0.00000E+00
    0.35661E-08         0.69159E-10         0.00000E+00
    0.35652E-08         0.70866E-10         0.00000E+00
    0.35643E-08         0.72317E-10         0.00000E+00
    0.35633E-08         0.73524E-10         0.00000E+00
    0.35622E-08         0.74494E-10         0.00000E+00
    0.35611E-08         0.75236E-10         0.00000E+00
    0.35599E-08         0.75757E-10         0.00000E+00
    0.35587E-08         0.76062E-10         0.00000E+00
    0.35574E-08         0.76159E-10         0.00000E+00
    0.35561E-08         0.76049E-10         0.00000E+00
    0.35547E-08         0.75738E-10         0.00000E+00
    0.35534E-08         0.75227E-10         0.00000E+00
    0.35520E-08         0.74519E-10         0.00000E+00
    0.35507E-08         0.73613E-10         0.00000E+00
    0.35493E-08         0.72511E-10         0.00000E+00
    0.35480E-08         0.71212E-10         0.00000E+00
    0.35467E-08         0.69715E-10         0.00000E+00
    0.35454E-08         0.68016E-10         0.00000E+00
    0.35442E-08         0.66114E-10         0.00000E+00
    0.35430E-08         0.64004E-10         0.00000E+00
    0.35419E-08         0.61683E-10         0.00000E+00
    0.35408E-08         0.59145E-10         0.00000E+00
    0.35398E-08         0.56384E-10         0.00000E+00
    0.35389E-08         0.53394E-10         0.00000E+00
    0.35380E-08         0.50168E-10         0.00000E+00
    0.35372E-08         0.46697E-10         0.00000E+00
    0.35365E-08         0.42975E-10         0.00000E+00
    0.35359E-08         0.38993E-10         0.00000E+00
    0.35354E-08         0.34741E-10         0.00000E+00
    0.35350E-08         0.30213E-10         0.00000E+00
    0.35346E-08         0.25399E-10         0.00000E+00
    0.35343E-08         0.20292E-10         0.00000E+00
    0.35341E-08         0.14885E-10         0.00000E+00
    0.35340E-08         0.91723E-11         0.00000E+00
    0.35339E-08         0.31465E-11         0.00000E+00
    0.35102E-08         0.35141E-11         0.00000E+00
    0.35103E-08         0.10326E-10         0.00000E+00
    0.35104E-08         0.16809E-10         0.00000E+00
    0.35107E-08         0.22956E-10         0.00000E+00
    0.35110E-08         0.28765E-10         0.00000E+00
    0.35113E-08         0.34234E-10         0.00000E+00
    0.35116E-08         0.39366E-10         0.00000E+00
    0.35119E-08         0.44163E-10         0.00000E+00
    0.35122E-08         0.48629E-10         0.00000E+00
    0.35125E-08         0.52768E-10         0.00000E+00
    0.35128E-08         0.56586E-10         0.00000E+00
    0.35130E-08         0.60091E-10         0.00000E+00
    0.35132E-08         0.63288E-10         0.00000E+00
    0.35134E-08         0.66186E-10         0.00000E+00
    0.35135E-08         0.68792E-10         0.00000E+00
    0.35135E-08         0.71113E-10         0.00000E+00
    0.35135E-08         0.73156E-10         0.00000E+00
    0.35135E-08         0.74928E-10         0.00000E+00
    0.35134E-08         0.76436E-10         0.00000E+00
    0.35132E-08         0.77685E-10         0.00000E+00
    0.35131E-08         0.78681E-10         0.00000E+00
    0.35128E-08         0.79429E-10         0.00000E+00
    0.35126E-08         0.79934E-10         0.00000E+00
    0.35123E-08         0.80199E-10         0.00000E+00
    0.35119E-08         0.80228E-10         0.00000E+00
    0.35116E-08         0.80023E-10         0.00000E+00
    0.35112E-08         0.79587E-10         0.00000E+00
    0.35108E-08         0.78921E-10         0.00000E+00
    0.35104E-08         0.78026E-10         0.00000E+00
    0.35100E-08         0.76903E-10         0.00000E+00
    0.35096E-08         0.75551E-10         0.00000E+00
    0.35091E-08         0.73970E-10         0.00000E+00
    0.35087E-08         0.72159E-10         0.00000E+00
    0.35083E-08         0.70116E-10         0.00000E+00
    0.35079E-08         0.67838E-10         0.00000E+00
    0.35076E-08         0.65324E-10         0.00000E+00
    0.35072E-08         0.62570E-10         0.00000E+00
    0.35069E-08         0.59572E-10         0.00000E+00
    0.35066E-08         0.56328E-10         0.00000E+00
    0.35064E-08         0.52834E-10         0.00000E+00
    0.35061E-08         0.49084E-10         0.00000E+00
    0.35059E-08         0.45076E-10         0.00000E+00
    0.35058E-08         0.40804E-10         0.00000E+00
    0.35056E-08         0.36266E-10         0.00000E+00
    0.35055E-08         0.31456E-10         0.00000E+00
    0.35054E-08         0.26372E-10         0.00000E+00
    0.35053E-08         0.21009E-10         0.00000E+00
    0.35053E-08         0.15365E-10         0.00000E+00
    0.35053E-08         0.94376E-11         0.00000E+00
    0.35053E-08         0.32250E-11         0.00000E+00
    0.34726E-08         0.32441E-11         0.00000E+00
    0.34727E-08         0.95713E-11         0.00000E+00
    0.34729E-08         0.15650E-10         0.00000E+00
    0.34732E-08         0.21471E-10         0.00000E+00
    0.34735E-08         0.27027E-10         0.00000E+00
    0.34740E-08         0.32311E-10         0.00000E+00
    0.34744E-08         0.37320E-10         0.00000E+00
    0.34749E-08         0.42050E-10         0.00000E+00
    0.34755E-08         0.46499E-10         0.00000E+00
    0.34760E-08         0.50667E-10         0.00000E+00
    0.34766E-08         0.54552E-10         0.00000E+00
    0.34771E-08         0.58156E-10         0.00000E+00
    0.34777E-08         0.61479E-10         0.00000E+00
    0.34782E-08         0.64525E-10         0.00000E+00
    0.34788E-08         0.67295E-10         0.00000E+00
    0.34793E-08         0.69791E-10         0.00000E+00
    0.34798E-08         0.72017E-10         0.00000E+00
    0.34802E-08         0.73975E-10         0.00000E+00
    0.34807E-08         0.75668E-10         0.00000E+00
    0.34811E-08         0.77099E-10         0.00000E+00
    0.34815E-08         0.78271E-10         0.00000E+00
    0.34818E-08         0.79186E-10         0.00000E+00
    0.34822E-08         0.79847E-10         0.00000E+00
    0.34825E-08         0.80256E-10         0.00000E+00
    0.34828E-08         0.80415E-10         0.00000E+00
    0.34830E-08         0.80325E-10         0.00000E+00
    0.34833E-08         0.79989E-10         0.00000E+00
    0.34835E-08         0.79406E-10         0.00000E+00
    0.34837E-08         0.78577E-10         0.00000E+00
    0.34839E-08         0.77504E-10         0.00000E+00
    0.34840E-08         0.76185E-10         0.00000E+00
    0.34842E-08         0.74622E-10         0.00000E+00
    0.34844E-08         0.72812E-10         0.00000E+00
    0.34845E-08         0.70757E-10         0.00000E+00
    0.34846E-08         0.68454E-10         0.00000E+00
    0.34847E-08         0.65902E-10         0.00000E+00
    0.34849E-08         0.63101E-10         0.00000E+00
    0.34850E-08         0.60048E-10         0.00000E+00
    0.34851E-08         0.56742E-10         0.00000E+00
    0.34852E-08         0.53181E-10         0.00000E+00
    0.34853E-08         0.49363E-10         0.00000E+00
    0.34854E-08         0.45287E-10         0.00000E+00
    0.34855E-08         0.40951E-10         0.00000E+00
    0.34856E-08         0.36353E-10         0.00000E+00
    0.34857E-08         0.31491E-10         0.00000E+00
    0.34858E-08         0.26365E-10         0.00000E+00
    0.34859E-08         0.20974E-10         0.00000E+00
    0.34859E-08         0.15317E-10         0.00000E+00
    0.34860E-08         0.93944E-11         0.00000E+00
    0.34860E-08         0.32053E-11         0.00000E+00
    0.34544E-08         0.29604E-11         0.00000E+00
    0.34545E-08         0.87616E-11         0.00000E+00
    0.34547E-08         0.14375E-10         0.00000E+00
    0.34550E-08         0.19788E-10         0.00000E+00
    0.34554E-08         0.24992E-10         0.00000E+00
    0.34559E-08         0.29979E-10         0.00000E+00
    0.34564E-08         0.34740E-10         0.00000E+00
    0.34569E-08         0.39270E-10         0.00000E+00
    0.34575E-08         0.43562E-10         0.00000E+00
    0.34582E-08         0.47613E-10         0.00000E+00
    0.34589E-08         0.51419E-10         0.00000E+00
    0.34596E-08         0.54976E-10         0.00000E+00
    0.34603E-08         0.58283E-10         0.00000E+00
    0.34610E-08         0.61338E-10         0.00000E+00
    0.34618E-08         0.64139E-10         0.00000E+00
    0.34625E-08         0.66686E-10         0.00000E+00
    0.34632E-08         0.68978E-10         0.00000E+00
    0.34640E-08         0.71016E-10         0.00000E+00
    0.34647E-08         0.72800E-10         0.00000E+00
    0.34654E-08         0.74329E-10         0.00000E+00
    0.34661E-08         0.75604E-10         0.00000E+00
    0.34668E-08         0.76627E-10         0.00000E+00
    0.34675E-08         0.77396E-10         0.00000E+00
    0.34681E-08         0.77914E-10         0.00000E+00
    0.34687E-08         0.78180E-10         0.00000E+00
    0.34694E-08         0.78194E-10         0.00000E+00
    0.34700E-08         0.77959E-10         0.00000E+00
    0.34705E-08         0.77473E-10         0.00000E+00
    0.34711E-08         0.76736E-10         0.00000E+00
    0.34716E-08         0.75750E-10         0.00000E+00
    0.34721E-08         0.74514E-10         0.00000E+00
    0.34726E-08         0.73028E-10         0.00000E+00
    0.34731E-08         0.71292E-10         0.00000E+00
    0.34736E-08         0.69305E-10         0.00000E+00
    0.34740E-08         0.67068E-10         0.00000E+00
    0.34744E-08         0.64579E-10         0.00000E+00
    0.34748E-08         0.61838E-10         0.00000E+00
    0.34752E-08         0.58845E-10         0.00000E+00
    0.34755E-08         0.55600E-10         0.00000E+00
    0.34759E-08         0.52101E-10         0.00000E+00
    0.34762E-08         0.48348E-10         0.00000E+00
    0.34765E-08         0.44341E-10         0.00000E+00
    0.34767E-08         0.40079E-10         0.00000E+00
    0.34770E-08         0.35562E-10         0.00000E+00
    0.34772E-08         0.30791E-10         0.00000E+00
    0.34773E-08         0.25765E-10         0.00000E+00
    0.34775E-08         0.20485E-10         0.00000E+00
    0.34776E-08         0.14951E-10         0.00000E+00
    0.34777E-08         0.91634E-11         0.00000E+00
    0.34777E-08         0.31241E-11         0.00000E+00
    0.34541E-08         0.26907E-11         0.00000E+00
    0.34542E-08         0.79822E-11         0.00000E+00
    0.34544E-08         0.13129E-10         0.00000E+00
    0.34547E-08         0.18121E-10         0.00000E+00
    0.34550E-08         0.22945E-10         0.00000E+00
    0.34555E-08         0.27593E-10         0.00000E+00
    0.34560E-08         0.32055E-10         0.00000E+00
    0.34565E-08         0.36324E-10         0.00000E+00
    0.34571E-08         0.40391E-10         0.00000E+00
    0.34578E-08         0.44252E-10         0.00000E+00
    0.34585E-08         0.47899E-10         0.00000E+00
    0.34592E-08         0.51328E-10         0.00000E+00
    0.34600E-08         0.54534E-10         0.00000E+00
    0.34608E-08         0.57514E-10         0.00000E+00
    0.34616E-08         0.60264E-10         0.00000E+00
    0.34624E-08         0.62781E-10         0.00000E+00
    0.34632E-08         0.65063E-10         0.00000E+00
    0.34640E-08         0.67108E-10         0.00000E+00
    0.34649E-08         0.68913E-10         0.00000E+00
    0.34657E-08         0.70478E-10         0.00000E+00
    0.34665E-08         0.71801E-10         0.00000E+00
    0.34674E-08         0.72881E-10         0.00000E+00
    0.34682E-08         0.73718E-10         0.00000E+00
    0.34690E-08         0.74309E-10         0.00000E+00
    0.34698E-08         0.74656E-10         0.00000E+00
    0.34706E-08         0.74757E-10         0.00000E+00
    0.34713E-08         0.74613E-10         0.00000E+00
    0.34721E-08         0.74221E-10         0.00000E+00
    0.34728E-08         0.73583E-10         0.00000E+00
    0.34735E-08         0.72698E-10         0.00000E+00
    0.34742E-08         0.71566E-10         0.00000E+00
    0.34748E-08         0.70187E-10         0.00000E+00
    0.34755E-08         0.68559E-10         0.00000E+00
    0.34761E-08         0.66684E-10         0.00000E+00
    0.34767E-08         0.64561E-10         0.00000E+00
    0.34773E-08         0.62189E-10         0.00000E+00
    0.34778E-08         0.59570E-10         0.00000E+00
    0.34783E-08         0.56702E-10         0.00000E+00
    0.34788E-08         0.53585E-10         0.00000E+00
    0.34792E-08         0.50221E-10         0.00000E+00
    0.34796E-08         0.46608E-10         0.00000E+00
    0.34800E-08         0.42748E-10         0.00000E+00
    0.34804E-08         0.38640E-10         0.00000E+00
    0.34807E-08         0.34285E-10         0.00000E+00
    0.34809E-08         0.29683E-10         0.00000E+00
    0.34812E-08         0.24836E-10         0.00000E+00
    0.34813E-08         0.19744E-10         0.00000E+00
    0.34815E-08         0.14408E-10         0.00000E+00
    0.34816E-08         0.88295E-11         0.00000E+00
    0.34816E-08         0.30098E-11         0.00000E+00
    0.34704E-08         0.24498E-11         0.00000E+00
    0.34705E-08         0.72804E-11         0.00000E+00
    0.34707E-08         0.11998E-10         0.00000E+00
    0.34709E-08         0.16591E-10         0.00000E+00
    0.34712E-08         0.21049E-10         0.00000E+00
    0.34716E-08         0.25361E-10         0.00000E+00
    0.34721E-08         0.29517E-10         0.00000E+00
    0.34726E-08         0.33510E-10         0.00000E+00
    0.34731E-08         0.37330E-10         0.00000E+00
    0.34738E-08         0.40971E-10         0.00000E+00
    0.34744E-08         0.44426E-10         0.00000E+00
    0.34751E-08         0.47688E-10         0.00000E+00
    0.34758E-08         0.50752E-10         0.00000E+00
    0.34766E-08         0.53613E-10         0.00000E+00
    0.34774E-08         0.56266E-10         0.00000E+00
    0.34782E-08         0.58707E-10         0.00000E+00
    0.34790E-08         0.60932E-10         0.00000E+00
    0.34798E-08         0.62938E-10         0.00000E+00
    0.34806E-08         0.64722E-10         0.00000E+00
    0.34815E-08         0.66281E-10         0.00000E+00
    0.34823E-08         0.67612E-10         0.00000E+00
    0.34832E-08         0.68714E-10         0.00000E+00
    0.34840E-08         0.69585E-10         0.00000E+00
    0.34848E-08         0.70222E-10         0.00000E+00
    0.34857E-08         0.70625E-10         0.00000E+00
    0.34865E-08         0.70793E-10         0.00000E+00
    0.34873E-08         0.70723E-10         0.00000E+00
    0.34881E-08         0.70416E-10         0.00000E+00
    0.34889E-08         0.69870E-10         0.00000E+00
    0.34896E-08         0.69085E-10         0.00000E+00
    0.34904E-08         0.68059E-10         0.00000E+00
    0.34911E-08         0.66793E-10         0.00000E+00
    0.34918E-08         0.65286E-10         0.00000E+00
    0.34925E-08         0.63538E-10         0.00000E+00
    0.34931E-08         0.61549E-10         0.00000E+00
    0.34937E-08         0.59318E-10         0.00000E+00
    0.34943E-08         0.56845E-10         0.00000E+00
    0.34948E-08         0.54131E-10         0.00000E+00
    0.34954E-08         0.51175E-10         0.00000E+00
    0.34958E-08         0.47978E-10         0.00000E+00
    0.34963E-08         0.44541E-10         0.00000E+00
    0.34967E-08         0.40863E-10         0.00000E+00
    0.34971E-08         0.36945E-10         0.00000E+00
    0.34974E-08         0.32789E-10         0.00000E+00
    0.34977E-08         0.28394E-10         0.00000E+00
    0.34979E-08         0.23761E-10         0.00000E+00
    0.34981E-08         0.18893E-10         0.00000E+00
    0.34983E-08         0.13789E-10         0.00000E+00
    0.34984E-08         0.84515E-11         0.00000E+00
    0.34984E-08         0.28814E-11         0.00000E+00
    0.35024E-08         0.22452E-11         0.00000E+00
    0.35024E-08         0.66805E-11         0.00000E+00
    0.35026E-08         0.11024E-10         0.00000E+00
    0.35028E-08         0.15265E-10         0.00000E+00
    0.35031E-08         0.19393E-10         0.00000E+00
    0.35034E-08         0.23397E-10         0.00000E+00
    0.35038E-08         0.27268E-10         0.00000E+00
    0.35042E-08         0.30998E-10         0.00000E+00
    0.35047E-08         0.34578E-10         0.00000E+00
    0.35053E-08         0.38000E-10         0.00000E+00
    0.35058E-08         0.41257E-10         0.00000E+00
    0.35064E-08         0.44342E-10         0.00000E+00
    0.35071E-08         0.47250E-10         0.00000E+00
    0.35078E-08         0.49975E-10         0.00000E+00
    0.35085E-08         0.52511E-10         0.00000E+00
    0.35092E-08         0.54853E-10         0.00000E+00
    0.35099E-08         0.56997E-10         0.00000E+00
    0.35107E-08         0.58940E-10         0.00000E+00
    0.35115E-08         0.60676E-10         0.00000E+00
    0.35122E-08         0.62203E-10         0.00000E+00
    0.35130E-08         0.63517E-10         0.00000E+00
    0.35138E-08         0.64616E-10         0.00000E+00
    0.35146E-08         0.65497E-10         0.00000E+00
    0.35154E-08         0.66159E-10         0.00000E+00
    0.35162E-08         0.66597E-10         0.00000E+00
    0.35170E-08         0.66812E-10         0.00000E+00
    0.35178E-08         0.66801E-10         0.00000E+00
    0.35185E-08         0.66563E-10         0.00000E+00
    0.35193E-08         0.66096E-10         0.00000E+00
    0.35200E-08         0.65400E-10         0.00000E+00
    0.35207E-08         0.64473E-10         0.00000E+00
    0.35214E-08         0.63315E-10         0.00000E+00
    0.35221E-08         0.61925E-10         0.00000E+00
    0.35227E-08         0.60302E-10         0.00000E+00
    0.35234E-08         0.58446E-10         0.00000E+00
    0.35240E-08         0.56357E-10         0.00000E+00
    0.35245E-08         0.54035E-10         0.00000E+00
    0.35251E-08         0.51480E-10         0.00000E+00
    0.35256E-08         0.48691E-10         0.00000E+00
    0.35261E-08         0.45668E-10         0.00000E+00
    0.35265E-08         0.42414E-10         0.00000E+00
    0.35269E-08         0.38927E-10         0.00000E+00
    0.35273E-08         0.35208E-10         0.00000E+00
    0.35276E-08         0.31257E-10         0.00000E+00
    0.35279E-08         0.27077E-10         0.00000E+00
    0.35281E-08         0.22667E-10         0.00000E+00
    0.35283E-08         0.18028E-10         0.00000E+00
    0.35284E-08         0.13162E-10         0.00000E+00
    0.35285E-08         0.80697E-11         0.00000E+00
    0.35286E-08         0.27521E-11         0.00000E+00
    0.35493E-08         0.20795E-11         0.00000E+00
    0.35493E-08         0.61917E-11         0.00000E+00
    0.35494E-08         0.10226E-10         0.00000E+00
    0.35496E-08         0.14171E-10         0.00000E+00
    0.35498E-08         0.18017E-10         0.00000E+00
    0.35501E-08         0.21756E-10         0.00000E+00
    0.35504E-08         0.25377E-10         0.00000E+00
    0.35508E-08         0.28873E-10         0.00000E+00
    0.35512E-08         0.32235E-10         0.00000E+00
    0.35516E-08         0.35456E-10         0.00000E+00
    0.35521E-08         0.38528E-10         0.00000E+00
    0.35526E-08         0.41445E-10         0.00000E+00
    0.35532E-08         0.44201E-10         0.00000E+00
    0.35537E-08         0.46789E-10         0.00000E+00
    0.35543E-08         0.49205E-10         0.00000E+00
    0.35549E-08         0.51443E-10         0.00000E+00
    0.35556E-08         0.53497E-10         0.00000E+00
    0.35562E-08         0.55365E-10         0.00000E+00
    0.35569E-08         0.57041E-10         0.00000E+00
    0.35576E-08         0.58522E-10         0.00000E+00
    0.35583E-08         0.59805E-10         0.00000E+00
    0.35590E-08         0.60885E-10         0.00000E+00
    0.35597E-08         0.61761E-10         0.00000E+00
    0.35604E-08         0.62429E-10         0.00000E+00
    0.35611E-08         0.62887E-10         0.00000E+00
    0.35618E-08         0.63132E-10         0.00000E+00
    0.35625E-08         0.63163E-10         0.00000E+00
    0.35631E-08         0.62978E-10         0.00000E+00
    0.35638E-08         0.62576E-10         0.00000E+00
    0.35645E-08         0.61954E-10         0.00000E+00
    0.35651E-08         0.61112E-10         0.00000E+00
    0.35658E-08         0.60048E-10         0.00000E+00
    0.35664E-08         0.58761E-10         0.00000E+00
    0.35670E-08         0.57252E-10         0.00000E+00
    0.35675E-08         0.55519E-10         0.00000E+00
    0.35681E-08         0.53561E-10         0.00000E+00
    0.35686E-08         0.51379E-10         0.00000E+00
    0.35691E-08         0.48971E-10         0.00000E+00
    0.35695E-08         0.46339E-10         0.00000E+00
    0.35700E-08         0.43482E-10         0.00000E+00
    0.35704E-08         0.40400E-10         0.00000E+00
    0.35707E-08         0.37094E-10         0.00000E+00
    0.35711E-08         0.33564E-10         0.00000E+00
    0.35714E-08         0.29810E-10         0.00000E+00
    0.35716E-08         0.25833E-10         0.00000E+00
    0.35719E-08         0.21634E-10         0.00000E+00
    0.35720E-08         0.17213E-10         0.00000E+00
    0.35722E-08         0.12572E-10         0.00000E+00
    0.35723E-08         0.77105E-11         0.00000E+00
    0.35723E-08         0.26306E-11         0.00000E+00
    0.36104E-08         0.19519E-11         0.00000E+00
    0.36105E-08         0.58132E-11         0.00000E+00
    0.36106E-08         0.96032E-11         0.00000E+00
    0.36107E-08         0.13312E-10         0.00000E+00
    0.36109E-08         0.16932E-10         0.00000E+00
    0.36111E-08         0.20453E-10         0.00000E+00
    0.36113E-08         0.23866E-10         0.00000E+00
    0.36116E-08         0.27165E-10         0.00000E+00
    0.36119E-08         0.30342E-10         0.00000E+00
    0.36123E-08         0.33388E-10         0.00000E+00
    0.36126E-08         0.36299E-10         0.00000E+00
    0.36130E-08         0.39066E-10         0.00000E+00
    0.36135E-08         0.41684E-10         0.00000E+00
    0.36139E-08         0.44147E-10         0.00000E+00
    0.36144E-08         0.46450E-10         0.00000E+00
    0.36149E-08         0.48587E-10         0.00000E+00
    0.36155E-08         0.50553E-10         0.00000E+00
    0.36160E-08         0.52345E-10         0.00000E+00
    0.36165E-08         0.53958E-10         0.00000E+00
    0.36171E-08         0.55387E-10         0.00000E+00
    0.36177E-08         0.56630E-10         0.00000E+00
    0.36183E-08         0.57683E-10         0.00000E+00
    0.36188E-08         0.58542E-10         0.00000E+00
    0.36194E-08         0.59205E-10         0.00000E+00
    0.36200E-08         0.59669E-10         0.00000E+00
    0.36206E-08         0.59932E-10         0.00000E+00
    0.36212E-08         0.59991E-10         0.00000E+00
    0.36218E-08         0.59844E-10         0.00000E+00
    0.36223E-08         0.59489E-10         0.00000E+00
    0.36229E-08         0.58926E-10         0.00000E+00
    0.36234E-08         0.58151E-10         0.00000E+00
    0.36240E-08         0.57165E-10         0.00000E+00
    0.36245E-08         0.55965E-10         0.00000E+00
    0.36250E-08         0.54551E-10         0.00000E+00
    0.36255E-08         0.52922E-10         0.00000E+00
    0.36260E-08         0.51078E-10         0.00000E+00
    0.36264E-08         0.49017E-10         0.00000E+00
    0.36269E-08         0.46740E-10         0.00000E+00
    0.36273E-08         0.44245E-10         0.00000E+00
    0.36276E-08         0.41534E-10         0.00000E+00
    0.36280E-08         0.38605E-10         0.00000E+00
    0.36283E-08         0.35460E-10         0.00000E+00
    0.36286E-08         0.32097E-10         0.00000E+00
    0.36288E-08         0.28518E-10         0.00000E+00
    0.36291E-08         0.24723E-10         0.00000E+00
    0.36293E-08         0.20712E-10         0.00000E+00
    0.36294E-08         0.16485E-10         0.00000E+00
    0.36295E-08         0.12045E-10         0.00000E+00
    0.36296E-08         0.73900E-11         0.00000E+00
    0.36296E-08         0.25223E-11         0.00000E+00
    0.36854E-08         0.18602E-11         0.00000E+00
    0.36855E-08         0.55387E-11         0.00000E+00
    0.36855E-08         0.91481E-11         0.00000E+00
    0.36856E-08         0.12680E-10         0.00000E+00
    0.36857E-08         0.16126E-10         0.00000E+00
    0.36859E-08         0.19478E-10         0.00000E+00
    0.36861E-08         0.22729E-10         0.00000E+00
    0.36863E-08         0.25871E-10         0.00000E+00
    0.36865E-08         0.28897E-10         0.00000E+00
    0.36868E-08         0.31802E-10         0.00000E+00
    0.36870E-08         0.34577E-10         0.00000E+00
    0.36874E-08         0.37218E-10         0.00000E+00
    0.36877E-08         0.39719E-10         0.00000E+00
    0.36880E-08         0.42073E-10         0.00000E+00
    0.36884E-08         0.44276E-10         0.00000E+00
    0.36888E-08         0.46323E-10         0.00000E+00
    0.36892E-08         0.48210E-10         0.00000E+00
    0.36896E-08         0.49930E-10         0.00000E+00
    0.36900E-08         0.51482E-10         0.00000E+00
    0.36905E-08         0.52860E-10         0.00000E+00
    0.36909E-08         0.54061E-10         0.00000E+00
    0.36914E-08         0.55081E-10         0.00000E+00
    0.36918E-08         0.55918E-10         0.00000E+00
    0.36923E-08         0.56568E-10         0.00000E+00
    0.36928E-08         0.57028E-10         0.00000E+00
    0.36932E-08         0.57296E-10         0.00000E+00
    0.36937E-08         0.57370E-10         0.00000E+00
    0.36942E-08         0.57248E-10         0.00000E+00
    0.36946E-08         0.56927E-10         0.00000E+00
    0.36951E-08         0.56405E-10         0.00000E+00
    0.36955E-08         0.55681E-10         0.00000E+00
    0.36960E-08         0.54754E-10         0.00000E+00
    0.36964E-08         0.53622E-10         0.00000E+00
    0.36968E-08         0.52284E-10         0.00000E+00
    0.36972E-08         0.50739E-10         0.00000E+00
    0.36976E-08         0.48987E-10         0.00000E+00
    0.36979E-08         0.47025E-10         0.00000E+00
    0.36983E-08         0.44855E-10         0.00000E+00
    0.36986E-08         0.42474E-10         0.00000E+00
    0.36989E-08         0.39884E-10         0.00000E+00
    0.36992E-08         0.37084E-10         0.00000E+00
    0.36995E-08         0.34073E-10         0.00000E+00
    0.36997E-08         0.30852E-10         0.00000E+00
    0.36999E-08         0.27421E-10         0.00000E+00
    0.37001E-08         0.23779E-10         0.00000E+00
    0.37003E-08         0.19927E-10         0.00000E+00
    0.37004E-08         0.15866E-10         0.00000E+00
    0.37005E-08         0.11596E-10         0.00000E+00
    0.37006E-08         0.71171E-11         0.00000E+00
    0.37006E-08         0.24301E-11         0.00000E+00
    0.37739E-08         0.18006E-11         0.00000E+00
    0.37739E-08         0.53585E-11         0.00000E+00
    0.37740E-08         0.88455E-11         0.00000E+00
    0.37740E-08         0.12254E-10         0.00000E+00
    0.37741E-08         0.15577E-10         0.00000E+00
    0.37742E-08         0.18808E-10         0.00000E+00
    0.37743E-08         0.21939E-10         0.00000E+00
    0.37745E-08         0.24964E-10         0.00000E+00
    0.37746E-08         0.27876E-10         0.00000E+00
    0.37748E-08         0.30671E-10         0.00000E+00
    0.37750E-08         0.33341E-10         0.00000E+00
    0.37752E-08         0.35882E-10         0.00000E+00
    0.37754E-08         0.38288E-10         0.00000E+00
    0.37756E-08         0.40553E-10         0.00000E+00
    0.37759E-08         0.42673E-10         0.00000E+00
    0.37762E-08         0.44644E-10         0.00000E+00
    0.37765E-08         0.46460E-10         0.00000E+00
    0.37768E-08         0.48118E-10         0.00000E+00
    0.37771E-08         0.49614E-10         0.00000E+00
    0.37774E-08         0.50944E-10         0.00000E+00
    0.37777E-08         0.52104E-10         0.00000E+00
    0.37780E-08         0.53091E-10         0.00000E+00
    0.37784E-08         0.53902E-10         0.00000E+00
    0.37787E-08         0.54534E-10         0.00000E+00
    0.37791E-08         0.54984E-10         0.00000E+00
    0.37794E-08         0.55249E-10         0.00000E+00
    0.37798E-08         0.55328E-10         0.00000E+00
    0.37801E-08         0.55218E-10         0.00000E+00
    0.37805E-08         0.54916E-10         0.00000E+00
    0.37808E-08         0.54422E-10         0.00000E+00
    0.37812E-08         0.53733E-10         0.00000E+00
    0.37815E-08         0.52847E-10         0.00000E+00
    0.37818E-08         0.51764E-10         0.00000E+00
    0.37821E-08         0.50482E-10         0.00000E+00
    0.37825E-08         0.49000E-10         0.00000E+00
    0.37827E-08         0.47317E-10         0.00000E+00
    0.37830E-08         0.45432E-10         0.00000E+00
    0.37833E-08         0.43344E-10         0.00000E+00
    0.37836E-08         0.41053E-10         0.00000E+00
    0.37838E-08         0.38558E-10         0.00000E+00
    0.37840E-08         0.35859E-10         0.00000E+00
    0.37842E-08         0.32955E-10         0.00000E+00
    0.37844E-08         0.29847E-10         0.00000E+00
    0.37846E-08         0.26533E-10         0.00000E+00
    0.37847E-08         0.23015E-10         0.00000E+00
    0.37849E-08         0.19292E-10         0.00000E+00
    0.37850E-08         0.15364E-10         0.00000E+00
    0.37850E-08         0.11232E-10         0.00000E+00
    0.37851E-08         0.68954E-11         0.00000E+00
    0.37851E-08         0.23550E-11         0.00000E+00
    0.38756E-08         0.17694E-11         0.00000E+00
    0.38756E-08         0.52613E-11         0.00000E+00
    0.38756E-08         0.86778E-11         0.00000E+00
    0.38757E-08         0.12012E-10         0.00000E+00
    0.38757E-08         0.15259E-10         0.00000E+00
    0.38757E-08         0.18410E-10         0.00000E+00
    0.38758E-08         0.21462E-10         0.00000E+00
    0.38759E-08         0.24407E-10         0.00000E+00
    0.38760E-08         0.27241E-10         0.00000E+00
    0.38761E-08         0.29957E-10         0.00000E+00
    0.38762E-08         0.32550E-10         0.00000E+00
    0.38763E-08         0.35016E-10         0.00000E+00
    0.38764E-08         0.37350E-10         0.00000E+00
    0.38766E-08         0.39547E-10         0.00000E+00
    0.38767E-08         0.41602E-10         0.00000E+00
    0.38769E-08         0.43511E-10         0.00000E+00
    0.38771E-08         0.45270E-10         0.00000E+00
    0.38773E-08         0.46876E-10         0.00000E+00
    0.38775E-08         0.48324E-10         0.00000E+00
    0.38777E-08         0.49611E-10         0.00000E+00
    0.38779E-08         0.50733E-10         0.00000E+00
    0.38781E-08         0.51688E-10         0.00000E+00
    0.38783E-08         0.52472E-10         0.00000E+00
    0.38786E-08         0.53083E-10         0.00000E+00
    0.38788E-08         0.53518E-10         0.00000E+00
    0.38790E-08         0.53774E-10         0.00000E+00
    0.38793E-08         0.53849E-10         0.00000E+00
    0.38795E-08         0.53741E-10         0.00000E+00
    0.38798E-08         0.53447E-10         0.00000E+00
    0.38800E-08         0.52967E-10         0.00000E+00
    0.38802E-08         0.52298E-10         0.00000E+00
    0.38805E-08         0.51438E-10         0.00000E+00
    0.38807E-08         0.50386E-10         0.00000E+00
    0.38809E-08         0.49142E-10         0.00000E+00
    0.38811E-08         0.47702E-10         0.00000E+00
    0.38814E-08         0.46067E-10         0.00000E+00
    0.38816E-08         0.44236E-10         0.00000E+00
    0.38818E-08         0.42207E-10         0.00000E+00
    0.38819E-08         0.39981E-10         0.00000E+00
    0.38821E-08         0.37555E-10         0.00000E+00
    0.38823E-08         0.34931E-10         0.00000E+00
    0.38824E-08         0.32106E-10         0.00000E+00
    0.38826E-08         0.29082E-10         0.00000E+00
    0.38827E-08         0.25857E-10         0.00000E+00
    0.38828E-08         0.22432E-10         0.00000E+00
    0.38829E-08         0.18806E-10         0.00000E+00
    0.38830E-08         0.14979E-10         0.00000E+00
    0.38830E-08         0.10952E-10         0.00000E+00
    0.38831E-08         0.67249E-11         0.00000E+00
    0.38831E-08         0.22972E-11         0.00000E+00
    0.39903E-08         0.17625E-11         0.00000E+00
    0.39903E-08         0.52356E-11         0.00000E+00
    0.39903E-08         0.86267E-11         0.00000E+00
    0.39903E-08         0.11930E-10         0.00000E+00
    0.39903E-08         0.15140E-10         0.00000E+00
    0.39903E-08         0.18252E-10         0.00000E+00
    0.39903E-08         0.21260E-10         0.00000E+00
    0.39904E-08         0.24159E-10         0.00000E+00
    0.39904E-08         0.26945E-10         0.00000E+00
    0.39904E-08         0.29612E-10         0.00000E+00
    0.39904E-08         0.32155E-10         0.00000E+00
    0.39905E-08         0.34571E-10         0.00000E+00
    0.39905E-08         0.36855E-10         0.00000E+00
    0.39906E-08         0.39002E-10         0.00000E+00
    0.39907E-08         0.41010E-10         0.00000E+00
    0.39908E-08         0.42873E-10         0.00000E+00
    0.39908E-08         0.44588E-10         0.00000E+00
    0.39909E-08         0.46152E-10         0.00000E+00
    0.39910E-08         0.47560E-10         0.00000E+00
    0.39911E-08         0.48811E-10         0.00000E+00
    0.39912E-08         0.49900E-10         0.00000E+00
    0.39914E-08         0.50826E-10         0.00000E+00
    0.39915E-08         0.51584E-10         0.00000E+00
    0.39916E-08         0.52172E-10         0.00000E+00
    0.39917E-08         0.52589E-10         0.00000E+00
    0.39919E-08         0.52830E-10         0.00000E+00
    0.39920E-08         0.52895E-10         0.00000E+00
    0.39922E-08         0.52781E-10         0.00000E+00
    0.39923E-08         0.52486E-10         0.00000E+00
    0.39925E-08         0.52008E-10         0.00000E+00
    0.39926E-08         0.51346E-10         0.00000E+00
    0.39927E-08         0.50497E-10         0.00000E+00
    0.39929E-08         0.49461E-10         0.00000E+00
    0.39930E-08         0.48237E-10         0.00000E+00
    0.39932E-08         0.46822E-10         0.00000E+00
    0.39933E-08         0.45216E-10         0.00000E+00
    0.39934E-08         0.43417E-10         0.00000E+00
    0.39935E-08         0.41426E-10         0.00000E+00
    0.39937E-08         0.39240E-10         0.00000E+00
    0.39938E-08         0.36860E-10         0.00000E+00
    0.39939E-08         0.34285E-10         0.00000E+00
    0.39940E-08         0.31513E-10         0.00000E+00
    0.39941E-08         0.28546E-10         0.00000E+00
    0.39942E-08         0.25382E-10         0.00000E+00
    0.39942E-08         0.22021E-10         0.00000E+00
    0.39943E-08         0.18462E-10         0.00000E+00
    0.39943E-08         0.14707E-10         0.00000E+00
    0.39944E-08         0.10754E-10         0.00000E+00
    0.39944E-08         0.66036E-11         0.00000E+00
    0.39944E-08         0.22560E-11         0.00000E+00
    0.41179E-08         0.17760E-11         0.00000E+00
    0.41179E-08         0.52703E-11         0.00000E+00
    0.41179E-08         0.86745E-11         0.00000E+00
    0.41179E-08         0.11984E-10         0.00000E+00
    0.41179E-08         0.15193E-10         0.00000E+00
    0.41178E-08         0.18298E-10         0.00000E+00
    0.41178E-08         0.21294E-10         0.00000E+00
    0.41178E-08         0.24177E-10         0.00000E+00
    0.41178E-08         0.26943E-10         0.00000E+00
    0.41177E-08         0.29586E-10         0.00000E+00
    0.41177E-08         0.32104E-10         0.00000E+00
    0.41177E-08         0.34492E-10         0.00000E+00
    0.41177E-08         0.36746E-10         0.00000E+00
    0.41177E-08         0.38863E-10         0.00000E+00
    0.41177E-08         0.40839E-10         0.00000E+00
    0.41177E-08         0.42670E-10         0.00000E+00
    0.41177E-08         0.44354E-10         0.00000E+00
    0.41177E-08         0.45886E-10         0.00000E+00
    0.41177E-08         0.47265E-10         0.00000E+00
    0.41177E-08         0.48486E-10         0.00000E+00
    0.41177E-08         0.49548E-10         0.00000E+00
    0.41177E-08         0.50447E-10         0.00000E+00
    0.41178E-08         0.51180E-10         0.00000E+00
    0.41178E-08         0.51746E-10         0.00000E+00
    0.41179E-08         0.52143E-10         0.00000E+00
    0.41179E-08         0.52366E-10         0.00000E+00
    0.41180E-08         0.52416E-10         0.00000E+00
    0.41180E-08         0.52289E-10         0.00000E+00
    0.41181E-08         0.51984E-10         0.00000E+00
    0.41181E-08         0.51500E-10         0.00000E+00
    0.41182E-08         0.50833E-10         0.00000E+00
    0.41182E-08         0.49984E-10         0.00000E+00
    0.41183E-08         0.48950E-10         0.00000E+00
    0.41184E-08         0.47730E-10         0.00000E+00
    0.41184E-08         0.46324E-10         0.00000E+00
    0.41185E-08         0.44729E-10         0.00000E+00
    0.41186E-08         0.42945E-10         0.00000E+00
    0.41186E-08         0.40971E-10         0.00000E+00
    0.41187E-08         0.38805E-10         0.00000E+00
    0.41187E-08         0.36449E-10         0.00000E+00
    0.41188E-08         0.33900E-10         0.00000E+00
    0.41188E-08         0.31157E-10         0.00000E+00
    0.41189E-08         0.28222E-10         0.00000E+00
    0.41189E-08         0.25093E-10         0.00000E+00
    0.41190E-08         0.21769E-10         0.00000E+00
    0.41190E-08         0.18251E-10         0.00000E+00
    0.41190E-08         0.14538E-10         0.00000E+00
    0.41190E-08         0.10630E-10         0.00000E+00
    0.41191E-08         0.65278E-11         0.00000E+00
    0.41191E-08         0.22301E-11         0.00000E+00
    0.42585E-08         0.18065E-11         0.00000E+00
    0.42584E-08         0.53554E-11         0.00000E+00
    0.42584E-08         0.88048E-11         0.00000E+00
    0.42584E-08         0.12151E-10         0.00000E+00
    0.42583E-08         0.15389E-10         0.00000E+00
    0.42583E-08         0.18516E-10         0.00000E+00
    0.42582E-08         0.21528E-10         0.00000E+00
    0.42581E-08         0.24420E-10         0.00000E+00
    0.42581E-08         0.27190E-10         0.00000E+00
    0.42580E-08         0.29833E-10         0.00000E+00
    0.42579E-08         0.32346E-10         0.00000E+00
    0.42578E-08         0.34726E-10         0.00000E+00
    0.42578E-08         0.36969E-10         0.00000E+00
    0.42577E-08         0.39071E-10         0.00000E+00
    0.42576E-08         0.41031E-10         0.00000E+00
    0.42576E-08         0.42844E-10         0.00000E+00
    0.42575E-08         0.44507E-10         0.00000E+00
    0.42574E-08         0.46019E-10         0.00000E+00
    0.42574E-08         0.47376E-10         0.00000E+00
    0.42573E-08         0.48575E-10         0.00000E+00
    0.42572E-08         0.49614E-10         0.00000E+00
    0.42572E-08         0.50490E-10         0.00000E+00
    0.42571E-08         0.51202E-10         0.00000E+00
    0.42571E-08         0.51746E-10         0.00000E+00
    0.42571E-08         0.52121E-10         0.00000E+00
    0.42570E-08         0.52325E-10         0.00000E+00
    0.42570E-08         0.52356E-10         0.00000E+00
    0.42570E-08         0.52211E-10         0.00000E+00
    0.42570E-08         0.51890E-10         0.00000E+00
    0.42569E-08         0.51391E-10         0.00000E+00
    0.42569E-08         0.50711E-10         0.00000E+00
    0.42569E-08         0.49850E-10         0.00000E+00
    0.42569E-08         0.48807E-10         0.00000E+00
    0.42569E-08         0.47579E-10         0.00000E+00
    0.42569E-08         0.46167E-10         0.00000E+00
    0.42569E-08         0.44568E-10         0.00000E+00
    0.42569E-08         0.42782E-10         0.00000E+00
    0.42569E-08         0.40807E-10         0.00000E+00
    0.42569E-08         0.38644E-10         0.00000E+00
    0.42569E-08         0.36292E-10         0.00000E+00
    0.42569E-08         0.33748E-10         0.00000E+00
    0.42569E-08         0.31014E-10         0.00000E+00
    0.42570E-08         0.28089E-10         0.00000E+00
    0.42570E-08         0.24971E-10         0.00000E+00
    0.42570E-08         0.21661E-10         0.00000E+00
    0.42570E-08         0.18159E-10         0.00000E+00
    0.42570E-08         0.14463E-10         0.00000E+00
    0.42570E-08         0.10575E-10         0.00000E+00
    0.42570E-08         0.64932E-11         0.00000E+00
    0.42570E-08         0.22181E-11         0.00000E+00
    0.44119E-08         0.18509E-11         0.00000E+00
    0.44119E-08         0.54816E-11         0.00000E+00
    0.44118E-08         0.90030E-11         0.00000E+00
    0.44118E-08         0.12412E-10         0.00000E+00
    0.44117E-08         0.15704E-10         0.00000E+00
    0.44116E-08         0.18877E-10         0.00000E+00
    0.44115E-08         0.21927E-10         0.00000E+00
    0.44114E-08         0.24851E-10         0.00000E+00
    0.44113E-08         0.27645E-10         0.00000E+00
    0.44112E-08         0.30308E-10         0.00000E+00
    0.44111E-08         0.32835E-10         0.00000E+00
    0.44110E-08         0.35223E-10         0.00000E+00
    0.44108E-08         0.37470E-10         0.00000E+00
    0.44107E-08         0.39573E-10         0.00000E+00
    0.44106E-08         0.41530E-10         0.00000E+00
    0.44105E-08         0.43336E-10         0.00000E+00
    0.44103E-08         0.44991E-10         0.00000E+00
    0.44102E-08         0.46490E-10         0.00000E+00
    0.44101E-08         0.47833E-10         0.00000E+00
    0.44100E-08         0.49016E-10         0.00000E+00
    0.44098E-08         0.50038E-10         0.00000E+00
    0.44097E-08         0.50896E-10         0.00000E+00
    0.44096E-08         0.51588E-10         0.00000E+00
    0.44095E-08         0.52112E-10         0.00000E+00
    0.44094E-08         0.52466E-10         0.00000E+00
    0.44093E-08         0.52649E-10         0.00000E+00
    0.44092E-08         0.52658E-10         0.00000E+00
    0.44091E-08         0.52492E-10         0.00000E+00
    0.44090E-08         0.52149E-10         0.00000E+00
    0.44089E-08         0.51629E-10         0.00000E+00
    0.44089E-08         0.50928E-10         0.00000E+00
    0.44088E-08         0.50048E-10         0.00000E+00
    0.44087E-08         0.48985E-10         0.00000E+00
    0.44087E-08         0.47738E-10         0.00000E+00
    0.44086E-08         0.46308E-10         0.00000E+00
    0.44086E-08         0.44692E-10         0.00000E+00
    0.44085E-08         0.42890E-10         0.00000E+00
    0.44085E-08         0.40901E-10         0.00000E+00
    0.44084E-08         0.38724E-10         0.00000E+00
    0.44084E-08         0.36358E-10         0.00000E+00
    0.44084E-08         0.33803E-10         0.00000E+00
    0.44083E-08         0.31059E-10         0.00000E+00
    0.44083E-08         0.28124E-10         0.00000E+00
    0.44083E-08         0.24998E-10         0.00000E+00
    0.44083E-08         0.21681E-10         0.00000E+00
    0.44082E-08         0.18172E-10         0.00000E+00
    0.44082E-08         0.14472E-10         0.00000E+00
    0.44082E-08         0.10580E-10         0.00000E+00
    0.44082E-08         0.64952E-11         0.00000E+00
    0.44082E-08         0.22185E-11         0.00000E+00
    0.45783E-08         0.19065E-11         0.00000E+00
    0.45783E-08         0.56412E-11         0.00000E+00
    0.45782E-08         0.92561E-11         0.00000E+00
    0.45782E-08         0.12748E-10         0.00000E+00
    0.45781E-08         0.16115E-10         0.00000E+00
    0.45780E-08         0.19354E-10         0.00000E+00
    0.45779E-08         0.22461E-10         0.00000E+00
    0.45777E-08         0.25435E-10         0.00000E+00
    0.45776E-08         0.28272E-10         0.00000E+00
    0.45775E-08         0.30970E-10         0.00000E+00
    0.45773E-08         0.33526E-10         0.00000E+00
    0.45772E-08         0.35938E-10         0.00000E+00
    0.45770E-08         0.38203E-10         0.00000E+00
    0.45768E-08         0.40319E-10         0.00000E+00
    0.45766E-08         0.42284E-10         0.00000E+00
    0.45765E-08         0.44094E-10         0.00000E+00
    0.45763E-08         0.45749E-10         0.00000E+00
    0.45761E-08         0.47245E-10         0.00000E+00
    0.45759E-08         0.48581E-10         0.00000E+00
    0.45758E-08         0.49755E-10         0.00000E+00
    0.45756E-08         0.50764E-10         0.00000E+00
    0.45754E-08         0.51607E-10         0.00000E+00
    0.45753E-08         0.52282E-10         0.00000E+00
    0.45751E-08         0.52787E-10         0.00000E+00
    0.45749E-08         0.53121E-10         0.00000E+00
    0.45748E-08         0.53281E-10         0.00000E+00
    0.45746E-08         0.53267E-10         0.00000E+00
    0.45745E-08         0.53077E-10         0.00000E+00
    0.45743E-08         0.52709E-10         0.00000E+00
    0.45742E-08         0.52162E-10         0.00000E+00
    0.45741E-08         0.51435E-10         0.00000E+00
    0.45739E-08         0.50527E-10         0.00000E+00
    0.45738E-08         0.49437E-10         0.00000E+00
    0.45737E-08         0.48163E-10         0.00000E+00
    0.45736E-08         0.46705E-10         0.00000E+00
    0.45735E-08         0.45061E-10         0.00000E+00
    0.45734E-08         0.43232E-10         0.00000E+00
    0.45733E-08         0.41215E-10         0.00000E+00
    0.45732E-08         0.39011E-10         0.00000E+00
    0.45732E-08         0.36618E-10         0.00000E+00
    0.45731E-08         0.34036E-10         0.00000E+00
    0.45730E-08         0.31265E-10         0.00000E+00
    0.45730E-08         0.28304E-10         0.00000E+00
    0.45729E-08         0.25152E-10         0.00000E+00
    0.45729E-08         0.21810E-10         0.00000E+00
    0.45729E-08         0.18277E-10         0.00000E+00
    0.45728E-08         0.14553E-10         0.00000E+00
    0.45728E-08         0.10637E-10         0.00000E+00
    0.45728E-08         0.65290E-11         0.00000E+00
    0.45728E-08         0.22296E-11         0.00000E+00
    0.47579E-08         0.19710E-11         0.00000E+00
    0.47578E-08         0.58272E-11         0.00000E+00
    0.47578E-08         0.95529E-11         0.00000E+00
    0.47577E-08         0.13146E-10         0.00000E+00
    0.47576E-08         0.16604E-10         0.00000E+00
    0.47575E-08         0.19924E-10         0.00000E+00
    0.47574E-08         0.23104E-10         0.00000E+00
    0.47572E-08         0.26142E-10         0.00000E+00
    0.47571E-08         0.29036E-10         0.00000E+00
    0.47569E-08         0.31784E-10         0.00000E+00
    0.47567E-08         0.34382E-10         0.00000E+00
    0.47565E-08         0.36830E-10         0.00000E+00
    0.47563E-08         0.39125E-10         0.00000E+00
    0.47561E-08         0.41264E-10         0.00000E+00
    0.47559E-08         0.43247E-10         0.00000E+00
    0.47557E-08         0.45071E-10         0.00000E+00
    0.47555E-08         0.46733E-10         0.00000E+00
    0.47553E-08         0.48233E-10         0.00000E+00
    0.47550E-08         0.49569E-10         0.00000E+00
    0.47548E-08         0.50738E-10         0.00000E+00
    0.47546E-08         0.51739E-10         0.00000E+00
    0.47544E-08         0.52571E-10         0.00000E+00
    0.47542E-08         0.53232E-10         0.00000E+00
    0.47540E-08         0.53719E-10         0.00000E+00
    0.47538E-08         0.54033E-10         0.00000E+00
    0.47535E-08         0.54171E-10         0.00000E+00
    0.47533E-08         0.54133E-10         0.00000E+00
    0.47532E-08         0.53916E-10         0.00000E+00
    0.47530E-08         0.53520E-10         0.00000E+00
    0.47528E-08         0.52944E-10         0.00000E+00
    0.47526E-08         0.52186E-10         0.00000E+00
    0.47524E-08         0.51245E-10         0.00000E+00
    0.47523E-08         0.50121E-10         0.00000E+00
    0.47521E-08         0.48812E-10         0.00000E+00
    0.47520E-08         0.47318E-10         0.00000E+00
    0.47518E-08         0.45638E-10         0.00000E+00
    0.47517E-08         0.43771E-10         0.00000E+00
    0.47516E-08         0.41716E-10         0.00000E+00
    0.47515E-08         0.39473E-10         0.00000E+00
    0.47514E-08         0.37041E-10         0.00000E+00
    0.47513E-08         0.34420E-10         0.00000E+00
    0.47512E-08         0.31609E-10         0.00000E+00
    0.47511E-08         0.28608E-10         0.00000E+00
    0.47510E-08         0.25416E-10         0.00000E+00
    0.47510E-08         0.22034E-10         0.00000E+00
    0.47509E-08         0.18460E-10         0.00000E+00
    0.47509E-08         0.14695E-10         0.00000E+00
    0.47509E-08         0.10738E-10         0.00000E+00
    0.47509E-08         0.65901E-11         0.00000E+00
    0.47508E-08         0.22500E-11         0.00000E+00
    0.49507E-08         0.20423E-11         0.00000E+00
    0.49507E-08         0.60338E-11         0.00000E+00
    0.49506E-08         0.98839E-11         0.00000E+00
    0.49506E-08         0.13591E-10         0.00000E+00
    0.49505E-08         0.17153E-10         0.00000E+00
    0.49503E-08         0.20567E-10         0.00000E+00
    0.49502E-08         0.23833E-10         0.00000E+00
    0.49500E-08         0.26948E-10         0.00000E+00
    0.49499E-08         0.29911E-10         0.00000E+00
    0.49497E-08         0.32718E-10         0.00000E+00
    0.49495E-08         0.35370E-10         0.00000E+00
    0.49492E-08         0.37863E-10         0.00000E+00
    0.49490E-08         0.40197E-10         0.00000E+00
    0.49488E-08         0.42369E-10         0.00000E+00
    0.49486E-08         0.44378E-10         0.00000E+00
    0.49483E-08         0.46222E-10         0.00000E+00
    0.49481E-08         0.47900E-10         0.00000E+00
    0.49478E-08         0.49410E-10         0.00000E+00
    0.49476E-08         0.50750E-10         0.00000E+00
    0.49473E-08         0.51920E-10         0.00000E+00
    0.49470E-08         0.52917E-10         0.00000E+00
    0.49468E-08         0.53741E-10         0.00000E+00
    0.49465E-08         0.54389E-10         0.00000E+00
    0.49463E-08         0.54862E-10         0.00000E+00
    0.49461E-08         0.55156E-10         0.00000E+00
    0.49458E-08         0.55273E-10         0.00000E+00
    0.49456E-08         0.55209E-10         0.00000E+00
    0.49453E-08         0.54965E-10         0.00000E+00
    0.49451E-08         0.54538E-10         0.00000E+00
    0.49449E-08         0.53929E-10         0.00000E+00
    0.49447E-08         0.53136E-10         0.00000E+00
    0.49445E-08         0.52158E-10         0.00000E+00
    0.49443E-08         0.50995E-10         0.00000E+00
    0.49441E-08         0.49646E-10         0.00000E+00
    0.49439E-08         0.48109E-10         0.00000E+00
    0.49437E-08         0.46385E-10         0.00000E+00
    0.49436E-08         0.44473E-10         0.00000E+00
    0.49434E-08         0.42372E-10         0.00000E+00
    0.49433E-08         0.40081E-10         0.00000E+00
    0.49432E-08         0.37601E-10         0.00000E+00
    0.49431E-08         0.34930E-10         0.00000E+00
    0.49429E-08         0.32068E-10         0.00000E+00
    0.49428E-08         0.29016E-10         0.00000E+00
    0.49428E-08         0.25772E-10         0.00000E+00
    0.49427E-08         0.22336E-10         0.00000E+00
    0.49426E-08         0.18709E-10         0.00000E+00
    0.49426E-08         0.14889E-10         0.00000E+00
    0.49425E-08         0.10878E-10         0.00000E+00
    0.49425E-08         0.66740E-11         0.00000E+00
    0.49425E-08         0.22781E-11         0.00000E+00
    0.51572E-08         0.21189E-11         0.00000E+00
    0.51571E-08         0.62561E-11         0.00000E+00
    0.51571E-08         0.10241E-10         0.00000E+00
    0.51570E-08         0.14072E-10         0.00000E+00
    0.51569E-08         0.17748E-10         0.00000E+00
    0.51568E-08         0.21268E-10         0.00000E+00
    0.51566E-08         0.24629E-10         0.00000E+00
    0.51564E-08         0.27830E-10         0.00000E+00
    0.51562E-08         0.30870E-10         0.00000E+00
    0.51560E-08         0.33747E-10         0.00000E+00
    0.51558E-08         0.36460E-10         0.00000E+00
    0.51556E-08         0.39007E-10         0.00000E+00
    0.51553E-08         0.41388E-10         0.00000E+00
    0.51551E-08         0.43599E-10         0.00000E+00
    0.51548E-08         0.45641E-10         0.00000E+00
    0.51546E-08         0.47512E-10         0.00000E+00
    0.51543E-08         0.49211E-10         0.00000E+00
    0.51540E-08         0.50735E-10         0.00000E+00
    0.51537E-08         0.52085E-10         0.00000E+00
    0.51534E-08         0.53259E-10         0.00000E+00
    0.51532E-08         0.54256E-10         0.00000E+00
    0.51529E-08         0.55074E-10         0.00000E+00
    0.51526E-08         0.55713E-10         0.00000E+00
    0.51523E-08         0.56171E-10         0.00000E+00
    0.51520E-08         0.56448E-10         0.00000E+00
    0.51518E-08         0.56542E-10         0.00000E+00
    0.51515E-08         0.56453E-10         0.00000E+00
    0.51512E-08         0.56180E-10         0.00000E+00
    0.51510E-08         0.55722E-10         0.00000E+00
    0.51507E-08         0.55078E-10         0.00000E+00
    0.51505E-08         0.54247E-10         0.00000E+00
    0.51503E-08         0.53229E-10         0.00000E+00
    0.51500E-08         0.52023E-10         0.00000E+00
    0.51498E-08         0.50629E-10         0.00000E+00
    0.51496E-08         0.49045E-10         0.00000E+00
    0.51494E-08         0.47271E-10         0.00000E+00
    0.51493E-08         0.45308E-10         0.00000E+00
    0.51491E-08         0.43153E-10         0.00000E+00
    0.51489E-08         0.40808E-10         0.00000E+00
    0.51488E-08         0.38270E-10         0.00000E+00
    0.51486E-08         0.35542E-10         0.00000E+00
    0.51485E-08         0.32620E-10         0.00000E+00
    0.51484E-08         0.29507E-10         0.00000E+00
    0.51483E-08         0.26201E-10         0.00000E+00
    0.51482E-08         0.22702E-10         0.00000E+00
    0.51481E-08         0.19010E-10         0.00000E+00
    0.51481E-08         0.15125E-10         0.00000E+00
    0.51480E-08         0.11048E-10         0.00000E+00
    0.51480E-08         0.67766E-11         0.00000E+00
    0.51480E-08         0.23125E-11         0.00000E+00
    0.53775E-08         0.21993E-11         0.00000E+00
    0.53774E-08         0.64899E-11         0.00000E+00
    0.53774E-08         0.10617E-10         0.00000E+00
    0.53773E-08         0.14581E-10         0.00000E+00
    0.53772E-08         0.18379E-10         0.00000E+00
    0.53770E-08         0.22010E-10         0.00000E+00
    0.53769E-08         0.25474E-10         0.00000E+00
    0.53767E-08         0.28769E-10         0.00000E+00
    0.53765E-08         0.31893E-10         0.00000E+00
    0.53763E-08         0.34847E-10         0.00000E+00
    0.53760E-08         0.37627E-10         0.00000E+00
    0.53758E-08         0.40235E-10         0.00000E+00
    0.53755E-08         0.42668E-10         0.00000E+00
    0.53753E-08         0.44925E-10         0.00000E+00
    0.53750E-08         0.47005E-10         0.00000E+00
    0.53747E-08         0.48907E-10         0.00000E+00
    0.53744E-08         0.50631E-10         0.00000E+00
    0.53741E-08         0.52175E-10         0.00000E+00
    0.53738E-08         0.53538E-10         0.00000E+00
    0.53735E-08         0.54719E-10         0.00000E+00
    0.53732E-08         0.55718E-10         0.00000E+00
    0.53729E-08         0.56533E-10         0.00000E+00
    0.53726E-08         0.57164E-10         0.00000E+00
    0.53723E-08         0.57610E-10         0.00000E+00
    0.53720E-08         0.57869E-10         0.00000E+00
    0.53717E-08         0.57942E-10         0.00000E+00
    0.53714E-08         0.57828E-10         0.00000E+00
    0.53711E-08         0.57526E-10         0.00000E+00
    0.53709E-08         0.57035E-10         0.00000E+00
    0.53706E-08         0.56354E-10         0.00000E+00
    0.53703E-08         0.55484E-10         0.00000E+00
    0.53701E-08         0.54423E-10         0.00000E+00
    0.53698E-08         0.53172E-10         0.00000E+00
    0.53696E-08         0.51729E-10         0.00000E+00
    0.53694E-08         0.50094E-10         0.00000E+00
    0.53692E-08         0.48266E-10         0.00000E+00
    0.53690E-08         0.46246E-10         0.00000E+00
    0.53688E-08         0.44033E-10         0.00000E+00
    0.53686E-08         0.41627E-10         0.00000E+00
    0.53684E-08         0.39027E-10         0.00000E+00
    0.53683E-08         0.36234E-10         0.00000E+00
    0.53681E-08         0.33246E-10         0.00000E+00
    0.53680E-08         0.30065E-10         0.00000E+00
    0.53679E-08         0.26689E-10         0.00000E+00
    0.53678E-08         0.23119E-10         0.00000E+00
    0.53677E-08         0.19354E-10         0.00000E+00
    0.53677E-08         0.15395E-10         0.00000E+00
    0.53676E-08         0.11242E-10         0.00000E+00
    0.53676E-08         0.68940E-11         0.00000E+00
    0.53676E-08         0.23519E-11         0.00000E+00
    0.56120E-08         0.22823E-11         0.00000E+00
    0.56119E-08         0.67316E-11         0.00000E+00
    0.56119E-08         0.11007E-10         0.00000E+00
    0.56118E-08         0.15108E-10         0.00000E+00
    0.56117E-08         0.19033E-10         0.00000E+00
    0.56115E-08         0.22782E-10         0.00000E+00
    0.56113E-08         0.26354E-10         0.00000E+00
    0.56111E-08         0.29747E-10         0.00000E+00
    0.56109E-08         0.32962E-10         0.00000E+00
    0.56107E-08         0.35996E-10         0.00000E+00
    0.56105E-08         0.38850E-10         0.00000E+00
    0.56102E-08         0.41522E-10         0.00000E+00
    0.56100E-08         0.44012E-10         0.00000E+00
    0.56097E-08         0.46318E-10         0.00000E+00
    0.56094E-08         0.48441E-10         0.00000E+00
    0.56091E-08         0.50379E-10         0.00000E+00
    0.56088E-08         0.52131E-10         0.00000E+00
    0.56085E-08         0.53697E-10         0.00000E+00
    0.56082E-08         0.55076E-10         0.00000E+00
    0.56078E-08         0.56267E-10         0.00000E+00
    0.56075E-08         0.57270E-10         0.00000E+00
    0.56072E-08         0.58084E-10         0.00000E+00
    0.56069E-08         0.58709E-10         0.00000E+00
    0.56066E-08         0.59143E-10         0.00000E+00
    0.56063E-08         0.59387E-10         0.00000E+00
    0.56060E-08         0.59439E-10         0.00000E+00
    0.56056E-08         0.59300E-10         0.00000E+00
    0.56053E-08         0.58968E-10         0.00000E+00
    0.56051E-08         0.58443E-10         0.00000E+00
    0.56048E-08         0.57726E-10         0.00000E+00
    0.56045E-08         0.56814E-10         0.00000E+00
    0.56042E-08         0.55709E-10         0.00000E+00
    0.56040E-08         0.54410E-10         0.00000E+00
    0.56037E-08         0.52916E-10         0.00000E+00
    0.56035E-08         0.51226E-10         0.00000E+00
    0.56032E-08         0.49342E-10         0.00000E+00
    0.56030E-08         0.47263E-10         0.00000E+00
    0.56028E-08         0.44987E-10         0.00000E+00
    0.56026E-08         0.42516E-10         0.00000E+00
    0.56025E-08         0.39850E-10         0.00000E+00
    0.56023E-08         0.36987E-10         0.00000E+00
    0.56021E-08         0.33928E-10         0.00000E+00
    0.56020E-08         0.30672E-10         0.00000E+00
    0.56019E-08         0.27221E-10         0.00000E+00
    0.56018E-08         0.23574E-10         0.00000E+00
    0.56017E-08         0.19730E-10         0.00000E+00
    0.56016E-08         0.15690E-10         0.00000E+00
    0.56016E-08         0.11454E-10         0.00000E+00
    0.56016E-08         0.70226E-11         0.00000E+00
    0.56015E-08         0.23952E-11         0.00000E+00
    0.58610E-08         0.23670E-11         0.00000E+00
    0.58610E-08         0.69783E-11         0.00000E+00
    0.58609E-08         0.11405E-10         0.00000E+00
    0.58608E-08         0.15647E-10         0.00000E+00
    0.58607E-08         0.19703E-10         0.00000E+00
    0.58605E-08         0.23573E-10         0.00000E+00
    0.58604E-08         0.27256E-10         0.00000E+00
    0.58602E-08         0.30752E-10         0.00000E+00
    0.58600E-08         0.34060E-10         0.00000E+00
    0.58597E-08         0.37179E-10         0.00000E+00
    0.58595E-08         0.40108E-10         0.00000E+00
    0.58592E-08         0.42849E-10         0.00000E+00
    0.58590E-08         0.45398E-10         0.00000E+00
    0.58587E-08         0.47757E-10         0.00000E+00
    0.58584E-08         0.49925E-10         0.00000E+00
    0.58581E-08         0.51901E-10         0.00000E+00
    0.58578E-08         0.53684E-10         0.00000E+00
    0.58574E-08         0.55274E-10         0.00000E+00
    0.58571E-08         0.56671E-10         0.00000E+00
    0.58568E-08         0.57875E-10         0.00000E+00
    0.58565E-08         0.58884E-10         0.00000E+00
    0.58561E-08         0.59698E-10         0.00000E+00
    0.58558E-08         0.60317E-10         0.00000E+00
    0.58555E-08         0.60741E-10         0.00000E+00
    0.58552E-08         0.60969E-10         0.00000E+00
    0.58548E-08         0.61001E-10         0.00000E+00
    0.58545E-08         0.60837E-10         0.00000E+00
    0.58542E-08         0.60476E-10         0.00000E+00
    0.58539E-08         0.59917E-10         0.00000E+00
    0.58536E-08         0.59162E-10         0.00000E+00
    0.58533E-08         0.58209E-10         0.00000E+00
    0.58531E-08         0.57058E-10         0.00000E+00
    0.58528E-08         0.55709E-10         0.00000E+00
    0.58525E-08         0.54163E-10         0.00000E+00
    0.58523E-08         0.52418E-10         0.00000E+00
    0.58520E-08         0.50474E-10         0.00000E+00
    0.58518E-08         0.48333E-10         0.00000E+00
    0.58516E-08         0.45993E-10         0.00000E+00
    0.58514E-08         0.43454E-10         0.00000E+00
    0.58512E-08         0.40717E-10         0.00000E+00
    0.58511E-08         0.37781E-10         0.00000E+00
    0.58509E-08         0.34647E-10         0.00000E+00
    0.58508E-08         0.31315E-10         0.00000E+00
    0.58506E-08         0.27784E-10         0.00000E+00
    0.58505E-08         0.24055E-10         0.00000E+00
    0.58504E-08         0.20128E-10         0.00000E+00
    0.58504E-08         0.16003E-10         0.00000E+00
    0.58503E-08         0.11680E-10         0.00000E+00
    0.58503E-08         0.71590E-11         0.00000E+00
    0.58503E-08         0.24411E-11         0.00000E+00
    0.61250E-08         0.24523E-11         0.00000E+00
    0.61250E-08         0.72271E-11         0.00000E+00
    0.61249E-08         0.11807E-10         0.00000E+00
    0.61249E-08         0.16191E-10         0.00000E+00
    0.61247E-08         0.20380E-10         0.00000E+00
    0.61246E-08         0.24373E-10         0.00000E+00
    0.61244E-08         0.28170E-10         0.00000E+00
    0.61242E-08         0.31769E-10         0.00000E+00
    0.61240E-08         0.35172E-10         0.00000E+00
    0.61238E-08         0.38378E-10         0.00000E+00
    0.61235E-08         0.41386E-10         0.00000E+00
    0.61233E-08         0.44196E-10         0.00000E+00
    0.61230E-08         0.46807E-10         0.00000E+00
    0.61227E-08         0.49221E-10         0.00000E+00
    0.61224E-08         0.51435E-10         0.00000E+00
    0.61221E-08         0.53450E-10         0.00000E+00
    0.61218E-08         0.55266E-10         0.00000E+00
    0.61215E-08         0.56882E-10         0.00000E+00
    0.61211E-08         0.58299E-10         0.00000E+00
    0.61208E-08         0.59515E-10         0.00000E+00
    0.61205E-08         0.60531E-10         0.00000E+00
    0.61201E-08         0.61347E-10         0.00000E+00
    0.61198E-08         0.61962E-10         0.00000E+00
    0.61195E-08         0.62376E-10         0.00000E+00
    0.61191E-08         0.62589E-10         0.00000E+00
    0.61188E-08         0.62601E-10         0.00000E+00
    0.61185E-08         0.62412E-10         0.00000E+00
    0.61182E-08         0.62021E-10         0.00000E+00
    0.61179E-08         0.61429E-10         0.00000E+00
    0.61176E-08         0.60635E-10         0.00000E+00
    0.61173E-08         0.59640E-10         0.00000E+00
    0.61170E-08         0.58443E-10         0.00000E+00
    0.61167E-08         0.57045E-10         0.00000E+00
    0.61165E-08         0.55445E-10         0.00000E+00
    0.61162E-08         0.53643E-10         0.00000E+00
    0.61160E-08         0.51639E-10         0.00000E+00
    0.61157E-08         0.49434E-10         0.00000E+00
    0.61155E-08         0.47028E-10         0.00000E+00
    0.61153E-08         0.44420E-10         0.00000E+00
    0.61151E-08         0.41611E-10         0.00000E+00
    0.61150E-08         0.38601E-10         0.00000E+00
    0.61148E-08         0.35390E-10         0.00000E+00
    0.61147E-08         0.31978E-10         0.00000E+00
    0.61145E-08         0.28365E-10         0.00000E+00
    0.61144E-08         0.24552E-10         0.00000E+00
    0.61143E-08         0.20539E-10         0.00000E+00
    0.61143E-08         0.16325E-10         0.00000E+00
    0.61142E-08         0.11912E-10         0.00000E+00
    0.61142E-08         0.73000E-11         0.00000E+00
    0.61141E-08         0.24886E-11         0.00000E+00
    0.64045E-08         0.25375E-11         0.00000E+00
    0.64045E-08         0.74757E-11         0.00000E+00
    0.64044E-08         0.12208E-10         0.00000E+00
    0.64043E-08         0.16736E-10         0.00000E+00
    0.64042E-08         0.21057E-10         0.00000E+00
    0.64041E-08         0.25173E-10         0.00000E+00
    0.64039E-08         0.29084E-10         0.00000E+00
    0.64037E-08         0.32788E-10         0.00000E+00
    0.64035E-08         0.36287E-10         0.00000E+00
    0.64033E-08         0.39579E-10         0.00000E+00
    0.64030E-08         0.42666E-10         0.00000E+00
    0.64028E-08         0.45546E-10         0.00000E+00
    0.64025E-08         0.48221E-10         0.00000E+00
    0.64022E-08         0.50689E-10         0.00000E+00
    0.64019E-08         0.52951E-10         0.00000E+00
    0.64016E-08         0.55006E-10         0.00000E+00
    0.64013E-08         0.56855E-10         0.00000E+00
    0.64010E-08         0.58498E-10         0.00000E+00
    0.64006E-08         0.59935E-10         0.00000E+00
    0.64003E-08         0.61165E-10         0.00000E+00
    0.64000E-08         0.62189E-10         0.00000E+00
    0.63996E-08         0.63006E-10         0.00000E+00
    0.63993E-08         0.63617E-10         0.00000E+00
    0.63990E-08         0.64022E-10         0.00000E+00
    0.63986E-08         0.64220E-10         0.00000E+00
    0.63983E-08         0.64212E-10         0.00000E+00
    0.63980E-08         0.63999E-10         0.00000E+00
    0.63977E-08         0.63579E-10         0.00000E+00
    0.63974E-08         0.62953E-10         0.00000E+00
    0.63971E-08         0.62121E-10         0.00000E+00
    0.63968E-08         0.61084E-10         0.00000E+00
    0.63965E-08         0.59840E-10         0.00000E+00
    0.63962E-08         0.58392E-10         0.00000E+00
    0.63960E-08         0.56738E-10         0.00000E+00
    0.63957E-08         0.54879E-10         0.00000E+00
    0.63955E-08         0.52815E-10         0.00000E+00
    0.63952E-08         0.50546E-10         0.00000E+00
    0.63950E-08         0.48073E-10         0.00000E+00
    0.63948E-08         0.45395E-10         0.00000E+00
    0.63946E-08         0.42514E-10         0.00000E+00
    0.63945E-08         0.39428E-10         0.00000E+00
    0.63943E-08         0.36139E-10         0.00000E+00
    0.63942E-08         0.32647E-10         0.00000E+00
    0.63940E-08         0.28952E-10         0.00000E+00
    0.63939E-08         0.25054E-10         0.00000E+00
    0.63938E-08         0.20954E-10         0.00000E+00
    0.63938E-08         0.16651E-10         0.00000E+00
    0.63937E-08         0.12148E-10         0.00000E+00
    0.63937E-08         0.74425E-11         0.00000E+00
    0.63937E-08         0.25365E-11         0.00000E+00
    0.67000E-08         0.26218E-11         0.00000E+00
    0.66999E-08         0.77217E-11         0.00000E+00
    0.66999E-08         0.12606E-10         0.00000E+00
    0.66998E-08         0.17274E-10         0.00000E+00
    0.66997E-08         0.21728E-10         0.00000E+00
    0.66995E-08         0.25966E-10         0.00000E+00
    0.66994E-08         0.29989E-10         0.00000E+00
    0.66992E-08         0.33797E-10         0.00000E+00
    0.66990E-08         0.37391E-10         0.00000E+00
    0.66987E-08         0.40770E-10         0.00000E+00
    0.66985E-08         0.43934E-10         0.00000E+00
    0.66982E-08         0.46885E-10         0.00000E+00
    0.66980E-08         0.49621E-10         0.00000E+00
    0.66977E-08         0.52144E-10         0.00000E+00
    0.66974E-08         0.54453E-10         0.00000E+00
    0.66971E-08         0.56549E-10         0.00000E+00
    0.66968E-08         0.58431E-10         0.00000E+00
    0.66965E-08         0.60100E-10         0.00000E+00
    0.66961E-08         0.61557E-10         0.00000E+00
    0.66958E-08         0.62801E-10         0.00000E+00
    0.66955E-08         0.63832E-10         0.00000E+00
    0.66952E-08         0.64651E-10         0.00000E+00
    0.66948E-08         0.65258E-10         0.00000E+00
    0.66945E-08         0.65654E-10         0.00000E+00
    0.66942E-08         0.65838E-10         0.00000E+00
    0.66939E-08         0.65810E-10         0.00000E+00
    0.66936E-08         0.65572E-10         0.00000E+00
    0.66932E-08         0.65123E-10         0.00000E+00
    0.66929E-08         0.64464E-10         0.00000E+00
    0.66926E-08         0.63594E-10         0.00000E+00
    0.66924E-08         0.62515E-10         0.00000E+00
    0.66921E-08         0.61226E-10         0.00000E+00
    0.66918E-08         0.59728E-10         0.00000E+00
    0.66915E-08         0.58020E-10         0.00000E+00
    0.66913E-08         0.56105E-10         0.00000E+00
    0.66911E-08         0.53981E-10         0.00000E+00
    0.66908E-08         0.51649E-10         0.00000E+00
    0.66906E-08         0.49109E-10         0.00000E+00
    0.66904E-08         0.46362E-10         0.00000E+00
    0.66902E-08         0.43408E-10         0.00000E+00
    0.66901E-08         0.40248E-10         0.00000E+00
    0.66899E-08         0.36882E-10         0.00000E+00
    0.66898E-08         0.33310E-10         0.00000E+00
    0.66897E-08         0.29533E-10         0.00000E+00
    0.66895E-08         0.25551E-10         0.00000E+00
    0.66895E-08         0.21365E-10         0.00000E+00
    0.66894E-08         0.16974E-10         0.00000E+00
    0.66893E-08         0.12380E-10         0.00000E+00
    0.66893E-08         0.75835E-11         0.00000E+00
    0.66893E-08         0.25840E-11         0.00000E+00
    0.70119E-08         0.27046E-11         0.00000E+00
    0.70119E-08         0.79630E-11         0.00000E+00
    0.70118E-08         0.12996E-10         0.00000E+00
    0.70118E-08         0.17803E-10         0.00000E+00
    0.70116E-08         0.22385E-10         0.00000E+00
    0.70115E-08         0.26743E-10         0.00000E+00
    0.70113E-08         0.30876E-10         0.00000E+00
    0.70111E-08         0.34786E-10         0.00000E+00
    0.70109E-08         0.38473E-10         0.00000E+00
    0.70107E-08         0.41936E-10         0.00000E+00
    0.70105E-08         0.45177E-10         0.00000E+00
    0.70102E-08         0.48196E-10         0.00000E+00
    0.70100E-08         0.50993E-10         0.00000E+00
    0.70097E-08         0.53569E-10         0.00000E+00
    0.70094E-08         0.55924E-10         0.00000E+00
    0.70091E-08         0.58059E-10         0.00000E+00
    0.70088E-08         0.59973E-10         0.00000E+00
    0.70085E-08         0.61668E-10         0.00000E+00
    0.70082E-08         0.63144E-10         0.00000E+00
    0.70079E-08         0.64400E-10         0.00000E+00
    0.70076E-08         0.65439E-10         0.00000E+00
    0.70072E-08         0.66260E-10         0.00000E+00
    0.70069E-08         0.66863E-10         0.00000E+00
    0.70066E-08         0.67249E-10         0.00000E+00
    0.70063E-08         0.67418E-10         0.00000E+00
    0.70060E-08         0.67371E-10         0.00000E+00
    0.70057E-08         0.67109E-10         0.00000E+00
    0.70054E-08         0.66631E-10         0.00000E+00
    0.70051E-08         0.65939E-10         0.00000E+00
    0.70048E-08         0.65032E-10         0.00000E+00
    0.70045E-08         0.63911E-10         0.00000E+00
    0.70043E-08         0.62577E-10         0.00000E+00
    0.70040E-08         0.61030E-10         0.00000E+00
    0.70037E-08         0.59270E-10         0.00000E+00
    0.70035E-08         0.57299E-10         0.00000E+00
    0.70033E-08         0.55116E-10         0.00000E+00
    0.70031E-08         0.52722E-10         0.00000E+00
    0.70029E-08         0.50117E-10         0.00000E+00
    0.70027E-08         0.47302E-10         0.00000E+00
    0.70025E-08         0.44278E-10         0.00000E+00
    0.70023E-08         0.41045E-10         0.00000E+00
    0.70022E-08         0.37604E-10         0.00000E+00
    0.70020E-08         0.33954E-10         0.00000E+00
    0.70019E-08         0.30097E-10         0.00000E+00
    0.70018E-08         0.26034E-10         0.00000E+00
    0.70017E-08         0.21763E-10         0.00000E+00
    0.70017E-08         0.17287E-10         0.00000E+00
    0.70016E-08         0.12606E-10         0.00000E+00
    0.70016E-08         0.77201E-11         0.00000E+00
    0.70016E-08         0.26299E-11         0.00000E+00
    0.73410E-08         0.27849E-11         0.00000E+00
    0.73410E-08         0.81973E-11         0.00000E+00
    0.73409E-08         0.13374E-10         0.00000E+00
    0.73408E-08         0.18316E-10         0.00000E+00
    0.73407E-08         0.23023E-10         0.00000E+00
    0.73406E-08         0.27496E-10         0.00000E+00
    0.73404E-08         0.31737E-10         0.00000E+00
    0.73402E-08         0.35745E-10         0.00000E+00
    0.73400E-08         0.39521E-10         0.00000E+00
    0.73398E-08         0.43066E-10         0.00000E+00
    0.73396E-08         0.46380E-10         0.00000E+00
    0.73393E-08         0.49465E-10         0.00000E+00
    0.73391E-08         0.52320E-10         0.00000E+00
    0.73388E-08         0.54947E-10         0.00000E+00
    0.73386E-08         0.57346E-10         0.00000E+00
    0.73383E-08         0.59517E-10         0.00000E+00
    0.73380E-08         0.61462E-10         0.00000E+00
    0.73377E-08         0.63181E-10         0.00000E+00
    0.73374E-08         0.64674E-10         0.00000E+00
    0.73371E-08         0.65943E-10         0.00000E+00
    0.73368E-08         0.66988E-10         0.00000E+00
    0.73365E-08         0.67809E-10         0.00000E+00
    0.73362E-08         0.68407E-10         0.00000E+00
    0.73359E-08         0.68783E-10         0.00000E+00
    0.73356E-08         0.68938E-10         0.00000E+00
    0.73353E-08         0.68872E-10         0.00000E+00
    0.73350E-08         0.68585E-10         0.00000E+00
    0.73347E-08         0.68079E-10         0.00000E+00
    0.73344E-08         0.67354E-10         0.00000E+00
    0.73342E-08         0.66410E-10         0.00000E+00
    0.73339E-08         0.65249E-10         0.00000E+00
    0.73336E-08         0.63871E-10         0.00000E+00
    0.73334E-08         0.62276E-10         0.00000E+00
    0.73332E-08         0.60466E-10         0.00000E+00
    0.73329E-08         0.58440E-10         0.00000E+00
    0.73327E-08         0.56200E-10         0.00000E+00
    0.73325E-08         0.53746E-10         0.00000E+00
    0.73323E-08         0.51079E-10         0.00000E+00
    0.73321E-08         0.48199E-10         0.00000E+00
    0.73320E-08         0.45107E-10         0.00000E+00
    0.73318E-08         0.41804E-10         0.00000E+00
    0.73317E-08         0.38290E-10         0.00000E+00
    0.73315E-08         0.34567E-10         0.00000E+00
    0.73314E-08         0.30634E-10         0.00000E+00
    0.73313E-08         0.26492E-10         0.00000E+00
    0.73313E-08         0.22142E-10         0.00000E+00
    0.73312E-08         0.17584E-10         0.00000E+00
    0.73311E-08         0.12820E-10         0.00000E+00
    0.73311E-08         0.78494E-11         0.00000E+00
    0.73311E-08         0.26734E-11         0.00000E+00
    0.76878E-08         0.28622E-11         0.00000E+00
    0.76878E-08         0.84226E-11         0.00000E+00
    0.76877E-08         0.13737E-10         0.00000E+00
    0.76876E-08         0.18808E-10         0.00000E+00
    0.76875E-08         0.23635E-10         0.00000E+00
    0.76874E-08         0.28219E-10         0.00000E+00
    0.76872E-08         0.32561E-10         0.00000E+00
    0.76871E-08         0.36662E-10         0.00000E+00
    0.76869E-08         0.40523E-10         0.00000E+00
    0.76867E-08         0.44145E-10         0.00000E+00
    0.76864E-08         0.47529E-10         0.00000E+00
    0.76862E-08         0.50676E-10         0.00000E+00
    0.76860E-08         0.53586E-10         0.00000E+00
    0.76857E-08         0.56260E-10         0.00000E+00
    0.76855E-08         0.58699E-10         0.00000E+00
    0.76852E-08         0.60905E-10         0.00000E+00
    0.76849E-08         0.62878E-10         0.00000E+00
    0.76847E-08         0.64618E-10         0.00000E+00
    0.76844E-08         0.66127E-10         0.00000E+00
    0.76841E-08         0.67406E-10         0.00000E+00
    0.76838E-08         0.68455E-10         0.00000E+00
    0.76835E-08         0.69276E-10         0.00000E+00
    0.76832E-08         0.69868E-10         0.00000E+00
    0.76830E-08         0.70234E-10         0.00000E+00
    0.76827E-08         0.70373E-10         0.00000E+00
    0.76824E-08         0.70287E-10         0.00000E+00
    0.76821E-08         0.69977E-10         0.00000E+00
    0.76819E-08         0.69443E-10         0.00000E+00
    0.76816E-08         0.68686E-10         0.00000E+00
    0.76814E-08         0.67706E-10         0.00000E+00
    0.76811E-08         0.66506E-10         0.00000E+00
    0.76809E-08         0.65085E-10         0.00000E+00
    0.76806E-08         0.63445E-10         0.00000E+00
    0.76804E-08         0.61585E-10         0.00000E+00
    0.76802E-08         0.59508E-10         0.00000E+00
    0.76800E-08         0.57213E-10         0.00000E+00
    0.76798E-08         0.54702E-10         0.00000E+00
    0.76796E-08         0.51976E-10         0.00000E+00
    0.76795E-08         0.49034E-10         0.00000E+00
    0.76793E-08         0.45878E-10         0.00000E+00
    0.76792E-08         0.42509E-10         0.00000E+00
    0.76791E-08         0.38928E-10         0.00000E+00
    0.76789E-08         0.35134E-10         0.00000E+00
    0.76788E-08         0.31130E-10         0.00000E+00
    0.76787E-08         0.26915E-10         0.00000E+00
    0.76787E-08         0.22491E-10         0.00000E+00
    0.76786E-08         0.17858E-10         0.00000E+00
    0.76786E-08         0.13017E-10         0.00000E+00
    0.76785E-08         0.79684E-11         0.00000E+00
    0.76785E-08         0.27133E-11         0.00000E+00
    0.80530E-08         0.29356E-11         0.00000E+00
    0.80530E-08         0.86363E-11         0.00000E+00
    0.80529E-08         0.14082E-10         0.00000E+00
    0.80528E-08         0.19274E-10         0.00000E+00
    0.80527E-08         0.24213E-10         0.00000E+00
    0.80526E-08         0.28901E-10         0.00000E+00
    0.80525E-08         0.33339E-10         0.00000E+00
    0.80523E-08         0.37528E-10         0.00000E+00
    0.80521E-08         0.41468E-10         0.00000E+00
    0.80519E-08         0.45162E-10         0.00000E+00
    0.80517E-08         0.48610E-10         0.00000E+00
    0.80515E-08         0.51813E-10         0.00000E+00
    0.80513E-08         0.54773E-10         0.00000E+00
    0.80511E-08         0.57490E-10         0.00000E+00
    0.80508E-08         0.59967E-10         0.00000E+00
    0.80506E-08         0.62203E-10         0.00000E+00
    0.80503E-08         0.64200E-10         0.00000E+00
    0.80501E-08         0.65959E-10         0.00000E+00
    0.80498E-08         0.67481E-10         0.00000E+00
    0.80495E-08         0.68768E-10         0.00000E+00
    0.80493E-08         0.69819E-10         0.00000E+00
    0.80490E-08         0.70637E-10         0.00000E+00
    0.80488E-08         0.71223E-10         0.00000E+00
    0.80485E-08         0.71577E-10         0.00000E+00
    0.80483E-08         0.71700E-10         0.00000E+00
    0.80480E-08         0.71594E-10         0.00000E+00
    0.80478E-08         0.71260E-10         0.00000E+00
    0.80475E-08         0.70698E-10         0.00000E+00
    0.80473E-08         0.69910E-10         0.00000E+00
    0.80470E-08         0.68896E-10         0.00000E+00
    0.80468E-08         0.67658E-10         0.00000E+00
    0.80466E-08         0.66196E-10         0.00000E+00
    0.80464E-08         0.64512E-10         0.00000E+00
    0.80462E-08         0.62607E-10         0.00000E+00
    0.80460E-08         0.60481E-10         0.00000E+00
    0.80458E-08         0.58135E-10         0.00000E+00
    0.80457E-08         0.55571E-10         0.00000E+00
    0.80455E-08         0.52789E-10         0.00000E+00
    0.80454E-08         0.49790E-10         0.00000E+00
    0.80452E-08         0.46575E-10         0.00000E+00
    0.80451E-08         0.43145E-10         0.00000E+00
    0.80450E-08         0.39502E-10         0.00000E+00
    0.80449E-08         0.35645E-10         0.00000E+00
    0.80448E-08         0.31575E-10         0.00000E+00
    0.80447E-08         0.27295E-10         0.00000E+00
    0.80447E-08         0.22803E-10         0.00000E+00
    0.80446E-08         0.18102E-10         0.00000E+00
    0.80446E-08         0.13192E-10         0.00000E+00
    0.80445E-08         0.80741E-11         0.00000E+00
    0.80445E-08         0.27487E-11         0.00000E+00
    0.84373E-08         0.30043E-11         0.00000E+00
    0.84373E-08         0.88360E-11         0.00000E+00
    0.84372E-08         0.14404E-10         0.00000E+00
    0.84372E-08         0.19708E-10         0.00000E+00
    0.84371E-08         0.24752E-10         0.00000E+00
    0.84370E-08         0.29536E-10         0.00000E+00
    0.84368E-08         0.34061E-10         0.00000E+00
    0.84367E-08         0.38329E-10         0.00000E+00
    0.84365E-08         0.42342E-10         0.00000E+00
    0.84363E-08         0.46101E-10         0.00000E+00
    0.84362E-08         0.49606E-10         0.00000E+00
    0.84360E-08         0.52860E-10         0.00000E+00
    0.84358E-08         0.55864E-10         0.00000E+00
    0.84355E-08         0.58620E-10         0.00000E+00
    0.84353E-08         0.61128E-10         0.00000E+00
    0.84351E-08         0.63390E-10         0.00000E+00
    0.84349E-08         0.65407E-10         0.00000E+00
    0.84347E-08         0.67181E-10         0.00000E+00
    0.84344E-08         0.68713E-10         0.00000E+00
    0.84342E-08         0.70004E-10         0.00000E+00
    0.84340E-08         0.71056E-10         0.00000E+00
    0.84337E-08         0.71869E-10         0.00000E+00
    0.84335E-08         0.72446E-10         0.00000E+00
    0.84333E-08         0.72787E-10         0.00000E+00
    0.84330E-08         0.72894E-10         0.00000E+00
    0.84328E-08         0.72767E-10         0.00000E+00
    0.84326E-08         0.72409E-10         0.00000E+00
    0.84324E-08         0.71820E-10         0.00000E+00
    0.84322E-08         0.71001E-10         0.00000E+00
    0.84320E-08         0.69954E-10         0.00000E+00
    0.84318E-08         0.68680E-10         0.00000E+00
    0.84316E-08         0.67180E-10         0.00000E+00
    0.84314E-08         0.65455E-10         0.00000E+00
    0.84312E-08         0.63507E-10         0.00000E+00
    0.84311E-08         0.61336E-10         0.00000E+00
    0.84309E-08         0.58943E-10         0.00000E+00
    0.84308E-08         0.56330E-10         0.00000E+00
    0.84306E-08         0.53498E-10         0.00000E+00
    0.84305E-08         0.50447E-10         0.00000E+00
    0.84304E-08         0.47180E-10         0.00000E+00
    0.84303E-08         0.43696E-10         0.00000E+00
    0.84302E-08         0.39997E-10         0.00000E+00
    0.84301E-08         0.36084E-10         0.00000E+00
    0.84300E-08         0.31957E-10         0.00000E+00
    0.84300E-08         0.27619E-10         0.00000E+00
    0.84299E-08         0.23070E-10         0.00000E+00
    0.84299E-08         0.18310E-10         0.00000E+00
    0.84299E-08         0.13341E-10         0.00000E+00
    0.84298E-08         0.81634E-11         0.00000E+00
    0.84298E-08         0.27785E-11         0.00000E+00
    0.88415E-08         0.30673E-11         0.00000E+00
    0.88415E-08         0.90190E-11         0.00000E+00
    0.88414E-08         0.14698E-10         0.00000E+00
    0.88414E-08         0.20105E-10         0.00000E+00
    0.88413E-08         0.25243E-10         0.00000E+00
    0.88412E-08         0.30112E-10         0.00000E+00
    0.88411E-08         0.34716E-10         0.00000E+00
    0.88409E-08         0.39055E-10         0.00000E+00
    0.88408E-08         0.43131E-10         0.00000E+00
    0.88407E-08         0.46946E-10         0.00000E+00
    0.88405E-08         0.50502E-10         0.00000E+00
    0.88403E-08         0.53799E-10         0.00000E+00
    0.88401E-08         0.56841E-10         0.00000E+00
    0.88399E-08         0.59628E-10         0.00000E+00
    0.88398E-08         0.62161E-10         0.00000E+00
    0.88396E-08         0.64444E-10         0.00000E+00
    0.88394E-08         0.66476E-10         0.00000E+00
    0.88392E-08         0.68260E-10         0.00000E+00
    0.88390E-08         0.69798E-10         0.00000E+00
    0.88388E-08         0.71090E-10         0.00000E+00
    0.88386E-08         0.72138E-10         0.00000E+00
    0.88384E-08         0.72945E-10         0.00000E+00
    0.88382E-08         0.73511E-10         0.00000E+00
    0.88380E-08         0.73837E-10         0.00000E+00
    0.88378E-08         0.73926E-10         0.00000E+00
    0.88376E-08         0.73779E-10         0.00000E+00
    0.88374E-08         0.73397E-10         0.00000E+00
    0.88372E-08         0.72781E-10         0.00000E+00
    0.88371E-08         0.71933E-10         0.00000E+00
    0.88369E-08         0.70855E-10         0.00000E+00
    0.88367E-08         0.69547E-10         0.00000E+00
    0.88366E-08         0.68011E-10         0.00000E+00
    0.88364E-08         0.66249E-10         0.00000E+00
    0.88363E-08         0.64261E-10         0.00000E+00
    0.88362E-08         0.62050E-10         0.00000E+00
    0.88360E-08         0.59615E-10         0.00000E+00
    0.88359E-08         0.56959E-10         0.00000E+00
    0.88358E-08         0.54082E-10         0.00000E+00
    0.88357E-08         0.50987E-10         0.00000E+00
    0.88356E-08         0.47673E-10         0.00000E+00
    0.88356E-08         0.44143E-10         0.00000E+00
    0.88355E-08         0.40397E-10         0.00000E+00
    0.88354E-08         0.36437E-10         0.00000E+00
    0.88354E-08         0.32264E-10         0.00000E+00
    0.88353E-08         0.27878E-10         0.00000E+00
    0.88353E-08         0.23281E-10         0.00000E+00
    0.88352E-08         0.18474E-10         0.00000E+00
    0.88352E-08         0.13457E-10         0.00000E+00
    0.88352E-08         0.82330E-11         0.00000E+00
    0.88352E-08         0.28016E-11         0.00000E+00
    0.92664E-08         0.31236E-11         0.00000E+00
    0.92664E-08         0.91822E-11         0.00000E+00
    0.92663E-08         0.14959E-10         0.00000E+00
    0.92663E-08         0.20457E-10         0.00000E+00
    0.92662E-08         0.25676E-10         0.00000E+00
    0.92661E-08         0.30621E-10         0.00000E+00
    0.92660E-08         0.35292E-10         0.00000E+00
    0.92659E-08         0.39691E-10         0.00000E+00
    0.92658E-08         0.43821E-10         0.00000E+00
    0.92657E-08         0.47683E-10         0.00000E+00
    0.92655E-08         0.51279E-10         0.00000E+00
    0.92654E-08         0.54611E-10         0.00000E+00
    0.92652E-08         0.57682E-10         0.00000E+00
    0.92651E-08         0.60492E-10         0.00000E+00
    0.92649E-08         0.63045E-10         0.00000E+00
    0.92647E-08         0.65341E-10         0.00000E+00
    0.92646E-08         0.67383E-10         0.00000E+00
    0.92644E-08         0.69172E-10         0.00000E+00
    0.92643E-08         0.70710E-10         0.00000E+00
    0.92641E-08         0.71999E-10         0.00000E+00
    0.92639E-08         0.73041E-10         0.00000E+00
    0.92638E-08         0.73837E-10         0.00000E+00
    0.92636E-08         0.74390E-10         0.00000E+00
    0.92635E-08         0.74700E-10         0.00000E+00
    0.92633E-08         0.74770E-10         0.00000E+00
    0.92632E-08         0.74601E-10         0.00000E+00
    0.92630E-08         0.74195E-10         0.00000E+00
    0.92629E-08         0.73553E-10         0.00000E+00
    0.92628E-08         0.72678E-10         0.00000E+00
    0.92626E-08         0.71570E-10         0.00000E+00
    0.92625E-08         0.70231E-10         0.00000E+00
    0.92624E-08         0.68663E-10         0.00000E+00
    0.92623E-08         0.66867E-10         0.00000E+00
    0.92622E-08         0.64845E-10         0.00000E+00
    0.92621E-08         0.62598E-10         0.00000E+00
    0.92620E-08         0.60127E-10         0.00000E+00
    0.92619E-08         0.57434E-10         0.00000E+00
    0.92618E-08         0.54521E-10         0.00000E+00
    0.92618E-08         0.51388E-10         0.00000E+00
    0.92617E-08         0.48038E-10         0.00000E+00
    0.92617E-08         0.44470E-10         0.00000E+00
    0.92616E-08         0.40687E-10         0.00000E+00
    0.92616E-08         0.36690E-10         0.00000E+00
    0.92615E-08         0.32481E-10         0.00000E+00
    0.92615E-08         0.28059E-10         0.00000E+00
    0.92615E-08         0.23427E-10         0.00000E+00
    0.92615E-08         0.18586E-10         0.00000E+00
    0.92614E-08         0.13536E-10         0.00000E+00
    0.92614E-08         0.82795E-11         0.00000E+00
    0.92614E-08         0.28168E-11         0.00000E+00
    0.97128E-08         0.31722E-11         0.00000E+00
    0.97128E-08         0.93223E-11         0.00000E+00
    0.97128E-08         0.15183E-10         0.00000E+00
    0.97127E-08         0.20756E-10         0.00000E+00
    0.97127E-08         0.26044E-10         0.00000E+00
    0.97126E-08         0.31050E-10         0.00000E+00
    0.97125E-08         0.35775E-10         0.00000E+00
    0.97124E-08         0.40222E-10         0.00000E+00
    0.97123E-08         0.44393E-10         0.00000E+00
    0.97122E-08         0.48291E-10         0.00000E+00
    0.97121E-08         0.51918E-10         0.00000E+00
    0.97120E-08         0.55275E-10         0.00000E+00
    0.97119E-08         0.58365E-10         0.00000E+00
    0.97118E-08         0.61191E-10         0.00000E+00
    0.97116E-08         0.63754E-10         0.00000E+00
    0.97115E-08         0.66056E-10         0.00000E+00
    0.97114E-08         0.68100E-10         0.00000E+00
    0.97113E-08         0.69888E-10         0.00000E+00
    0.97111E-08         0.71421E-10         0.00000E+00
    0.97110E-08         0.72703E-10         0.00000E+00
    0.97109E-08         0.73734E-10         0.00000E+00
    0.97108E-08         0.74516E-10         0.00000E+00
    0.97107E-08         0.75053E-10         0.00000E+00
    0.97106E-08         0.75345E-10         0.00000E+00
    0.97105E-08         0.75394E-10         0.00000E+00
    0.97104E-08         0.75203E-10         0.00000E+00
    0.97103E-08         0.74773E-10         0.00000E+00
    0.97102E-08         0.74107E-10         0.00000E+00
    0.97101E-08         0.73205E-10         0.00000E+00
    0.97100E-08         0.72070E-10         0.00000E+00
    0.97099E-08         0.70703E-10         0.00000E+00
    0.97099E-08         0.69106E-10         0.00000E+00
    0.97098E-08         0.67281E-10         0.00000E+00
    0.97098E-08         0.65230E-10         0.00000E+00
    0.97097E-08         0.62953E-10         0.00000E+00
    0.97097E-08         0.60453E-10         0.00000E+00
    0.97096E-08         0.57732E-10         0.00000E+00
    0.97096E-08         0.54790E-10         0.00000E+00
    0.97095E-08         0.51629E-10         0.00000E+00
    0.97095E-08         0.48251E-10         0.00000E+00
    0.97095E-08         0.44657E-10         0.00000E+00
    0.97095E-08         0.40849E-10         0.00000E+00
    0.97094E-08         0.36828E-10         0.00000E+00
    0.97094E-08         0.32595E-10         0.00000E+00
    0.97094E-08         0.28151E-10         0.00000E+00
    0.97094E-08         0.23499E-10         0.00000E+00
    0.97094E-08         0.18638E-10         0.00000E+00
    0.97094E-08         0.13572E-10         0.00000E+00
    0.97094E-08         0.82993E-11         0.00000E+00
    0.97094E-08         0.28229E-11         0.00000E+00
    0.10182E-07         0.32118E-11         0.00000E+00
    0.10182E-07         0.94358E-11         0.00000E+00
    0.10182E-07         0.15363E-10         0.00000E+00
    0.10182E-07         0.20995E-10         0.00000E+00
    0.10182E-07         0.26336E-10         0.00000E+00
    0.10181E-07         0.31387E-10         0.00000E+00
    0.10181E-07         0.36152E-10         0.00000E+00
    0.10181E-07         0.40632E-10         0.00000E+00
    0.10181E-07         0.44832E-10         0.00000E+00
    0.10181E-07         0.48753E-10         0.00000E+00
    0.10181E-07         0.52397E-10         0.00000E+00
    0.10181E-07         0.55768E-10         0.00000E+00
    0.10181E-07         0.58867E-10         0.00000E+00
    0.10181E-07         0.61697E-10         0.00000E+00
    0.10181E-07         0.64261E-10         0.00000E+00
    0.10181E-07         0.66562E-10         0.00000E+00
    0.10181E-07         0.68600E-10         0.00000E+00
    0.10181E-07         0.70379E-10         0.00000E+00
    0.10181E-07         0.71902E-10         0.00000E+00
    0.10180E-07         0.73170E-10         0.00000E+00
    0.10180E-07         0.74185E-10         0.00000E+00
    0.10180E-07         0.74950E-10         0.00000E+00
    0.10180E-07         0.75467E-10         0.00000E+00
    0.10180E-07         0.75739E-10         0.00000E+00
    0.10180E-07         0.75766E-10         0.00000E+00
    0.10180E-07         0.75553E-10         0.00000E+00
    0.10180E-07         0.75099E-10         0.00000E+00
    0.10180E-07         0.74409E-10         0.00000E+00
    0.10180E-07         0.73483E-10         0.00000E+00
    0.10180E-07         0.72323E-10         0.00000E+00
    0.10180E-07         0.70932E-10         0.00000E+00
    0.10180E-07         0.69311E-10         0.00000E+00
    0.10180E-07         0.67462E-10         0.00000E+00
    0.10180E-07         0.65387E-10         0.00000E+00
    0.10180E-07         0.63089E-10         0.00000E+00
    0.10180E-07         0.60567E-10         0.00000E+00
    0.10180E-07         0.57826E-10         0.00000E+00
    0.10180E-07         0.54865E-10         0.00000E+00
    0.10180E-07         0.51686E-10         0.00000E+00
    0.10180E-07         0.48293E-10         0.00000E+00
    0.10180E-07         0.44684E-10         0.00000E+00
    0.10180E-07         0.40864E-10         0.00000E+00
    0.10180E-07         0.36832E-10         0.00000E+00
    0.10180E-07         0.32591E-10         0.00000E+00
    0.10180E-07         0.28141E-10         0.00000E+00
    0.10180E-07         0.23485E-10         0.00000E+00
    0.10180E-07         0.18623E-10         0.00000E+00
    0.10180E-07         0.13557E-10         0.00000E+00
    0.10180E-07         0.82887E-11         0.00000E+00
    0.10180E-07         0.28186E-11         0.00000E+00
    0.10674E-07         0.32410E-11         0.00000E+00
    0.10674E-07         0.95186E-11         0.00000E+00
    0.10674E-07         0.15492E-10         0.00000E+00
    0.10674E-07         0.21165E-10         0.00000E+00
    0.10674E-07         0.26539E-10         0.00000E+00
    0.10674E-07         0.31619E-10         0.00000E+00
    0.10674E-07         0.36406E-10         0.00000E+00
    0.10674E-07         0.40904E-10         0.00000E+00
    0.10674E-07         0.45116E-10         0.00000E+00
    0.10674E-07         0.49045E-10         0.00000E+00
    0.10674E-07         0.52694E-10         0.00000E+00
    0.10673E-07         0.56064E-10         0.00000E+00
    0.10673E-07         0.59160E-10         0.00000E+00
    0.10673E-07         0.61984E-10         0.00000E+00
    0.10673E-07         0.64539E-10         0.00000E+00
    0.10673E-07         0.66827E-10         0.00000E+00
    0.10673E-07         0.68851E-10         0.00000E+00
    0.10673E-07         0.70614E-10         0.00000E+00
    0.10673E-07         0.72118E-10         0.00000E+00
    0.10673E-07         0.73366E-10         0.00000E+00
    0.10673E-07         0.74361E-10         0.00000E+00
    0.10673E-07         0.75104E-10         0.00000E+00
    0.10673E-07         0.75599E-10         0.00000E+00
    0.10673E-07         0.75847E-10         0.00000E+00
    0.10673E-07         0.75851E-10         0.00000E+00
    0.10673E-07         0.75614E-10         0.00000E+00
    0.10673E-07         0.75138E-10         0.00000E+00
    0.10673E-07         0.74424E-10         0.00000E+00
    0.10673E-07         0.73476E-10         0.00000E+00
    0.10673E-07         0.72295E-10         0.00000E+00
    0.10673E-07         0.70883E-10         0.00000E+00
    0.10673E-07         0.69243E-10         0.00000E+00
    0.10674E-07         0.67377E-10         0.00000E+00
    0.10674E-07         0.65286E-10         0.00000E+00
    0.10674E-07         0.62973E-10         0.00000E+00
    0.10674E-07         0.60440E-10         0.00000E+00
    0.10674E-07         0.57688E-10         0.00000E+00
    0.10674E-07         0.54719E-10         0.00000E+00
    0.10674E-07         0.51535E-10         0.00000E+00
    0.10674E-07         0.48138E-10         0.00000E+00
    0.10674E-07         0.44530E-10         0.00000E+00
    0.10674E-07         0.40712E-10         0.00000E+00
    0.10674E-07         0.36686E-10         0.00000E+00
    0.10674E-07         0.32453E-10         0.00000E+00
    0.10674E-07         0.28015E-10         0.00000E+00
    0.10674E-07         0.23374E-10         0.00000E+00
    0.10674E-07         0.18530E-10         0.00000E+00
    0.10674E-07         0.13487E-10         0.00000E+00
    0.10674E-07         0.82434E-11         0.00000E+00
    0.10674E-07         0.28025E-11         0.00000E+00
    0.11190E-07         0.32583E-11         0.00000E+00
    0.11190E-07         0.95663E-11         0.00000E+00
    0.11190E-07         0.15564E-10         0.00000E+00
    0.11190E-07         0.21255E-10         0.00000E+00
    0.11190E-07         0.26642E-10         0.00000E+00
    0.11190E-07         0.31730E-10         0.00000E+00
    0.11190E-07         0.36521E-10         0.00000E+00
    0.11190E-07         0.41018E-10         0.00000E+00
    0.11190E-07         0.45225E-10         0.00000E+00
    0.11190E-07         0.49146E-10         0.00000E+00
    0.11190E-07         0.52782E-10         0.00000E+00
    0.11190E-07         0.56139E-10         0.00000E+00
    0.11190E-07         0.59217E-10         0.00000E+00
    0.11190E-07         0.62022E-10         0.00000E+00
    0.11190E-07         0.64555E-10         0.00000E+00
    0.11190E-07         0.66820E-10         0.00000E+00
    0.11190E-07         0.68820E-10         0.00000E+00
    0.11190E-07         0.70558E-10         0.00000E+00
    0.11190E-07         0.72036E-10         0.00000E+00
    0.11190E-07         0.73257E-10         0.00000E+00
    0.11191E-07         0.74225E-10         0.00000E+00
    0.11191E-07         0.74941E-10         0.00000E+00
    0.11191E-07         0.75409E-10         0.00000E+00
    0.11191E-07         0.75632E-10         0.00000E+00
    0.11191E-07         0.75611E-10         0.00000E+00
    0.11191E-07         0.75350E-10         0.00000E+00
    0.11191E-07         0.74850E-10         0.00000E+00
    0.11191E-07         0.74116E-10         0.00000E+00
    0.11191E-07         0.73148E-10         0.00000E+00
    0.11191E-07         0.71949E-10         0.00000E+00
    0.11191E-07         0.70522E-10         0.00000E+00
    0.11192E-07         0.68869E-10         0.00000E+00
    0.11192E-07         0.66992E-10         0.00000E+00
    0.11192E-07         0.64893E-10         0.00000E+00
    0.11192E-07         0.62575E-10         0.00000E+00
    0.11192E-07         0.60040E-10         0.00000E+00
    0.11192E-07         0.57289E-10         0.00000E+00
    0.11192E-07         0.54325E-10         0.00000E+00
    0.11192E-07         0.51149E-10         0.00000E+00
    0.11192E-07         0.47764E-10         0.00000E+00
    0.11192E-07         0.44171E-10         0.00000E+00
    0.11193E-07         0.40372E-10         0.00000E+00
    0.11193E-07         0.36370E-10         0.00000E+00
    0.11193E-07         0.32164E-10         0.00000E+00
    0.11193E-07         0.27758E-10         0.00000E+00
    0.11193E-07         0.23154E-10         0.00000E+00
    0.11193E-07         0.18351E-10         0.00000E+00
    0.11193E-07         0.13352E-10         0.00000E+00
    0.11193E-07         0.81593E-11         0.00000E+00
    0.11193E-07         0.27731E-11         0.00000E+00
    0.11732E-07         0.32621E-11         0.00000E+00
    0.11732E-07         0.95740E-11         0.00000E+00
    0.11732E-07         0.15570E-10         0.00000E+00
    0.11732E-07         0.21255E-10         0.00000E+00
    0.11732E-07         0.26632E-10         0.00000E+00
    0.11732E-07         0.31705E-10         0.00000E+00
    0.11732E-07         0.36477E-10         0.00000E+00
    0.11732E-07         0.40952E-10         0.00000E+00
    0.11732E-07         0.45135E-10         0.00000E+00
    0.11732E-07         0.49028E-10         0.00000E+00
    0.11732E-07         0.52636E-10         0.00000E+00
    0.11732E-07         0.55961E-10         0.00000E+00
    0.11732E-07         0.59007E-10         0.00000E+00
    0.11733E-07         0.61777E-10         0.00000E+00
    0.11733E-07         0.64276E-10         0.00000E+00
    0.11733E-07         0.66506E-10         0.00000E+00
    0.11733E-07         0.68470E-10         0.00000E+00
    0.11733E-07         0.70172E-10         0.00000E+00
    0.11733E-07         0.71615E-10         0.00000E+00
    0.11733E-07         0.72802E-10         0.00000E+00
    0.11733E-07         0.73736E-10         0.00000E+00
    0.11733E-07         0.74421E-10         0.00000E+00
    0.11734E-07         0.74858E-10         0.00000E+00
    0.11734E-07         0.75052E-10         0.00000E+00
    0.11734E-07         0.75004E-10         0.00000E+00
    0.11734E-07         0.74718E-10         0.00000E+00
    0.11734E-07         0.74197E-10         0.00000E+00
    0.11734E-07         0.73443E-10         0.00000E+00
    0.11735E-07         0.72458E-10         0.00000E+00
    0.11735E-07         0.71246E-10         0.00000E+00
    0.11735E-07         0.69809E-10         0.00000E+00
    0.11735E-07         0.68150E-10         0.00000E+00
    0.11735E-07         0.66270E-10         0.00000E+00
    0.11735E-07         0.64173E-10         0.00000E+00
    0.11736E-07         0.61860E-10         0.00000E+00
    0.11736E-07         0.59334E-10         0.00000E+00
    0.11736E-07         0.56597E-10         0.00000E+00
    0.11736E-07         0.53652E-10         0.00000E+00
    0.11736E-07         0.50499E-10         0.00000E+00
    0.11736E-07         0.47143E-10         0.00000E+00
    0.11737E-07         0.43583E-10         0.00000E+00
    0.11737E-07         0.39823E-10         0.00000E+00
    0.11737E-07         0.35864E-10         0.00000E+00
    0.11737E-07         0.31707E-10         0.00000E+00
    0.11737E-07         0.27356E-10         0.00000E+00
    0.11737E-07         0.22811E-10         0.00000E+00
    0.11737E-07         0.18074E-10         0.00000E+00
    0.11737E-07         0.13148E-10         0.00000E+00
    0.11737E-07         0.80318E-11         0.00000E+00
    0.11737E-07         0.27289E-11         0.00000E+00
    0.12300E-07         0.32506E-11         0.00000E+00
    0.12300E-07         0.95366E-11         0.00000E+00
    0.12300E-07         0.15503E-10         0.00000E+00
    0.12300E-07         0.21153E-10         0.00000E+00
    0.12300E-07         0.26493E-10         0.00000E+00
    0.12300E-07         0.31525E-10         0.00000E+00
    0.12300E-07         0.36254E-10         0.00000E+00
    0.12301E-07         0.40685E-10         0.00000E+00
    0.12301E-07         0.44820E-10         0.00000E+00
    0.12301E-07         0.48665E-10         0.00000E+00
    0.12301E-07         0.52223E-10         0.00000E+00
    0.12301E-07         0.55499E-10         0.00000E+00
    0.12301E-07         0.58495E-10         0.00000E+00
    0.12301E-07         0.61215E-10         0.00000E+00
    0.12301E-07         0.63664E-10         0.00000E+00
    0.12301E-07         0.65845E-10         0.00000E+00
    0.12302E-07         0.67761E-10         0.00000E+00
    0.12302E-07         0.69417E-10         0.00000E+00
    0.12302E-07         0.70815E-10         0.00000E+00
    0.12302E-07         0.71960E-10         0.00000E+00
    0.12302E-07         0.72853E-10         0.00000E+00
    0.12303E-07         0.73500E-10         0.00000E+00
    0.12303E-07         0.73902E-10         0.00000E+00
    0.12303E-07         0.74064E-10         0.00000E+00
    0.12303E-07         0.73987E-10         0.00000E+00
    0.12304E-07         0.73676E-10         0.00000E+00
    0.12304E-07         0.73134E-10         0.00000E+00
    0.12304E-07         0.72363E-10         0.00000E+00
    0.12304E-07         0.71365E-10         0.00000E+00
    0.12305E-07         0.70145E-10         0.00000E+00
    0.12305E-07         0.68704E-10         0.00000E+00
    0.12305E-07         0.67046E-10         0.00000E+00
    0.12305E-07         0.65173E-10         0.00000E+00
    0.12306E-07         0.63087E-10         0.00000E+00
    0.12306E-07         0.60791E-10         0.00000E+00
    0.12306E-07         0.58288E-10         0.00000E+00
    0.12306E-07         0.55580E-10         0.00000E+00
    0.12307E-07         0.52668E-10         0.00000E+00
    0.12307E-07         0.49557E-10         0.00000E+00
    0.12307E-07         0.46246E-10         0.00000E+00
    0.12307E-07         0.42740E-10         0.00000E+00
    0.12308E-07         0.39039E-10         0.00000E+00
    0.12308E-07         0.35146E-10         0.00000E+00
    0.12308E-07         0.31063E-10         0.00000E+00
    0.12308E-07         0.26791E-10         0.00000E+00
    0.12308E-07         0.22333E-10         0.00000E+00
    0.12308E-07         0.17690E-10         0.00000E+00
    0.12308E-07         0.12864E-10         0.00000E+00
    0.12308E-07         0.78561E-11         0.00000E+00
    0.12308E-07         0.26683E-11         0.00000E+00
    0.12896E-07         0.32219E-11         0.00000E+00
    0.12896E-07         0.94481E-11         0.00000E+00
    0.12896E-07         0.15351E-10         0.00000E+00
    0.12896E-07         0.20937E-10         0.00000E+00
    0.12896E-07         0.26208E-10         0.00000E+00
    0.12896E-07         0.31172E-10         0.00000E+00
    0.12896E-07         0.35830E-10         0.00000E+00
    0.12896E-07         0.40190E-10         0.00000E+00
    0.12896E-07         0.44254E-10         0.00000E+00
    0.12897E-07         0.48027E-10         0.00000E+00
    0.12897E-07         0.51514E-10         0.00000E+00
    0.12897E-07         0.54718E-10         0.00000E+00
    0.12897E-07         0.57645E-10         0.00000E+00
    0.12897E-07         0.60297E-10         0.00000E+00
    0.12898E-07         0.62680E-10         0.00000E+00
    0.12898E-07         0.64797E-10         0.00000E+00
    0.12898E-07         0.66652E-10         0.00000E+00
    0.12898E-07         0.68249E-10         0.00000E+00
    0.12899E-07         0.69592E-10         0.00000E+00
    0.12899E-07         0.70684E-10         0.00000E+00
    0.12899E-07         0.71530E-10         0.00000E+00
    0.12900E-07         0.72132E-10         0.00000E+00
    0.12900E-07         0.72494E-10         0.00000E+00
    0.12900E-07         0.72621E-10         0.00000E+00
    0.12901E-07         0.72514E-10         0.00000E+00
    0.12901E-07         0.72178E-10         0.00000E+00
    0.12901E-07         0.71615E-10         0.00000E+00
    0.12902E-07         0.70829E-10         0.00000E+00
    0.12902E-07         0.69823E-10         0.00000E+00
    0.12902E-07         0.68600E-10         0.00000E+00
    0.12903E-07         0.67163E-10         0.00000E+00
    0.12903E-07         0.65514E-10         0.00000E+00
    0.12903E-07         0.63658E-10         0.00000E+00
    0.12904E-07         0.61595E-10         0.00000E+00
    0.12904E-07         0.59330E-10         0.00000E+00
    0.12904E-07         0.56864E-10         0.00000E+00
    0.12905E-07         0.54200E-10         0.00000E+00
    0.12905E-07         0.51341E-10         0.00000E+00
    0.12905E-07         0.48288E-10         0.00000E+00
    0.12906E-07         0.45046E-10         0.00000E+00
    0.12906E-07         0.41614E-10         0.00000E+00
    0.12906E-07         0.37997E-10         0.00000E+00
    0.12906E-07         0.34195E-10         0.00000E+00
    0.12907E-07         0.30211E-10         0.00000E+00
    0.12907E-07         0.26047E-10         0.00000E+00
    0.12907E-07         0.21705E-10         0.00000E+00
    0.12907E-07         0.17186E-10         0.00000E+00
    0.12907E-07         0.12493E-10         0.00000E+00
    0.12907E-07         0.76270E-11         0.00000E+00
    0.12907E-07         0.25895E-11         0.00000E+00
    0.13520E-07         0.31738E-11         0.00000E+00
    0.13520E-07         0.93023E-11         0.00000E+00
    0.13520E-07         0.15106E-10         0.00000E+00
    0.13520E-07         0.20591E-10         0.00000E+00
    0.13520E-07         0.25762E-10         0.00000E+00
    0.13520E-07         0.30624E-10         0.00000E+00
    0.13521E-07         0.35182E-10         0.00000E+00
    0.13521E-07         0.39440E-10         0.00000E+00
    0.13521E-07         0.43405E-10         0.00000E+00
    0.13521E-07         0.47081E-10         0.00000E+00
    0.13521E-07         0.50472E-10         0.00000E+00
    0.13522E-07         0.53583E-10         0.00000E+00
    0.13522E-07         0.56418E-10         0.00000E+00
    0.13522E-07         0.58983E-10         0.00000E+00
    0.13522E-07         0.61282E-10         0.00000E+00
    0.13523E-07         0.63318E-10         0.00000E+00
    0.13523E-07         0.65097E-10         0.00000E+00
    0.13524E-07         0.66622E-10         0.00000E+00
    0.13524E-07         0.67898E-10         0.00000E+00
    0.13524E-07         0.68928E-10         0.00000E+00
    0.13525E-07         0.69717E-10         0.00000E+00
    0.13525E-07         0.70268E-10         0.00000E+00
    0.13526E-07         0.70585E-10         0.00000E+00
    0.13526E-07         0.70673E-10         0.00000E+00
    0.13526E-07         0.70534E-10         0.00000E+00
    0.13527E-07         0.70172E-10         0.00000E+00
    0.13527E-07         0.69591E-10         0.00000E+00
    0.13528E-07         0.68793E-10         0.00000E+00
    0.13528E-07         0.67783E-10         0.00000E+00
    0.13529E-07         0.66564E-10         0.00000E+00
    0.13529E-07         0.65138E-10         0.00000E+00
    0.13530E-07         0.63510E-10         0.00000E+00
    0.13530E-07         0.61681E-10         0.00000E+00
    0.13531E-07         0.59655E-10         0.00000E+00
    0.13531E-07         0.57434E-10         0.00000E+00
    0.13531E-07         0.55022E-10         0.00000E+00
    0.13532E-07         0.52421E-10         0.00000E+00
    0.13532E-07         0.49633E-10         0.00000E+00
    0.13533E-07         0.46662E-10         0.00000E+00
    0.13533E-07         0.43509E-10         0.00000E+00
    0.13533E-07         0.40177E-10         0.00000E+00
    0.13534E-07         0.36669E-10         0.00000E+00
    0.13534E-07         0.32986E-10         0.00000E+00
    0.13534E-07         0.29131E-10         0.00000E+00
    0.13534E-07         0.25105E-10         0.00000E+00
    0.13534E-07         0.20912E-10         0.00000E+00
    0.13535E-07         0.16551E-10         0.00000E+00
    0.13535E-07         0.12027E-10         0.00000E+00
    0.13535E-07         0.73393E-11         0.00000E+00
    0.13535E-07         0.24908E-11         0.00000E+00
    0.14174E-07         0.31039E-11         0.00000E+00
    0.14174E-07         0.90926E-11         0.00000E+00
    0.14174E-07         0.14757E-10         0.00000E+00
    0.14174E-07         0.20102E-10         0.00000E+00
    0.14174E-07         0.25134E-10         0.00000E+00
    0.14174E-07         0.29859E-10         0.00000E+00
    0.14175E-07         0.34282E-10         0.00000E+00
    0.14175E-07         0.38408E-10         0.00000E+00
    0.14175E-07         0.42243E-10         0.00000E+00
    0.14175E-07         0.45792E-10         0.00000E+00
    0.14176E-07         0.49060E-10         0.00000E+00
    0.14176E-07         0.52052E-10         0.00000E+00
    0.14176E-07         0.54774E-10         0.00000E+00
    0.14177E-07         0.57229E-10         0.00000E+00
    0.14177E-07         0.59423E-10         0.00000E+00
    0.14178E-07         0.61361E-10         0.00000E+00
    0.14178E-07         0.63047E-10         0.00000E+00
    0.14179E-07         0.64486E-10         0.00000E+00
    0.14179E-07         0.65682E-10         0.00000E+00
    0.14180E-07         0.66639E-10         0.00000E+00
    0.14180E-07         0.67362E-10         0.00000E+00
    0.14181E-07         0.67855E-10         0.00000E+00
    0.14181E-07         0.68122E-10         0.00000E+00
    0.14182E-07         0.68167E-10         0.00000E+00
    0.14182E-07         0.67994E-10         0.00000E+00
    0.14183E-07         0.67607E-10         0.00000E+00
    0.14183E-07         0.67009E-10         0.00000E+00
    0.14184E-07         0.66204E-10         0.00000E+00
    0.14185E-07         0.65195E-10         0.00000E+00
    0.14185E-07         0.63987E-10         0.00000E+00
    0.14186E-07         0.62582E-10         0.00000E+00
    0.14186E-07         0.60984E-10         0.00000E+00
    0.14187E-07         0.59196E-10         0.00000E+00
    0.14187E-07         0.57221E-10         0.00000E+00
    0.14188E-07         0.55061E-10         0.00000E+00
    0.14188E-07         0.52721E-10         0.00000E+00
    0.14189E-07         0.50202E-10         0.00000E+00
    0.14189E-07         0.47508E-10         0.00000E+00
    0.14190E-07         0.44641E-10         0.00000E+00
    0.14190E-07         0.41603E-10         0.00000E+00
    0.14191E-07         0.38398E-10         0.00000E+00
    0.14191E-07         0.35028E-10         0.00000E+00
    0.14191E-07         0.31494E-10         0.00000E+00
    0.14192E-07         0.27800E-10         0.00000E+00
    0.14192E-07         0.23947E-10         0.00000E+00
    0.14192E-07         0.19937E-10         0.00000E+00
    0.14192E-07         0.15773E-10         0.00000E+00
    0.14193E-07         0.11455E-10         0.00000E+00
    0.14193E-07         0.69874E-11         0.00000E+00
    0.14193E-07         0.23702E-11         0.00000E+00
    0.14859E-07         0.30099E-11         0.00000E+00
    0.14859E-07         0.88116E-11         0.00000E+00
    0.14859E-07         0.14291E-10         0.00000E+00
    0.14859E-07         0.19453E-10         0.00000E+00
    0.14859E-07         0.24306E-10         0.00000E+00
    0.14859E-07         0.28854E-10         0.00000E+00
    0.14860E-07         0.33104E-10         0.00000E+00
    0.14860E-07         0.37062E-10         0.00000E+00
    0.14860E-07         0.40733E-10         0.00000E+00
    0.14861E-07         0.44124E-10         0.00000E+00
    0.14861E-07         0.47239E-10         0.00000E+00
    0.14862E-07         0.50085E-10         0.00000E+00
    0.14862E-07         0.52666E-10         0.00000E+00
    0.14862E-07         0.54988E-10         0.00000E+00
    0.14863E-07         0.57057E-10         0.00000E+00
    0.14864E-07         0.58876E-10         0.00000E+00
    0.14864E-07         0.60452E-10         0.00000E+00
    0.14865E-07         0.61788E-10         0.00000E+00
    0.14865E-07         0.62890E-10         0.00000E+00
    0.14866E-07         0.63763E-10         0.00000E+00
    0.14867E-07         0.64411E-10         0.00000E+00
    0.14867E-07         0.64838E-10         0.00000E+00
    0.14868E-07         0.65049E-10         0.00000E+00
    0.14869E-07         0.65048E-10         0.00000E+00
    0.14869E-07         0.64839E-10         0.00000E+00
    0.14870E-07         0.64427E-10         0.00000E+00
    0.14871E-07         0.63814E-10         0.00000E+00
    0.14871E-07         0.63006E-10         0.00000E+00
    0.14872E-07         0.62006E-10         0.00000E+00
    0.14873E-07         0.60817E-10         0.00000E+00
    0.14873E-07         0.59443E-10         0.00000E+00
    0.14874E-07         0.57888E-10         0.00000E+00
    0.14875E-07         0.56154E-10         0.00000E+00
    0.14875E-07         0.54246E-10         0.00000E+00
    0.14876E-07         0.52166E-10         0.00000E+00
    0.14877E-07         0.49917E-10         0.00000E+00
    0.14877E-07         0.47503E-10         0.00000E+00
    0.14878E-07         0.44926E-10         0.00000E+00
    0.14878E-07         0.42189E-10         0.00000E+00
    0.14879E-07         0.39295E-10         0.00000E+00
    0.14879E-07         0.36246E-10         0.00000E+00
    0.14880E-07         0.33045E-10         0.00000E+00
    0.14880E-07         0.29694E-10         0.00000E+00
    0.14881E-07         0.26195E-10         0.00000E+00
    0.14881E-07         0.22551E-10         0.00000E+00
    0.14881E-07         0.18765E-10         0.00000E+00
    0.14882E-07         0.14837E-10         0.00000E+00
    0.14882E-07         0.10770E-10         0.00000E+00
    0.14882E-07         0.65655E-11         0.00000E+00
    0.14882E-07         0.22257E-11         0.00000E+00
    0.15576E-07         0.28892E-11         0.00000E+00
    0.15576E-07         0.84516E-11         0.00000E+00
    0.15576E-07         0.13695E-10         0.00000E+00
    0.15576E-07         0.18627E-10         0.00000E+00
    0.15576E-07         0.23254E-10         0.00000E+00
    0.15577E-07         0.27582E-10         0.00000E+00
    0.15577E-07         0.31618E-10         0.00000E+00
    0.15577E-07         0.35369E-10         0.00000E+00
    0.15578E-07         0.38840E-10         0.00000E+00
    0.15578E-07         0.42037E-10         0.00000E+00
    0.15579E-07         0.44968E-10         0.00000E+00
    0.15579E-07         0.47636E-10         0.00000E+00
    0.15580E-07         0.50050E-10         0.00000E+00
    0.15580E-07         0.52213E-10         0.00000E+00
    0.15581E-07         0.54131E-10         0.00000E+00
    0.15582E-07         0.55811E-10         0.00000E+00
    0.15582E-07         0.57257E-10         0.00000E+00
    0.15583E-07         0.58474E-10         0.00000E+00
    0.15584E-07         0.59468E-10         0.00000E+00
    0.15585E-07         0.60244E-10         0.00000E+00
    0.15585E-07         0.60806E-10         0.00000E+00
    0.15586E-07         0.61159E-10         0.00000E+00
    0.15587E-07         0.61308E-10         0.00000E+00
    0.15588E-07         0.61257E-10         0.00000E+00
    0.15589E-07         0.61011E-10         0.00000E+00
    0.15589E-07         0.60574E-10         0.00000E+00
    0.15590E-07         0.59950E-10         0.00000E+00
    0.15591E-07         0.59144E-10         0.00000E+00
    0.15592E-07         0.58158E-10         0.00000E+00
    0.15593E-07         0.56998E-10         0.00000E+00
    0.15594E-07         0.55667E-10         0.00000E+00
    0.15594E-07         0.54168E-10         0.00000E+00
    0.15595E-07         0.52505E-10         0.00000E+00
    0.15596E-07         0.50682E-10         0.00000E+00
    0.15597E-07         0.48701E-10         0.00000E+00
    0.15597E-07         0.46566E-10         0.00000E+00
    0.15598E-07         0.44281E-10         0.00000E+00
    0.15599E-07         0.41847E-10         0.00000E+00
    0.15600E-07         0.39268E-10         0.00000E+00
    0.15600E-07         0.36547E-10         0.00000E+00
    0.15601E-07         0.33687E-10         0.00000E+00
    0.15601E-07         0.30689E-10         0.00000E+00
    0.15602E-07         0.27557E-10         0.00000E+00
    0.15602E-07         0.24293E-10         0.00000E+00
    0.15603E-07         0.20899E-10         0.00000E+00
    0.15603E-07         0.17378E-10         0.00000E+00
    0.15603E-07         0.13731E-10         0.00000E+00
    0.15603E-07         0.99600E-11         0.00000E+00
    0.15604E-07         0.60676E-11         0.00000E+00
    0.15604E-07         0.20554E-11         0.00000E+00
    0.16326E-07         0.27388E-11         0.00000E+00
    0.16326E-07         0.80045E-11         0.00000E+00
    0.16327E-07         0.12958E-10         0.00000E+00
    0.16327E-07         0.17607E-10         0.00000E+00
    0.16327E-07         0.21958E-10         0.00000E+00
    0.16327E-07         0.26018E-10         0.00000E+00
    0.16328E-07         0.29795E-10         0.00000E+00
    0.16328E-07         0.33295E-10         0.00000E+00
    0.16329E-07         0.36525E-10         0.00000E+00
    0.16329E-07         0.39492E-10         0.00000E+00
    0.16330E-07         0.42201E-10         0.00000E+00
    0.16330E-07         0.44660E-10         0.00000E+00
    0.16331E-07         0.46875E-10         0.00000E+00
    0.16332E-07         0.48851E-10         0.00000E+00
    0.16332E-07         0.50594E-10         0.00000E+00
    0.16333E-07         0.52111E-10         0.00000E+00
    0.16334E-07         0.53406E-10         0.00000E+00
    0.16335E-07         0.54486E-10         0.00000E+00
    0.16336E-07         0.55356E-10         0.00000E+00
    0.16337E-07         0.56021E-10         0.00000E+00
    0.16338E-07         0.56487E-10         0.00000E+00
    0.16339E-07         0.56757E-10         0.00000E+00
    0.16340E-07         0.56838E-10         0.00000E+00
    0.16341E-07         0.56734E-10         0.00000E+00
    0.16342E-07         0.56449E-10         0.00000E+00
    0.16343E-07         0.55989E-10         0.00000E+00
    0.16344E-07         0.55357E-10         0.00000E+00
    0.16344E-07         0.54558E-10         0.00000E+00
    0.16345E-07         0.53596E-10         0.00000E+00
    0.16346E-07         0.52475E-10         0.00000E+00
    0.16347E-07         0.51199E-10         0.00000E+00
    0.16348E-07         0.49771E-10         0.00000E+00
    0.16349E-07         0.48196E-10         0.00000E+00
    0.16350E-07         0.46478E-10         0.00000E+00
    0.16351E-07         0.44618E-10         0.00000E+00
    0.16352E-07         0.42621E-10         0.00000E+00
    0.16353E-07         0.40490E-10         0.00000E+00
    0.16354E-07         0.38229E-10         0.00000E+00
    0.16354E-07         0.35839E-10         0.00000E+00
    0.16355E-07         0.33325E-10         0.00000E+00
    0.16356E-07         0.30688E-10         0.00000E+00
    0.16356E-07         0.27931E-10         0.00000E+00
    0.16357E-07         0.25058E-10         0.00000E+00
    0.16357E-07         0.22070E-10         0.00000E+00
    0.16358E-07         0.18969E-10         0.00000E+00
    0.16358E-07         0.15759E-10         0.00000E+00
    0.16359E-07         0.12440E-10         0.00000E+00
    0.16359E-07         0.90160E-11         0.00000E+00
    0.16359E-07         0.54877E-11         0.00000E+00
    0.16359E-07         0.18572E-11         0.00000E+00
    0.17111E-07         0.25560E-11         0.00000E+00
    0.17112E-07         0.74618E-11         0.00000E+00
    0.17112E-07         0.12065E-10         0.00000E+00
    0.17112E-07         0.16372E-10         0.00000E+00
    0.17112E-07         0.20392E-10         0.00000E+00
    0.17113E-07         0.24133E-10         0.00000E+00
    0.17113E-07         0.27601E-10         0.00000E+00
    0.17114E-07         0.30804E-10         0.00000E+00
    0.17114E-07         0.33749E-10         0.00000E+00
    0.17115E-07         0.36444E-10         0.00000E+00
    0.17115E-07         0.38894E-10         0.00000E+00
    0.17116E-07         0.41108E-10         0.00000E+00
    0.17117E-07         0.43091E-10         0.00000E+00
    0.17118E-07         0.44849E-10         0.00000E+00
    0.17119E-07         0.46390E-10         0.00000E+00
    0.17120E-07         0.47719E-10         0.00000E+00
    0.17121E-07         0.48842E-10         0.00000E+00
    0.17122E-07         0.49765E-10         0.00000E+00
    0.17123E-07         0.50494E-10         0.00000E+00
    0.17124E-07         0.51035E-10         0.00000E+00
    0.17125E-07         0.51392E-10         0.00000E+00
    0.17126E-07         0.51571E-10         0.00000E+00
    0.17127E-07         0.51577E-10         0.00000E+00
    0.17128E-07         0.51416E-10         0.00000E+00
    0.17129E-07         0.51092E-10         0.00000E+00
    0.17131E-07         0.50610E-10         0.00000E+00
    0.17132E-07         0.49974E-10         0.00000E+00
    0.17133E-07         0.49189E-10         0.00000E+00
    0.17134E-07         0.48259E-10         0.00000E+00
    0.17135E-07         0.47189E-10         0.00000E+00
    0.17136E-07         0.45982E-10         0.00000E+00
    0.17137E-07         0.44643E-10         0.00000E+00
    0.17138E-07         0.43175E-10         0.00000E+00
    0.17140E-07         0.41582E-10         0.00000E+00
    0.17141E-07         0.39867E-10         0.00000E+00
    0.17142E-07         0.38035E-10         0.00000E+00
    0.17143E-07         0.36088E-10         0.00000E+00
    0.17143E-07         0.34029E-10         0.00000E+00
    0.17144E-07         0.31862E-10         0.00000E+00
    0.17145E-07         0.29590E-10         0.00000E+00
    0.17146E-07         0.27214E-10         0.00000E+00
    0.17147E-07         0.24739E-10         0.00000E+00
    0.17147E-07         0.22167E-10         0.00000E+00
    0.17148E-07         0.19500E-10         0.00000E+00
    0.17148E-07         0.16740E-10         0.00000E+00
    0.17149E-07         0.13890E-10         0.00000E+00
    0.17149E-07         0.10952E-10         0.00000E+00
    0.17149E-07         0.79279E-11         0.00000E+00
    0.17150E-07         0.48196E-11         0.00000E+00
    0.17150E-07         0.16290E-11         0.00000E+00
    0.17933E-07         0.23376E-11         0.00000E+00
    0.17933E-07         0.68145E-11         0.00000E+00
    0.17933E-07         0.11001E-10         0.00000E+00
    0.17933E-07         0.14904E-10         0.00000E+00
    0.17933E-07         0.18534E-10         0.00000E+00
    0.17934E-07         0.21898E-10         0.00000E+00
    0.17934E-07         0.25003E-10         0.00000E+00
    0.17935E-07         0.27859E-10         0.00000E+00
    0.17936E-07         0.30472E-10         0.00000E+00
    0.17936E-07         0.32850E-10         0.00000E+00
    0.17937E-07         0.35000E-10         0.00000E+00
    0.17938E-07         0.36929E-10         0.00000E+00
    0.17939E-07         0.38645E-10         0.00000E+00
    0.17940E-07         0.40154E-10         0.00000E+00
    0.17941E-07         0.41462E-10         0.00000E+00
    0.17942E-07         0.42577E-10         0.00000E+00
    0.17943E-07         0.43504E-10         0.00000E+00
    0.17944E-07         0.44250E-10         0.00000E+00
    0.17946E-07         0.44820E-10         0.00000E+00
    0.17947E-07         0.45221E-10         0.00000E+00
    0.17948E-07         0.45458E-10         0.00000E+00
    0.17949E-07         0.45536E-10         0.00000E+00
    0.17951E-07         0.45462E-10         0.00000E+00
    0.17952E-07         0.45240E-10         0.00000E+00
    0.17953E-07         0.44876E-10         0.00000E+00
    0.17955E-07         0.44373E-10         0.00000E+00
    0.17956E-07         0.43738E-10         0.00000E+00
    0.17957E-07         0.42975E-10         0.00000E+00
    0.17959E-07         0.42087E-10         0.00000E+00
    0.17960E-07         0.41081E-10         0.00000E+00
    0.17961E-07         0.39959E-10         0.00000E+00
    0.17963E-07         0.38726E-10         0.00000E+00
    0.17964E-07         0.37386E-10         0.00000E+00
    0.17965E-07         0.35942E-10         0.00000E+00
    0.17966E-07         0.34399E-10         0.00000E+00
    0.17967E-07         0.32759E-10         0.00000E+00
    0.17969E-07         0.31027E-10         0.00000E+00
    0.17970E-07         0.29205E-10         0.00000E+00
    0.17971E-07         0.27296E-10         0.00000E+00
    0.17972E-07         0.25305E-10         0.00000E+00
    0.17972E-07         0.23232E-10         0.00000E+00
    0.17973E-07         0.21082E-10         0.00000E+00
    0.17974E-07         0.18857E-10         0.00000E+00
    0.17975E-07         0.16559E-10         0.00000E+00
    0.17975E-07         0.14190E-10         0.00000E+00
    0.17976E-07         0.11754E-10         0.00000E+00
    0.17976E-07         0.92515E-11         0.00000E+00
    0.17976E-07         0.66853E-11         0.00000E+00
    0.17977E-07         0.40571E-11         0.00000E+00
    0.17977E-07         0.13687E-11         0.00000E+00
    0.18791E-07         0.20805E-11         0.00000E+00
    0.18791E-07         0.60535E-11         0.00000E+00
    0.18791E-07         0.97513E-11         0.00000E+00
    0.18792E-07         0.13183E-10         0.00000E+00
    0.18792E-07         0.16357E-10         0.00000E+00
    0.18792E-07         0.19283E-10         0.00000E+00
    0.18793E-07         0.21968E-10         0.00000E+00
    0.18794E-07         0.24422E-10         0.00000E+00
    0.18795E-07         0.26651E-10         0.00000E+00
    0.18795E-07         0.28665E-10         0.00000E+00
    0.18796E-07         0.30470E-10         0.00000E+00
    0.18797E-07         0.32074E-10         0.00000E+00
    0.18798E-07         0.33485E-10         0.00000E+00
    0.18800E-07         0.34709E-10         0.00000E+00
    0.18801E-07         0.35754E-10         0.00000E+00
    0.18802E-07         0.36626E-10         0.00000E+00
    0.18803E-07         0.37332E-10         0.00000E+00
    0.18805E-07         0.37878E-10         0.00000E+00
    0.18806E-07         0.38271E-10         0.00000E+00
    0.18807E-07         0.38517E-10         0.00000E+00
    0.18809E-07         0.38621E-10         0.00000E+00
    0.18810E-07         0.38589E-10         0.00000E+00
    0.18812E-07         0.38428E-10         0.00000E+00
    0.18813E-07         0.38142E-10         0.00000E+00
    0.18815E-07         0.37737E-10         0.00000E+00
    0.18816E-07         0.37217E-10         0.00000E+00
    0.18818E-07         0.36588E-10         0.00000E+00
    0.18819E-07         0.35855E-10         0.00000E+00
    0.18821E-07         0.35021E-10         0.00000E+00
    0.18822E-07         0.34092E-10         0.00000E+00
    0.18824E-07         0.33072E-10         0.00000E+00
    0.18825E-07         0.31965E-10         0.00000E+00
    0.18827E-07         0.30776E-10         0.00000E+00
    0.18828E-07         0.29507E-10         0.00000E+00
    0.18830E-07         0.28163E-10         0.00000E+00
    0.18831E-07         0.26747E-10         0.00000E+00
    0.18832E-07         0.25262E-10         0.00000E+00
    0.18833E-07         0.23713E-10         0.00000E+00
    0.18834E-07         0.22102E-10         0.00000E+00
    0.18836E-07         0.20433E-10         0.00000E+00
    0.18837E-07         0.18707E-10         0.00000E+00
    0.18837E-07         0.16928E-10         0.00000E+00
    0.18838E-07         0.15099E-10         0.00000E+00
    0.18839E-07         0.13222E-10         0.00000E+00
    0.18840E-07         0.11299E-10         0.00000E+00
    0.18840E-07         0.93326E-11         0.00000E+00
    0.18841E-07         0.73251E-11         0.00000E+00
    0.18841E-07         0.52783E-11         0.00000E+00
    0.18841E-07         0.31941E-11         0.00000E+00
    0.18841E-07         0.10742E-11         0.00000E+00
    0.19688E-07         0.17816E-11         0.00000E+00
    0.19688E-07         0.51694E-11         0.00000E+00
    0.19688E-07         0.83016E-11         0.00000E+00
    0.19688E-07         0.11188E-10         0.00000E+00
    0.19689E-07         0.13837E-10         0.00000E+00
    0.19690E-07         0.16259E-10         0.00000E+00
    0.19690E-07         0.18462E-10         0.00000E+00
    0.19691E-07         0.20454E-10         0.00000E+00
    0.19692E-07         0.22246E-10         0.00000E+00
    0.19693E-07         0.23843E-10         0.00000E+00
    0.19694E-07         0.25256E-10         0.00000E+00
    0.19695E-07         0.26491E-10         0.00000E+00
    0.19696E-07         0.27556E-10         0.00000E+00
    0.19698E-07         0.28459E-10         0.00000E+00
    0.19699E-07         0.29206E-10         0.00000E+00
    0.19700E-07         0.29806E-10         0.00000E+00
    0.19702E-07         0.30264E-10         0.00000E+00
    0.19703E-07         0.30588E-10         0.00000E+00
    0.19705E-07         0.30784E-10         0.00000E+00
    0.19707E-07         0.30859E-10         0.00000E+00
    0.19708E-07         0.30817E-10         0.00000E+00
    0.19710E-07         0.30666E-10         0.00000E+00
    0.19712E-07         0.30411E-10         0.00000E+00
    0.19713E-07         0.30058E-10         0.00000E+00
    0.19715E-07         0.29612E-10         0.00000E+00
    0.19717E-07         0.29078E-10         0.00000E+00
    0.19719E-07         0.28462E-10         0.00000E+00
    0.19720E-07         0.27768E-10         0.00000E+00
    0.19722E-07         0.27001E-10         0.00000E+00
    0.19724E-07         0.26165E-10         0.00000E+00
    0.19725E-07         0.25266E-10         0.00000E+00
    0.19727E-07         0.24306E-10         0.00000E+00
    0.19729E-07         0.23291E-10         0.00000E+00
    0.19730E-07         0.22224E-10         0.00000E+00
    0.19732E-07         0.21110E-10         0.00000E+00
    0.19733E-07         0.19950E-10         0.00000E+00
    0.19735E-07         0.18750E-10         0.00000E+00
    0.19736E-07         0.17513E-10         0.00000E+00
    0.19737E-07         0.16241E-10         0.00000E+00
    0.19738E-07         0.14937E-10         0.00000E+00
    0.19740E-07         0.13605E-10         0.00000E+00
    0.19741E-07         0.12247E-10         0.00000E+00
    0.19742E-07         0.10867E-10         0.00000E+00
    0.19742E-07         0.94651E-11         0.00000E+00
    0.19743E-07         0.80453E-11         0.00000E+00
    0.19744E-07         0.66094E-11         0.00000E+00
    0.19744E-07         0.51593E-11         0.00000E+00
    0.19745E-07         0.36972E-11         0.00000E+00
    0.19745E-07         0.22247E-11         0.00000E+00
    0.19745E-07         0.74358E-12         0.00000E+00
    0.20624E-07         0.14375E-11         0.00000E+00
    0.20625E-07         0.41529E-11         0.00000E+00
    0.20625E-07         0.66364E-11         0.00000E+00
    0.20625E-07         0.88980E-11         0.00000E+00
    0.20626E-07         0.10948E-10         0.00000E+00
    0.20626E-07         0.12795E-10         0.00000E+00
    0.20627E-07         0.14448E-10         0.00000E+00
    0.20628E-07         0.15918E-10         0.00000E+00
    0.20629E-07         0.17212E-10         0.00000E+00
    0.20630E-07         0.18340E-10         0.00000E+00
    0.20632E-07         0.19309E-10         0.00000E+00
    0.20633E-07         0.20129E-10         0.00000E+00
    0.20634E-07         0.20806E-10         0.00000E+00
    0.20636E-07         0.21348E-10         0.00000E+00
    0.20637E-07         0.21764E-10         0.00000E+00
    0.20639E-07         0.22060E-10         0.00000E+00
    0.20641E-07         0.22243E-10         0.00000E+00
    0.20642E-07         0.22320E-10         0.00000E+00
    0.20644E-07         0.22299E-10         0.00000E+00
    0.20646E-07         0.22185E-10         0.00000E+00
    0.20648E-07         0.21985E-10         0.00000E+00
    0.20650E-07         0.21704E-10         0.00000E+00
    0.20652E-07         0.21350E-10         0.00000E+00
    0.20653E-07         0.20926E-10         0.00000E+00
    0.20655E-07         0.20440E-10         0.00000E+00
    0.20657E-07         0.19896E-10         0.00000E+00
    0.20659E-07         0.19299E-10         0.00000E+00
    0.20661E-07         0.18655E-10         0.00000E+00
    0.20663E-07         0.17968E-10         0.00000E+00
    0.20665E-07         0.17243E-10         0.00000E+00
    0.20667E-07         0.16484E-10         0.00000E+00
    0.20669E-07         0.15695E-10         0.00000E+00
    0.20671E-07         0.14881E-10         0.00000E+00
    0.20672E-07         0.14046E-10         0.00000E+00
    0.20674E-07         0.13193E-10         0.00000E+00
    0.20676E-07         0.12326E-10         0.00000E+00
    0.20677E-07         0.11448E-10         0.00000E+00
    0.20679E-07         0.10563E-10         0.00000E+00
    0.20680E-07         0.96737E-11         0.00000E+00
    0.20681E-07         0.87835E-11         0.00000E+00
    0.20683E-07         0.78950E-11         0.00000E+00
    0.20684E-07         0.70109E-11         0.00000E+00
    0.20685E-07         0.61338E-11         0.00000E+00
    0.20686E-07         0.52661E-11         0.00000E+00
    0.20687E-07         0.44101E-11         0.00000E+00
    0.20687E-07         0.35679E-11         0.00000E+00
    0.20688E-07         0.27415E-11         0.00000E+00
    0.20688E-07         0.19327E-11         0.00000E+00
    0.20689E-07         0.11433E-11         0.00000E+00
    0.20689E-07         0.37491E-12         0.00000E+00
    0.21602E-07         0.10452E-11         0.00000E+00
    0.21602E-07         0.29947E-11         0.00000E+00
    0.21603E-07         0.47406E-11         0.00000E+00
    0.21603E-07         0.62936E-11         0.00000E+00
    0.21604E-07         0.76638E-11         0.00000E+00
    0.21604E-07         0.88611E-11         0.00000E+00
    0.21605E-07         0.98952E-11         0.00000E+00
    0.21606E-07         0.10775E-10         0.00000E+00
    0.21607E-07         0.11511E-10         0.00000E+00
    0.21609E-07         0.12111E-10         0.00000E+00
    0.21610E-07         0.12584E-10         0.00000E+00
    0.21612E-07         0.12938E-10         0.00000E+00
    0.21613E-07         0.13182E-10         0.00000E+00
    0.21615E-07         0.13324E-10         0.00000E+00
    0.21617E-07         0.13370E-10         0.00000E+00
    0.21618E-07         0.13330E-10         0.00000E+00
    0.21620E-07         0.13209E-10         0.00000E+00
    0.21622E-07         0.13015E-10         0.00000E+00
    0.21624E-07         0.12755E-10         0.00000E+00
    0.21626E-07         0.12436E-10         0.00000E+00
    0.21628E-07         0.12063E-10         0.00000E+00
    0.21630E-07         0.11644E-10         0.00000E+00
    0.21633E-07         0.11183E-10         0.00000E+00
    0.21635E-07         0.10687E-10         0.00000E+00
    0.21637E-07         0.10162E-10         0.00000E+00
    0.21639E-07         0.96124E-11         0.00000E+00
    0.21641E-07         0.90436E-11         0.00000E+00
    0.21643E-07         0.84607E-11         0.00000E+00
    0.21646E-07         0.78686E-11         0.00000E+00
    0.21648E-07         0.72718E-11         0.00000E+00
    0.21650E-07         0.66747E-11         0.00000E+00
    0.21652E-07         0.60818E-11         0.00000E+00
    0.21654E-07         0.54970E-11         0.00000E+00
    0.21656E-07         0.49242E-11         0.00000E+00
    0.21658E-07         0.43673E-11         0.00000E+00
    0.21659E-07         0.38297E-11         0.00000E+00
    0.21661E-07         0.33150E-11         0.00000E+00
    0.21663E-07         0.28263E-11         0.00000E+00
    0.21664E-07         0.23667E-11         0.00000E+00
    0.21666E-07         0.19392E-11         0.00000E+00
    0.21667E-07         0.15466E-11         0.00000E+00
    0.21669E-07         0.11915E-11         0.00000E+00
    0.21670E-07         0.87629E-12         0.00000E+00
    0.21671E-07         0.60341E-12         0.00000E+00
    0.21672E-07         0.37501E-12         0.00000E+00
    0.21672E-07         0.19311E-12         0.00000E+00
    0.21673E-07         0.59621E-13         0.00000E+00
    0.21674E-07        -0.23708E-13         0.00000E+00
    0.21674E-07        -0.55259E-13         0.00000E+00
    0.21674E-07        -0.33553E-13         0.00000E+00
    0.22622E-07         0.60150E-12         0.00000E+00
    0.22622E-07         0.16857E-11         0.00000E+00
    0.22623E-07         0.25999E-11         0.00000E+00
    0.22623E-07         0.33550E-11         0.00000E+00
    0.22624E-07         0.39614E-11         0.00000E+00
    0.22625E-07         0.44296E-11         0.00000E+00
    0.22626E-07         0.47694E-11         0.00000E+00
    0.22627E-07         0.49905E-11         0.00000E+00
    0.22628E-07         0.51024E-11         0.00000E+00
    0.22629E-07         0.51142E-11         0.00000E+00
    0.22631E-07         0.50348E-11         0.00000E+00
    0.22633E-07         0.48728E-11         0.00000E+00
    0.22634E-07         0.46366E-11         0.00000E+00
    0.22636E-07         0.43343E-11         0.00000E+00
    0.22638E-07         0.39737E-11         0.00000E+00
    0.22640E-07         0.35625E-11         0.00000E+00
    0.22642E-07         0.31081E-11         0.00000E+00
    0.22644E-07         0.26175E-11         0.00000E+00
    0.22647E-07         0.20977E-11         0.00000E+00
    0.22649E-07         0.15554E-11         0.00000E+00
    0.22651E-07         0.99697E-12         0.00000E+00
    0.22654E-07         0.42865E-12         0.00000E+00
    0.22656E-07        -0.14355E-12         0.00000E+00
    0.22658E-07        -0.71382E-12         0.00000E+00
    0.22661E-07        -0.12766E-11         0.00000E+00
    0.22663E-07        -0.18265E-11         0.00000E+00
    0.22666E-07        -0.23583E-11         0.00000E+00
    0.22668E-07        -0.28671E-11         0.00000E+00
    0.22670E-07        -0.33481E-11         0.00000E+00
    0.22673E-07        -0.37968E-11         0.00000E+00
    0.22675E-07        -0.42086E-11         0.00000E+00
    0.22677E-07        -0.45795E-11         0.00000E+00
    0.22679E-07        -0.49054E-11         0.00000E+00
    0.22682E-07        -0.51824E-11         0.00000E+00
    0.22684E-07        -0.54069E-11         0.00000E+00
    0.22686E-07        -0.55753E-11         0.00000E+00
    0.22688E-07        -0.56845E-11         0.00000E+00
    0.22690E-07        -0.57311E-11         0.00000E+00
    0.22691E-07        -0.57122E-11         0.00000E+00
    0.22693E-07        -0.56250E-11         0.00000E+00
    0.22694E-07        -0.54668E-11         0.00000E+00
    0.22696E-07        -0.52351E-11         0.00000E+00
    0.22697E-07        -0.49275E-11         0.00000E+00
    0.22698E-07        -0.45419E-11         0.00000E+00
    0.22699E-07        -0.40761E-11         0.00000E+00
    0.22700E-07        -0.35283E-11         0.00000E+00
    0.22701E-07        -0.28966E-11         0.00000E+00
    0.22701E-07        -0.21796E-11         0.00000E+00
    0.22702E-07        -0.13756E-11         0.00000E+00
    0.22702E-07        -0.48335E-12         0.00000E+00
    0.23685E-07         0.10347E-12         0.00000E+00
    0.23685E-07         0.21744E-12         0.00000E+00
    0.23686E-07         0.20043E-12         0.00000E+00
    0.23686E-07         0.63566E-13         0.00000E+00
    0.23687E-07        -0.18232E-12         0.00000E+00
    0.23688E-07        -0.52673E-12         0.00000E+00
    0.23689E-07        -0.95945E-12         0.00000E+00
    0.23691E-07        -0.14706E-11         0.00000E+00
    0.23692E-07        -0.20505E-11         0.00000E+00
    0.23694E-07        -0.26900E-11         0.00000E+00
    0.23695E-07        -0.33799E-11         0.00000E+00
    0.23697E-07        -0.41116E-11         0.00000E+00
    0.23699E-07        -0.48766E-11         0.00000E+00
    0.23701E-07        -0.56666E-11         0.00000E+00
    0.23703E-07        -0.64737E-11         0.00000E+00
    0.23706E-07        -0.72904E-11         0.00000E+00
    0.23708E-07        -0.81091E-11         0.00000E+00
    0.23710E-07        -0.89227E-11         0.00000E+00
    0.23713E-07        -0.97243E-11         0.00000E+00
    0.23715E-07        -0.10507E-10         0.00000E+00
    0.23718E-07        -0.11265E-10         0.00000E+00
    0.23720E-07        -0.11991E-10         0.00000E+00
    0.23723E-07        -0.12681E-10         0.00000E+00
    0.23726E-07        -0.13327E-10         0.00000E+00
    0.23728E-07        -0.13925E-10         0.00000E+00
    0.23731E-07        -0.14468E-10         0.00000E+00
    0.23734E-07        -0.14953E-10         0.00000E+00
    0.23736E-07        -0.15374E-10         0.00000E+00
    0.23739E-07        -0.15727E-10         0.00000E+00
    0.23741E-07        -0.16006E-10         0.00000E+00
    0.23744E-07        -0.16208E-10         0.00000E+00
    0.23746E-07        -0.16329E-10         0.00000E+00
    0.23749E-07        -0.16365E-10         0.00000E+00
    0.23751E-07        -0.16311E-10         0.00000E+00
    0.23754E-07        -0.16165E-10         0.00000E+00
    0.23756E-07        -0.15923E-10         0.00000E+00
    0.23758E-07        -0.15582E-10         0.00000E+00
    0.23760E-07        -0.15138E-10         0.00000E+00
    0.23762E-07        -0.14590E-10         0.00000E+00
    0.23764E-07        -0.13934E-10         0.00000E+00
    0.23765E-07        -0.13168E-10         0.00000E+00
    0.23767E-07        -0.12289E-10         0.00000E+00
    0.23768E-07        -0.11296E-10         0.00000E+00
    0.23769E-07        -0.10186E-10         0.00000E+00
    0.23771E-07        -0.89569E-11         0.00000E+00
    0.23771E-07        -0.76076E-11         0.00000E+00
    0.23772E-07        -0.61362E-11         0.00000E+00
    0.23773E-07        -0.45413E-11         0.00000E+00
    0.23773E-07        -0.28215E-11         0.00000E+00
    0.23773E-07        -0.97577E-12         0.00000E+00
    0.24793E-07        -0.45159E-12         0.00000E+00
    0.24793E-07        -0.14179E-11         0.00000E+00
    0.24794E-07        -0.24703E-11         0.00000E+00
    0.24794E-07        -0.35974E-11         0.00000E+00
    0.24795E-07        -0.47882E-11         0.00000E+00
    0.24796E-07        -0.60321E-11         0.00000E+00
    0.24798E-07        -0.73187E-11         0.00000E+00
    0.24799E-07        -0.86380E-11         0.00000E+00
    0.24801E-07        -0.99804E-11         0.00000E+00
    0.24802E-07        -0.11336E-10         0.00000E+00
    0.24804E-07        -0.12697E-10         0.00000E+00
    0.24806E-07        -0.14054E-10         0.00000E+00
    0.24808E-07        -0.15397E-10         0.00000E+00
    0.24811E-07        -0.16720E-10         0.00000E+00
    0.24813E-07        -0.18014E-10         0.00000E+00
    0.24815E-07        -0.19272E-10         0.00000E+00
    0.24818E-07        -0.20486E-10         0.00000E+00
    0.24821E-07        -0.21649E-10         0.00000E+00
    0.24823E-07        -0.22754E-10         0.00000E+00
    0.24826E-07        -0.23796E-10         0.00000E+00
    0.24829E-07        -0.24766E-10         0.00000E+00
    0.24832E-07        -0.25660E-10         0.00000E+00
    0.24835E-07        -0.26471E-10         0.00000E+00
    0.24837E-07        -0.27194E-10         0.00000E+00
    0.24840E-07        -0.27823E-10         0.00000E+00
    0.24843E-07        -0.28353E-10         0.00000E+00
    0.24846E-07        -0.28780E-10         0.00000E+00
    0.24849E-07        -0.29098E-10         0.00000E+00
    0.24852E-07        -0.29304E-10         0.00000E+00
    0.24855E-07        -0.29392E-10         0.00000E+00
    0.24857E-07        -0.29358E-10         0.00000E+00
    0.24860E-07        -0.29200E-10         0.00000E+00
    0.24863E-07        -0.28912E-10         0.00000E+00
    0.24865E-07        -0.28491E-10         0.00000E+00
    0.24868E-07        -0.27935E-10         0.00000E+00
    0.24870E-07        -0.27239E-10         0.00000E+00
    0.24873E-07        -0.26401E-10         0.00000E+00
    0.24875E-07        -0.25419E-10         0.00000E+00
    0.24877E-07        -0.24288E-10         0.00000E+00
    0.24879E-07        -0.23008E-10         0.00000E+00
    0.24881E-07        -0.21575E-10         0.00000E+00
    0.24882E-07        -0.19987E-10         0.00000E+00
    0.24884E-07        -0.18243E-10         0.00000E+00
    0.24885E-07        -0.16341E-10         0.00000E+00
    0.24886E-07        -0.14278E-10         0.00000E+00
    0.24887E-07        -0.12053E-10         0.00000E+00
    0.24888E-07        -0.96656E-11         0.00000E+00
    0.24889E-07        -0.71135E-11         0.00000E+00
    0.24889E-07        -0.43959E-11         0.00000E+00
    0.24890E-07        -0.15118E-11         0.00000E+00
    0.25946E-07        -0.10661E-11         0.00000E+00
    0.25946E-07        -0.32272E-11         0.00000E+00
    0.25947E-07        -0.54231E-11         0.00000E+00
    0.25948E-07        -0.76425E-11         0.00000E+00
    0.25949E-07        -0.98741E-11         0.00000E+00
    0.25950E-07        -0.12107E-10         0.00000E+00
    0.25951E-07        -0.14332E-10         0.00000E+00
    0.25953E-07        -0.16538E-10         0.00000E+00
    0.25954E-07        -0.18715E-10         0.00000E+00
    0.25956E-07        -0.20855E-10         0.00000E+00
    0.25958E-07        -0.22948E-10         0.00000E+00
    0.25961E-07        -0.24985E-10         0.00000E+00
    0.25963E-07        -0.26959E-10         0.00000E+00
    0.25965E-07        -0.28861E-10         0.00000E+00
    0.25968E-07        -0.30683E-10         0.00000E+00
    0.25971E-07        -0.32417E-10         0.00000E+00
    0.25974E-07        -0.34058E-10         0.00000E+00
    0.25976E-07        -0.35597E-10         0.00000E+00
    0.25979E-07        -0.37028E-10         0.00000E+00
    0.25982E-07        -0.38344E-10         0.00000E+00
    0.25985E-07        -0.39540E-10         0.00000E+00
    0.25989E-07        -0.40609E-10         0.00000E+00
    0.25992E-07        -0.41547E-10         0.00000E+00
    0.25995E-07        -0.42346E-10         0.00000E+00
    0.25998E-07        -0.43003E-10         0.00000E+00
    0.26001E-07        -0.43512E-10         0.00000E+00
    0.26004E-07        -0.43869E-10         0.00000E+00
    0.26007E-07        -0.44068E-10         0.00000E+00
    0.26011E-07        -0.44107E-10         0.00000E+00
    0.26014E-07        -0.43980E-10         0.00000E+00
    0.26017E-07        -0.43684E-10         0.00000E+00
    0.26020E-07        -0.43215E-10         0.00000E+00
    0.26022E-07        -0.42569E-10         0.00000E+00
    0.26025E-07        -0.41744E-10         0.00000E+00
    0.26028E-07        -0.40737E-10         0.00000E+00
    0.26031E-07        -0.39543E-10         0.00000E+00
    0.26033E-07        -0.38161E-10         0.00000E+00
    0.26035E-07        -0.36588E-10         0.00000E+00
    0.26038E-07        -0.34821E-10         0.00000E+00
    0.26040E-07        -0.32859E-10         0.00000E+00
    0.26042E-07        -0.30699E-10         0.00000E+00
    0.26044E-07        -0.28340E-10         0.00000E+00
    0.26045E-07        -0.25778E-10         0.00000E+00
    0.26047E-07        -0.23014E-10         0.00000E+00
    0.26048E-07        -0.20045E-10         0.00000E+00
    0.26049E-07        -0.16871E-10         0.00000E+00
    0.26050E-07        -0.13489E-10         0.00000E+00
    0.26051E-07        -0.98992E-11         0.00000E+00
    0.26051E-07        -0.61004E-11         0.00000E+00
    0.26051E-07        -0.20919E-11         0.00000E+00
    0.27146E-07        -0.17419E-11         0.00000E+00
    0.27146E-07        -0.52161E-11         0.00000E+00
    0.27146E-07        -0.86671E-11         0.00000E+00
    0.27147E-07        -0.12084E-10         0.00000E+00
    0.27148E-07        -0.15454E-10         0.00000E+00
    0.27150E-07        -0.18769E-10         0.00000E+00
    0.27151E-07        -0.22018E-10         0.00000E+00
    0.27153E-07        -0.25190E-10         0.00000E+00
    0.27155E-07        -0.28276E-10         0.00000E+00
    0.27157E-07        -0.31268E-10         0.00000E+00
    0.27159E-07        -0.34155E-10         0.00000E+00
    0.27161E-07        -0.36931E-10         0.00000E+00
    0.27164E-07        -0.39586E-10         0.00000E+00
    0.27167E-07        -0.42113E-10         0.00000E+00
    0.27169E-07        -0.44504E-10         0.00000E+00
    0.27172E-07        -0.46751E-10         0.00000E+00
    0.27175E-07        -0.48849E-10         0.00000E+00
    0.27179E-07        -0.50790E-10         0.00000E+00
    0.27182E-07        -0.52568E-10         0.00000E+00
    0.27185E-07        -0.54177E-10         0.00000E+00
    0.27188E-07        -0.55610E-10         0.00000E+00
    0.27192E-07        -0.56863E-10         0.00000E+00
    0.27195E-07        -0.57930E-10         0.00000E+00
    0.27198E-07        -0.58805E-10         0.00000E+00
    0.27202E-07        -0.59484E-10         0.00000E+00
    0.27205E-07        -0.59963E-10         0.00000E+00
    0.27209E-07        -0.60236E-10         0.00000E+00
    0.27212E-07        -0.60301E-10         0.00000E+00
    0.27215E-07        -0.60151E-10         0.00000E+00
    0.27219E-07        -0.59785E-10         0.00000E+00
    0.27222E-07        -0.59198E-10         0.00000E+00
    0.27225E-07        -0.58387E-10         0.00000E+00
    0.27228E-07        -0.57349E-10         0.00000E+00
    0.27231E-07        -0.56081E-10         0.00000E+00
    0.27234E-07        -0.54580E-10         0.00000E+00
    0.27237E-07        -0.52843E-10         0.00000E+00
    0.27240E-07        -0.50868E-10         0.00000E+00
    0.27242E-07        -0.48653E-10         0.00000E+00
    0.27245E-07        -0.46195E-10         0.00000E+00
    0.27247E-07        -0.43493E-10         0.00000E+00
    0.27249E-07        -0.40545E-10         0.00000E+00
    0.27251E-07        -0.37349E-10         0.00000E+00
    0.27253E-07        -0.33904E-10         0.00000E+00
    0.27255E-07        -0.30209E-10         0.00000E+00
    0.27256E-07        -0.26261E-10         0.00000E+00
    0.27257E-07        -0.22061E-10         0.00000E+00
    0.27258E-07        -0.17607E-10         0.00000E+00
    0.27259E-07        -0.12899E-10         0.00000E+00
    0.27259E-07        -0.79354E-11         0.00000E+00
    0.27260E-07        -0.27163E-11         0.00000E+00
    0.28392E-07        -0.24806E-11         0.00000E+00
    0.28392E-07        -0.73887E-11         0.00000E+00
    0.28393E-07        -0.12208E-10         0.00000E+00
    0.28394E-07        -0.16929E-10         0.00000E+00
    0.28395E-07        -0.21539E-10         0.00000E+00
    0.28396E-07        -0.26029E-10         0.00000E+00
    0.28398E-07        -0.30388E-10         0.00000E+00
    0.28400E-07        -0.34607E-10         0.00000E+00
    0.28402E-07        -0.38677E-10         0.00000E+00
    0.28404E-07        -0.42589E-10         0.00000E+00
    0.28407E-07        -0.46334E-10         0.00000E+00
    0.28409E-07        -0.49905E-10         0.00000E+00
    0.28412E-07        -0.53292E-10         0.00000E+00
    0.28415E-07        -0.56490E-10         0.00000E+00
    0.28418E-07        -0.59491E-10         0.00000E+00
    0.28421E-07        -0.62287E-10         0.00000E+00
    0.28424E-07        -0.64872E-10         0.00000E+00
    0.28428E-07        -0.67241E-10         0.00000E+00
    0.28431E-07        -0.69386E-10         0.00000E+00
    0.28435E-07        -0.71303E-10         0.00000E+00
    0.28438E-07        -0.72986E-10         0.00000E+00
    0.28442E-07        -0.74428E-10         0.00000E+00
    0.28446E-07        -0.75627E-10         0.00000E+00
    0.28449E-07        -0.76577E-10         0.00000E+00
    0.28453E-07        -0.77272E-10         0.00000E+00
    0.28457E-07        -0.77711E-10         0.00000E+00
    0.28460E-07        -0.77887E-10         0.00000E+00
    0.28464E-07        -0.77798E-10         0.00000E+00
    0.28467E-07        -0.77439E-10         0.00000E+00
    0.28471E-07        -0.76808E-10         0.00000E+00
    0.28475E-07        -0.75901E-10         0.00000E+00
    0.28478E-07        -0.74716E-10         0.00000E+00
    0.28481E-07        -0.73249E-10         0.00000E+00
    0.28485E-07        -0.71498E-10         0.00000E+00
    0.28488E-07        -0.69461E-10         0.00000E+00
    0.28491E-07        -0.67135E-10         0.00000E+00
    0.28494E-07        -0.64519E-10         0.00000E+00
    0.28496E-07        -0.61609E-10         0.00000E+00
    0.28499E-07        -0.58406E-10         0.00000E+00
    0.28501E-07        -0.54906E-10         0.00000E+00
    0.28504E-07        -0.51109E-10         0.00000E+00
    0.28506E-07        -0.47013E-10         0.00000E+00
    0.28508E-07        -0.42617E-10         0.00000E+00
    0.28509E-07        -0.37921E-10         0.00000E+00
    0.28511E-07        -0.32922E-10         0.00000E+00
    0.28512E-07        -0.27622E-10         0.00000E+00
    0.28513E-07        -0.22018E-10         0.00000E+00
    0.28514E-07        -0.16111E-10         0.00000E+00
    0.28514E-07        -0.98996E-11         0.00000E+00
    0.28515E-07        -0.33844E-11         0.00000E+00
    0.29686E-07        -0.32829E-11         0.00000E+00
    0.29686E-07        -0.97470E-11         0.00000E+00
    0.29687E-07        -0.16050E-10         0.00000E+00
    0.29688E-07        -0.22182E-10         0.00000E+00
    0.29689E-07        -0.28132E-10         0.00000E+00
    0.29691E-07        -0.33891E-10         0.00000E+00
    0.29692E-07        -0.39448E-10         0.00000E+00
    0.29694E-07        -0.44795E-10         0.00000E+00
    0.29697E-07        -0.49923E-10         0.00000E+00
    0.29699E-07        -0.54823E-10         0.00000E+00
    0.29702E-07        -0.59488E-10         0.00000E+00
    0.29704E-07        -0.63909E-10         0.00000E+00
    0.29707E-07        -0.68080E-10         0.00000E+00
    0.29711E-07        -0.71994E-10         0.00000E+00
    0.29714E-07        -0.75644E-10         0.00000E+00
    0.29717E-07        -0.79023E-10         0.00000E+00
    0.29721E-07        -0.82125E-10         0.00000E+00
    0.29724E-07        -0.84946E-10         0.00000E+00
    0.29728E-07        -0.87478E-10         0.00000E+00
    0.29732E-07        -0.89718E-10         0.00000E+00
    0.29736E-07        -0.91659E-10         0.00000E+00
    0.29740E-07        -0.93298E-10         0.00000E+00
    0.29743E-07        -0.94630E-10         0.00000E+00
    0.29747E-07        -0.95651E-10         0.00000E+00
    0.29751E-07        -0.96356E-10         0.00000E+00
    0.29755E-07        -0.96743E-10         0.00000E+00
    0.29759E-07        -0.96807E-10         0.00000E+00
    0.29763E-07        -0.96546E-10         0.00000E+00
    0.29767E-07        -0.95955E-10         0.00000E+00
    0.29771E-07        -0.95034E-10         0.00000E+00
    0.29774E-07        -0.93778E-10         0.00000E+00
    0.29778E-07        -0.92185E-10         0.00000E+00
    0.29782E-07        -0.90254E-10         0.00000E+00
    0.29785E-07        -0.87981E-10         0.00000E+00
    0.29788E-07        -0.85365E-10         0.00000E+00
    0.29792E-07        -0.82404E-10         0.00000E+00
    0.29795E-07        -0.79097E-10         0.00000E+00
    0.29798E-07        -0.75441E-10         0.00000E+00
    0.29800E-07        -0.71437E-10         0.00000E+00
    0.29803E-07        -0.67082E-10         0.00000E+00
    0.29805E-07        -0.62375E-10         0.00000E+00
    0.29808E-07        -0.57316E-10         0.00000E+00
    0.29810E-07        -0.51904E-10         0.00000E+00
    0.29812E-07        -0.46138E-10         0.00000E+00
    0.29813E-07        -0.40018E-10         0.00000E+00
    0.29814E-07        -0.33544E-10         0.00000E+00
    0.29816E-07        -0.26714E-10         0.00000E+00
    0.29816E-07        -0.19530E-10         0.00000E+00
    0.29817E-07        -0.11990E-10         0.00000E+00
    0.29817E-07        -0.40952E-11         0.00000E+00
    0.31028E-07        -0.41488E-11         0.00000E+00
    0.31028E-07        -0.12291E-10         0.00000E+00
    0.31029E-07        -0.20192E-10         0.00000E+00
    0.31030E-07        -0.27843E-10         0.00000E+00
    0.31031E-07        -0.35233E-10         0.00000E+00
    0.31033E-07        -0.42352E-10         0.00000E+00
    0.31035E-07        -0.49194E-10         0.00000E+00
    0.31037E-07        -0.55747E-10         0.00000E+00
    0.31039E-07        -0.62006E-10         0.00000E+00
    0.31042E-07        -0.67961E-10         0.00000E+00
    0.31045E-07        -0.73606E-10         0.00000E+00
    0.31048E-07        -0.78933E-10         0.00000E+00
    0.31051E-07        -0.83937E-10         0.00000E+00
    0.31054E-07        -0.88610E-10         0.00000E+00
    0.31058E-07        -0.92946E-10         0.00000E+00
    0.31061E-07        -0.96941E-10         0.00000E+00
    0.31065E-07        -0.10059E-09         0.00000E+00
    0.31069E-07        -0.10388E-09         0.00000E+00
    0.31073E-07        -0.10682E-09         0.00000E+00
    0.31077E-07        -0.10940E-09         0.00000E+00
    0.31081E-07        -0.11161E-09         0.00000E+00
    0.31085E-07        -0.11344E-09         0.00000E+00
    0.31089E-07        -0.11491E-09         0.00000E+00
    0.31093E-07        -0.11600E-09         0.00000E+00
    0.31098E-07        -0.11670E-09         0.00000E+00
    0.31102E-07        -0.11703E-09         0.00000E+00
    0.31106E-07        -0.11696E-09         0.00000E+00
    0.31110E-07        -0.11651E-09         0.00000E+00
    0.31114E-07        -0.11567E-09         0.00000E+00
    0.31118E-07        -0.11443E-09         0.00000E+00
    0.31122E-07        -0.11279E-09         0.00000E+00
    0.31126E-07        -0.11076E-09         0.00000E+00
    0.31130E-07        -0.10833E-09         0.00000E+00
    0.31133E-07        -0.10549E-09         0.00000E+00
    0.31137E-07        -0.10226E-09         0.00000E+00
    0.31140E-07        -0.98617E-10         0.00000E+00
    0.31144E-07        -0.94571E-10         0.00000E+00
    0.31147E-07        -0.90119E-10         0.00000E+00
    0.31150E-07        -0.85260E-10         0.00000E+00
    0.31152E-07        -0.79993E-10         0.00000E+00
    0.31155E-07        -0.74319E-10         0.00000E+00
    0.31157E-07        -0.68236E-10         0.00000E+00
    0.31159E-07        -0.61744E-10         0.00000E+00
    0.31161E-07        -0.54842E-10         0.00000E+00
    0.31163E-07        -0.47532E-10         0.00000E+00
    0.31164E-07        -0.39813E-10         0.00000E+00
    0.31166E-07        -0.31684E-10         0.00000E+00
    0.31167E-07        -0.23147E-10         0.00000E+00
    0.31167E-07        -0.14201E-10         0.00000E+00
    0.31167E-07        -0.48468E-11         0.00000E+00
    0.32418E-07        -0.50774E-11         0.00000E+00
    0.32418E-07        -0.15018E-10         0.00000E+00
    0.32419E-07        -0.24630E-10         0.00000E+00
    0.32420E-07        -0.33903E-10         0.00000E+00
    0.32421E-07        -0.42830E-10         0.00000E+00
    0.32423E-07        -0.51402E-10         0.00000E+00
    0.32425E-07        -0.59610E-10         0.00000E+00
    0.32427E-07        -0.67448E-10         0.00000E+00
    0.32430E-07        -0.74907E-10         0.00000E+00
    0.32432E-07        -0.81981E-10         0.00000E+00
    0.32435E-07        -0.88664E-10         0.00000E+00
    0.32439E-07        -0.94950E-10         0.00000E+00
    0.32442E-07        -0.10083E-09         0.00000E+00
    0.32446E-07        -0.10630E-09         0.00000E+00
    0.32449E-07        -0.11136E-09         0.00000E+00
    0.32453E-07        -0.11600E-09         0.00000E+00
    0.32457E-07        -0.12022E-09         0.00000E+00
    0.32461E-07        -0.12401E-09         0.00000E+00
    0.32465E-07        -0.12737E-09         0.00000E+00
    0.32470E-07        -0.13029E-09         0.00000E+00
    0.32474E-07        -0.13278E-09         0.00000E+00
    0.32478E-07        -0.13482E-09         0.00000E+00
    0.32483E-07        -0.13642E-09         0.00000E+00
    0.32487E-07        -0.13757E-09         0.00000E+00
    0.32492E-07        -0.13827E-09         0.00000E+00
    0.32496E-07        -0.13851E-09         0.00000E+00
    0.32501E-07        -0.13831E-09         0.00000E+00
    0.32505E-07        -0.13764E-09         0.00000E+00
    0.32509E-07        -0.13652E-09         0.00000E+00
    0.32513E-07        -0.13494E-09         0.00000E+00
    0.32518E-07        -0.13289E-09         0.00000E+00
    0.32522E-07        -0.13039E-09         0.00000E+00
    0.32526E-07        -0.12742E-09         0.00000E+00
    0.32529E-07        -0.12399E-09         0.00000E+00
    0.32533E-07        -0.12009E-09         0.00000E+00
    0.32537E-07        -0.11572E-09         0.00000E+00
    0.32540E-07        -0.11089E-09         0.00000E+00
    0.32543E-07        -0.10560E-09         0.00000E+00
    0.32547E-07        -0.99831E-10         0.00000E+00
    0.32549E-07        -0.93599E-10         0.00000E+00
    0.32552E-07        -0.86901E-10         0.00000E+00
    0.32555E-07        -0.79735E-10         0.00000E+00
    0.32557E-07        -0.72103E-10         0.00000E+00
    0.32559E-07        -0.64003E-10         0.00000E+00
    0.32561E-07        -0.55438E-10         0.00000E+00
    0.32562E-07        -0.46407E-10         0.00000E+00
    0.32563E-07        -0.36911E-10         0.00000E+00
    0.32564E-07        -0.26950E-10         0.00000E+00
    0.32565E-07        -0.16525E-10         0.00000E+00
    0.32565E-07        -0.56367E-11         0.00000E+00
    0.33855E-07        -0.60669E-11         0.00000E+00
    0.33856E-07        -0.17922E-10         0.00000E+00
    0.33856E-07        -0.29352E-10         0.00000E+00
    0.33858E-07        -0.40350E-10         0.00000E+00
    0.33859E-07        -0.50908E-10         0.00000E+00
    0.33861E-07        -0.61017E-10         0.00000E+00
    0.33863E-07        -0.70672E-10         0.00000E+00
    0.33865E-07        -0.79866E-10         0.00000E+00
    0.33868E-07        -0.88593E-10         0.00000E+00
    0.33871E-07        -0.96846E-10         0.00000E+00
    0.33874E-07        -0.10462E-09         0.00000E+00
    0.33878E-07        -0.11191E-09         0.00000E+00
    0.33881E-07        -0.11872E-09         0.00000E+00
    0.33885E-07        -0.12503E-09         0.00000E+00
    0.33889E-07        -0.13084E-09         0.00000E+00
    0.33893E-07        -0.13615E-09         0.00000E+00
    0.33897E-07        -0.14096E-09         0.00000E+00
    0.33901E-07        -0.14527E-09         0.00000E+00
    0.33906E-07        -0.14906E-09         0.00000E+00
    0.33910E-07        -0.15234E-09         0.00000E+00
    0.33915E-07        -0.15510E-09         0.00000E+00
    0.33919E-07        -0.15735E-09         0.00000E+00
    0.33924E-07        -0.15907E-09         0.00000E+00
    0.33929E-07        -0.16028E-09         0.00000E+00
    0.33933E-07        -0.16096E-09         0.00000E+00
    0.33938E-07        -0.16112E-09         0.00000E+00
    0.33943E-07        -0.16075E-09         0.00000E+00
    0.33947E-07        -0.15986E-09         0.00000E+00
    0.33952E-07        -0.15843E-09         0.00000E+00
    0.33956E-07        -0.15648E-09         0.00000E+00
    0.33961E-07        -0.15400E-09         0.00000E+00
    0.33965E-07        -0.15099E-09         0.00000E+00
    0.33969E-07        -0.14745E-09         0.00000E+00
    0.33973E-07        -0.14338E-09         0.00000E+00
    0.33977E-07        -0.13878E-09         0.00000E+00
    0.33981E-07        -0.13365E-09         0.00000E+00
    0.33984E-07        -0.12800E-09         0.00000E+00
    0.33988E-07        -0.12181E-09         0.00000E+00
    0.33991E-07        -0.11509E-09         0.00000E+00
    0.33994E-07        -0.10784E-09         0.00000E+00
    0.33997E-07        -0.10007E-09         0.00000E+00
    0.33999E-07        -0.91766E-10         0.00000E+00
    0.34002E-07        -0.82937E-10         0.00000E+00
    0.34004E-07        -0.73582E-10         0.00000E+00
    0.34005E-07        -0.63702E-10         0.00000E+00
    0.34007E-07        -0.53298E-10         0.00000E+00
    0.34008E-07        -0.42371E-10         0.00000E+00
    0.34009E-07        -0.30922E-10         0.00000E+00
    0.34010E-07        -0.18951E-10         0.00000E+00
    0.34010E-07        -0.64612E-11         0.00000E+00
    0.35340E-07        -0.71141E-11         0.00000E+00
    0.35341E-07        -0.20994E-10         0.00000E+00
    0.35342E-07        -0.34345E-10         0.00000E+00
    0.35343E-07        -0.47162E-10         0.00000E+00
    0.35344E-07        -0.59437E-10         0.00000E+00
    0.35346E-07        -0.71165E-10         0.00000E+00
    0.35349E-07        -0.82340E-10         0.00000E+00
    0.35351E-07        -0.92957E-10         0.00000E+00
    0.35354E-07        -0.10301E-09         0.00000E+00
    0.35357E-07        -0.11250E-09         0.00000E+00
    0.35360E-07        -0.12142E-09         0.00000E+00
    0.35364E-07        -0.12976E-09         0.00000E+00
    0.35368E-07        -0.13752E-09         0.00000E+00
    0.35371E-07        -0.14470E-09         0.00000E+00
    0.35376E-07        -0.15130E-09         0.00000E+00
    0.35380E-07        -0.15731E-09         0.00000E+00
    0.35384E-07        -0.16273E-09         0.00000E+00
    0.35389E-07        -0.16756E-09         0.00000E+00
    0.35393E-07        -0.17179E-09         0.00000E+00
    0.35398E-07        -0.17544E-09         0.00000E+00
    0.35403E-07        -0.17848E-09         0.00000E+00
    0.35408E-07        -0.18093E-09         0.00000E+00
    0.35412E-07        -0.18278E-09         0.00000E+00
    0.35417E-07        -0.18404E-09         0.00000E+00
    0.35422E-07        -0.18469E-09         0.00000E+00
    0.35427E-07        -0.18474E-09         0.00000E+00
    0.35432E-07        -0.18420E-09         0.00000E+00
    0.35436E-07        -0.18305E-09         0.00000E+00
    0.35441E-07        -0.18130E-09         0.00000E+00
    0.35446E-07        -0.17896E-09         0.00000E+00
    0.35450E-07        -0.17601E-09         0.00000E+00
    0.35455E-07        -0.17247E-09         0.00000E+00
    0.35459E-07        -0.16833E-09         0.00000E+00
    0.35463E-07        -0.16359E-09         0.00000E+00
    0.35467E-07        -0.15825E-09         0.00000E+00
    0.35471E-07        -0.15232E-09         0.00000E+00
    0.35475E-07        -0.14579E-09         0.00000E+00
    0.35478E-07        -0.13867E-09         0.00000E+00
    0.35482E-07        -0.13095E-09         0.00000E+00
    0.35485E-07        -0.12265E-09         0.00000E+00
    0.35488E-07        -0.11375E-09         0.00000E+00
    0.35490E-07        -0.10426E-09         0.00000E+00
    0.35493E-07        -0.94189E-10         0.00000E+00
    0.35495E-07        -0.83527E-10         0.00000E+00
    0.35497E-07        -0.72280E-10         0.00000E+00
    0.35499E-07        -0.60449E-10         0.00000E+00
    0.35500E-07        -0.48035E-10         0.00000E+00
    0.35501E-07        -0.35041E-10         0.00000E+00
    0.35501E-07        -0.21467E-10         0.00000E+00
    0.35502E-07        -0.73159E-11         0.00000E+00
    0.36872E-07        -0.82145E-11         0.00000E+00
    0.36873E-07        -0.24220E-10         0.00000E+00
    0.36873E-07        -0.39586E-10         0.00000E+00
    0.36875E-07        -0.54308E-10         0.00000E+00
    0.36876E-07        -0.68380E-10         0.00000E+00
    0.36878E-07        -0.81799E-10         0.00000E+00
    0.36881E-07        -0.94560E-10         0.00000E+00
    0.36883E-07        -0.10666E-09         0.00000E+00
    0.36886E-07        -0.11810E-09         0.00000E+00
    0.36889E-07        -0.12887E-09         0.00000E+00
    0.36893E-07        -0.13896E-09         0.00000E+00
    0.36897E-07        -0.14839E-09         0.00000E+00
    0.36900E-07        -0.15715E-09         0.00000E+00
    0.36905E-07        -0.16523E-09         0.00000E+00
    0.36909E-07        -0.17263E-09         0.00000E+00
    0.36913E-07        -0.17935E-09         0.00000E+00
    0.36918E-07        -0.18540E-09         0.00000E+00
    0.36922E-07        -0.19077E-09         0.00000E+00
    0.36927E-07        -0.19545E-09         0.00000E+00
    0.36932E-07        -0.19946E-09         0.00000E+00
    0.36937E-07        -0.20279E-09         0.00000E+00
    0.36942E-07        -0.20544E-09         0.00000E+00
    0.36947E-07        -0.20741E-09         0.00000E+00
    0.36952E-07        -0.20870E-09         0.00000E+00
    0.36957E-07        -0.20931E-09         0.00000E+00
    0.36962E-07        -0.20925E-09         0.00000E+00
    0.36967E-07        -0.20850E-09         0.00000E+00
    0.36972E-07        -0.20709E-09         0.00000E+00
    0.36977E-07        -0.20500E-09         0.00000E+00
    0.36982E-07        -0.20223E-09         0.00000E+00
    0.36986E-07        -0.19880E-09         0.00000E+00
    0.36991E-07        -0.19469E-09         0.00000E+00
    0.36995E-07        -0.18992E-09         0.00000E+00
    0.37000E-07        -0.18448E-09         0.00000E+00
    0.37004E-07        -0.17837E-09         0.00000E+00
    0.37008E-07        -0.17160E-09         0.00000E+00
    0.37011E-07        -0.16417E-09         0.00000E+00
    0.37015E-07        -0.15608E-09         0.00000E+00
    0.37019E-07        -0.14733E-09         0.00000E+00
    0.37022E-07        -0.13792E-09         0.00000E+00
    0.37025E-07        -0.12786E-09         0.00000E+00
    0.37027E-07        -0.11715E-09         0.00000E+00
    0.37030E-07        -0.10579E-09         0.00000E+00
    0.37032E-07        -0.93774E-10         0.00000E+00
    0.37034E-07        -0.81116E-10         0.00000E+00
    0.37036E-07        -0.67813E-10         0.00000E+00
    0.37037E-07        -0.53867E-10         0.00000E+00
    0.37038E-07        -0.39281E-10         0.00000E+00
    0.37039E-07        -0.24056E-10         0.00000E+00
    0.37039E-07        -0.81951E-11         0.00000E+00
    0.38449E-07        -0.93624E-11         0.00000E+00
    0.38450E-07        -0.27584E-10         0.00000E+00
    0.38451E-07        -0.45047E-10         0.00000E+00
    0.38452E-07        -0.61748E-10         0.00000E+00
    0.38454E-07        -0.77686E-10         0.00000E+00
    0.38456E-07        -0.92858E-10         0.00000E+00
    0.38458E-07        -0.10726E-09         0.00000E+00
    0.38461E-07        -0.12089E-09         0.00000E+00
    0.38464E-07        -0.13376E-09         0.00000E+00
    0.38467E-07        -0.14585E-09         0.00000E+00
    0.38471E-07        -0.15716E-09         0.00000E+00
    0.38475E-07        -0.16771E-09         0.00000E+00
    0.38479E-07        -0.17748E-09         0.00000E+00
    0.38483E-07        -0.18648E-09         0.00000E+00
    0.38487E-07        -0.19470E-09         0.00000E+00
    0.38492E-07        -0.20215E-09         0.00000E+00
    0.38497E-07        -0.20883E-09         0.00000E+00
    0.38501E-07        -0.21474E-09         0.00000E+00
    0.38506E-07        -0.21989E-09         0.00000E+00
    0.38511E-07        -0.22426E-09         0.00000E+00
    0.38516E-07        -0.22786E-09         0.00000E+00
    0.38521E-07        -0.23071E-09         0.00000E+00
    0.38527E-07        -0.23279E-09         0.00000E+00
    0.38532E-07        -0.23410E-09         0.00000E+00
    0.38537E-07        -0.23466E-09         0.00000E+00
    0.38542E-07        -0.23446E-09         0.00000E+00
    0.38547E-07        -0.23351E-09         0.00000E+00
    0.38552E-07        -0.23180E-09         0.00000E+00
    0.38557E-07        -0.22935E-09         0.00000E+00
    0.38562E-07        -0.22614E-09         0.00000E+00
    0.38567E-07        -0.22219E-09         0.00000E+00
    0.38571E-07        -0.21750E-09         0.00000E+00
    0.38576E-07        -0.21207E-09         0.00000E+00
    0.38580E-07        -0.20590E-09         0.00000E+00
    0.38585E-07        -0.19900E-09         0.00000E+00
    0.38589E-07        -0.19136E-09         0.00000E+00
    0.38593E-07        -0.18300E-09         0.00000E+00
    0.38596E-07        -0.17391E-09         0.00000E+00
    0.38600E-07        -0.16409E-09         0.00000E+00
    0.38603E-07        -0.15355E-09         0.00000E+00
    0.38606E-07        -0.14230E-09         0.00000E+00
    0.38609E-07        -0.13033E-09         0.00000E+00
    0.38611E-07        -0.11764E-09         0.00000E+00
    0.38614E-07        -0.10425E-09         0.00000E+00
    0.38616E-07        -0.90143E-10         0.00000E+00
    0.38617E-07        -0.75334E-10         0.00000E+00
    0.38619E-07        -0.59822E-10         0.00000E+00
    0.38620E-07        -0.43609E-10         0.00000E+00
    0.38620E-07        -0.26698E-10         0.00000E+00
    0.38621E-07        -0.90921E-11         0.00000E+00
    0.40071E-07        -0.10550E-10         0.00000E+00
    0.40071E-07        -0.31062E-10         0.00000E+00
    0.40072E-07        -0.50691E-10         0.00000E+00
    0.40073E-07        -0.69434E-10         0.00000E+00
    0.40075E-07        -0.87293E-10         0.00000E+00
    0.40077E-07        -0.10427E-09         0.00000E+00
    0.40080E-07        -0.12036E-09         0.00000E+00
    0.40083E-07        -0.13556E-09         0.00000E+00
    0.40086E-07        -0.14988E-09         0.00000E+00
    0.40089E-07        -0.16332E-09         0.00000E+00
    0.40093E-07        -0.17588E-09         0.00000E+00
    0.40097E-07        -0.18756E-09         0.00000E+00
    0.40101E-07        -0.19837E-09         0.00000E+00
    0.40105E-07        -0.20829E-09         0.00000E+00
    0.40110E-07        -0.21735E-09         0.00000E+00
    0.40114E-07        -0.22554E-09         0.00000E+00
    0.40119E-07        -0.23285E-09         0.00000E+00
    0.40124E-07        -0.23931E-09         0.00000E+00
    0.40129E-07        -0.24490E-09         0.00000E+00
    0.40134E-07        -0.24963E-09         0.00000E+00
    0.40139E-07        -0.25351E-09         0.00000E+00
    0.40144E-07        -0.25654E-09         0.00000E+00
    0.40150E-07        -0.25871E-09         0.00000E+00
    0.40155E-07        -0.26005E-09         0.00000E+00
    0.40160E-07        -0.26054E-09         0.00000E+00
    0.40165E-07        -0.26019E-09         0.00000E+00
    0.40170E-07        -0.25901E-09         0.00000E+00
    0.40176E-07        -0.25699E-09         0.00000E+00
    0.40181E-07        -0.25415E-09         0.00000E+00
    0.40185E-07        -0.25049E-09         0.00000E+00
    0.40190E-07        -0.24601E-09         0.00000E+00
    0.40195E-07        -0.24071E-09         0.00000E+00
    0.40200E-07        -0.23460E-09         0.00000E+00
    0.40204E-07        -0.22768E-09         0.00000E+00
    0.40208E-07        -0.21996E-09         0.00000E+00
    0.40213E-07        -0.21144E-09         0.00000E+00
    0.40217E-07        -0.20212E-09         0.00000E+00
    0.40220E-07        -0.19200E-09         0.00000E+00
    0.40224E-07        -0.18110E-09         0.00000E+00
    0.40227E-07        -0.16941E-09         0.00000E+00
    0.40230E-07        -0.15693E-09         0.00000E+00
    0.40233E-07        -0.14368E-09         0.00000E+00
    0.40235E-07        -0.12965E-09         0.00000E+00
    0.40238E-07        -0.11485E-09         0.00000E+00
    0.40240E-07        -0.99282E-10         0.00000E+00
    0.40241E-07        -0.82946E-10         0.00000E+00
    0.40243E-07        -0.65846E-10         0.00000E+00
    0.40244E-07        -0.47987E-10         0.00000E+00
    0.40245E-07        -0.29370E-10         0.00000E+00
    0.40245E-07        -0.99988E-11         0.00000E+00
    0.41734E-07        -0.11769E-10         0.00000E+00
    0.41734E-07        -0.34629E-10         0.00000E+00
    0.41735E-07        -0.56474E-10         0.00000E+00
    0.41737E-07        -0.77304E-10         0.00000E+00
    0.41738E-07        -0.97124E-10         0.00000E+00
    0.41741E-07        -0.11593E-09         0.00000E+00
    0.41743E-07        -0.13374E-09         0.00000E+00
    0.41746E-07        -0.15054E-09         0.00000E+00
    0.41749E-07        -0.16634E-09         0.00000E+00
    0.41753E-07        -0.18115E-09         0.00000E+00
    0.41756E-07        -0.19496E-09         0.00000E+00
    0.41760E-07        -0.20779E-09         0.00000E+00
    0.41765E-07        -0.21963E-09         0.00000E+00
    0.41769E-07        -0.23049E-09         0.00000E+00
    0.41773E-07        -0.24038E-09         0.00000E+00
    0.41778E-07        -0.24930E-09         0.00000E+00
    0.41783E-07        -0.25725E-09         0.00000E+00
    0.41788E-07        -0.26424E-09         0.00000E+00
    0.41793E-07        -0.27027E-09         0.00000E+00
    0.41798E-07        -0.27536E-09         0.00000E+00
    0.41803E-07        -0.27950E-09         0.00000E+00
    0.41809E-07        -0.28269E-09         0.00000E+00
    0.41814E-07        -0.28496E-09         0.00000E+00
    0.41819E-07        -0.28629E-09         0.00000E+00
    0.41824E-07        -0.28670E-09         0.00000E+00
    0.41830E-07        -0.28618E-09         0.00000E+00
    0.41835E-07        -0.28476E-09         0.00000E+00
    0.41840E-07        -0.28242E-09         0.00000E+00
    0.41845E-07        -0.27918E-09         0.00000E+00
    0.41850E-07        -0.27504E-09         0.00000E+00
    0.41855E-07        -0.27001E-09         0.00000E+00
    0.41860E-07        -0.26409E-09         0.00000E+00
    0.41864E-07        -0.25729E-09         0.00000E+00
    0.41869E-07        -0.24960E-09         0.00000E+00
    0.41873E-07        -0.24105E-09         0.00000E+00
    0.41877E-07        -0.23162E-09         0.00000E+00
    0.41881E-07        -0.22133E-09         0.00000E+00
    0.41885E-07        -0.21018E-09         0.00000E+00
    0.41888E-07        -0.19818E-09         0.00000E+00
    0.41892E-07        -0.18532E-09         0.00000E+00
    0.41895E-07        -0.17162E-09         0.00000E+00
    0.41897E-07        -0.15708E-09         0.00000E+00
    0.41900E-07        -0.14170E-09         0.00000E+00
    0.41902E-07        -0.12549E-09         0.00000E+00
    0.41904E-07        -0.10844E-09         0.00000E+00
    0.41906E-07        -0.90572E-10         0.00000E+00
    0.41907E-07        -0.71880E-10         0.00000E+00
    0.41908E-07        -0.52370E-10         0.00000E+00
    0.41909E-07        -0.32044E-10         0.00000E+00
    0.41909E-07        -0.10906E-10         0.00000E+00
    0.43437E-07        -0.13008E-10         0.00000E+00
    0.43437E-07        -0.38252E-10         0.00000E+00
    0.43438E-07        -0.62343E-10         0.00000E+00
    0.43440E-07        -0.85286E-10         0.00000E+00
    0.43441E-07        -0.10709E-09         0.00000E+00
    0.43444E-07        -0.12775E-09         0.00000E+00
    0.43446E-07        -0.14728E-09         0.00000E+00
    0.43449E-07        -0.16569E-09         0.00000E+00
    0.43452E-07        -0.18297E-09         0.00000E+00
    0.43456E-07        -0.19915E-09         0.00000E+00
    0.43459E-07        -0.21422E-09         0.00000E+00
    0.43463E-07        -0.22818E-09         0.00000E+00
    0.43467E-07        -0.24106E-09         0.00000E+00
    0.43472E-07        -0.25285E-09         0.00000E+00
    0.43476E-07        -0.26356E-09         0.00000E+00
    0.43481E-07        -0.27319E-09         0.00000E+00
    0.43486E-07        -0.28177E-09         0.00000E+00
    0.43491E-07        -0.28928E-09         0.00000E+00
    0.43496E-07        -0.29575E-09         0.00000E+00
    0.43501E-07        -0.30117E-09         0.00000E+00
    0.43506E-07        -0.30555E-09         0.00000E+00
    0.43512E-07        -0.30890E-09         0.00000E+00
    0.43517E-07        -0.31124E-09         0.00000E+00
    0.43522E-07        -0.31255E-09         0.00000E+00
    0.43527E-07        -0.31286E-09         0.00000E+00
    0.43532E-07        -0.31217E-09         0.00000E+00
    0.43538E-07        -0.31049E-09         0.00000E+00
    0.43543E-07        -0.30781E-09         0.00000E+00
    0.43548E-07        -0.30416E-09         0.00000E+00
    0.43553E-07        -0.29953E-09         0.00000E+00
    0.43557E-07        -0.29394E-09         0.00000E+00
    0.43562E-07        -0.28739E-09         0.00000E+00
    0.43567E-07        -0.27988E-09         0.00000E+00
    0.43571E-07        -0.27142E-09         0.00000E+00
    0.43575E-07        -0.26203E-09         0.00000E+00
    0.43579E-07        -0.25169E-09         0.00000E+00
    0.43583E-07        -0.24043E-09         0.00000E+00
    0.43587E-07        -0.22824E-09         0.00000E+00
    0.43591E-07        -0.21514E-09         0.00000E+00
    0.43594E-07        -0.20112E-09         0.00000E+00
    0.43597E-07        -0.18619E-09         0.00000E+00
    0.43600E-07        -0.17037E-09         0.00000E+00
    0.43602E-07        -0.15364E-09         0.00000E+00
    0.43604E-07        -0.13602E-09         0.00000E+00
    0.43606E-07        -0.11751E-09         0.00000E+00
    0.43608E-07        -0.98123E-10         0.00000E+00
    0.43609E-07        -0.77853E-10         0.00000E+00
    0.43610E-07        -0.56707E-10         0.00000E+00
    0.43611E-07        -0.34689E-10         0.00000E+00
    0.43611E-07        -0.11803E-10         0.00000E+00
    0.45176E-07        -0.14253E-10         0.00000E+00
    0.45177E-07        -0.41892E-10         0.00000E+00
    0.45177E-07        -0.68236E-10         0.00000E+00
    0.45179E-07        -0.93293E-10         0.00000E+00
    0.45181E-07        -0.11707E-09         0.00000E+00
    0.45183E-07        -0.13958E-09         0.00000E+00
    0.45185E-07        -0.16083E-09         0.00000E+00
    0.45188E-07        -0.18084E-09         0.00000E+00
    0.45191E-07        -0.19959E-09         0.00000E+00
    0.45195E-07        -0.21712E-09         0.00000E+00
    0.45199E-07        -0.23343E-09         0.00000E+00
    0.45202E-07        -0.24852E-09         0.00000E+00
    0.45207E-07        -0.26241E-09         0.00000E+00
    0.45211E-07        -0.27510E-09         0.00000E+00
    0.45215E-07        -0.28661E-09         0.00000E+00
    0.45220E-07        -0.29695E-09         0.00000E+00
    0.45225E-07        -0.30612E-09         0.00000E+00
    0.45230E-07        -0.31414E-09         0.00000E+00
    0.45235E-07        -0.32101E-09         0.00000E+00
    0.45240E-07        -0.32675E-09         0.00000E+00
    0.45245E-07        -0.33136E-09         0.00000E+00
    0.45250E-07        -0.33485E-09         0.00000E+00
    0.45255E-07        -0.33723E-09         0.00000E+00
    0.45260E-07        -0.33852E-09         0.00000E+00
    0.45265E-07        -0.33871E-09         0.00000E+00
    0.45271E-07        -0.33783E-09         0.00000E+00
    0.45276E-07        -0.33587E-09         0.00000E+00
    0.45281E-07        -0.33285E-09         0.00000E+00
    0.45286E-07        -0.32877E-09         0.00000E+00
    0.45290E-07        -0.32365E-09         0.00000E+00
    0.45295E-07        -0.31749E-09         0.00000E+00
    0.45300E-07        -0.31030E-09         0.00000E+00
    0.45304E-07        -0.30209E-09         0.00000E+00
    0.45308E-07        -0.29286E-09         0.00000E+00
    0.45313E-07        -0.28263E-09         0.00000E+00
    0.45317E-07        -0.27139E-09         0.00000E+00
    0.45320E-07        -0.25917E-09         0.00000E+00
    0.45324E-07        -0.24595E-09         0.00000E+00
    0.45327E-07        -0.23176E-09         0.00000E+00
    0.45331E-07        -0.21659E-09         0.00000E+00
    0.45333E-07        -0.20046E-09         0.00000E+00
    0.45336E-07        -0.18337E-09         0.00000E+00
    0.45339E-07        -0.16532E-09         0.00000E+00
    0.45341E-07        -0.14632E-09         0.00000E+00
    0.45343E-07        -0.12638E-09         0.00000E+00
    0.45344E-07        -0.10550E-09         0.00000E+00
    0.45346E-07        -0.83685E-10         0.00000E+00
    0.45347E-07        -0.60940E-10         0.00000E+00
    0.45347E-07        -0.37270E-10         0.00000E+00
    0.45348E-07        -0.12678E-10         0.00000E+00
    0.46948E-07        -0.15491E-10         0.00000E+00
    0.46949E-07        -0.45506E-10         0.00000E+00
    0.46950E-07        -0.74081E-10         0.00000E+00
    0.46951E-07        -0.10123E-09         0.00000E+00
    0.46953E-07        -0.12696E-09         0.00000E+00
    0.46955E-07        -0.15129E-09         0.00000E+00
    0.46958E-07        -0.17423E-09         0.00000E+00
    0.46960E-07        -0.19579E-09         0.00000E+00
    0.46963E-07        -0.21599E-09         0.00000E+00
    0.46967E-07        -0.23484E-09         0.00000E+00
    0.46970E-07        -0.25235E-09         0.00000E+00
    0.46974E-07        -0.26853E-09         0.00000E+00
    0.46978E-07        -0.28340E-09         0.00000E+00
    0.46983E-07        -0.29697E-09         0.00000E+00
    0.46987E-07        -0.30925E-09         0.00000E+00
    0.46992E-07        -0.32025E-09         0.00000E+00
    0.46996E-07        -0.32999E-09         0.00000E+00
    0.47001E-07        -0.33848E-09         0.00000E+00
    0.47006E-07        -0.34573E-09         0.00000E+00
    0.47011E-07        -0.35176E-09         0.00000E+00
    0.47016E-07        -0.35656E-09         0.00000E+00
    0.47021E-07        -0.36017E-09         0.00000E+00
    0.47026E-07        -0.36259E-09         0.00000E+00
    0.47031E-07        -0.36382E-09         0.00000E+00
    0.47036E-07        -0.36388E-09         0.00000E+00
    0.47040E-07        -0.36279E-09         0.00000E+00
    0.47045E-07        -0.36055E-09         0.00000E+00
    0.47050E-07        -0.35718E-09         0.00000E+00
    0.47055E-07        -0.35267E-09         0.00000E+00
    0.47060E-07        -0.34705E-09         0.00000E+00
    0.47064E-07        -0.34033E-09         0.00000E+00
    0.47068E-07        -0.33251E-09         0.00000E+00
    0.47073E-07        -0.32360E-09         0.00000E+00
    0.47077E-07        -0.31361E-09         0.00000E+00
    0.47081E-07        -0.30255E-09         0.00000E+00
    0.47085E-07        -0.29043E-09         0.00000E+00
    0.47088E-07        -0.27726E-09         0.00000E+00
    0.47092E-07        -0.26305E-09         0.00000E+00
    0.47095E-07        -0.24780E-09         0.00000E+00
    0.47098E-07        -0.23151E-09         0.00000E+00
    0.47101E-07        -0.21421E-09         0.00000E+00
    0.47103E-07        -0.19589E-09         0.00000E+00
    0.47106E-07        -0.17657E-09         0.00000E+00
    0.47108E-07        -0.15624E-09         0.00000E+00
    0.47110E-07        -0.13491E-09         0.00000E+00
    0.47111E-07        -0.11259E-09         0.00000E+00
    0.47112E-07        -0.89289E-10         0.00000E+00
    0.47113E-07        -0.65006E-10         0.00000E+00
    0.47114E-07        -0.39747E-10         0.00000E+00
    0.47114E-07        -0.13518E-10         0.00000E+00
    0.48750E-07        -0.16703E-10         0.00000E+00
    0.48750E-07        -0.49043E-10         0.00000E+00
    0.48751E-07        -0.79797E-10         0.00000E+00
    0.48752E-07        -0.10898E-09         0.00000E+00
    0.48754E-07        -0.13661E-09         0.00000E+00
    0.48756E-07        -0.16270E-09         0.00000E+00
    0.48759E-07        -0.18728E-09         0.00000E+00
    0.48761E-07        -0.21035E-09         0.00000E+00
    0.48764E-07        -0.23193E-09         0.00000E+00
    0.48768E-07        -0.25204E-09         0.00000E+00
    0.48771E-07        -0.27070E-09         0.00000E+00
    0.48775E-07        -0.28792E-09         0.00000E+00
    0.48779E-07        -0.30372E-09         0.00000E+00
    0.48783E-07        -0.31811E-09         0.00000E+00
    0.48787E-07        -0.33111E-09         0.00000E+00
    0.48791E-07        -0.34274E-09         0.00000E+00
    0.48796E-07        -0.35300E-09         0.00000E+00
    0.48800E-07        -0.36193E-09         0.00000E+00
    0.48805E-07        -0.36952E-09         0.00000E+00
    0.48809E-07        -0.37580E-09         0.00000E+00
    0.48814E-07        -0.38078E-09         0.00000E+00
    0.48819E-07        -0.38447E-09         0.00000E+00
    0.48824E-07        -0.38689E-09         0.00000E+00
    0.48828E-07        -0.38805E-09         0.00000E+00
    0.48833E-07        -0.38797E-09         0.00000E+00
    0.48838E-07        -0.38666E-09         0.00000E+00
    0.48842E-07        -0.38413E-09         0.00000E+00
    0.48847E-07        -0.38039E-09         0.00000E+00
    0.48851E-07        -0.37546E-09         0.00000E+00
    0.48856E-07        -0.36935E-09         0.00000E+00
    0.48860E-07        -0.36207E-09         0.00000E+00
    0.48864E-07        -0.35363E-09         0.00000E+00
    0.48868E-07        -0.34404E-09         0.00000E+00
    0.48872E-07        -0.33331E-09         0.00000E+00
    0.48876E-07        -0.32146E-09         0.00000E+00
    0.48879E-07        -0.30849E-09         0.00000E+00
    0.48883E-07        -0.29441E-09         0.00000E+00
    0.48886E-07        -0.27924E-09         0.00000E+00
    0.48889E-07        -0.26297E-09         0.00000E+00
    0.48892E-07        -0.24563E-09         0.00000E+00
    0.48895E-07        -0.22721E-09         0.00000E+00
    0.48897E-07        -0.20772E-09         0.00000E+00
    0.48899E-07        -0.18718E-09         0.00000E+00
    0.48901E-07        -0.16559E-09         0.00000E+00
    0.48903E-07        -0.14295E-09         0.00000E+00
    0.48904E-07        -0.11927E-09         0.00000E+00
    0.48905E-07        -0.94566E-10         0.00000E+00
    0.48906E-07        -0.68833E-10         0.00000E+00
    0.48907E-07        -0.42078E-10         0.00000E+00
    0.48907E-07        -0.14307E-10         0.00000E+00
    0.50575E-07        -0.17871E-10         0.00000E+00
    0.50576E-07        -0.52448E-10         0.00000E+00
    0.50576E-07        -0.85292E-10         0.00000E+00
    0.50578E-07        -0.11642E-09         0.00000E+00
    0.50579E-07        -0.14587E-09         0.00000E+00
    0.50581E-07        -0.17364E-09         0.00000E+00
    0.50584E-07        -0.19976E-09         0.00000E+00
    0.50586E-07        -0.22425E-09         0.00000E+00
    0.50589E-07        -0.24714E-09         0.00000E+00
    0.50592E-07        -0.26844E-09         0.00000E+00
    0.50595E-07        -0.28817E-09         0.00000E+00
    0.50599E-07        -0.30635E-09         0.00000E+00
    0.50602E-07        -0.32301E-09         0.00000E+00
    0.50606E-07        -0.33816E-09         0.00000E+00
    0.50610E-07        -0.35182E-09         0.00000E+00
    0.50614E-07        -0.36401E-09         0.00000E+00
    0.50618E-07        -0.37475E-09         0.00000E+00
    0.50623E-07        -0.38406E-09         0.00000E+00
    0.50627E-07        -0.39195E-09         0.00000E+00
    0.50631E-07        -0.39844E-09         0.00000E+00
    0.50636E-07        -0.40355E-09         0.00000E+00
    0.50640E-07        -0.40730E-09         0.00000E+00
    0.50644E-07        -0.40970E-09         0.00000E+00
    0.50649E-07        -0.41077E-09         0.00000E+00
    0.50653E-07        -0.41053E-09         0.00000E+00
    0.50658E-07        -0.40899E-09         0.00000E+00
    0.50662E-07        -0.40616E-09         0.00000E+00
    0.50666E-07        -0.40207E-09         0.00000E+00
    0.50670E-07        -0.39671E-09         0.00000E+00
    0.50674E-07        -0.39012E-09         0.00000E+00
    0.50678E-07        -0.38230E-09         0.00000E+00
    0.50682E-07        -0.37326E-09         0.00000E+00
    0.50686E-07        -0.36303E-09         0.00000E+00
    0.50689E-07        -0.35160E-09         0.00000E+00
    0.50693E-07        -0.33899E-09         0.00000E+00
    0.50696E-07        -0.32521E-09         0.00000E+00
    0.50699E-07        -0.31028E-09         0.00000E+00
    0.50702E-07        -0.29420E-09         0.00000E+00
    0.50705E-07        -0.27699E-09         0.00000E+00
    0.50707E-07        -0.25865E-09         0.00000E+00
    0.50710E-07        -0.23919E-09         0.00000E+00
    0.50712E-07        -0.21862E-09         0.00000E+00
    0.50714E-07        -0.19695E-09         0.00000E+00
    0.50715E-07        -0.17419E-09         0.00000E+00
    0.50717E-07        -0.15034E-09         0.00000E+00
    0.50718E-07        -0.12541E-09         0.00000E+00
    0.50719E-07        -0.99410E-10         0.00000E+00
    0.50720E-07        -0.72343E-10         0.00000E+00
    0.50721E-07        -0.44215E-10         0.00000E+00
    0.50721E-07        -0.15030E-10         0.00000E+00
    0.52419E-07        -0.18975E-10         0.00000E+00
    0.52420E-07        -0.55659E-10         0.00000E+00
    0.52421E-07        -0.90465E-10         0.00000E+00
    0.52422E-07        -0.12342E-09         0.00000E+00
    0.52423E-07        -0.15455E-09         0.00000E+00
    0.52425E-07        -0.18388E-09         0.00000E+00
    0.52427E-07        -0.21144E-09         0.00000E+00
    0.52430E-07        -0.23724E-09         0.00000E+00
    0.52432E-07        -0.26132E-09         0.00000E+00
    0.52435E-07        -0.28371E-09         0.00000E+00
    0.52438E-07        -0.30441E-09         0.00000E+00
    0.52441E-07        -0.32347E-09         0.00000E+00
    0.52445E-07        -0.34090E-09         0.00000E+00
    0.52448E-07        -0.35672E-09         0.00000E+00
    0.52452E-07        -0.37096E-09         0.00000E+00
    0.52455E-07        -0.38364E-09         0.00000E+00
    0.52459E-07        -0.39478E-09         0.00000E+00
    0.52463E-07        -0.40441E-09         0.00000E+00
    0.52467E-07        -0.41254E-09         0.00000E+00
    0.52471E-07        -0.41920E-09         0.00000E+00
    0.52475E-07        -0.42440E-09         0.00000E+00
    0.52479E-07        -0.42817E-09         0.00000E+00
    0.52483E-07        -0.43053E-09         0.00000E+00
    0.52487E-07        -0.43149E-09         0.00000E+00
    0.52491E-07        -0.43107E-09         0.00000E+00
    0.52494E-07        -0.42929E-09         0.00000E+00
    0.52498E-07        -0.42616E-09         0.00000E+00
    0.52502E-07        -0.42171E-09         0.00000E+00
    0.52506E-07        -0.41595E-09         0.00000E+00
    0.52509E-07        -0.40890E-09         0.00000E+00
    0.52513E-07        -0.40057E-09         0.00000E+00
    0.52516E-07        -0.39097E-09         0.00000E+00
    0.52519E-07        -0.38012E-09         0.00000E+00
    0.52522E-07        -0.36804E-09         0.00000E+00
    0.52525E-07        -0.35473E-09         0.00000E+00
    0.52528E-07        -0.34022E-09         0.00000E+00
    0.52531E-07        -0.32450E-09         0.00000E+00
    0.52534E-07        -0.30760E-09         0.00000E+00
    0.52536E-07        -0.28952E-09         0.00000E+00
    0.52538E-07        -0.27028E-09         0.00000E+00
    0.52540E-07        -0.24988E-09         0.00000E+00
    0.52542E-07        -0.22833E-09         0.00000E+00
    0.52544E-07        -0.20565E-09         0.00000E+00
    0.52546E-07        -0.18184E-09         0.00000E+00
    0.52547E-07        -0.15690E-09         0.00000E+00
    0.52548E-07        -0.13086E-09         0.00000E+00
    0.52549E-07        -0.10371E-09         0.00000E+00
    0.52550E-07        -0.75454E-10         0.00000E+00
    0.52550E-07        -0.46107E-10         0.00000E+00
    0.52550E-07        -0.15670E-10         0.00000E+00
    0.54277E-07        -0.19989E-10         0.00000E+00
    0.54277E-07        -0.58606E-10         0.00000E+00
    0.54278E-07        -0.95205E-10         0.00000E+00
    0.54279E-07        -0.12982E-09         0.00000E+00
    0.54280E-07        -0.16247E-09         0.00000E+00
    0.54282E-07        -0.19321E-09         0.00000E+00
    0.54284E-07        -0.22205E-09         0.00000E+00
    0.54286E-07        -0.24902E-09         0.00000E+00
    0.54288E-07        -0.27416E-09         0.00000E+00
    0.54291E-07        -0.29749E-09         0.00000E+00
    0.54293E-07        -0.31905E-09         0.00000E+00
    0.54296E-07        -0.33886E-09         0.00000E+00
    0.54299E-07        -0.35694E-09         0.00000E+00
    0.54302E-07        -0.37334E-09         0.00000E+00
    0.54305E-07        -0.38806E-09         0.00000E+00
    0.54308E-07        -0.40115E-09         0.00000E+00
    0.54312E-07        -0.41261E-09         0.00000E+00
    0.54315E-07        -0.42249E-09         0.00000E+00
    0.54319E-07        -0.43080E-09         0.00000E+00
    0.54322E-07        -0.43757E-09         0.00000E+00
    0.54325E-07        -0.44281E-09         0.00000E+00
    0.54329E-07        -0.44656E-09         0.00000E+00
    0.54332E-07        -0.44884E-09         0.00000E+00
    0.54335E-07        -0.44966E-09         0.00000E+00
    0.54339E-07        -0.44905E-09         0.00000E+00
    0.54342E-07        -0.44702E-09         0.00000E+00
    0.54345E-07        -0.44361E-09         0.00000E+00
    0.54349E-07        -0.43882E-09         0.00000E+00
    0.54352E-07        -0.43267E-09         0.00000E+00
    0.54355E-07        -0.42518E-09         0.00000E+00
    0.54358E-07        -0.41638E-09         0.00000E+00
    0.54360E-07        -0.40627E-09         0.00000E+00
    0.54363E-07        -0.39487E-09         0.00000E+00
    0.54366E-07        -0.38220E-09         0.00000E+00
    0.54368E-07        -0.36826E-09         0.00000E+00
    0.54371E-07        -0.35309E-09         0.00000E+00
    0.54373E-07        -0.33668E-09         0.00000E+00
    0.54375E-07        -0.31905E-09         0.00000E+00
    0.54377E-07        -0.30022E-09         0.00000E+00
    0.54379E-07        -0.28019E-09         0.00000E+00
    0.54381E-07        -0.25897E-09         0.00000E+00
    0.54382E-07        -0.23658E-09         0.00000E+00
    0.54384E-07        -0.21303E-09         0.00000E+00
    0.54385E-07        -0.18832E-09         0.00000E+00
    0.54386E-07        -0.16246E-09         0.00000E+00
    0.54387E-07        -0.13546E-09         0.00000E+00
    0.54388E-07        -0.10733E-09         0.00000E+00
    0.54388E-07        -0.78075E-10         0.00000E+00
    0.54389E-07        -0.47699E-10         0.00000E+00
    0.54389E-07        -0.16208E-10         0.00000E+00
    0.56140E-07        -0.20889E-10         0.00000E+00
    0.56140E-07        -0.61215E-10         0.00000E+00
    0.56141E-07        -0.99389E-10         0.00000E+00
    0.56142E-07        -0.13545E-09         0.00000E+00
    0.56143E-07        -0.16943E-09         0.00000E+00
    0.56145E-07        -0.20137E-09         0.00000E+00
    0.56146E-07        -0.23131E-09         0.00000E+00
    0.56148E-07        -0.25927E-09         0.00000E+00
    0.56150E-07        -0.28530E-09         0.00000E+00
    0.56152E-07        -0.30942E-09         0.00000E+00
    0.56154E-07        -0.33167E-09         0.00000E+00
    0.56157E-07        -0.35209E-09         0.00000E+00
    0.56159E-07        -0.37070E-09         0.00000E+00
    0.56162E-07        -0.38754E-09         0.00000E+00
    0.56164E-07        -0.40264E-09         0.00000E+00
    0.56167E-07        -0.41602E-09         0.00000E+00
    0.56170E-07        -0.42771E-09         0.00000E+00
    0.56172E-07        -0.43775E-09         0.00000E+00
    0.56175E-07        -0.44616E-09         0.00000E+00
    0.56178E-07        -0.45298E-09         0.00000E+00
    0.56181E-07        -0.45821E-09         0.00000E+00
    0.56183E-07        -0.46190E-09         0.00000E+00
    0.56186E-07        -0.46406E-09         0.00000E+00
    0.56189E-07        -0.46472E-09         0.00000E+00
    0.56191E-07        -0.46391E-09         0.00000E+00
    0.56194E-07        -0.46164E-09         0.00000E+00
    0.56196E-07        -0.45793E-09         0.00000E+00
    0.56199E-07        -0.45282E-09         0.00000E+00
    0.56201E-07        -0.44632E-09         0.00000E+00
    0.56204E-07        -0.43844E-09         0.00000E+00
    0.56206E-07        -0.42921E-09         0.00000E+00
    0.56208E-07        -0.41865E-09         0.00000E+00
    0.56210E-07        -0.40677E-09         0.00000E+00
    0.56212E-07        -0.39359E-09         0.00000E+00
    0.56214E-07        -0.37912E-09         0.00000E+00
    0.56216E-07        -0.36339E-09         0.00000E+00
    0.56218E-07        -0.34640E-09         0.00000E+00
    0.56219E-07        -0.32817E-09         0.00000E+00
    0.56221E-07        -0.30871E-09         0.00000E+00
    0.56222E-07        -0.28803E-09         0.00000E+00
    0.56224E-07        -0.26615E-09         0.00000E+00
    0.56225E-07        -0.24308E-09         0.00000E+00
    0.56226E-07        -0.21883E-09         0.00000E+00
    0.56227E-07        -0.19340E-09         0.00000E+00
    0.56228E-07        -0.16680E-09         0.00000E+00
    0.56228E-07        -0.13905E-09         0.00000E+00
    0.56229E-07        -0.11015E-09         0.00000E+00
    0.56229E-07        -0.80113E-10         0.00000E+00
    0.56230E-07        -0.48934E-10         0.00000E+00
    0.56230E-07        -0.16624E-10         0.00000E+00
    0.58003E-07        -0.21648E-10         0.00000E+00
    0.58003E-07        -0.63405E-10         0.00000E+00
    0.58003E-07        -0.10289E-09         0.00000E+00
    0.58004E-07        -0.14014E-09         0.00000E+00
    0.58005E-07        -0.17520E-09         0.00000E+00
    0.58006E-07        -0.20811E-09         0.00000E+00
    0.58007E-07        -0.23891E-09         0.00000E+00
    0.58009E-07        -0.26765E-09         0.00000E+00
    0.58010E-07        -0.29436E-09         0.00000E+00
    0.58012E-07        -0.31908E-09         0.00000E+00
    0.58014E-07        -0.34184E-09         0.00000E+00
    0.58015E-07        -0.36270E-09         0.00000E+00
    0.58017E-07        -0.38168E-09         0.00000E+00
    0.58019E-07        -0.39882E-09         0.00000E+00
    0.58021E-07        -0.41414E-09         0.00000E+00
    0.58023E-07        -0.42770E-09         0.00000E+00
    0.58025E-07        -0.43951E-09         0.00000E+00
    0.58027E-07        -0.44962E-09         0.00000E+00
    0.58029E-07        -0.45805E-09         0.00000E+00
    0.58031E-07        -0.46483E-09         0.00000E+00
    0.58033E-07        -0.47000E-09         0.00000E+00
    0.58035E-07        -0.47357E-09         0.00000E+00
    0.58037E-07        -0.47558E-09         0.00000E+00
    0.58039E-07        -0.47606E-09         0.00000E+00
    0.58041E-07        -0.47503E-09         0.00000E+00
    0.58042E-07        -0.47252E-09         0.00000E+00
    0.58044E-07        -0.46855E-09         0.00000E+00
    0.58046E-07        -0.46314E-09         0.00000E+00
    0.58048E-07        -0.45631E-09         0.00000E+00
    0.58049E-07        -0.44810E-09         0.00000E+00
    0.58051E-07        -0.43851E-09         0.00000E+00
    0.58052E-07        -0.42757E-09         0.00000E+00
    0.58053E-07        -0.41529E-09         0.00000E+00
    0.58055E-07        -0.40170E-09         0.00000E+00
    0.58056E-07        -0.38682E-09         0.00000E+00
    0.58057E-07        -0.37065E-09         0.00000E+00
    0.58058E-07        -0.35321E-09         0.00000E+00
    0.58059E-07        -0.33453E-09         0.00000E+00
    0.58060E-07        -0.31460E-09         0.00000E+00
    0.58061E-07        -0.29345E-09         0.00000E+00
    0.58062E-07        -0.27109E-09         0.00000E+00
    0.58063E-07        -0.24753E-09         0.00000E+00
    0.58063E-07        -0.22277E-09         0.00000E+00
    0.58064E-07        -0.19684E-09         0.00000E+00
    0.58064E-07        -0.16973E-09         0.00000E+00
    0.58065E-07        -0.14147E-09         0.00000E+00
    0.58065E-07        -0.11204E-09         0.00000E+00
    0.58065E-07        -0.81468E-10         0.00000E+00
    0.58065E-07        -0.49752E-10         0.00000E+00
    0.58065E-07        -0.16899E-10         0.00000E+00
    0.59856E-07        -0.22236E-10         0.00000E+00
    0.59856E-07        -0.65091E-10         0.00000E+00
    0.59857E-07        -0.10556E-09         0.00000E+00
    0.59857E-07        -0.14369E-09         0.00000E+00
    0.59858E-07        -0.17953E-09         0.00000E+00
    0.59858E-07        -0.21313E-09         0.00000E+00
    0.59859E-07        -0.24453E-09         0.00000E+00
    0.59860E-07        -0.27379E-09         0.00000E+00
    0.59861E-07        -0.30093E-09         0.00000E+00
    0.59862E-07        -0.32602E-09         0.00000E+00
    0.59863E-07        -0.34910E-09         0.00000E+00
    0.59865E-07        -0.37019E-09         0.00000E+00
    0.59866E-07        -0.38935E-09         0.00000E+00
    0.59867E-07        -0.40662E-09         0.00000E+00
    0.59868E-07        -0.42203E-09         0.00000E+00
    0.59869E-07        -0.43561E-09         0.00000E+00
    0.59870E-07        -0.44742E-09         0.00000E+00
    0.59872E-07        -0.45748E-09         0.00000E+00
    0.59873E-07        -0.46583E-09         0.00000E+00
    0.59874E-07        -0.47250E-09         0.00000E+00
    0.59875E-07        -0.47753E-09         0.00000E+00
    0.59876E-07        -0.48094E-09         0.00000E+00
    0.59877E-07        -0.48277E-09         0.00000E+00
    0.59878E-07        -0.48304E-09         0.00000E+00
    0.59879E-07        -0.48179E-09         0.00000E+00
    0.59880E-07        -0.47904E-09         0.00000E+00
    0.59880E-07        -0.47482E-09         0.00000E+00
    0.59881E-07        -0.46915E-09         0.00000E+00
    0.59882E-07        -0.46205E-09         0.00000E+00
    0.59883E-07        -0.45356E-09         0.00000E+00
    0.59883E-07        -0.44369E-09         0.00000E+00
    0.59884E-07        -0.43247E-09         0.00000E+00
    0.59884E-07        -0.41990E-09         0.00000E+00
    0.59885E-07        -0.40603E-09         0.00000E+00
    0.59885E-07        -0.39085E-09         0.00000E+00
    0.59886E-07        -0.37439E-09         0.00000E+00
    0.59886E-07        -0.35667E-09         0.00000E+00
    0.59886E-07        -0.33770E-09         0.00000E+00
    0.59887E-07        -0.31749E-09         0.00000E+00
    0.59887E-07        -0.29607E-09         0.00000E+00
    0.59887E-07        -0.27343E-09         0.00000E+00
    0.59887E-07        -0.24960E-09         0.00000E+00
    0.59887E-07        -0.22458E-09         0.00000E+00
    0.59887E-07        -0.19839E-09         0.00000E+00
    0.59888E-07        -0.17103E-09         0.00000E+00
    0.59888E-07        -0.14252E-09         0.00000E+00
    0.59888E-07        -0.11285E-09         0.00000E+00
    0.59888E-07        -0.82039E-10         0.00000E+00
    0.59888E-07        -0.50091E-10         0.00000E+00
    0.59888E-07        -0.17011E-10         0.00000E+00
    0.61692E-07        -0.22621E-10         0.00000E+00
    0.61692E-07        -0.66179E-10         0.00000E+00
    0.61692E-07        -0.10725E-09         0.00000E+00
    0.61692E-07        -0.14590E-09         0.00000E+00
    0.61693E-07        -0.18218E-09         0.00000E+00
    0.61693E-07        -0.21613E-09         0.00000E+00
    0.61694E-07        -0.24782E-09         0.00000E+00
    0.61694E-07        -0.27730E-09         0.00000E+00
    0.61694E-07        -0.30461E-09         0.00000E+00
    0.61695E-07        -0.32980E-09         0.00000E+00
    0.61695E-07        -0.35293E-09         0.00000E+00
    0.61696E-07        -0.37404E-09         0.00000E+00
    0.61696E-07        -0.39317E-09         0.00000E+00
    0.61696E-07        -0.41037E-09         0.00000E+00
    0.61697E-07        -0.42568E-09         0.00000E+00
    0.61697E-07        -0.43915E-09         0.00000E+00
    0.61697E-07        -0.45081E-09         0.00000E+00
    0.61697E-07        -0.46070E-09         0.00000E+00
    0.61697E-07        -0.46886E-09         0.00000E+00
    0.61697E-07        -0.47533E-09         0.00000E+00
    0.61697E-07        -0.48015E-09         0.00000E+00
    0.61697E-07        -0.48334E-09         0.00000E+00
    0.61697E-07        -0.48495E-09         0.00000E+00
    0.61697E-07        -0.48499E-09         0.00000E+00
    0.61697E-07        -0.48351E-09         0.00000E+00
    0.61697E-07        -0.48054E-09         0.00000E+00
    0.61697E-07        -0.47609E-09         0.00000E+00
    0.61696E-07        -0.47021E-09         0.00000E+00
    0.61696E-07        -0.46291E-09         0.00000E+00
    0.61696E-07        -0.45422E-09         0.00000E+00
    0.61695E-07        -0.44416E-09         0.00000E+00
    0.61695E-07        -0.43275E-09         0.00000E+00
    0.61694E-07        -0.42003E-09         0.00000E+00
    0.61694E-07        -0.40600E-09         0.00000E+00
    0.61693E-07        -0.39069E-09         0.00000E+00
    0.61693E-07        -0.37412E-09         0.00000E+00
    0.61692E-07        -0.35629E-09         0.00000E+00
    0.61692E-07        -0.33724E-09         0.00000E+00
    0.61692E-07        -0.31696E-09         0.00000E+00
    0.61691E-07        -0.29549E-09         0.00000E+00
    0.61691E-07        -0.27282E-09         0.00000E+00
    0.61690E-07        -0.24898E-09         0.00000E+00
    0.61690E-07        -0.22396E-09         0.00000E+00
    0.61689E-07        -0.19780E-09         0.00000E+00
    0.61689E-07        -0.17048E-09         0.00000E+00
    0.61689E-07        -0.14202E-09         0.00000E+00
    0.61689E-07        -0.11244E-09         0.00000E+00
    0.61688E-07        -0.81723E-10         0.00000E+00
    0.61688E-07        -0.49889E-10         0.00000E+00
    0.61688E-07        -0.16938E-10         0.00000E+00
    0.63501E-07        -0.22771E-10         0.00000E+00
    0.63501E-07        -0.66574E-10         0.00000E+00
    0.63501E-07        -0.10782E-09         0.00000E+00
    0.63501E-07        -0.14656E-09         0.00000E+00
    0.63501E-07        -0.18287E-09         0.00000E+00
    0.63501E-07        -0.21681E-09         0.00000E+00
    0.63501E-07        -0.24842E-09         0.00000E+00
    0.63501E-07        -0.27778E-09         0.00000E+00
    0.63500E-07        -0.30493E-09         0.00000E+00
    0.63500E-07        -0.32993E-09         0.00000E+00
    0.63500E-07        -0.35284E-09         0.00000E+00
    0.63499E-07        -0.37370E-09         0.00000E+00
    0.63499E-07        -0.39256E-09         0.00000E+00
    0.63498E-07        -0.40948E-09         0.00000E+00
    0.63497E-07        -0.42450E-09         0.00000E+00
    0.63497E-07        -0.43766E-09         0.00000E+00
    0.63496E-07        -0.44901E-09         0.00000E+00
    0.63495E-07        -0.45860E-09         0.00000E+00
    0.63494E-07        -0.46646E-09         0.00000E+00
    0.63493E-07        -0.47263E-09         0.00000E+00
    0.63491E-07        -0.47716E-09         0.00000E+00
    0.63490E-07        -0.48008E-09         0.00000E+00
    0.63489E-07        -0.48142E-09         0.00000E+00
    0.63488E-07        -0.48122E-09         0.00000E+00
    0.63486E-07        -0.47952E-09         0.00000E+00
    0.63485E-07        -0.47633E-09         0.00000E+00
    0.63483E-07        -0.47171E-09         0.00000E+00
    0.63482E-07        -0.46566E-09         0.00000E+00
    0.63480E-07        -0.45823E-09         0.00000E+00
    0.63479E-07        -0.44943E-09         0.00000E+00
    0.63477E-07        -0.43929E-09         0.00000E+00
    0.63476E-07        -0.42784E-09         0.00000E+00
    0.63474E-07        -0.41510E-09         0.00000E+00
    0.63473E-07        -0.40108E-09         0.00000E+00
    0.63471E-07        -0.38582E-09         0.00000E+00
    0.63470E-07        -0.36932E-09         0.00000E+00
    0.63468E-07        -0.35160E-09         0.00000E+00
    0.63467E-07        -0.33269E-09         0.00000E+00
    0.63466E-07        -0.31259E-09         0.00000E+00
    0.63464E-07        -0.29132E-09         0.00000E+00
    0.63463E-07        -0.26890E-09         0.00000E+00
    0.63462E-07        -0.24533E-09         0.00000E+00
    0.63461E-07        -0.22063E-09         0.00000E+00
    0.63460E-07        -0.19480E-09         0.00000E+00
    0.63459E-07        -0.16786E-09         0.00000E+00
    0.63459E-07        -0.13981E-09         0.00000E+00
    0.63458E-07        -0.11066E-09         0.00000E+00
    0.63458E-07        -0.80415E-10         0.00000E+00
    0.63458E-07        -0.49081E-10         0.00000E+00
    0.63457E-07        -0.16661E-10         0.00000E+00
    0.65274E-07        -0.22650E-10         0.00000E+00
    0.65274E-07        -0.66173E-10         0.00000E+00
    0.65274E-07        -0.10708E-09         0.00000E+00
    0.65274E-07        -0.14545E-09         0.00000E+00
    0.65273E-07        -0.18134E-09         0.00000E+00
    0.65272E-07        -0.21482E-09         0.00000E+00
    0.65272E-07        -0.24595E-09         0.00000E+00
    0.65271E-07        -0.27481E-09         0.00000E+00
    0.65270E-07        -0.30144E-09         0.00000E+00
    0.65269E-07        -0.32591E-09         0.00000E+00
    0.65267E-07        -0.34828E-09         0.00000E+00
    0.65266E-07        -0.36861E-09         0.00000E+00
    0.65264E-07        -0.38694E-09         0.00000E+00
    0.65263E-07        -0.40333E-09         0.00000E+00
    0.65261E-07        -0.41783E-09         0.00000E+00
    0.65259E-07        -0.43050E-09         0.00000E+00
    0.65257E-07        -0.44138E-09         0.00000E+00
    0.65254E-07        -0.45051E-09         0.00000E+00
    0.65252E-07        -0.45794E-09         0.00000E+00
    0.65250E-07        -0.46371E-09         0.00000E+00
    0.65247E-07        -0.46787E-09         0.00000E+00
    0.65245E-07        -0.47045E-09         0.00000E+00
    0.65242E-07        -0.47149E-09         0.00000E+00
    0.65239E-07        -0.47103E-09         0.00000E+00
    0.65237E-07        -0.46911E-09         0.00000E+00
    0.65234E-07        -0.46574E-09         0.00000E+00
    0.65231E-07        -0.46098E-09         0.00000E+00
    0.65228E-07        -0.45484E-09         0.00000E+00
    0.65225E-07        -0.44736E-09         0.00000E+00
    0.65223E-07        -0.43857E-09         0.00000E+00
    0.65220E-07        -0.42848E-09         0.00000E+00
    0.65217E-07        -0.41713E-09         0.00000E+00
    0.65214E-07        -0.40453E-09         0.00000E+00
    0.65212E-07        -0.39071E-09         0.00000E+00
    0.65209E-07        -0.37569E-09         0.00000E+00
    0.65206E-07        -0.35949E-09         0.00000E+00
    0.65204E-07        -0.34212E-09         0.00000E+00
    0.65202E-07        -0.32361E-09         0.00000E+00
    0.65199E-07        -0.30396E-09         0.00000E+00
    0.65197E-07        -0.28319E-09         0.00000E+00
    0.65195E-07        -0.26131E-09         0.00000E+00
    0.65194E-07        -0.23834E-09         0.00000E+00
    0.65192E-07        -0.21428E-09         0.00000E+00
    0.65190E-07        -0.18915E-09         0.00000E+00
    0.65189E-07        -0.16295E-09         0.00000E+00
    0.65188E-07        -0.13569E-09         0.00000E+00
    0.65187E-07        -0.10738E-09         0.00000E+00
    0.65186E-07        -0.78015E-10         0.00000E+00
    0.65186E-07        -0.47608E-10         0.00000E+00
    0.65186E-07        -0.16158E-10         0.00000E+00
    0.67001E-07        -0.22224E-10         0.00000E+00
    0.67000E-07        -0.64873E-10         0.00000E+00
    0.67000E-07        -0.10488E-09         0.00000E+00
    0.66999E-07        -0.14233E-09         0.00000E+00
    0.66998E-07        -0.17729E-09         0.00000E+00
    0.66997E-07        -0.20983E-09         0.00000E+00
    0.66996E-07        -0.24003E-09         0.00000E+00
    0.66994E-07        -0.26795E-09         0.00000E+00
    0.66992E-07        -0.29366E-09         0.00000E+00
    0.66990E-07        -0.31723E-09         0.00000E+00
    0.66988E-07        -0.33872E-09         0.00000E+00
    0.66985E-07        -0.35819E-09         0.00000E+00
    0.66982E-07        -0.37569E-09         0.00000E+00
    0.66979E-07        -0.39130E-09         0.00000E+00
    0.66976E-07        -0.40505E-09         0.00000E+00
    0.66973E-07        -0.41701E-09         0.00000E+00
    0.66970E-07        -0.42722E-09         0.00000E+00
    0.66966E-07        -0.43573E-09         0.00000E+00
    0.66962E-07        -0.44260E-09         0.00000E+00
    0.66958E-07        -0.44786E-09         0.00000E+00
    0.66955E-07        -0.45157E-09         0.00000E+00
    0.66950E-07        -0.45376E-09         0.00000E+00
    0.66946E-07        -0.45446E-09         0.00000E+00
    0.66942E-07        -0.45373E-09         0.00000E+00
    0.66938E-07        -0.45160E-09         0.00000E+00
    0.66934E-07        -0.44809E-09         0.00000E+00
    0.66929E-07        -0.44325E-09         0.00000E+00
    0.66925E-07        -0.43710E-09         0.00000E+00
    0.66921E-07        -0.42968E-09         0.00000E+00
    0.66917E-07        -0.42101E-09         0.00000E+00
    0.66912E-07        -0.41112E-09         0.00000E+00
    0.66908E-07        -0.40003E-09         0.00000E+00
    0.66904E-07        -0.38777E-09         0.00000E+00
    0.66900E-07        -0.37435E-09         0.00000E+00
    0.66897E-07        -0.35981E-09         0.00000E+00
    0.66893E-07        -0.34415E-09         0.00000E+00
    0.66889E-07        -0.32739E-09         0.00000E+00
    0.66886E-07        -0.30956E-09         0.00000E+00
    0.66883E-07        -0.29066E-09         0.00000E+00
    0.66880E-07        -0.27071E-09         0.00000E+00
    0.66877E-07        -0.24972E-09         0.00000E+00
    0.66874E-07        -0.22770E-09         0.00000E+00
    0.66872E-07        -0.20466E-09         0.00000E+00
    0.66870E-07        -0.18061E-09         0.00000E+00
    0.66868E-07        -0.15555E-09         0.00000E+00
    0.66866E-07        -0.12950E-09         0.00000E+00
    0.66865E-07        -0.10246E-09         0.00000E+00
    0.66864E-07        -0.74427E-10         0.00000E+00
    0.66863E-07        -0.45410E-10         0.00000E+00
    0.66863E-07        -0.15410E-10         0.00000E+00
    0.68670E-07        -0.21455E-10         0.00000E+00
    0.68670E-07        -0.62567E-10         0.00000E+00
    0.68669E-07        -0.10104E-09         0.00000E+00
    0.68668E-07        -0.13697E-09         0.00000E+00
    0.68666E-07        -0.17043E-09         0.00000E+00
    0.68664E-07        -0.20150E-09         0.00000E+00
    0.68662E-07        -0.23025E-09         0.00000E+00
    0.68660E-07        -0.25677E-09         0.00000E+00
    0.68657E-07        -0.28112E-09         0.00000E+00
    0.68654E-07        -0.30338E-09         0.00000E+00
    0.68650E-07        -0.32361E-09         0.00000E+00
    0.68647E-07        -0.34187E-09         0.00000E+00
    0.68643E-07        -0.35824E-09         0.00000E+00
    0.68638E-07        -0.37276E-09         0.00000E+00
    0.68634E-07        -0.38551E-09         0.00000E+00
    0.68629E-07        -0.39653E-09         0.00000E+00
    0.68624E-07        -0.40588E-09         0.00000E+00
    0.68619E-07        -0.41361E-09         0.00000E+00
    0.68614E-07        -0.41977E-09         0.00000E+00
    0.68608E-07        -0.42441E-09         0.00000E+00
    0.68603E-07        -0.42758E-09         0.00000E+00
    0.68597E-07        -0.42931E-09         0.00000E+00
    0.68591E-07        -0.42966E-09         0.00000E+00
    0.68586E-07        -0.42865E-09         0.00000E+00
    0.68580E-07        -0.42632E-09         0.00000E+00
    0.68574E-07        -0.42272E-09         0.00000E+00
    0.68568E-07        -0.41787E-09         0.00000E+00
    0.68562E-07        -0.41181E-09         0.00000E+00
    0.68556E-07        -0.40456E-09         0.00000E+00
    0.68551E-07        -0.39616E-09         0.00000E+00
    0.68545E-07        -0.38663E-09         0.00000E+00
    0.68539E-07        -0.37599E-09         0.00000E+00
    0.68534E-07        -0.36427E-09         0.00000E+00
    0.68528E-07        -0.35150E-09         0.00000E+00
    0.68523E-07        -0.33767E-09         0.00000E+00
    0.68518E-07        -0.32283E-09         0.00000E+00
    0.68514E-07        -0.30698E-09         0.00000E+00
    0.68509E-07        -0.29014E-09         0.00000E+00
    0.68505E-07        -0.27232E-09         0.00000E+00
    0.68501E-07        -0.25354E-09         0.00000E+00
    0.68497E-07        -0.23380E-09         0.00000E+00
    0.68493E-07        -0.21311E-09         0.00000E+00
    0.68490E-07        -0.19149E-09         0.00000E+00
    0.68487E-07        -0.16895E-09         0.00000E+00
    0.68485E-07        -0.14547E-09         0.00000E+00
    0.68483E-07        -0.12108E-09         0.00000E+00
    0.68481E-07        -0.95779E-10         0.00000E+00
    0.68480E-07        -0.69562E-10         0.00000E+00
    0.68479E-07        -0.42435E-10         0.00000E+00
    0.68478E-07        -0.14398E-10         0.00000E+00
    0.70271E-07        -0.20307E-10         0.00000E+00
    0.70271E-07        -0.59146E-10         0.00000E+00
    0.70270E-07        -0.95393E-10         0.00000E+00
    0.70268E-07        -0.12914E-09         0.00000E+00
    0.70266E-07        -0.16047E-09         0.00000E+00
    0.70263E-07        -0.18948E-09         0.00000E+00
    0.70260E-07        -0.21624E-09         0.00000E+00
    0.70257E-07        -0.24084E-09         0.00000E+00
    0.70253E-07        -0.26335E-09         0.00000E+00
    0.70249E-07        -0.28385E-09         0.00000E+00
    0.70244E-07        -0.30241E-09         0.00000E+00
    0.70239E-07        -0.31910E-09         0.00000E+00
    0.70234E-07        -0.33399E-09         0.00000E+00
    0.70228E-07        -0.34713E-09         0.00000E+00
    0.70222E-07        -0.35859E-09         0.00000E+00
    0.70216E-07        -0.36844E-09         0.00000E+00
    0.70209E-07        -0.37672E-09         0.00000E+00
    0.70202E-07        -0.38350E-09         0.00000E+00
    0.70195E-07        -0.38881E-09         0.00000E+00
    0.70188E-07        -0.39272E-09         0.00000E+00
    0.70181E-07        -0.39526E-09         0.00000E+00
    0.70174E-07        -0.39649E-09         0.00000E+00
    0.70166E-07        -0.39644E-09         0.00000E+00
    0.70159E-07        -0.39516E-09         0.00000E+00
    0.70151E-07        -0.39268E-09         0.00000E+00
    0.70143E-07        -0.38903E-09         0.00000E+00
    0.70136E-07        -0.38426E-09         0.00000E+00
    0.70128E-07        -0.37840E-09         0.00000E+00
    0.70121E-07        -0.37146E-09         0.00000E+00
    0.70113E-07        -0.36349E-09         0.00000E+00
    0.70106E-07        -0.35450E-09         0.00000E+00
    0.70099E-07        -0.34453E-09         0.00000E+00
    0.70092E-07        -0.33358E-09         0.00000E+00
    0.70085E-07        -0.32169E-09         0.00000E+00
    0.70079E-07        -0.30887E-09         0.00000E+00
    0.70072E-07        -0.29514E-09         0.00000E+00
    0.70066E-07        -0.28051E-09         0.00000E+00
    0.70061E-07        -0.26500E-09         0.00000E+00
    0.70055E-07        -0.24861E-09         0.00000E+00
    0.70050E-07        -0.23137E-09         0.00000E+00
    0.70045E-07        -0.21328E-09         0.00000E+00
    0.70041E-07        -0.19435E-09         0.00000E+00
    0.70037E-07        -0.17458E-09         0.00000E+00
    0.70033E-07        -0.15398E-09         0.00000E+00
    0.70030E-07        -0.13255E-09         0.00000E+00
    0.70028E-07        -0.11030E-09         0.00000E+00
    0.70025E-07        -0.87236E-10         0.00000E+00
    0.70024E-07        -0.63348E-10         0.00000E+00
    0.70023E-07        -0.38639E-10         0.00000E+00
    0.70022E-07        -0.13108E-10         0.00000E+00
    0.71793E-07        -0.18742E-10         0.00000E+00
    0.71792E-07        -0.54505E-10         0.00000E+00
    0.71791E-07        -0.87762E-10         0.00000E+00
    0.71789E-07        -0.11861E-09         0.00000E+00
    0.71786E-07        -0.14714E-09         0.00000E+00
    0.71783E-07        -0.17345E-09         0.00000E+00
    0.71779E-07        -0.19763E-09         0.00000E+00
    0.71774E-07        -0.21976E-09         0.00000E+00
    0.71769E-07        -0.23992E-09         0.00000E+00
    0.71764E-07        -0.25819E-09         0.00000E+00
    0.71758E-07        -0.27465E-09         0.00000E+00
    0.71751E-07        -0.28936E-09         0.00000E+00
    0.71744E-07        -0.30241E-09         0.00000E+00
    0.71737E-07        -0.31385E-09         0.00000E+00
    0.71730E-07        -0.32376E-09         0.00000E+00
    0.71722E-07        -0.33218E-09         0.00000E+00
    0.71713E-07        -0.33918E-09         0.00000E+00
    0.71705E-07        -0.34482E-09         0.00000E+00
    0.71696E-07        -0.34915E-09         0.00000E+00
    0.71687E-07        -0.35221E-09         0.00000E+00
    0.71678E-07        -0.35405E-09         0.00000E+00
    0.71669E-07        -0.35473E-09         0.00000E+00
    0.71660E-07        -0.35428E-09         0.00000E+00
    0.71650E-07        -0.35273E-09         0.00000E+00
    0.71641E-07        -0.35014E-09         0.00000E+00
    0.71631E-07        -0.34653E-09         0.00000E+00
    0.71622E-07        -0.34194E-09         0.00000E+00
    0.71613E-07        -0.33639E-09         0.00000E+00
    0.71603E-07        -0.32992E-09         0.00000E+00
    0.71594E-07        -0.32256E-09         0.00000E+00
    0.71585E-07        -0.31432E-09         0.00000E+00
    0.71577E-07        -0.30523E-09         0.00000E+00
    0.71568E-07        -0.29531E-09         0.00000E+00
    0.71560E-07        -0.28458E-09         0.00000E+00
    0.71552E-07        -0.27305E-09         0.00000E+00
    0.71544E-07        -0.26075E-09         0.00000E+00
    0.71537E-07        -0.24768E-09         0.00000E+00
    0.71530E-07        -0.23385E-09         0.00000E+00
    0.71523E-07        -0.21929E-09         0.00000E+00
    0.71517E-07        -0.20399E-09         0.00000E+00
    0.71511E-07        -0.18796E-09         0.00000E+00
    0.71506E-07        -0.17121E-09         0.00000E+00
    0.71501E-07        -0.15374E-09         0.00000E+00
    0.71497E-07        -0.13556E-09         0.00000E+00
    0.71493E-07        -0.11667E-09         0.00000E+00
    0.71490E-07        -0.97067E-10         0.00000E+00
    0.71487E-07        -0.76754E-10         0.00000E+00
    0.71485E-07        -0.55729E-10         0.00000E+00
    0.71484E-07        -0.33989E-10         0.00000E+00
    0.71483E-07        -0.11530E-10         0.00000E+00
    0.73223E-07        -0.16727E-10         0.00000E+00
    0.73223E-07        -0.48545E-10         0.00000E+00
    0.73221E-07        -0.77992E-10         0.00000E+00
    0.73218E-07        -0.10517E-09         0.00000E+00
    0.73215E-07        -0.13018E-09         0.00000E+00
    0.73211E-07        -0.15312E-09         0.00000E+00
    0.73206E-07        -0.17408E-09         0.00000E+00
    0.73200E-07        -0.19315E-09         0.00000E+00
    0.73194E-07        -0.21042E-09         0.00000E+00
    0.73187E-07        -0.22597E-09         0.00000E+00
    0.73180E-07        -0.23988E-09         0.00000E+00
    0.73172E-07        -0.25221E-09         0.00000E+00
    0.73164E-07        -0.26306E-09         0.00000E+00
    0.73155E-07        -0.27248E-09         0.00000E+00
    0.73145E-07        -0.28053E-09         0.00000E+00
    0.73136E-07        -0.28729E-09         0.00000E+00
    0.73126E-07        -0.29280E-09         0.00000E+00
    0.73115E-07        -0.29713E-09         0.00000E+00
    0.73105E-07        -0.30033E-09         0.00000E+00
    0.73094E-07        -0.30245E-09         0.00000E+00
    0.73083E-07        -0.30353E-09         0.00000E+00
    0.73072E-07        -0.30362E-09         0.00000E+00
    0.73061E-07        -0.30275E-09         0.00000E+00
    0.73049E-07        -0.30098E-09         0.00000E+00
    0.73038E-07        -0.29833E-09         0.00000E+00
    0.73027E-07        -0.29484E-09         0.00000E+00
    0.73016E-07        -0.29054E-09         0.00000E+00
    0.73004E-07        -0.28546E-09         0.00000E+00
    0.72993E-07        -0.27963E-09         0.00000E+00
    0.72983E-07        -0.27307E-09         0.00000E+00
    0.72972E-07        -0.26579E-09         0.00000E+00
    0.72961E-07        -0.25783E-09         0.00000E+00
    0.72951E-07        -0.24921E-09         0.00000E+00
    0.72941E-07        -0.23993E-09         0.00000E+00
    0.72932E-07        -0.23001E-09         0.00000E+00
    0.72923E-07        -0.21947E-09         0.00000E+00
    0.72914E-07        -0.20831E-09         0.00000E+00
    0.72906E-07        -0.19655E-09         0.00000E+00
    0.72898E-07        -0.18419E-09         0.00000E+00
    0.72891E-07        -0.17124E-09         0.00000E+00
    0.72884E-07        -0.15771E-09         0.00000E+00
    0.72877E-07        -0.14359E-09         0.00000E+00
    0.72872E-07        -0.12890E-09         0.00000E+00
    0.72867E-07        -0.11362E-09         0.00000E+00
    0.72862E-07        -0.97760E-10         0.00000E+00
    0.72859E-07        -0.81320E-10         0.00000E+00
    0.72856E-07        -0.64294E-10         0.00000E+00
    0.72853E-07        -0.46678E-10         0.00000E+00
    0.72852E-07        -0.28468E-10         0.00000E+00
    0.72851E-07        -0.96580E-11         0.00000E+00
    0.74551E-07        -0.14230E-10         0.00000E+00
    0.74550E-07        -0.41179E-10         0.00000E+00
    0.74548E-07        -0.65946E-10         0.00000E+00
    0.74545E-07        -0.88640E-10         0.00000E+00
    0.74541E-07        -0.10937E-09         0.00000E+00
    0.74536E-07        -0.12823E-09         0.00000E+00
    0.74530E-07        -0.14532E-09         0.00000E+00
    0.74523E-07        -0.16073E-09         0.00000E+00
    0.74516E-07        -0.17456E-09         0.00000E+00
    0.74508E-07        -0.18688E-09         0.00000E+00
    0.74499E-07        -0.19778E-09         0.00000E+00
    0.74489E-07        -0.20733E-09         0.00000E+00
    0.74479E-07        -0.21561E-09         0.00000E+00
    0.74469E-07        -0.22268E-09         0.00000E+00
    0.74458E-07        -0.22861E-09         0.00000E+00
    0.74446E-07        -0.23346E-09         0.00000E+00
    0.74435E-07        -0.23729E-09         0.00000E+00
    0.74422E-07        -0.24016E-09         0.00000E+00
    0.74410E-07        -0.24211E-09         0.00000E+00
    0.74397E-07        -0.24319E-09         0.00000E+00
    0.74384E-07        -0.24345E-09         0.00000E+00
    0.74371E-07        -0.24294E-09         0.00000E+00
    0.74358E-07        -0.24168E-09         0.00000E+00
    0.74345E-07        -0.23973E-09         0.00000E+00
    0.74332E-07        -0.23710E-09         0.00000E+00
    0.74319E-07        -0.23384E-09         0.00000E+00
    0.74305E-07        -0.22996E-09         0.00000E+00
    0.74293E-07        -0.22551E-09         0.00000E+00
    0.74280E-07        -0.22049E-09         0.00000E+00
    0.74267E-07        -0.21494E-09         0.00000E+00
    0.74255E-07        -0.20887E-09         0.00000E+00
    0.74243E-07        -0.20230E-09         0.00000E+00
    0.74231E-07        -0.19524E-09         0.00000E+00
    0.74220E-07        -0.18771E-09         0.00000E+00
    0.74209E-07        -0.17973E-09         0.00000E+00
    0.74198E-07        -0.17129E-09         0.00000E+00
    0.74188E-07        -0.16241E-09         0.00000E+00
    0.74178E-07        -0.15309E-09         0.00000E+00
    0.74169E-07        -0.14334E-09         0.00000E+00
    0.74161E-07        -0.13316E-09         0.00000E+00
    0.74153E-07        -0.12255E-09         0.00000E+00
    0.74146E-07        -0.11152E-09         0.00000E+00
    0.74139E-07        -0.10006E-09         0.00000E+00
    0.74134E-07        -0.88169E-10         0.00000E+00
    0.74129E-07        -0.75844E-10         0.00000E+00
    0.74124E-07        -0.63079E-10         0.00000E+00
    0.74121E-07        -0.49869E-10         0.00000E+00
    0.74118E-07        -0.36208E-10         0.00000E+00
    0.74116E-07        -0.22086E-10         0.00000E+00
    0.74115E-07        -0.74946E-11         0.00000E+00
    0.75765E-07        -0.11228E-10         0.00000E+00
    0.75763E-07        -0.32340E-10         0.00000E+00
    0.75761E-07        -0.51522E-10         0.00000E+00
    0.75757E-07        -0.68890E-10         0.00000E+00
    0.75752E-07        -0.84553E-10         0.00000E+00
    0.75747E-07        -0.98614E-10         0.00000E+00
    0.75740E-07        -0.11117E-09         0.00000E+00
    0.75732E-07        -0.12232E-09         0.00000E+00
    0.75723E-07        -0.13216E-09         0.00000E+00
    0.75714E-07        -0.14076E-09         0.00000E+00
    0.75703E-07        -0.14820E-09         0.00000E+00
    0.75692E-07        -0.15457E-09         0.00000E+00
    0.75681E-07        -0.15993E-09         0.00000E+00
    0.75668E-07        -0.16436E-09         0.00000E+00
    0.75656E-07        -0.16791E-09         0.00000E+00
    0.75642E-07        -0.17064E-09         0.00000E+00
    0.75629E-07        -0.17262E-09         0.00000E+00
    0.75615E-07        -0.17388E-09         0.00000E+00
    0.75600E-07        -0.17449E-09         0.00000E+00
    0.75586E-07        -0.17448E-09         0.00000E+00
    0.75571E-07        -0.17391E-09         0.00000E+00
    0.75556E-07        -0.17279E-09         0.00000E+00
    0.75541E-07        -0.17119E-09         0.00000E+00
    0.75526E-07        -0.16911E-09         0.00000E+00
    0.75511E-07        -0.16660E-09         0.00000E+00
    0.75496E-07        -0.16369E-09         0.00000E+00
    0.75481E-07        -0.16039E-09         0.00000E+00
    0.75467E-07        -0.15673E-09         0.00000E+00
    0.75452E-07        -0.15273E-09         0.00000E+00
    0.75438E-07        -0.14841E-09         0.00000E+00
    0.75424E-07        -0.14379E-09         0.00000E+00
    0.75410E-07        -0.13887E-09         0.00000E+00
    0.75397E-07        -0.13367E-09         0.00000E+00
    0.75384E-07        -0.12819E-09         0.00000E+00
    0.75372E-07        -0.12245E-09         0.00000E+00
    0.75360E-07        -0.11646E-09         0.00000E+00
    0.75349E-07        -0.11021E-09         0.00000E+00
    0.75338E-07        -0.10370E-09         0.00000E+00
    0.75328E-07        -0.96951E-10         0.00000E+00
    0.75318E-07        -0.89947E-10         0.00000E+00
    0.75309E-07        -0.82690E-10         0.00000E+00
    0.75301E-07        -0.75177E-10         0.00000E+00
    0.75294E-07        -0.67403E-10         0.00000E+00
    0.75288E-07        -0.59363E-10         0.00000E+00
    0.75282E-07        -0.51049E-10         0.00000E+00
    0.75277E-07        -0.42453E-10         0.00000E+00
    0.75273E-07        -0.33567E-10         0.00000E+00
    0.75270E-07        -0.24379E-10         0.00000E+00
    0.75268E-07        -0.14878E-10         0.00000E+00
    0.75267E-07        -0.50528E-11         0.00000E+00
    0.76852E-07        -0.77063E-11         0.00000E+00
    0.76850E-07        -0.21990E-10         0.00000E+00
    0.76847E-07        -0.34673E-10         0.00000E+00
    0.76843E-07        -0.45869E-10         0.00000E+00
    0.76838E-07        -0.55692E-10         0.00000E+00
    0.76831E-07        -0.64244E-10         0.00000E+00
    0.76823E-07        -0.71627E-10         0.00000E+00
    0.76814E-07        -0.77932E-10         0.00000E+00
    0.76804E-07        -0.83250E-10         0.00000E+00
    0.76793E-07        -0.87661E-10         0.00000E+00
    0.76781E-07        -0.91245E-10         0.00000E+00
    0.76769E-07        -0.94075E-10         0.00000E+00
    0.76756E-07        -0.96217E-10         0.00000E+00
    0.76742E-07        -0.97737E-10         0.00000E+00
    0.76728E-07        -0.98692E-10         0.00000E+00
    0.76713E-07        -0.99139E-10         0.00000E+00
    0.76697E-07        -0.99127E-10         0.00000E+00
    0.76682E-07        -0.98705E-10         0.00000E+00
    0.76666E-07        -0.97915E-10         0.00000E+00
    0.76649E-07        -0.96798E-10         0.00000E+00
    0.76633E-07        -0.95389E-10         0.00000E+00
    0.76616E-07        -0.93723E-10         0.00000E+00
    0.76599E-07        -0.91829E-10         0.00000E+00
    0.76583E-07        -0.89735E-10         0.00000E+00
    0.76566E-07        -0.87465E-10         0.00000E+00
    0.76549E-07        -0.85042E-10         0.00000E+00
    0.76533E-07        -0.82485E-10         0.00000E+00
    0.76517E-07        -0.79811E-10         0.00000E+00
    0.76501E-07        -0.77036E-10         0.00000E+00
    0.76485E-07        -0.74172E-10         0.00000E+00
    0.76470E-07        -0.71229E-10         0.00000E+00
    0.76455E-07        -0.68217E-10         0.00000E+00
    0.76440E-07        -0.65143E-10         0.00000E+00
    0.76426E-07        -0.62011E-10         0.00000E+00
    0.76412E-07        -0.58825E-10         0.00000E+00
    0.76399E-07        -0.55587E-10         0.00000E+00
    0.76387E-07        -0.52297E-10         0.00000E+00
    0.76375E-07        -0.48954E-10         0.00000E+00
    0.76364E-07        -0.45554E-10         0.00000E+00
    0.76354E-07        -0.42095E-10         0.00000E+00
    0.76344E-07        -0.38570E-10         0.00000E+00
    0.76335E-07        -0.34972E-10         0.00000E+00
    0.76327E-07        -0.31293E-10         0.00000E+00
    0.76320E-07        -0.27524E-10         0.00000E+00
    0.76314E-07        -0.23655E-10         0.00000E+00
    0.76309E-07        -0.19674E-10         0.00000E+00
    0.76304E-07        -0.15567E-10         0.00000E+00
    0.76301E-07        -0.11323E-10         0.00000E+00
    0.76299E-07        -0.69252E-11         0.00000E+00
    0.76298E-07        -0.23592E-11         0.00000E+00
    0.77801E-07        -0.36671E-11         0.00000E+00
    0.77799E-07        -0.10146E-10         0.00000E+00
    0.77796E-07        -0.15433E-10         0.00000E+00
    0.77791E-07        -0.19645E-10         0.00000E+00
    0.77785E-07        -0.22891E-10         0.00000E+00
    0.77777E-07        -0.25273E-10         0.00000E+00
    0.77768E-07        -0.26889E-10         0.00000E+00
    0.77758E-07        -0.27827E-10         0.00000E+00
    0.77747E-07        -0.28172E-10         0.00000E+00
    0.77735E-07        -0.28000E-10         0.00000E+00
    0.77722E-07        -0.27384E-10         0.00000E+00
    0.77708E-07        -0.26391E-10         0.00000E+00
    0.77694E-07        -0.25080E-10         0.00000E+00
    0.77678E-07        -0.23510E-10         0.00000E+00
    0.77663E-07        -0.21731E-10         0.00000E+00
    0.77646E-07        -0.19791E-10         0.00000E+00
    0.77629E-07        -0.17732E-10         0.00000E+00
    0.77612E-07        -0.15595E-10         0.00000E+00
    0.77595E-07        -0.13413E-10         0.00000E+00
    0.77577E-07        -0.11220E-10         0.00000E+00
    0.77559E-07        -0.90424E-11         0.00000E+00
    0.77541E-07        -0.69072E-11         0.00000E+00
    0.77523E-07        -0.48364E-11         0.00000E+00
    0.77505E-07        -0.28500E-11         0.00000E+00
    0.77487E-07        -0.96532E-12         0.00000E+00
    0.77469E-07         0.80278E-12         0.00000E+00
    0.77451E-07         0.24415E-11         0.00000E+00
    0.77434E-07         0.39403E-11         0.00000E+00
    0.77417E-07         0.52903E-11         0.00000E+00
    0.77400E-07         0.64849E-11         0.00000E+00
    0.77383E-07         0.75189E-11         0.00000E+00
    0.77367E-07         0.83889E-11         0.00000E+00
    0.77352E-07         0.90931E-11         0.00000E+00
    0.77337E-07         0.96312E-11         0.00000E+00
    0.77322E-07         0.10004E-10         0.00000E+00
    0.77308E-07         0.10215E-10         0.00000E+00
    0.77295E-07         0.10267E-10         0.00000E+00
    0.77282E-07         0.10165E-10         0.00000E+00
    0.77271E-07         0.99172E-11         0.00000E+00
    0.77260E-07         0.95298E-11         0.00000E+00
    0.77249E-07         0.90121E-11         0.00000E+00
    0.77240E-07         0.83744E-11         0.00000E+00
    0.77232E-07         0.76279E-11         0.00000E+00
    0.77224E-07         0.67851E-11         0.00000E+00
    0.77217E-07         0.58596E-11         0.00000E+00
    0.77212E-07         0.48661E-11         0.00000E+00
    0.77207E-07         0.38203E-11         0.00000E+00
    0.77204E-07         0.27389E-11         0.00000E+00
    0.77202E-07         0.16398E-11         0.00000E+00
    0.77200E-07         0.54149E-12         0.00000E+00
    0.78600E-07         0.86355E-12         0.00000E+00
    0.78598E-07         0.31068E-11         0.00000E+00
    0.78594E-07         0.60364E-11         0.00000E+00
    0.78589E-07         0.95400E-11         0.00000E+00
    0.78582E-07         0.13514E-10         0.00000E+00
    0.78574E-07         0.17861E-10         0.00000E+00
    0.78564E-07         0.22495E-10         0.00000E+00
    0.78553E-07         0.27333E-10         0.00000E+00
    0.78541E-07         0.32301E-10         0.00000E+00
    0.78528E-07         0.37332E-10         0.00000E+00
    0.78514E-07         0.42365E-10         0.00000E+00
    0.78499E-07         0.47344E-10         0.00000E+00
    0.78484E-07         0.52221E-10         0.00000E+00
    0.78467E-07         0.56949E-10         0.00000E+00
    0.78450E-07         0.61490E-10         0.00000E+00
    0.78433E-07         0.65808E-10         0.00000E+00
    0.78415E-07         0.69874E-10         0.00000E+00
    0.78397E-07         0.73658E-10         0.00000E+00
    0.78379E-07         0.77139E-10         0.00000E+00
    0.78360E-07         0.80295E-10         0.00000E+00
    0.78341E-07         0.83110E-10         0.00000E+00
    0.78322E-07         0.85569E-10         0.00000E+00
    0.78303E-07         0.87660E-10         0.00000E+00
    0.78284E-07         0.89372E-10         0.00000E+00
    0.78266E-07         0.90699E-10         0.00000E+00
    0.78247E-07         0.91634E-10         0.00000E+00
    0.78228E-07         0.92172E-10         0.00000E+00
    0.78210E-07         0.92312E-10         0.00000E+00
    0.78193E-07         0.92052E-10         0.00000E+00
    0.78175E-07         0.91391E-10         0.00000E+00
    0.78158E-07         0.90331E-10         0.00000E+00
    0.78141E-07         0.88875E-10         0.00000E+00
    0.78125E-07         0.87025E-10         0.00000E+00
    0.78110E-07         0.84786E-10         0.00000E+00
    0.78095E-07         0.82163E-10         0.00000E+00
    0.78080E-07         0.79164E-10         0.00000E+00
    0.78067E-07         0.75795E-10         0.00000E+00
    0.78054E-07         0.72064E-10         0.00000E+00
    0.78042E-07         0.67982E-10         0.00000E+00
    0.78030E-07         0.63558E-10         0.00000E+00
    0.78020E-07         0.58804E-10         0.00000E+00
    0.78010E-07         0.53732E-10         0.00000E+00
    0.78001E-07         0.48357E-10         0.00000E+00
    0.77994E-07         0.42691E-10         0.00000E+00
    0.77987E-07         0.36753E-10         0.00000E+00
    0.77981E-07         0.30557E-10         0.00000E+00
    0.77976E-07         0.24122E-10         0.00000E+00
    0.77973E-07         0.17468E-10         0.00000E+00
    0.77970E-07         0.10614E-10         0.00000E+00
    0.77969E-07         0.35819E-11         0.00000E+00
    0.79237E-07         0.58249E-11         0.00000E+00
    0.79235E-07         0.17576E-10         0.00000E+00
    0.79231E-07         0.29398E-10         0.00000E+00
    0.79226E-07         0.41188E-10         0.00000E+00
    0.79218E-07         0.52855E-10         0.00000E+00
    0.79209E-07         0.64315E-10         0.00000E+00
    0.79199E-07         0.75495E-10         0.00000E+00
    0.79188E-07         0.86329E-10         0.00000E+00
    0.79175E-07         0.96758E-10         0.00000E+00
    0.79161E-07         0.10673E-09         0.00000E+00
    0.79147E-07         0.11621E-09         0.00000E+00
    0.79131E-07         0.12515E-09         0.00000E+00
    0.79115E-07         0.13352E-09         0.00000E+00
    0.79098E-07         0.14130E-09         0.00000E+00
    0.79081E-07         0.14846E-09         0.00000E+00
    0.79063E-07         0.15499E-09         0.00000E+00
    0.79045E-07         0.16088E-09         0.00000E+00
    0.79026E-07         0.16611E-09         0.00000E+00
    0.79008E-07         0.17067E-09         0.00000E+00
    0.78989E-07         0.17457E-09         0.00000E+00
    0.78970E-07         0.17781E-09         0.00000E+00
    0.78951E-07         0.18037E-09         0.00000E+00
    0.78932E-07         0.18226E-09         0.00000E+00
    0.78913E-07         0.18350E-09         0.00000E+00
    0.78894E-07         0.18407E-09         0.00000E+00
    0.78876E-07         0.18398E-09         0.00000E+00
    0.78857E-07         0.18325E-09         0.00000E+00
    0.78839E-07         0.18187E-09         0.00000E+00
    0.78822E-07         0.17986E-09         0.00000E+00
    0.78805E-07         0.17721E-09         0.00000E+00
    0.78788E-07         0.17395E-09         0.00000E+00
    0.78771E-07         0.17007E-09         0.00000E+00
    0.78756E-07         0.16558E-09         0.00000E+00
    0.78740E-07         0.16050E-09         0.00000E+00
    0.78726E-07         0.15483E-09         0.00000E+00
    0.78711E-07         0.14858E-09         0.00000E+00
    0.78698E-07         0.14175E-09         0.00000E+00
    0.78685E-07         0.13437E-09         0.00000E+00
    0.78673E-07         0.12643E-09         0.00000E+00
    0.78662E-07         0.11796E-09         0.00000E+00
    0.78652E-07         0.10895E-09         0.00000E+00
    0.78642E-07         0.99438E-10         0.00000E+00
    0.78634E-07         0.89420E-10         0.00000E+00
    0.78626E-07         0.78916E-10         0.00000E+00
    0.78619E-07         0.67941E-10         0.00000E+00
    0.78614E-07         0.56514E-10         0.00000E+00
    0.78609E-07         0.44652E-10         0.00000E+00
    0.78605E-07         0.32375E-10         0.00000E+00
    0.78603E-07         0.19706E-10         0.00000E+00
    0.78602E-07         0.66654E-11         0.00000E+00
    0.79701E-07         0.11106E-10         0.00000E+00
    0.79699E-07         0.32915E-10         0.00000E+00
    0.79695E-07         0.54051E-10         0.00000E+00
    0.79689E-07         0.74433E-10         0.00000E+00
    0.79681E-07         0.93987E-10         0.00000E+00
    0.79672E-07         0.11265E-09         0.00000E+00
    0.79662E-07         0.13038E-09         0.00000E+00
    0.79650E-07         0.14713E-09         0.00000E+00
    0.79637E-07         0.16287E-09         0.00000E+00
    0.79624E-07         0.17758E-09         0.00000E+00
    0.79609E-07         0.19123E-09         0.00000E+00
    0.79594E-07         0.20383E-09         0.00000E+00
    0.79578E-07         0.21536E-09         0.00000E+00
    0.79562E-07         0.22582E-09         0.00000E+00
    0.79545E-07         0.23523E-09         0.00000E+00
    0.79527E-07         0.24358E-09         0.00000E+00
    0.79510E-07         0.25089E-09         0.00000E+00
    0.79492E-07         0.25719E-09         0.00000E+00
    0.79474E-07         0.26247E-09         0.00000E+00
    0.79456E-07         0.26676E-09         0.00000E+00
    0.79438E-07         0.27007E-09         0.00000E+00
    0.79421E-07         0.27243E-09         0.00000E+00
    0.79403E-07         0.27385E-09         0.00000E+00
    0.79385E-07         0.27436E-09         0.00000E+00
    0.79368E-07         0.27396E-09         0.00000E+00
    0.79351E-07         0.27268E-09         0.00000E+00
    0.79334E-07         0.27054E-09         0.00000E+00
    0.79317E-07         0.26755E-09         0.00000E+00
    0.79301E-07         0.26372E-09         0.00000E+00
    0.79285E-07         0.25907E-09         0.00000E+00
    0.79269E-07         0.25361E-09         0.00000E+00
    0.79254E-07         0.24736E-09         0.00000E+00
    0.79240E-07         0.24032E-09         0.00000E+00
    0.79226E-07         0.23250E-09         0.00000E+00
    0.79212E-07         0.22392E-09         0.00000E+00
    0.79199E-07         0.21459E-09         0.00000E+00
    0.79187E-07         0.20450E-09         0.00000E+00
    0.79175E-07         0.19367E-09         0.00000E+00
    0.79164E-07         0.18212E-09         0.00000E+00
    0.79154E-07         0.16983E-09         0.00000E+00
    0.79144E-07         0.15684E-09         0.00000E+00
    0.79136E-07         0.14314E-09         0.00000E+00
    0.79128E-07         0.12874E-09         0.00000E+00
    0.79121E-07         0.11366E-09         0.00000E+00
    0.79114E-07         0.97910E-10         0.00000E+00
    0.79109E-07         0.81503E-10         0.00000E+00
    0.79105E-07         0.64455E-10         0.00000E+00
    0.79101E-07         0.46785E-10         0.00000E+00
    0.79099E-07         0.28512E-10         0.00000E+00
    0.79098E-07         0.96592E-11         0.00000E+00
    0.79978E-07         0.16523E-10         0.00000E+00
    0.79976E-07         0.48552E-10         0.00000E+00
    0.79972E-07         0.79017E-10         0.00000E+00
    0.79966E-07         0.10786E-09         0.00000E+00
    0.79959E-07         0.13506E-09         0.00000E+00
    0.79950E-07         0.16057E-09         0.00000E+00
    0.79940E-07         0.18440E-09         0.00000E+00
    0.79929E-07         0.20653E-09         0.00000E+00
    0.79917E-07         0.22698E-09         0.00000E+00
    0.79905E-07         0.24576E-09         0.00000E+00
    0.79891E-07         0.26290E-09         0.00000E+00
    0.79877E-07         0.27844E-09         0.00000E+00
    0.79863E-07         0.29240E-09         0.00000E+00
    0.79848E-07         0.30483E-09         0.00000E+00
    0.79833E-07         0.31577E-09         0.00000E+00
    0.79818E-07         0.32526E-09         0.00000E+00
    0.79802E-07         0.33335E-09         0.00000E+00
    0.79787E-07         0.34008E-09         0.00000E+00
    0.79772E-07         0.34551E-09         0.00000E+00
    0.79757E-07         0.34967E-09         0.00000E+00
    0.79741E-07         0.35261E-09         0.00000E+00
    0.79726E-07         0.35437E-09         0.00000E+00
    0.79711E-07         0.35499E-09         0.00000E+00
    0.79697E-07         0.35451E-09         0.00000E+00
    0.79682E-07         0.35295E-09         0.00000E+00
    0.79668E-07         0.35035E-09         0.00000E+00
    0.79654E-07         0.34674E-09         0.00000E+00
    0.79641E-07         0.34215E-09         0.00000E+00
    0.79628E-07         0.33658E-09         0.00000E+00
    0.79615E-07         0.33007E-09         0.00000E+00
    0.79602E-07         0.32263E-09         0.00000E+00
    0.79590E-07         0.31426E-09         0.00000E+00
    0.79578E-07         0.30500E-09         0.00000E+00
    0.79567E-07         0.29483E-09         0.00000E+00
    0.79556E-07         0.28377E-09         0.00000E+00
    0.79546E-07         0.27183E-09         0.00000E+00
    0.79536E-07         0.25900E-09         0.00000E+00
    0.79526E-07         0.24528E-09         0.00000E+00
    0.79517E-07         0.23068E-09         0.00000E+00
    0.79509E-07         0.21520E-09         0.00000E+00
    0.79501E-07         0.19884E-09         0.00000E+00
    0.79493E-07         0.18160E-09         0.00000E+00
    0.79487E-07         0.16348E-09         0.00000E+00
    0.79481E-07         0.14447E-09         0.00000E+00
    0.79475E-07         0.12460E-09         0.00000E+00
    0.79471E-07         0.10385E-09         0.00000E+00
    0.79467E-07         0.82242E-10         0.00000E+00
    0.79464E-07         0.59786E-10         0.00000E+00
    0.79462E-07         0.36496E-10         0.00000E+00
    0.79461E-07         0.12388E-10         0.00000E+00
    0.80056E-07         0.21771E-10         0.00000E+00
    0.80054E-07         0.63568E-10         0.00000E+00
    0.80051E-07         0.10272E-09         0.00000E+00
    0.80045E-07         0.13923E-09         0.00000E+00
    0.80039E-07         0.17312E-09         0.00000E+00
    0.80031E-07         0.20442E-09         0.00000E+00
    0.80023E-07         0.23318E-09         0.00000E+00
    0.80013E-07         0.25946E-09         0.00000E+00
    0.80003E-07         0.28335E-09         0.00000E+00
    0.79993E-07         0.30491E-09         0.00000E+00
    0.79982E-07         0.32425E-09         0.00000E+00
    0.79971E-07         0.34144E-09         0.00000E+00
    0.79960E-07         0.35658E-09         0.00000E+00
    0.79949E-07         0.36978E-09         0.00000E+00
    0.79938E-07         0.38112E-09         0.00000E+00
    0.79927E-07         0.39069E-09         0.00000E+00
    0.79917E-07         0.39859E-09         0.00000E+00
    0.79906E-07         0.40490E-09         0.00000E+00
    0.79895E-07         0.40970E-09         0.00000E+00
    0.79885E-07         0.41307E-09         0.00000E+00
    0.79875E-07         0.41508E-09         0.00000E+00
    0.79865E-07         0.41580E-09         0.00000E+00
    0.79856E-07         0.41528E-09         0.00000E+00
    0.79847E-07         0.41357E-09         0.00000E+00
    0.79838E-07         0.41074E-09         0.00000E+00
    0.79829E-07         0.40681E-09         0.00000E+00
    0.79821E-07         0.40183E-09         0.00000E+00
    0.79812E-07         0.39583E-09         0.00000E+00
    0.79804E-07         0.38883E-09         0.00000E+00
    0.79797E-07         0.38085E-09         0.00000E+00
    0.79789E-07         0.37191E-09         0.00000E+00
    0.79782E-07         0.36203E-09         0.00000E+00
    0.79775E-07         0.35120E-09         0.00000E+00
    0.79768E-07         0.33943E-09         0.00000E+00
    0.79762E-07         0.32672E-09         0.00000E+00
    0.79755E-07         0.31305E-09         0.00000E+00
    0.79749E-07         0.29843E-09         0.00000E+00
    0.79743E-07         0.28285E-09         0.00000E+00
    0.79738E-07         0.26627E-09         0.00000E+00
    0.79732E-07         0.24870E-09         0.00000E+00
    0.79727E-07         0.23011E-09         0.00000E+00
    0.79722E-07         0.21048E-09         0.00000E+00
    0.79718E-07         0.18981E-09         0.00000E+00
    0.79714E-07         0.16806E-09         0.00000E+00
    0.79710E-07         0.14524E-09         0.00000E+00
    0.79707E-07         0.12132E-09         0.00000E+00
    0.79705E-07         0.96302E-10         0.00000E+00
    0.79703E-07         0.70176E-10         0.00000E+00
    0.79701E-07         0.42944E-10         0.00000E+00
    0.79701E-07         0.14614E-10         0.00000E+00
    0.79919E-07         0.26399E-10         0.00000E+00
    0.79917E-07         0.76478E-10         0.00000E+00
    0.79915E-07         0.12259E-09         0.00000E+00
    0.79911E-07         0.16484E-09         0.00000E+00
    0.79906E-07         0.20335E-09         0.00000E+00
    0.79901E-07         0.23826E-09         0.00000E+00
    0.79895E-07         0.26971E-09         0.00000E+00
    0.79890E-07         0.29786E-09         0.00000E+00
    0.79884E-07         0.32291E-09         0.00000E+00
    0.79878E-07         0.34503E-09         0.00000E+00
    0.79873E-07         0.36441E-09         0.00000E+00
    0.79868E-07         0.38122E-09         0.00000E+00
    0.79863E-07         0.39565E-09         0.00000E+00
    0.79859E-07         0.40787E-09         0.00000E+00
    0.79855E-07         0.41802E-09         0.00000E+00
    0.79851E-07         0.42627E-09         0.00000E+00
    0.79848E-07         0.43274E-09         0.00000E+00
    0.79845E-07         0.43757E-09         0.00000E+00
    0.79843E-07         0.44087E-09         0.00000E+00
    0.79841E-07         0.44274E-09         0.00000E+00
    0.79840E-07         0.44328E-09         0.00000E+00
    0.79838E-07         0.44258E-09         0.00000E+00
    0.79837E-07         0.44070E-09         0.00000E+00
    0.79837E-07         0.43772E-09         0.00000E+00
    0.79836E-07         0.43369E-09         0.00000E+00
    0.79836E-07         0.42867E-09         0.00000E+00
    0.79836E-07         0.42268E-09         0.00000E+00
    0.79836E-07         0.41577E-09         0.00000E+00
    0.79836E-07         0.40795E-09         0.00000E+00
    0.79836E-07         0.39926E-09         0.00000E+00
    0.79837E-07         0.38970E-09         0.00000E+00
    0.79837E-07         0.37927E-09         0.00000E+00
    0.79837E-07         0.36797E-09         0.00000E+00
    0.79837E-07         0.35580E-09         0.00000E+00
    0.79837E-07         0.34273E-09         0.00000E+00
    0.79837E-07         0.32876E-09         0.00000E+00
    0.79837E-07         0.31385E-09         0.00000E+00
    0.79837E-07         0.29797E-09         0.00000E+00
    0.79837E-07         0.28109E-09         0.00000E+00
    0.79836E-07         0.26315E-09         0.00000E+00
    0.79836E-07         0.24413E-09         0.00000E+00
    0.79835E-07         0.22396E-09         0.00000E+00
    0.79834E-07         0.20261E-09         0.00000E+00
    0.79833E-07         0.18001E-09         0.00000E+00
    0.79832E-07         0.15613E-09         0.00000E+00
    0.79831E-07         0.13091E-09         0.00000E+00
    0.79830E-07         0.10433E-09         0.00000E+00
    0.79829E-07         0.76340E-10         0.00000E+00
    0.79829E-07         0.46926E-10         0.00000E+00
    0.79828E-07         0.16057E-10         0.00000E+00
    0.79547E-07         0.29365E-10         0.00000E+00
    0.79546E-07         0.84434E-10         0.00000E+00
    0.79545E-07         0.13400E-09         0.00000E+00
    0.79544E-07         0.17820E-09         0.00000E+00
    0.79543E-07         0.21732E-09         0.00000E+00
    0.79543E-07         0.25172E-09         0.00000E+00
    0.79544E-07         0.28177E-09         0.00000E+00
    0.79545E-07         0.30785E-09         0.00000E+00
    0.79547E-07         0.33033E-09         0.00000E+00
    0.79550E-07         0.34957E-09         0.00000E+00
    0.79554E-07         0.36586E-09         0.00000E+00
    0.79560E-07         0.37952E-09         0.00000E+00
    0.79566E-07         0.39079E-09         0.00000E+00
    0.79573E-07         0.39992E-09         0.00000E+00
    0.79580E-07         0.40711E-09         0.00000E+00
    0.79589E-07         0.41256E-09         0.00000E+00
    0.79598E-07         0.41642E-09         0.00000E+00
    0.79608E-07         0.41886E-09         0.00000E+00
    0.79618E-07         0.41999E-09         0.00000E+00
    0.79628E-07         0.41994E-09         0.00000E+00
    0.79639E-07         0.41880E-09         0.00000E+00
    0.79651E-07         0.41666E-09         0.00000E+00
    0.79662E-07         0.41359E-09         0.00000E+00
    0.79674E-07         0.40967E-09         0.00000E+00
    0.79686E-07         0.40494E-09         0.00000E+00
    0.79698E-07         0.39945E-09         0.00000E+00
    0.79710E-07         0.39323E-09         0.00000E+00
    0.79721E-07         0.38632E-09         0.00000E+00
    0.79733E-07         0.37874E-09         0.00000E+00
    0.79744E-07         0.37049E-09         0.00000E+00
    0.79755E-07         0.36158E-09         0.00000E+00
    0.79766E-07         0.35201E-09         0.00000E+00
    0.79777E-07         0.34177E-09         0.00000E+00
    0.79787E-07         0.33084E-09         0.00000E+00
    0.79796E-07         0.31920E-09         0.00000E+00
    0.79805E-07         0.30681E-09         0.00000E+00
    0.79814E-07         0.29364E-09         0.00000E+00
    0.79822E-07         0.27963E-09         0.00000E+00
    0.79829E-07         0.26473E-09         0.00000E+00
    0.79836E-07         0.24886E-09         0.00000E+00
    0.79842E-07         0.23195E-09         0.00000E+00
    0.79847E-07         0.21391E-09         0.00000E+00
    0.79852E-07         0.19465E-09         0.00000E+00
    0.79855E-07         0.17405E-09         0.00000E+00
    0.79858E-07         0.15199E-09         0.00000E+00
    0.79861E-07         0.12837E-09         0.00000E+00
    0.79862E-07         0.10307E-09         0.00000E+00
    0.79863E-07         0.75977E-10         0.00000E+00
    0.79864E-07         0.47021E-10         0.00000E+00
    0.79864E-07         0.16182E-10         0.00000E+00
    0.78912E-07         0.29779E-10         0.00000E+00
    0.78913E-07         0.82889E-10         0.00000E+00
    0.78915E-07         0.12750E-09         0.00000E+00
    0.78920E-07         0.16494E-09         0.00000E+00
    0.78928E-07         0.19632E-09         0.00000E+00
    0.78938E-07         0.22255E-09         0.00000E+00
    0.78951E-07         0.24443E-09         0.00000E+00
    0.78966E-07         0.26258E-09         0.00000E+00
    0.78984E-07         0.27756E-09         0.00000E+00
    0.79003E-07         0.28980E-09         0.00000E+00
    0.79024E-07         0.29969E-09         0.00000E+00
    0.79047E-07         0.30754E-09         0.00000E+00
    0.79070E-07         0.31361E-09         0.00000E+00
    0.79095E-07         0.31815E-09         0.00000E+00
    0.79121E-07         0.32133E-09         0.00000E+00
    0.79148E-07         0.32333E-09         0.00000E+00
    0.79175E-07         0.32428E-09         0.00000E+00
    0.79202E-07         0.32431E-09         0.00000E+00
    0.79230E-07         0.32352E-09         0.00000E+00
    0.79259E-07         0.32199E-09         0.00000E+00
    0.79287E-07         0.31980E-09         0.00000E+00
    0.79315E-07         0.31702E-09         0.00000E+00
    0.79344E-07         0.31370E-09         0.00000E+00
    0.79372E-07         0.30988E-09         0.00000E+00
    0.79400E-07         0.30561E-09         0.00000E+00
    0.79428E-07         0.30090E-09         0.00000E+00
    0.79455E-07         0.29579E-09         0.00000E+00
    0.79482E-07         0.29029E-09         0.00000E+00
    0.79508E-07         0.28442E-09         0.00000E+00
    0.79534E-07         0.27817E-09         0.00000E+00
    0.79560E-07         0.27156E-09         0.00000E+00
    0.79584E-07         0.26456E-09         0.00000E+00
    0.79608E-07         0.25718E-09         0.00000E+00
    0.79631E-07         0.24940E-09         0.00000E+00
    0.79654E-07         0.24118E-09         0.00000E+00
    0.79675E-07         0.23251E-09         0.00000E+00
    0.79695E-07         0.22334E-09         0.00000E+00
    0.79715E-07         0.21362E-09         0.00000E+00
    0.79733E-07         0.20329E-09         0.00000E+00
    0.79750E-07         0.19229E-09         0.00000E+00
    0.79766E-07         0.18054E-09         0.00000E+00
    0.79780E-07         0.16792E-09         0.00000E+00
    0.79793E-07         0.15432E-09         0.00000E+00
    0.79804E-07         0.13959E-09         0.00000E+00
    0.79813E-07         0.12356E-09         0.00000E+00
    0.79821E-07         0.10601E-09         0.00000E+00
    0.79827E-07         0.86697E-10         0.00000E+00
    0.79832E-07         0.65304E-10         0.00000E+00
    0.79834E-07         0.41466E-10         0.00000E+00
    0.79835E-07         0.14747E-10         0.00000E+00
    0.77948E-07         0.14660E-10         0.00000E+00
    0.77959E-07         0.39546E-10         0.00000E+00
    0.77978E-07         0.59085E-10         0.00000E+00
    0.78005E-07         0.74555E-10         0.00000E+00
    0.78037E-07         0.86874E-10         0.00000E+00
    0.78074E-07         0.96713E-10         0.00000E+00
    0.78114E-07         0.10457E-09         0.00000E+00
    0.78157E-07         0.11082E-09         0.00000E+00
    0.78203E-07         0.11577E-09         0.00000E+00
    0.78250E-07         0.11963E-09         0.00000E+00
    0.78298E-07         0.12259E-09         0.00000E+00
    0.78348E-07         0.12479E-09         0.00000E+00
    0.78398E-07         0.12635E-09         0.00000E+00
    0.78449E-07         0.12737E-09         0.00000E+00
    0.78500E-07         0.12792E-09         0.00000E+00
    0.78551E-07         0.12806E-09         0.00000E+00
    0.78602E-07         0.12786E-09         0.00000E+00
    0.78653E-07         0.12736E-09         0.00000E+00
    0.78704E-07         0.12660E-09         0.00000E+00
    0.78754E-07         0.12560E-09         0.00000E+00
    0.78804E-07         0.12440E-09         0.00000E+00
    0.78854E-07         0.12301E-09         0.00000E+00
    0.78903E-07         0.12147E-09         0.00000E+00
    0.78951E-07         0.11977E-09         0.00000E+00
    0.78999E-07         0.11794E-09         0.00000E+00
    0.79045E-07         0.11598E-09         0.00000E+00
    0.79091E-07         0.11391E-09         0.00000E+00
    0.79136E-07         0.11172E-09         0.00000E+00
    0.79181E-07         0.10943E-09         0.00000E+00
    0.79224E-07         0.10702E-09         0.00000E+00
    0.79266E-07         0.10451E-09         0.00000E+00
    0.79308E-07         0.10189E-09         0.00000E+00
    0.79348E-07         0.99146E-10         0.00000E+00
    0.79387E-07         0.96282E-10         0.00000E+00
    0.79425E-07         0.93285E-10         0.00000E+00
    0.79461E-07         0.90142E-10         0.00000E+00
    0.79497E-07         0.86838E-10         0.00000E+00
    0.79531E-07         0.83352E-10         0.00000E+00
    0.79563E-07         0.79661E-10         0.00000E+00
    0.79595E-07         0.75734E-10         0.00000E+00
    0.79624E-07         0.71533E-10         0.00000E+00
    0.79652E-07         0.67013E-10         0.00000E+00
    0.79678E-07         0.62115E-10         0.00000E+00
    0.79701E-07         0.56764E-10         0.00000E+00
    0.79723E-07         0.50865E-10         0.00000E+00
    0.79742E-07         0.44291E-10         0.00000E+00
    0.79758E-07         0.36877E-10         0.00000E+00
    0.79771E-07         0.28395E-10         0.00000E+00
    0.79781E-07         0.18530E-10         0.00000E+00
    0.79786E-07         0.68386E-11         0.00000E+00
POINT_DATA       5151
VECTORS vDarcyNodal double 
    0.39135E-08         0.00000E+00         0.00000E+00
    0.39128E-08         0.00000E+00         0.00000E+00
    0.39110E-08         0.00000E+00         0.00000E+00
    0.39082E-08         0.00000E+00         0.00000E+00
    0.39046E-08         0.00000E+00         0.00000E+00
    0.39004E-08         0.00000E+00         0.00000E+00
    0.38956E-08         0.00000E+00         0.00000E+00
    0.38905E-08         0.00000E+00         0.00000E+00
    0.38849E-08         0.00000E+00         0.00000E+00
    0.38790E-08         0.00000E+00         0.00000E+00
    0.38729E-08         0.00000E+00         0.00000E+00
    0.38665E-08         0.00000E+00         0.00000E+00
    0.38600E-08         0.00000E+00         0.00000E+00
    0.38533E-08        -0.18626E-20         0.00000E+00
    0.38464E-08         0.00000E+00         0.00000E+00
    0.38394E-08         0.18626E-20         0.00000E+00
    0.38324E-08         0.00000E+00         0.00000E+00
    0.38253E-08         0.00000E+00         0.00000E+00
    0.38181E-08         0.00000E+00         0.00000E+00
    0.38109E-08         0.00000E+00         0.00000E+00
    0.38037E-08         0.00000E+00         0.00000E+00
    0.37965E-08         0.00000E+00         0.00000E+00
    0.37893E-08         0.00000E+00         0.00000E+00
    0.37821E-08         0.00000E+00         0.00000E+00
    0.37750E-08         0.00000E+00         0.00000E+00
    0.37679E-08         0.00000E+00         0.00000E+00
    0.37608E-08         0.00000E+00         0.00000E+00
    0.37538E-08         0.00000E+00         0.00000E+00
    0.37470E-08         0.00000E+00         0.00000E+00
    0.37402E-08         0.00000E+00         0.00000E+00
    0.37335E-08         0.00000E+00         0.00000E+00
    0.37269E-08         0.00000E+00         0.00000E+00
    0.37204E-08         0.00000E+00         0.00000E+00
    0.37141E-08         0.00000E+00         0.00000E+00
    0.37079E-08         0.00000E+00         0.00000E+00
    0.37019E-08         0.00000E+00         0.00000E+00
    0.36961E-08         0.00000E+00         0.00000E+00
    0.36905E-08         0.00000E+00         0.00000E+00
    0.36851E-08         0.00000E+00         0.00000E+00
    0.36799E-08         0.00000E+00         0.00000E+00
    0.36750E-08         0.00000E+00         0.00000E+00
    0.36703E-08         0.00000E+00         0.00000E+00
    0.36660E-08         0.00000E+00         0.00000E+00
    0.36619E-08         0.00000E+00         0.00000E+00
    0.36582E-08         0.00000E+00         0.00000E+00
    0.36550E-08         0.00000E+00         0.00000E+00
    0.36521E-08         0.00000E+00         0.00000E+00
    0.36498E-08         0.00000E+00         0.00000E+00
    0.36479E-08         0.00000E+00         0.00000E+00
    0.36468E-08         0.18626E-20         0.00000E+00
    0.36464E-08         0.37253E-20         0.00000E+00
    0.38390E-08         0.34022E-11         0.00000E+00
    0.38386E-08         0.63329E-11         0.00000E+00
    0.38375E-08         0.11626E-10         0.00000E+00
    0.38358E-08         0.15919E-10         0.00000E+00
    0.38335E-08         0.19441E-10         0.00000E+00
    0.38307E-08         0.22361E-10         0.00000E+00
    0.38274E-08         0.24799E-10         0.00000E+00
    0.38238E-08         0.26848E-10         0.00000E+00
    0.38197E-08         0.28575E-10         0.00000E+00
    0.38154E-08         0.30036E-10         0.00000E+00
    0.38108E-08         0.31271E-10         0.00000E+00
    0.38060E-08         0.32312E-10         0.00000E+00
    0.38009E-08         0.33187E-10         0.00000E+00
    0.37957E-08         0.33917E-10         0.00000E+00
    0.37903E-08         0.34518E-10         0.00000E+00
    0.37848E-08         0.35005E-10         0.00000E+00
    0.37792E-08         0.35389E-10         0.00000E+00
    0.37734E-08         0.35680E-10         0.00000E+00
    0.37676E-08         0.35886E-10         0.00000E+00
    0.37618E-08         0.36013E-10         0.00000E+00
    0.37559E-08         0.36067E-10         0.00000E+00
    0.37500E-08         0.36052E-10         0.00000E+00
    0.37440E-08         0.35972E-10         0.00000E+00
    0.37381E-08         0.35830E-10         0.00000E+00
    0.37322E-08         0.35627E-10         0.00000E+00
    0.37263E-08         0.35366E-10         0.00000E+00
    0.37204E-08         0.35047E-10         0.00000E+00
    0.37146E-08         0.34672E-10         0.00000E+00
    0.37089E-08         0.34240E-10         0.00000E+00
    0.37032E-08         0.33750E-10         0.00000E+00
    0.36976E-08         0.33204E-10         0.00000E+00
    0.36921E-08         0.32597E-10         0.00000E+00
    0.36868E-08         0.31931E-10         0.00000E+00
    0.36815E-08         0.31200E-10         0.00000E+00
    0.36764E-08         0.30404E-10         0.00000E+00
    0.36714E-08         0.29538E-10         0.00000E+00
    0.36667E-08         0.28597E-10         0.00000E+00
    0.36621E-08         0.27577E-10         0.00000E+00
    0.36576E-08         0.26470E-10         0.00000E+00
    0.36534E-08         0.25269E-10         0.00000E+00
    0.36495E-08         0.23964E-10         0.00000E+00
    0.36458E-08         0.22543E-10         0.00000E+00
    0.36423E-08         0.20991E-10         0.00000E+00
    0.36392E-08         0.19290E-10         0.00000E+00
    0.36363E-08         0.17416E-10         0.00000E+00
    0.36338E-08         0.15341E-10         0.00000E+00
    0.36317E-08         0.13023E-10         0.00000E+00
    0.36300E-08         0.10410E-10         0.00000E+00
    0.36288E-08         0.74312E-11         0.00000E+00
    0.36280E-08         0.39862E-11         0.00000E+00
    0.36277E-08         0.21325E-11         0.00000E+00
    0.37085E-08         0.37372E-11         0.00000E+00
    0.37085E-08         0.72674E-11         0.00000E+00
    0.37083E-08         0.13999E-10         0.00000E+00
    0.37079E-08         0.20071E-10         0.00000E+00
    0.37073E-08         0.25500E-10         0.00000E+00
    0.37064E-08         0.30328E-10         0.00000E+00
    0.37052E-08         0.34605E-10         0.00000E+00
    0.37038E-08         0.38384E-10         0.00000E+00
    0.37021E-08         0.41715E-10         0.00000E+00
    0.37002E-08         0.44643E-10         0.00000E+00
    0.36981E-08         0.47211E-10         0.00000E+00
    0.36957E-08         0.49454E-10         0.00000E+00
    0.36931E-08         0.51404E-10         0.00000E+00
    0.36904E-08         0.53090E-10         0.00000E+00
    0.36875E-08         0.54534E-10         0.00000E+00
    0.36844E-08         0.55757E-10         0.00000E+00
    0.36812E-08         0.56778E-10         0.00000E+00
    0.36779E-08         0.57612E-10         0.00000E+00
    0.36745E-08         0.58271E-10         0.00000E+00
    0.36710E-08         0.58768E-10         0.00000E+00
    0.36674E-08         0.59112E-10         0.00000E+00
    0.36638E-08         0.59310E-10         0.00000E+00
    0.36601E-08         0.59369E-10         0.00000E+00
    0.36564E-08         0.59296E-10         0.00000E+00
    0.36527E-08         0.59094E-10         0.00000E+00
    0.36490E-08         0.58767E-10         0.00000E+00
    0.36453E-08         0.58317E-10         0.00000E+00
    0.36416E-08         0.57746E-10         0.00000E+00
    0.36379E-08         0.57054E-10         0.00000E+00
    0.36343E-08         0.56242E-10         0.00000E+00
    0.36307E-08         0.55309E-10         0.00000E+00
    0.36272E-08         0.54252E-10         0.00000E+00
    0.36238E-08         0.53070E-10         0.00000E+00
    0.36205E-08         0.51758E-10         0.00000E+00
    0.36173E-08         0.50312E-10         0.00000E+00
    0.36141E-08         0.48727E-10         0.00000E+00
    0.36112E-08         0.46995E-10         0.00000E+00
    0.36083E-08         0.45110E-10         0.00000E+00
    0.36056E-08         0.43062E-10         0.00000E+00
    0.36031E-08         0.40839E-10         0.00000E+00
    0.36008E-08         0.38430E-10         0.00000E+00
    0.35986E-08         0.35819E-10         0.00000E+00
    0.35966E-08         0.32990E-10         0.00000E+00
    0.35949E-08         0.29925E-10         0.00000E+00
    0.35934E-08         0.26601E-10         0.00000E+00
    0.35921E-08         0.22995E-10         0.00000E+00
    0.35911E-08         0.19083E-10         0.00000E+00
    0.35903E-08         0.14839E-10         0.00000E+00
    0.35897E-08         0.10244E-10         0.00000E+00
    0.35894E-08         0.52851E-11         0.00000E+00
    0.35893E-08         0.27144E-11         0.00000E+00
    0.36109E-08         0.38125E-11         0.00000E+00
    0.36109E-08         0.74493E-11         0.00000E+00
    0.36109E-08         0.14469E-10         0.00000E+00
    0.36109E-08         0.20988E-10         0.00000E+00
    0.36109E-08         0.27021E-10         0.00000E+00
    0.36107E-08         0.32578E-10         0.00000E+00
    0.36105E-08         0.37677E-10         0.00000E+00
    0.36101E-08         0.42334E-10         0.00000E+00
    0.36096E-08         0.46571E-10         0.00000E+00
    0.36090E-08         0.50409E-10         0.00000E+00
    0.36083E-08         0.53871E-10         0.00000E+00
    0.36074E-08         0.56978E-10         0.00000E+00
    0.36064E-08         0.59752E-10         0.00000E+00
    0.36052E-08         0.62211E-10         0.00000E+00
    0.36040E-08         0.64376E-10         0.00000E+00
    0.36026E-08         0.66263E-10         0.00000E+00
    0.36011E-08         0.67887E-10         0.00000E+00
    0.35995E-08         0.69263E-10         0.00000E+00
    0.35978E-08         0.70403E-10         0.00000E+00
    0.35961E-08         0.71318E-10         0.00000E+00
    0.35943E-08         0.72018E-10         0.00000E+00
    0.35924E-08         0.72513E-10         0.00000E+00
    0.35904E-08         0.72808E-10         0.00000E+00
    0.35884E-08         0.72910E-10         0.00000E+00
    0.35864E-08         0.72825E-10         0.00000E+00
    0.35844E-08         0.72557E-10         0.00000E+00
    0.35823E-08         0.72108E-10         0.00000E+00
    0.35803E-08         0.71481E-10         0.00000E+00
    0.35782E-08         0.70677E-10         0.00000E+00
    0.35762E-08         0.69697E-10         0.00000E+00
    0.35742E-08         0.68539E-10         0.00000E+00
    0.35722E-08         0.67203E-10         0.00000E+00
    0.35703E-08         0.65687E-10         0.00000E+00
    0.35684E-08         0.63987E-10         0.00000E+00
    0.35666E-08         0.62099E-10         0.00000E+00
    0.35649E-08         0.60018E-10         0.00000E+00
    0.35632E-08         0.57739E-10         0.00000E+00
    0.35617E-08         0.55255E-10         0.00000E+00
    0.35602E-08         0.52558E-10         0.00000E+00
    0.35588E-08         0.49640E-10         0.00000E+00
    0.35576E-08         0.46491E-10         0.00000E+00
    0.35564E-08         0.43101E-10         0.00000E+00
    0.35554E-08         0.39460E-10         0.00000E+00
    0.35545E-08         0.35556E-10         0.00000E+00
    0.35538E-08         0.31378E-10         0.00000E+00
    0.35531E-08         0.26915E-10         0.00000E+00
    0.35526E-08         0.22156E-10         0.00000E+00
    0.35522E-08         0.17092E-10         0.00000E+00
    0.35520E-08         0.11714E-10         0.00000E+00
    0.35518E-08         0.60113E-11         0.00000E+00
    0.35518E-08         0.30777E-11         0.00000E+00
    0.35397E-08         0.36411E-11         0.00000E+00
    0.35397E-08         0.71590E-11         0.00000E+00
    0.35398E-08         0.14007E-10         0.00000E+00
    0.35400E-08         0.20476E-10         0.00000E+00
    0.35402E-08         0.26565E-10         0.00000E+00
    0.35404E-08         0.32276E-10         0.00000E+00
    0.35405E-08         0.37614E-10         0.00000E+00
    0.35407E-08         0.42582E-10         0.00000E+00
    0.35408E-08         0.47188E-10         0.00000E+00
    0.35409E-08         0.51441E-10         0.00000E+00
    0.35409E-08         0.55349E-10         0.00000E+00
    0.35409E-08         0.58923E-10         0.00000E+00
    0.35408E-08         0.62173E-10         0.00000E+00
    0.35406E-08         0.65108E-10         0.00000E+00
    0.35403E-08         0.67741E-10         0.00000E+00
    0.35400E-08         0.70081E-10         0.00000E+00
    0.35396E-08         0.72138E-10         0.00000E+00
    0.35392E-08         0.73921E-10         0.00000E+00
    0.35386E-08         0.75439E-10         0.00000E+00
    0.35381E-08         0.76700E-10         0.00000E+00
    0.35374E-08         0.77711E-10         0.00000E+00
    0.35367E-08         0.78480E-10         0.00000E+00
    0.35360E-08         0.79011E-10         0.00000E+00
    0.35352E-08         0.79311E-10         0.00000E+00
    0.35344E-08         0.79382E-10         0.00000E+00
    0.35336E-08         0.79230E-10         0.00000E+00
    0.35327E-08         0.78857E-10         0.00000E+00
    0.35318E-08         0.78265E-10         0.00000E+00
    0.35310E-08         0.77455E-10         0.00000E+00
    0.35301E-08         0.76428E-10         0.00000E+00
    0.35292E-08         0.75185E-10         0.00000E+00
    0.35283E-08         0.73724E-10         0.00000E+00
    0.35275E-08         0.72044E-10         0.00000E+00
    0.35267E-08         0.70143E-10         0.00000E+00
    0.35259E-08         0.68019E-10         0.00000E+00
    0.35251E-08         0.65669E-10         0.00000E+00
    0.35244E-08         0.63088E-10         0.00000E+00
    0.35237E-08         0.60274E-10         0.00000E+00
    0.35230E-08         0.57220E-10         0.00000E+00
    0.35225E-08         0.53922E-10         0.00000E+00
    0.35219E-08         0.50374E-10         0.00000E+00
    0.35214E-08         0.46571E-10         0.00000E+00
    0.35210E-08         0.42508E-10         0.00000E+00
    0.35207E-08         0.38178E-10         0.00000E+00
    0.35204E-08         0.33576E-10         0.00000E+00
    0.35201E-08         0.28697E-10         0.00000E+00
    0.35199E-08         0.23535E-10         0.00000E+00
    0.35198E-08         0.18085E-10         0.00000E+00
    0.35197E-08         0.12344E-10         0.00000E+00
    0.35196E-08         0.63075E-11         0.00000E+00
    0.35196E-08         0.32153E-11         0.00000E+00
    0.34913E-08         0.33871E-11         0.00000E+00
    0.34914E-08         0.66816E-11         0.00000E+00
    0.34916E-08         0.13129E-10         0.00000E+00
    0.34918E-08         0.19289E-10         0.00000E+00
    0.34921E-08         0.25155E-10         0.00000E+00
    0.34924E-08         0.30723E-10         0.00000E+00
    0.34928E-08         0.35987E-10         0.00000E+00
    0.34932E-08         0.40948E-10         0.00000E+00
    0.34936E-08         0.45604E-10         0.00000E+00
    0.34941E-08         0.49955E-10         0.00000E+00
    0.34945E-08         0.54004E-10         0.00000E+00
    0.34949E-08         0.57753E-10         0.00000E+00
    0.34953E-08         0.61206E-10         0.00000E+00
    0.34956E-08         0.64366E-10         0.00000E+00
    0.34960E-08         0.67237E-10         0.00000E+00
    0.34963E-08         0.69824E-10         0.00000E+00
    0.34965E-08         0.72131E-10         0.00000E+00
    0.34968E-08         0.74163E-10         0.00000E+00
    0.34970E-08         0.75925E-10         0.00000E+00
    0.34971E-08         0.77421E-10         0.00000E+00
    0.34972E-08         0.78655E-10         0.00000E+00
    0.34973E-08         0.79631E-10         0.00000E+00
    0.34974E-08         0.80352E-10         0.00000E+00
    0.34974E-08         0.80823E-10         0.00000E+00
    0.34974E-08         0.81045E-10         0.00000E+00
    0.34973E-08         0.81021E-10         0.00000E+00
    0.34973E-08         0.80754E-10         0.00000E+00
    0.34972E-08         0.80244E-10         0.00000E+00
    0.34971E-08         0.79493E-10         0.00000E+00
    0.34970E-08         0.78501E-10         0.00000E+00
    0.34969E-08         0.77270E-10         0.00000E+00
    0.34967E-08         0.75798E-10         0.00000E+00
    0.34966E-08         0.74086E-10         0.00000E+00
    0.34965E-08         0.72132E-10         0.00000E+00
    0.34963E-08         0.69935E-10         0.00000E+00
    0.34962E-08         0.67493E-10         0.00000E+00
    0.34961E-08         0.64805E-10         0.00000E+00
    0.34960E-08         0.61869E-10         0.00000E+00
    0.34959E-08         0.58681E-10         0.00000E+00
    0.34958E-08         0.55241E-10         0.00000E+00
    0.34958E-08         0.51544E-10         0.00000E+00
    0.34957E-08         0.47589E-10         0.00000E+00
    0.34957E-08         0.43372E-10         0.00000E+00
    0.34956E-08         0.38892E-10         0.00000E+00
    0.34956E-08         0.34146E-10         0.00000E+00
    0.34956E-08         0.29131E-10         0.00000E+00
    0.34956E-08         0.23846E-10         0.00000E+00
    0.34956E-08         0.18289E-10         0.00000E+00
    0.34956E-08         0.12459E-10         0.00000E+00
    0.34956E-08         0.63551E-11         0.00000E+00
    0.34956E-08         0.32348E-11         0.00000E+00
    0.34635E-08         0.31011E-11         0.00000E+00
    0.34635E-08         0.61339E-11         0.00000E+00
    0.34637E-08         0.12092E-10         0.00000E+00
    0.34639E-08         0.17832E-10         0.00000E+00
    0.34643E-08         0.23342E-10         0.00000E+00
    0.34647E-08         0.28615E-10         0.00000E+00
    0.34651E-08         0.33644E-10         0.00000E+00
    0.34657E-08         0.38422E-10         0.00000E+00
    0.34662E-08         0.42946E-10         0.00000E+00
    0.34668E-08         0.47211E-10         0.00000E+00
    0.34674E-08         0.51214E-10         0.00000E+00
    0.34680E-08         0.54954E-10         0.00000E+00
    0.34687E-08         0.58429E-10         0.00000E+00
    0.34693E-08         0.61639E-10         0.00000E+00
    0.34700E-08         0.64583E-10         0.00000E+00
    0.34706E-08         0.67262E-10         0.00000E+00
    0.34712E-08         0.69677E-10         0.00000E+00
    0.34718E-08         0.71828E-10         0.00000E+00
    0.34724E-08         0.73718E-10         0.00000E+00
    0.34730E-08         0.75346E-10         0.00000E+00
    0.34735E-08         0.76715E-10         0.00000E+00
    0.34741E-08         0.77827E-10         0.00000E+00
    0.34746E-08         0.78681E-10         0.00000E+00
    0.34751E-08         0.79281E-10         0.00000E+00
    0.34755E-08         0.79627E-10         0.00000E+00
    0.34760E-08         0.79720E-10         0.00000E+00
    0.34764E-08         0.79560E-10         0.00000E+00
    0.34768E-08         0.79150E-10         0.00000E+00
    0.34772E-08         0.78490E-10         0.00000E+00
    0.34776E-08         0.77579E-10         0.00000E+00
    0.34779E-08         0.76419E-10         0.00000E+00
    0.34783E-08         0.75008E-10         0.00000E+00
    0.34786E-08         0.73348E-10         0.00000E+00
    0.34789E-08         0.71437E-10         0.00000E+00
    0.34792E-08         0.69276E-10         0.00000E+00
    0.34794E-08         0.66863E-10         0.00000E+00
    0.34797E-08         0.64198E-10         0.00000E+00
    0.34800E-08         0.61281E-10         0.00000E+00
    0.34802E-08         0.58109E-10         0.00000E+00
    0.34804E-08         0.54683E-10         0.00000E+00
    0.34806E-08         0.51001E-10         0.00000E+00
    0.34808E-08         0.47062E-10         0.00000E+00
    0.34810E-08         0.42866E-10         0.00000E+00
    0.34812E-08         0.38411E-10         0.00000E+00
    0.34814E-08         0.33698E-10         0.00000E+00
    0.34815E-08         0.28726E-10         0.00000E+00
    0.34816E-08         0.23494E-10         0.00000E+00
    0.34817E-08         0.18003E-10         0.00000E+00
    0.34818E-08         0.12253E-10         0.00000E+00
    0.34818E-08         0.62446E-11         0.00000E+00
    0.34819E-08         0.31758E-11         0.00000E+00
    0.34542E-08         0.28196E-11         0.00000E+00
    0.34543E-08         0.55881E-11         0.00000E+00
    0.34544E-08         0.11044E-10         0.00000E+00
    0.34547E-08         0.16331E-10         0.00000E+00
    0.34550E-08         0.21438E-10         0.00000E+00
    0.34554E-08         0.26356E-10         0.00000E+00
    0.34559E-08         0.31075E-10         0.00000E+00
    0.34564E-08         0.35588E-10         0.00000E+00
    0.34570E-08         0.39886E-10         0.00000E+00
    0.34577E-08         0.43965E-10         0.00000E+00
    0.34583E-08         0.47818E-10         0.00000E+00
    0.34590E-08         0.51441E-10         0.00000E+00
    0.34598E-08         0.54830E-10         0.00000E+00
    0.34605E-08         0.57982E-10         0.00000E+00
    0.34613E-08         0.60894E-10         0.00000E+00
    0.34620E-08         0.63563E-10         0.00000E+00
    0.34628E-08         0.65988E-10         0.00000E+00
    0.34636E-08         0.68167E-10         0.00000E+00
    0.34644E-08         0.70098E-10         0.00000E+00
    0.34652E-08         0.71782E-10         0.00000E+00
    0.34659E-08         0.73218E-10         0.00000E+00
    0.34667E-08         0.74404E-10         0.00000E+00
    0.34675E-08         0.75341E-10         0.00000E+00
    0.34682E-08         0.76029E-10         0.00000E+00
    0.34689E-08         0.76466E-10         0.00000E+00
    0.34696E-08         0.76654E-10         0.00000E+00
    0.34703E-08         0.76593E-10         0.00000E+00
    0.34710E-08         0.76281E-10         0.00000E+00
    0.34716E-08         0.75719E-10         0.00000E+00
    0.34722E-08         0.74908E-10         0.00000E+00
    0.34729E-08         0.73846E-10         0.00000E+00
    0.34734E-08         0.72534E-10         0.00000E+00
    0.34740E-08         0.70972E-10         0.00000E+00
    0.34746E-08         0.69160E-10         0.00000E+00
    0.34751E-08         0.67097E-10         0.00000E+00
    0.34756E-08         0.64784E-10         0.00000E+00
    0.34761E-08         0.62219E-10         0.00000E+00
    0.34765E-08         0.59403E-10         0.00000E+00
    0.34770E-08         0.56336E-10         0.00000E+00
    0.34774E-08         0.53018E-10         0.00000E+00
    0.34777E-08         0.49448E-10         0.00000E+00
    0.34781E-08         0.45627E-10         0.00000E+00
    0.34784E-08         0.41554E-10         0.00000E+00
    0.34787E-08         0.37230E-10         0.00000E+00
    0.34789E-08         0.32656E-10         0.00000E+00
    0.34792E-08         0.27831E-10         0.00000E+00
    0.34793E-08         0.22756E-10         0.00000E+00
    0.34795E-08         0.17432E-10         0.00000E+00
    0.34796E-08         0.11861E-10         0.00000E+00
    0.34797E-08         0.60430E-11         0.00000E+00
    0.34797E-08         0.30725E-11         0.00000E+00
    0.34622E-08         0.25617E-11         0.00000E+00
    0.34623E-08         0.50847E-11         0.00000E+00
    0.34624E-08         0.10068E-10         0.00000E+00
    0.34626E-08         0.14919E-10         0.00000E+00
    0.34629E-08         0.19628E-10         0.00000E+00
    0.34633E-08         0.24182E-10         0.00000E+00
    0.34638E-08         0.28573E-10         0.00000E+00
    0.34643E-08         0.32791E-10         0.00000E+00
    0.34648E-08         0.36829E-10         0.00000E+00
    0.34654E-08         0.40678E-10         0.00000E+00
    0.34661E-08         0.44332E-10         0.00000E+00
    0.34668E-08         0.47785E-10         0.00000E+00
    0.34675E-08         0.51031E-10         0.00000E+00
    0.34683E-08         0.54065E-10         0.00000E+00
    0.34691E-08         0.56884E-10         0.00000E+00
    0.34699E-08         0.59482E-10         0.00000E+00
    0.34707E-08         0.61856E-10         0.00000E+00
    0.34715E-08         0.64004E-10         0.00000E+00
    0.34723E-08         0.65922E-10         0.00000E+00
    0.34732E-08         0.67609E-10         0.00000E+00
    0.34740E-08         0.69061E-10         0.00000E+00
    0.34748E-08         0.70278E-10         0.00000E+00
    0.34757E-08         0.71258E-10         0.00000E+00
    0.34765E-08         0.71998E-10         0.00000E+00
    0.34773E-08         0.72499E-10         0.00000E+00
    0.34781E-08         0.72759E-10         0.00000E+00
    0.34789E-08         0.72777E-10         0.00000E+00
    0.34797E-08         0.72553E-10         0.00000E+00
    0.34805E-08         0.72086E-10         0.00000E+00
    0.34812E-08         0.71374E-10         0.00000E+00
    0.34819E-08         0.70419E-10         0.00000E+00
    0.34826E-08         0.69218E-10         0.00000E+00
    0.34833E-08         0.67773E-10         0.00000E+00
    0.34840E-08         0.66083E-10         0.00000E+00
    0.34846E-08         0.64147E-10         0.00000E+00
    0.34852E-08         0.61966E-10         0.00000E+00
    0.34858E-08         0.59540E-10         0.00000E+00
    0.34863E-08         0.56868E-10         0.00000E+00
    0.34868E-08         0.53951E-10         0.00000E+00
    0.34873E-08         0.50788E-10         0.00000E+00
    0.34878E-08         0.47381E-10         0.00000E+00
    0.34882E-08         0.43729E-10         0.00000E+00
    0.34885E-08         0.39833E-10         0.00000E+00
    0.34889E-08         0.35694E-10         0.00000E+00
    0.34892E-08         0.31312E-10         0.00000E+00
    0.34894E-08         0.26688E-10         0.00000E+00
    0.34897E-08         0.21824E-10         0.00000E+00
    0.34898E-08         0.16719E-10         0.00000E+00
    0.34900E-08         0.11376E-10         0.00000E+00
    0.34900E-08         0.57963E-11         0.00000E+00
    0.34901E-08         0.29471E-11         0.00000E+00
    0.34864E-08         0.23379E-11         0.00000E+00
    0.34864E-08         0.46455E-11         0.00000E+00
    0.34865E-08         0.92107E-11         0.00000E+00
    0.34867E-08         0.13670E-10         0.00000E+00
    0.34870E-08         0.18013E-10         0.00000E+00
    0.34873E-08         0.22228E-10         0.00000E+00
    0.34877E-08         0.26305E-10         0.00000E+00
    0.34882E-08         0.30236E-10         0.00000E+00
    0.34887E-08         0.34011E-10         0.00000E+00
    0.34892E-08         0.37624E-10         0.00000E+00
    0.34898E-08         0.41065E-10         0.00000E+00
    0.34904E-08         0.44329E-10         0.00000E+00
    0.34911E-08         0.47409E-10         0.00000E+00
    0.34918E-08         0.50300E-10         0.00000E+00
    0.34925E-08         0.52996E-10         0.00000E+00
    0.34933E-08         0.55492E-10         0.00000E+00
    0.34941E-08         0.57783E-10         0.00000E+00
    0.34948E-08         0.59866E-10         0.00000E+00
    0.34956E-08         0.61738E-10         0.00000E+00
    0.34965E-08         0.63394E-10         0.00000E+00
    0.34973E-08         0.64831E-10         0.00000E+00
    0.34981E-08         0.66048E-10         0.00000E+00
    0.34989E-08         0.67041E-10         0.00000E+00
    0.34997E-08         0.67809E-10         0.00000E+00
    0.35005E-08         0.68348E-10         0.00000E+00
    0.35013E-08         0.68659E-10         0.00000E+00
    0.35021E-08         0.68739E-10         0.00000E+00
    0.35029E-08         0.68587E-10         0.00000E+00
    0.35037E-08         0.68201E-10         0.00000E+00
    0.35044E-08         0.67581E-10         0.00000E+00
    0.35052E-08         0.66725E-10         0.00000E+00
    0.35059E-08         0.65634E-10         0.00000E+00
    0.35066E-08         0.64306E-10         0.00000E+00
    0.35073E-08         0.62742E-10         0.00000E+00
    0.35079E-08         0.60940E-10         0.00000E+00
    0.35085E-08         0.58900E-10         0.00000E+00
    0.35091E-08         0.56623E-10         0.00000E+00
    0.35097E-08         0.54108E-10         0.00000E+00
    0.35102E-08         0.51355E-10         0.00000E+00
    0.35107E-08         0.48365E-10         0.00000E+00
    0.35112E-08         0.45138E-10         0.00000E+00
    0.35116E-08         0.41675E-10         0.00000E+00
    0.35120E-08         0.37975E-10         0.00000E+00
    0.35123E-08         0.34040E-10         0.00000E+00
    0.35126E-08         0.29870E-10         0.00000E+00
    0.35129E-08         0.25467E-10         0.00000E+00
    0.35131E-08         0.20830E-10         0.00000E+00
    0.35133E-08         0.15963E-10         0.00000E+00
    0.35134E-08         0.10864E-10         0.00000E+00
    0.35135E-08         0.55366E-11         0.00000E+00
    0.35135E-08         0.28156E-11         0.00000E+00
    0.35258E-08         0.21526E-11         0.00000E+00
    0.35258E-08         0.42803E-11         0.00000E+00
    0.35259E-08         0.84941E-11         0.00000E+00
    0.35261E-08         0.12619E-10         0.00000E+00
    0.35263E-08         0.16645E-10         0.00000E+00
    0.35266E-08         0.20562E-10         0.00000E+00
    0.35269E-08         0.24360E-10         0.00000E+00
    0.35273E-08         0.28030E-10         0.00000E+00
    0.35277E-08         0.31564E-10         0.00000E+00
    0.35282E-08         0.34953E-10         0.00000E+00
    0.35287E-08         0.38191E-10         0.00000E+00
    0.35292E-08         0.41270E-10         0.00000E+00
    0.35298E-08         0.44183E-10         0.00000E+00
    0.35304E-08         0.46925E-10         0.00000E+00
    0.35311E-08         0.49490E-10         0.00000E+00
    0.35317E-08         0.51873E-10         0.00000E+00
    0.35324E-08         0.54068E-10         0.00000E+00
    0.35331E-08         0.56071E-10         0.00000E+00
    0.35338E-08         0.57878E-10         0.00000E+00
    0.35345E-08         0.59485E-10         0.00000E+00
    0.35353E-08         0.60889E-10         0.00000E+00
    0.35360E-08         0.62085E-10         0.00000E+00
    0.35368E-08         0.63073E-10         0.00000E+00
    0.35375E-08         0.63848E-10         0.00000E+00
    0.35383E-08         0.64408E-10         0.00000E+00
    0.35390E-08         0.64751E-10         0.00000E+00
    0.35397E-08         0.64875E-10         0.00000E+00
    0.35405E-08         0.64778E-10         0.00000E+00
    0.35412E-08         0.64459E-10         0.00000E+00
    0.35419E-08         0.63916E-10         0.00000E+00
    0.35426E-08         0.63148E-10         0.00000E+00
    0.35433E-08         0.62154E-10         0.00000E+00
    0.35439E-08         0.60934E-10         0.00000E+00
    0.35445E-08         0.59485E-10         0.00000E+00
    0.35452E-08         0.57809E-10         0.00000E+00
    0.35457E-08         0.55904E-10         0.00000E+00
    0.35463E-08         0.53770E-10         0.00000E+00
    0.35468E-08         0.51407E-10         0.00000E+00
    0.35473E-08         0.48815E-10         0.00000E+00
    0.35478E-08         0.45994E-10         0.00000E+00
    0.35482E-08         0.42944E-10         0.00000E+00
    0.35486E-08         0.39666E-10         0.00000E+00
    0.35490E-08         0.36159E-10         0.00000E+00
    0.35493E-08         0.32425E-10         0.00000E+00
    0.35496E-08         0.28464E-10         0.00000E+00
    0.35499E-08         0.24277E-10         0.00000E+00
    0.35501E-08         0.19865E-10         0.00000E+00
    0.35502E-08         0.15228E-10         0.00000E+00
    0.35504E-08         0.10368E-10         0.00000E+00
    0.35504E-08         0.52852E-11         0.00000E+00
    0.35505E-08         0.26886E-11         0.00000E+00
    0.35798E-08         0.20064E-11         0.00000E+00
    0.35799E-08         0.39909E-11         0.00000E+00
    0.35799E-08         0.79232E-11         0.00000E+00
    0.35801E-08         0.11777E-10         0.00000E+00
    0.35802E-08         0.15543E-10         0.00000E+00
    0.35804E-08         0.19211E-10         0.00000E+00
    0.35807E-08         0.22773E-10         0.00000E+00
    0.35810E-08         0.26220E-10         0.00000E+00
    0.35814E-08         0.29544E-10         0.00000E+00
    0.35817E-08         0.32737E-10         0.00000E+00
    0.35821E-08         0.35793E-10         0.00000E+00
    0.35826E-08         0.38703E-10         0.00000E+00
    0.35831E-08         0.41463E-10         0.00000E+00
    0.35836E-08         0.44065E-10         0.00000E+00
    0.35841E-08         0.46504E-10         0.00000E+00
    0.35846E-08         0.48775E-10         0.00000E+00
    0.35852E-08         0.50872E-10         0.00000E+00
    0.35858E-08         0.52792E-10         0.00000E+00
    0.35864E-08         0.54528E-10         0.00000E+00
    0.35870E-08         0.56079E-10         0.00000E+00
    0.35877E-08         0.57438E-10         0.00000E+00
    0.35883E-08         0.58604E-10         0.00000E+00
    0.35889E-08         0.59573E-10         0.00000E+00
    0.35896E-08         0.60342E-10         0.00000E+00
    0.35902E-08         0.60908E-10         0.00000E+00
    0.35909E-08         0.61268E-10         0.00000E+00
    0.35915E-08         0.61421E-10         0.00000E+00
    0.35921E-08         0.61364E-10         0.00000E+00
    0.35928E-08         0.61096E-10         0.00000E+00
    0.35934E-08         0.60614E-10         0.00000E+00
    0.35940E-08         0.59918E-10         0.00000E+00
    0.35946E-08         0.59005E-10         0.00000E+00
    0.35952E-08         0.57876E-10         0.00000E+00
    0.35957E-08         0.56528E-10         0.00000E+00
    0.35963E-08         0.54962E-10         0.00000E+00
    0.35968E-08         0.53175E-10         0.00000E+00
    0.35973E-08         0.51169E-10         0.00000E+00
    0.35977E-08         0.48943E-10         0.00000E+00
    0.35982E-08         0.46495E-10         0.00000E+00
    0.35986E-08         0.43827E-10         0.00000E+00
    0.35990E-08         0.40938E-10         0.00000E+00
    0.35994E-08         0.37829E-10         0.00000E+00
    0.35997E-08         0.34499E-10         0.00000E+00
    0.36000E-08         0.30949E-10         0.00000E+00
    0.36002E-08         0.27179E-10         0.00000E+00
    0.36005E-08         0.23190E-10         0.00000E+00
    0.36006E-08         0.18982E-10         0.00000E+00
    0.36008E-08         0.14557E-10         0.00000E+00
    0.36009E-08         0.99144E-11         0.00000E+00
    0.36010E-08         0.50559E-11         0.00000E+00
    0.36010E-08         0.25727E-11         0.00000E+00
    0.36479E-08         0.18975E-11         0.00000E+00
    0.36480E-08         0.37743E-11         0.00000E+00
    0.36480E-08         0.74933E-11         0.00000E+00
    0.36481E-08         0.11139E-10         0.00000E+00
    0.36482E-08         0.14701E-10         0.00000E+00
    0.36484E-08         0.18173E-10         0.00000E+00
    0.36486E-08         0.21546E-10         0.00000E+00
    0.36488E-08         0.24812E-10         0.00000E+00
    0.36491E-08         0.27963E-10         0.00000E+00
    0.36494E-08         0.30993E-10         0.00000E+00
    0.36497E-08         0.33895E-10         0.00000E+00
    0.36500E-08         0.36661E-10         0.00000E+00
    0.36504E-08         0.39287E-10         0.00000E+00
    0.36508E-08         0.41766E-10         0.00000E+00
    0.36512E-08         0.44092E-10         0.00000E+00
    0.36516E-08         0.46261E-10         0.00000E+00
    0.36521E-08         0.48268E-10         0.00000E+00
    0.36525E-08         0.50107E-10         0.00000E+00
    0.36530E-08         0.51775E-10         0.00000E+00
    0.36535E-08         0.53267E-10         0.00000E+00
    0.36540E-08         0.54579E-10         0.00000E+00
    0.36545E-08         0.55709E-10         0.00000E+00
    0.36551E-08         0.56652E-10         0.00000E+00
    0.36556E-08         0.57406E-10         0.00000E+00
    0.36561E-08         0.57967E-10         0.00000E+00
    0.36566E-08         0.58333E-10         0.00000E+00
    0.36572E-08         0.58502E-10         0.00000E+00
    0.36577E-08         0.58470E-10         0.00000E+00
    0.36582E-08         0.58238E-10         0.00000E+00
    0.36587E-08         0.57801E-10         0.00000E+00
    0.36592E-08         0.57159E-10         0.00000E+00
    0.36597E-08         0.56311E-10         0.00000E+00
    0.36602E-08         0.55254E-10         0.00000E+00
    0.36607E-08         0.53988E-10         0.00000E+00
    0.36611E-08         0.52512E-10         0.00000E+00
    0.36616E-08         0.50825E-10         0.00000E+00
    0.36620E-08         0.48925E-10         0.00000E+00
    0.36624E-08         0.46814E-10         0.00000E+00
    0.36628E-08         0.44489E-10         0.00000E+00
    0.36631E-08         0.41952E-10         0.00000E+00
    0.36634E-08         0.39200E-10         0.00000E+00
    0.36638E-08         0.36236E-10         0.00000E+00
    0.36640E-08         0.33058E-10         0.00000E+00
    0.36643E-08         0.29666E-10         0.00000E+00
    0.36645E-08         0.26062E-10         0.00000E+00
    0.36647E-08         0.22245E-10         0.00000E+00
    0.36648E-08         0.18215E-10         0.00000E+00
    0.36650E-08         0.13973E-10         0.00000E+00
    0.36651E-08         0.95203E-11         0.00000E+00
    0.36651E-08         0.48565E-11         0.00000E+00
    0.36651E-08         0.24719E-11         0.00000E+00
    0.37297E-08         0.18228E-11         0.00000E+00
    0.37297E-08         0.36246E-11         0.00000E+00
    0.37297E-08         0.71936E-11         0.00000E+00
    0.37298E-08         0.10689E-10         0.00000E+00
    0.37299E-08         0.14104E-10         0.00000E+00
    0.37300E-08         0.17430E-10         0.00000E+00
    0.37301E-08         0.20660E-10         0.00000E+00
    0.37303E-08         0.23788E-10         0.00000E+00
    0.37305E-08         0.26805E-10         0.00000E+00
    0.37307E-08         0.29706E-10         0.00000E+00
    0.37309E-08         0.32484E-10         0.00000E+00
    0.37311E-08         0.35134E-10         0.00000E+00
    0.37314E-08         0.37650E-10         0.00000E+00
    0.37317E-08         0.40026E-10         0.00000E+00
    0.37320E-08         0.42257E-10         0.00000E+00
    0.37323E-08         0.44339E-10         0.00000E+00
    0.37326E-08         0.46265E-10         0.00000E+00
    0.37330E-08         0.48033E-10         0.00000E+00
    0.37334E-08         0.49637E-10         0.00000E+00
    0.37337E-08         0.51075E-10         0.00000E+00
    0.37341E-08         0.52341E-10         0.00000E+00
    0.37345E-08         0.53433E-10         0.00000E+00
    0.37349E-08         0.54347E-10         0.00000E+00
    0.37353E-08         0.55080E-10         0.00000E+00
    0.37357E-08         0.55629E-10         0.00000E+00
    0.37361E-08         0.55992E-10         0.00000E+00
    0.37365E-08         0.56165E-10         0.00000E+00
    0.37369E-08         0.56148E-10         0.00000E+00
    0.37373E-08         0.55937E-10         0.00000E+00
    0.37378E-08         0.55531E-10         0.00000E+00
    0.37381E-08         0.54927E-10         0.00000E+00
    0.37385E-08         0.54125E-10         0.00000E+00
    0.37389E-08         0.53122E-10         0.00000E+00
    0.37393E-08         0.51918E-10         0.00000E+00
    0.37396E-08         0.50512E-10         0.00000E+00
    0.37400E-08         0.48901E-10         0.00000E+00
    0.37403E-08         0.47086E-10         0.00000E+00
    0.37407E-08         0.45066E-10         0.00000E+00
    0.37410E-08         0.42840E-10         0.00000E+00
    0.37412E-08         0.40407E-10         0.00000E+00
    0.37415E-08         0.37768E-10         0.00000E+00
    0.37417E-08         0.34921E-10         0.00000E+00
    0.37420E-08         0.31867E-10         0.00000E+00
    0.37422E-08         0.28606E-10         0.00000E+00
    0.37423E-08         0.25137E-10         0.00000E+00
    0.37425E-08         0.21462E-10         0.00000E+00
    0.37426E-08         0.17579E-10         0.00000E+00
    0.37427E-08         0.13489E-10         0.00000E+00
    0.37428E-08         0.91929E-11         0.00000E+00
    0.37428E-08         0.46907E-11         0.00000E+00
    0.37429E-08         0.23882E-11         0.00000E+00
    0.38248E-08         0.17785E-11         0.00000E+00
    0.38248E-08         0.35345E-11         0.00000E+00
    0.38248E-08         0.70104E-11         0.00000E+00
    0.38248E-08         0.10410E-10         0.00000E+00
    0.38249E-08         0.13727E-10         0.00000E+00
    0.38249E-08         0.16955E-10         0.00000E+00
    0.38250E-08         0.20086E-10         0.00000E+00
    0.38251E-08         0.23115E-10         0.00000E+00
    0.38252E-08         0.26035E-10         0.00000E+00
    0.38253E-08         0.28842E-10         0.00000E+00
    0.38255E-08         0.31528E-10         0.00000E+00
    0.38256E-08         0.34089E-10         0.00000E+00
    0.38258E-08         0.36519E-10         0.00000E+00
    0.38260E-08         0.38814E-10         0.00000E+00
    0.38262E-08         0.40969E-10         0.00000E+00
    0.38264E-08         0.42979E-10         0.00000E+00
    0.38266E-08         0.44839E-10         0.00000E+00
    0.38269E-08         0.46546E-10         0.00000E+00
    0.38271E-08         0.48095E-10         0.00000E+00
    0.38274E-08         0.49484E-10         0.00000E+00
    0.38277E-08         0.50707E-10         0.00000E+00
    0.38279E-08         0.51762E-10         0.00000E+00
    0.38282E-08         0.52646E-10         0.00000E+00
    0.38285E-08         0.53356E-10         0.00000E+00
    0.38288E-08         0.53889E-10         0.00000E+00
    0.38291E-08         0.54241E-10         0.00000E+00
    0.38294E-08         0.54412E-10         0.00000E+00
    0.38297E-08         0.54398E-10         0.00000E+00
    0.38300E-08         0.54197E-10         0.00000E+00
    0.38303E-08         0.53807E-10         0.00000E+00
    0.38306E-08         0.53227E-10         0.00000E+00
    0.38308E-08         0.52455E-10         0.00000E+00
    0.38311E-08         0.51489E-10         0.00000E+00
    0.38314E-08         0.50328E-10         0.00000E+00
    0.38317E-08         0.48971E-10         0.00000E+00
    0.38319E-08         0.47416E-10         0.00000E+00
    0.38322E-08         0.45663E-10         0.00000E+00
    0.38324E-08         0.43710E-10         0.00000E+00
    0.38326E-08         0.41557E-10         0.00000E+00
    0.38329E-08         0.39204E-10         0.00000E+00
    0.38331E-08         0.36649E-10         0.00000E+00
    0.38332E-08         0.33893E-10         0.00000E+00
    0.38334E-08         0.30935E-10         0.00000E+00
    0.38336E-08         0.27774E-10         0.00000E+00
    0.38337E-08         0.24411E-10         0.00000E+00
    0.38338E-08         0.20845E-10         0.00000E+00
    0.38339E-08         0.17077E-10         0.00000E+00
    0.38340E-08         0.13107E-10         0.00000E+00
    0.38340E-08         0.89344E-11         0.00000E+00
    0.38341E-08         0.45597E-11         0.00000E+00
    0.38341E-08         0.23219E-11         0.00000E+00
    0.39330E-08         0.17604E-11         0.00000E+00
    0.39330E-08         0.34962E-11         0.00000E+00
    0.39330E-08         0.69287E-11         0.00000E+00
    0.39330E-08         0.10280E-10         0.00000E+00
    0.39330E-08         0.13544E-10         0.00000E+00
    0.39330E-08         0.16715E-10         0.00000E+00
    0.39330E-08         0.19787E-10         0.00000E+00
    0.39331E-08         0.22754E-10         0.00000E+00
    0.39331E-08         0.25612E-10         0.00000E+00
    0.39332E-08         0.28356E-10         0.00000E+00
    0.39333E-08         0.30979E-10         0.00000E+00
    0.39333E-08         0.33478E-10         0.00000E+00
    0.39334E-08         0.35847E-10         0.00000E+00
    0.39335E-08         0.38082E-10         0.00000E+00
    0.39336E-08         0.40179E-10         0.00000E+00
    0.39338E-08         0.42134E-10         0.00000E+00
    0.39339E-08         0.43942E-10         0.00000E+00
    0.39340E-08         0.45600E-10         0.00000E+00
    0.39342E-08         0.47104E-10         0.00000E+00
    0.39343E-08         0.48451E-10         0.00000E+00
    0.39345E-08         0.49637E-10         0.00000E+00
    0.39346E-08         0.50659E-10         0.00000E+00
    0.39348E-08         0.51514E-10         0.00000E+00
    0.39350E-08         0.52199E-10         0.00000E+00
    0.39352E-08         0.52712E-10         0.00000E+00
    0.39354E-08         0.53050E-10         0.00000E+00
    0.39356E-08         0.53211E-10         0.00000E+00
    0.39357E-08         0.53192E-10         0.00000E+00
    0.39359E-08         0.52991E-10         0.00000E+00
    0.39361E-08         0.52607E-10         0.00000E+00
    0.39363E-08         0.52037E-10         0.00000E+00
    0.39365E-08         0.51280E-10         0.00000E+00
    0.39367E-08         0.50335E-10         0.00000E+00
    0.39369E-08         0.49200E-10         0.00000E+00
    0.39371E-08         0.47873E-10         0.00000E+00
    0.39372E-08         0.46354E-10         0.00000E+00
    0.39374E-08         0.44641E-10         0.00000E+00
    0.39376E-08         0.42733E-10         0.00000E+00
    0.39377E-08         0.40631E-10         0.00000E+00
    0.39379E-08         0.38332E-10         0.00000E+00
    0.39380E-08         0.35836E-10         0.00000E+00
    0.39381E-08         0.33144E-10         0.00000E+00
    0.39383E-08         0.30253E-10         0.00000E+00
    0.39384E-08         0.27164E-10         0.00000E+00
    0.39385E-08         0.23878E-10         0.00000E+00
    0.39386E-08         0.20392E-10         0.00000E+00
    0.39386E-08         0.16708E-10         0.00000E+00
    0.39387E-08         0.12825E-10         0.00000E+00
    0.39387E-08         0.87429E-11         0.00000E+00
    0.39387E-08         0.44625E-11         0.00000E+00
    0.39387E-08         0.22726E-11         0.00000E+00
    0.40541E-08         0.17646E-11         0.00000E+00
    0.40541E-08         0.35019E-11         0.00000E+00
    0.40541E-08         0.69336E-11         0.00000E+00
    0.40541E-08         0.10277E-10         0.00000E+00
    0.40541E-08         0.13527E-10         0.00000E+00
    0.40541E-08         0.16678E-10         0.00000E+00
    0.40541E-08         0.19726E-10         0.00000E+00
    0.40541E-08         0.22665E-10         0.00000E+00
    0.40541E-08         0.25492E-10         0.00000E+00
    0.40541E-08         0.28201E-10         0.00000E+00
    0.40541E-08         0.30788E-10         0.00000E+00
    0.40541E-08         0.33248E-10         0.00000E+00
    0.40541E-08         0.35579E-10         0.00000E+00
    0.40541E-08         0.37775E-10         0.00000E+00
    0.40541E-08         0.39832E-10         0.00000E+00
    0.40542E-08         0.41748E-10         0.00000E+00
    0.40542E-08         0.43518E-10         0.00000E+00
    0.40543E-08         0.45139E-10         0.00000E+00
    0.40543E-08         0.46608E-10         0.00000E+00
    0.40544E-08         0.47920E-10         0.00000E+00
    0.40544E-08         0.49075E-10         0.00000E+00
    0.40545E-08         0.50067E-10         0.00000E+00
    0.40546E-08         0.50896E-10         0.00000E+00
    0.40547E-08         0.51557E-10         0.00000E+00
    0.40548E-08         0.52049E-10         0.00000E+00
    0.40548E-08         0.52369E-10         0.00000E+00
    0.40549E-08         0.52515E-10         0.00000E+00
    0.40550E-08         0.52484E-10         0.00000E+00
    0.40551E-08         0.52276E-10         0.00000E+00
    0.40552E-08         0.51887E-10         0.00000E+00
    0.40553E-08         0.51316E-10         0.00000E+00
    0.40554E-08         0.50563E-10         0.00000E+00
    0.40555E-08         0.49624E-10         0.00000E+00
    0.40556E-08         0.48498E-10         0.00000E+00
    0.40557E-08         0.47186E-10         0.00000E+00
    0.40558E-08         0.45684E-10         0.00000E+00
    0.40559E-08         0.43992E-10         0.00000E+00
    0.40560E-08         0.42110E-10         0.00000E+00
    0.40561E-08         0.40035E-10         0.00000E+00
    0.40562E-08         0.37769E-10         0.00000E+00
    0.40563E-08         0.35309E-10         0.00000E+00
    0.40564E-08         0.32655E-10         0.00000E+00
    0.40564E-08         0.29806E-10         0.00000E+00
    0.40565E-08         0.26763E-10         0.00000E+00
    0.40566E-08         0.23525E-10         0.00000E+00
    0.40566E-08         0.20091E-10         0.00000E+00
    0.40567E-08         0.16461E-10         0.00000E+00
    0.40567E-08         0.12636E-10         0.00000E+00
    0.40567E-08         0.86145E-11         0.00000E+00
    0.40567E-08         0.43971E-11         0.00000E+00
    0.40567E-08         0.22394E-11         0.00000E+00
    0.41882E-08         0.17874E-11         0.00000E+00
    0.41882E-08         0.35445E-11         0.00000E+00
    0.41882E-08         0.70112E-11         0.00000E+00
    0.41881E-08         0.10381E-10         0.00000E+00
    0.41881E-08         0.13650E-10         0.00000E+00
    0.41881E-08         0.16813E-10         0.00000E+00
    0.41880E-08         0.19867E-10         0.00000E+00
    0.41880E-08         0.22807E-10         0.00000E+00
    0.41879E-08         0.25629E-10         0.00000E+00
    0.41879E-08         0.28329E-10         0.00000E+00
    0.41878E-08         0.30903E-10         0.00000E+00
    0.41878E-08         0.33348E-10         0.00000E+00
    0.41877E-08         0.35659E-10         0.00000E+00
    0.41877E-08         0.37834E-10         0.00000E+00
    0.41877E-08         0.39869E-10         0.00000E+00
    0.41876E-08         0.41761E-10         0.00000E+00
    0.41876E-08         0.43506E-10         0.00000E+00
    0.41876E-08         0.45101E-10         0.00000E+00
    0.41875E-08         0.46544E-10         0.00000E+00
    0.41875E-08         0.47831E-10         0.00000E+00
    0.41875E-08         0.48959E-10         0.00000E+00
    0.41875E-08         0.49927E-10         0.00000E+00
    0.41875E-08         0.50731E-10         0.00000E+00
    0.41875E-08         0.51370E-10         0.00000E+00
    0.41875E-08         0.51840E-10         0.00000E+00
    0.41875E-08         0.52140E-10         0.00000E+00
    0.41875E-08         0.52268E-10         0.00000E+00
    0.41875E-08         0.52221E-10         0.00000E+00
    0.41875E-08         0.51998E-10         0.00000E+00
    0.41875E-08         0.51597E-10         0.00000E+00
    0.41875E-08         0.51017E-10         0.00000E+00
    0.41876E-08         0.50255E-10         0.00000E+00
    0.41876E-08         0.49310E-10         0.00000E+00
    0.41876E-08         0.48182E-10         0.00000E+00
    0.41877E-08         0.46868E-10         0.00000E+00
    0.41877E-08         0.45368E-10         0.00000E+00
    0.41877E-08         0.43681E-10         0.00000E+00
    0.41877E-08         0.41805E-10         0.00000E+00
    0.41878E-08         0.39740E-10         0.00000E+00
    0.41878E-08         0.37485E-10         0.00000E+00
    0.41878E-08         0.35040E-10         0.00000E+00
    0.41879E-08         0.32402E-10         0.00000E+00
    0.41879E-08         0.29573E-10         0.00000E+00
    0.41879E-08         0.26551E-10         0.00000E+00
    0.41880E-08         0.23337E-10         0.00000E+00
    0.41880E-08         0.19929E-10         0.00000E+00
    0.41880E-08         0.16328E-10         0.00000E+00
    0.41880E-08         0.12533E-10         0.00000E+00
    0.41880E-08         0.85437E-11         0.00000E+00
    0.41880E-08         0.43608E-11         0.00000E+00
    0.41880E-08         0.22208E-11         0.00000E+00
    0.43352E-08         0.18256E-11         0.00000E+00
    0.43352E-08         0.36174E-11         0.00000E+00
    0.43351E-08         0.71490E-11         0.00000E+00
    0.43351E-08         0.10574E-10         0.00000E+00
    0.43350E-08         0.13890E-10         0.00000E+00
    0.43350E-08         0.17092E-10         0.00000E+00
    0.43349E-08         0.20177E-10         0.00000E+00
    0.43348E-08         0.23142E-10         0.00000E+00
    0.43347E-08         0.25982E-10         0.00000E+00
    0.43347E-08         0.28695E-10         0.00000E+00
    0.43346E-08         0.31277E-10         0.00000E+00
    0.43345E-08         0.33725E-10         0.00000E+00
    0.43344E-08         0.36035E-10         0.00000E+00
    0.43343E-08         0.38206E-10         0.00000E+00
    0.43342E-08         0.40233E-10         0.00000E+00
    0.43341E-08         0.42114E-10         0.00000E+00
    0.43340E-08         0.43845E-10         0.00000E+00
    0.43339E-08         0.45425E-10         0.00000E+00
    0.43338E-08         0.46851E-10         0.00000E+00
    0.43337E-08         0.48120E-10         0.00000E+00
    0.43336E-08         0.49229E-10         0.00000E+00
    0.43335E-08         0.50177E-10         0.00000E+00
    0.43334E-08         0.50960E-10         0.00000E+00
    0.43333E-08         0.51578E-10         0.00000E+00
    0.43333E-08         0.52027E-10         0.00000E+00
    0.43332E-08         0.52306E-10         0.00000E+00
    0.43331E-08         0.52413E-10         0.00000E+00
    0.43331E-08         0.52346E-10         0.00000E+00
    0.43330E-08         0.52104E-10         0.00000E+00
    0.43330E-08         0.51684E-10         0.00000E+00
    0.43329E-08         0.51085E-10         0.00000E+00
    0.43329E-08         0.50307E-10         0.00000E+00
    0.43328E-08         0.49347E-10         0.00000E+00
    0.43328E-08         0.48204E-10         0.00000E+00
    0.43328E-08         0.46877E-10         0.00000E+00
    0.43327E-08         0.45366E-10         0.00000E+00
    0.43327E-08         0.43668E-10         0.00000E+00
    0.43327E-08         0.41784E-10         0.00000E+00
    0.43327E-08         0.39711E-10         0.00000E+00
    0.43327E-08         0.37450E-10         0.00000E+00
    0.43326E-08         0.35000E-10         0.00000E+00
    0.43326E-08         0.32360E-10         0.00000E+00
    0.43326E-08         0.29530E-10         0.00000E+00
    0.43326E-08         0.26508E-10         0.00000E+00
    0.43326E-08         0.23296E-10         0.00000E+00
    0.43326E-08         0.19891E-10         0.00000E+00
    0.43326E-08         0.16295E-10         0.00000E+00
    0.43326E-08         0.12506E-10         0.00000E+00
    0.43326E-08         0.85244E-11         0.00000E+00
    0.43326E-08         0.43505E-11         0.00000E+00
    0.43326E-08         0.22154E-11         0.00000E+00
    0.44951E-08         0.18762E-11         0.00000E+00
    0.44951E-08         0.37151E-11         0.00000E+00
    0.44950E-08         0.73357E-11         0.00000E+00
    0.44950E-08         0.10840E-10         0.00000E+00
    0.44949E-08         0.14226E-10         0.00000E+00
    0.44948E-08         0.17489E-10         0.00000E+00
    0.44948E-08         0.20626E-10         0.00000E+00
    0.44946E-08         0.23636E-10         0.00000E+00
    0.44945E-08         0.26514E-10         0.00000E+00
    0.44944E-08         0.29258E-10         0.00000E+00
    0.44943E-08         0.31866E-10         0.00000E+00
    0.44941E-08         0.34333E-10         0.00000E+00
    0.44940E-08         0.36658E-10         0.00000E+00
    0.44938E-08         0.38838E-10         0.00000E+00
    0.44937E-08         0.40870E-10         0.00000E+00
    0.44935E-08         0.42752E-10         0.00000E+00
    0.44934E-08         0.44481E-10         0.00000E+00
    0.44932E-08         0.46056E-10         0.00000E+00
    0.44931E-08         0.47472E-10         0.00000E+00
    0.44929E-08         0.48730E-10         0.00000E+00
    0.44928E-08         0.49825E-10         0.00000E+00
    0.44926E-08         0.50757E-10         0.00000E+00
    0.44925E-08         0.51523E-10         0.00000E+00
    0.44924E-08         0.52122E-10         0.00000E+00
    0.44922E-08         0.52551E-10         0.00000E+00
    0.44921E-08         0.52808E-10         0.00000E+00
    0.44920E-08         0.52893E-10         0.00000E+00
    0.44919E-08         0.52803E-10         0.00000E+00
    0.44917E-08         0.52537E-10         0.00000E+00
    0.44916E-08         0.52094E-10         0.00000E+00
    0.44915E-08         0.51472E-10         0.00000E+00
    0.44914E-08         0.50669E-10         0.00000E+00
    0.44913E-08         0.49685E-10         0.00000E+00
    0.44912E-08         0.48519E-10         0.00000E+00
    0.44911E-08         0.47169E-10         0.00000E+00
    0.44911E-08         0.45634E-10         0.00000E+00
    0.44910E-08         0.43914E-10         0.00000E+00
    0.44909E-08         0.42007E-10         0.00000E+00
    0.44909E-08         0.39913E-10         0.00000E+00
    0.44908E-08         0.37631E-10         0.00000E+00
    0.44907E-08         0.35161E-10         0.00000E+00
    0.44907E-08         0.32501E-10         0.00000E+00
    0.44907E-08         0.29652E-10         0.00000E+00
    0.44906E-08         0.26613E-10         0.00000E+00
    0.44906E-08         0.23383E-10         0.00000E+00
    0.44906E-08         0.19962E-10         0.00000E+00
    0.44905E-08         0.16350E-10         0.00000E+00
    0.44905E-08         0.12546E-10         0.00000E+00
    0.44905E-08         0.85504E-11         0.00000E+00
    0.44905E-08         0.43631E-11         0.00000E+00
    0.44905E-08         0.22216E-11         0.00000E+00
    0.46681E-08         0.19368E-11         0.00000E+00
    0.46681E-08         0.38326E-11         0.00000E+00
    0.46680E-08         0.75616E-11         0.00000E+00
    0.46680E-08         0.11164E-10         0.00000E+00
    0.46679E-08         0.14638E-10         0.00000E+00
    0.46678E-08         0.17980E-10         0.00000E+00
    0.46677E-08         0.21188E-10         0.00000E+00
    0.46676E-08         0.24260E-10         0.00000E+00
    0.46674E-08         0.27192E-10         0.00000E+00
    0.46673E-08         0.29983E-10         0.00000E+00
    0.46671E-08         0.32630E-10         0.00000E+00
    0.46669E-08         0.35131E-10         0.00000E+00
    0.46667E-08         0.37483E-10         0.00000E+00
    0.46666E-08         0.39685E-10         0.00000E+00
    0.46664E-08         0.41733E-10         0.00000E+00
    0.46662E-08         0.43626E-10         0.00000E+00
    0.46660E-08         0.45362E-10         0.00000E+00
    0.46658E-08         0.46939E-10         0.00000E+00
    0.46656E-08         0.48354E-10         0.00000E+00
    0.46654E-08         0.49606E-10         0.00000E+00
    0.46652E-08         0.50693E-10         0.00000E+00
    0.46650E-08         0.51614E-10         0.00000E+00
    0.46648E-08         0.52366E-10         0.00000E+00
    0.46646E-08         0.52947E-10         0.00000E+00
    0.46644E-08         0.53357E-10         0.00000E+00
    0.46642E-08         0.53593E-10         0.00000E+00
    0.46641E-08         0.53655E-10         0.00000E+00
    0.46639E-08         0.53540E-10         0.00000E+00
    0.46637E-08         0.53248E-10         0.00000E+00
    0.46636E-08         0.52777E-10         0.00000E+00
    0.46634E-08         0.52126E-10         0.00000E+00
    0.46633E-08         0.51294E-10         0.00000E+00
    0.46631E-08         0.50279E-10         0.00000E+00
    0.46630E-08         0.49082E-10         0.00000E+00
    0.46628E-08         0.47700E-10         0.00000E+00
    0.46627E-08         0.46132E-10         0.00000E+00
    0.46626E-08         0.44379E-10         0.00000E+00
    0.46625E-08         0.42439E-10         0.00000E+00
    0.46624E-08         0.40312E-10         0.00000E+00
    0.46623E-08         0.37997E-10         0.00000E+00
    0.46622E-08         0.35493E-10         0.00000E+00
    0.46621E-08         0.32800E-10         0.00000E+00
    0.46621E-08         0.29917E-10         0.00000E+00
    0.46620E-08         0.26844E-10         0.00000E+00
    0.46620E-08         0.23580E-10         0.00000E+00
    0.46619E-08         0.20126E-10         0.00000E+00
    0.46619E-08         0.16480E-10         0.00000E+00
    0.46619E-08         0.12644E-10         0.00000E+00
    0.46618E-08         0.86153E-11         0.00000E+00
    0.46618E-08         0.43955E-11         0.00000E+00
    0.46618E-08         0.22377E-11         0.00000E+00
    0.48543E-08         0.20052E-11         0.00000E+00
    0.48543E-08         0.39656E-11         0.00000E+00
    0.48542E-08         0.78185E-11         0.00000E+00
    0.48542E-08         0.11534E-10         0.00000E+00
    0.48541E-08         0.15111E-10         0.00000E+00
    0.48540E-08         0.18547E-10         0.00000E+00
    0.48538E-08         0.21840E-10         0.00000E+00
    0.48537E-08         0.24987E-10         0.00000E+00
    0.48535E-08         0.27987E-10         0.00000E+00
    0.48534E-08         0.30837E-10         0.00000E+00
    0.48532E-08         0.33536E-10         0.00000E+00
    0.48530E-08         0.36081E-10         0.00000E+00
    0.48528E-08         0.38472E-10         0.00000E+00
    0.48526E-08         0.40704E-10         0.00000E+00
    0.48523E-08         0.42778E-10         0.00000E+00
    0.48521E-08         0.44691E-10         0.00000E+00
    0.48519E-08         0.46442E-10         0.00000E+00
    0.48517E-08         0.48028E-10         0.00000E+00
    0.48514E-08         0.49448E-10         0.00000E+00
    0.48512E-08         0.50701E-10         0.00000E+00
    0.48509E-08         0.51784E-10         0.00000E+00
    0.48507E-08         0.52697E-10         0.00000E+00
    0.48505E-08         0.53437E-10         0.00000E+00
    0.48502E-08         0.54004E-10         0.00000E+00
    0.48500E-08         0.54396E-10         0.00000E+00
    0.48498E-08         0.54611E-10         0.00000E+00
    0.48496E-08         0.54649E-10         0.00000E+00
    0.48494E-08         0.54509E-10         0.00000E+00
    0.48491E-08         0.54188E-10         0.00000E+00
    0.48489E-08         0.53687E-10         0.00000E+00
    0.48487E-08         0.53003E-10         0.00000E+00
    0.48486E-08         0.52137E-10         0.00000E+00
    0.48484E-08         0.51086E-10         0.00000E+00
    0.48482E-08         0.49851E-10         0.00000E+00
    0.48480E-08         0.48430E-10         0.00000E+00
    0.48479E-08         0.46823E-10         0.00000E+00
    0.48477E-08         0.45029E-10         0.00000E+00
    0.48476E-08         0.43047E-10         0.00000E+00
    0.48474E-08         0.40876E-10         0.00000E+00
    0.48473E-08         0.38517E-10         0.00000E+00
    0.48472E-08         0.35968E-10         0.00000E+00
    0.48471E-08         0.33230E-10         0.00000E+00
    0.48470E-08         0.30301E-10         0.00000E+00
    0.48469E-08         0.27181E-10         0.00000E+00
    0.48469E-08         0.23870E-10         0.00000E+00
    0.48468E-08         0.20368E-10         0.00000E+00
    0.48468E-08         0.16675E-10         0.00000E+00
    0.48467E-08         0.12790E-10         0.00000E+00
    0.48467E-08         0.87132E-11         0.00000E+00
    0.48467E-08         0.44446E-11         0.00000E+00
    0.48467E-08         0.22623E-11         0.00000E+00
    0.50540E-08         0.20795E-11         0.00000E+00
    0.50539E-08         0.41105E-11         0.00000E+00
    0.50539E-08         0.80992E-11         0.00000E+00
    0.50538E-08         0.11940E-10         0.00000E+00
    0.50537E-08         0.15632E-10         0.00000E+00
    0.50536E-08         0.19173E-10         0.00000E+00
    0.50535E-08         0.22561E-10         0.00000E+00
    0.50533E-08         0.25795E-10         0.00000E+00
    0.50531E-08         0.28872E-10         0.00000E+00
    0.50529E-08         0.31792E-10         0.00000E+00
    0.50527E-08         0.34553E-10         0.00000E+00
    0.50525E-08         0.37152E-10         0.00000E+00
    0.50523E-08         0.39589E-10         0.00000E+00
    0.50521E-08         0.41862E-10         0.00000E+00
    0.50518E-08         0.43969E-10         0.00000E+00
    0.50516E-08         0.45909E-10         0.00000E+00
    0.50513E-08         0.47681E-10         0.00000E+00
    0.50510E-08         0.49282E-10         0.00000E+00
    0.50508E-08         0.50712E-10         0.00000E+00
    0.50505E-08         0.51970E-10         0.00000E+00
    0.50502E-08         0.53053E-10         0.00000E+00
    0.50500E-08         0.53961E-10         0.00000E+00
    0.50497E-08         0.54693E-10         0.00000E+00
    0.50494E-08         0.55247E-10         0.00000E+00
    0.50492E-08         0.55622E-10         0.00000E+00
    0.50489E-08         0.55818E-10         0.00000E+00
    0.50487E-08         0.55832E-10         0.00000E+00
    0.50484E-08         0.55665E-10         0.00000E+00
    0.50482E-08         0.55315E-10         0.00000E+00
    0.50479E-08         0.54780E-10         0.00000E+00
    0.50477E-08         0.54062E-10         0.00000E+00
    0.50475E-08         0.53158E-10         0.00000E+00
    0.50473E-08         0.52067E-10         0.00000E+00
    0.50471E-08         0.50790E-10         0.00000E+00
    0.50469E-08         0.49325E-10         0.00000E+00
    0.50467E-08         0.47671E-10         0.00000E+00
    0.50465E-08         0.45829E-10         0.00000E+00
    0.50463E-08         0.43798E-10         0.00000E+00
    0.50462E-08         0.41576E-10         0.00000E+00
    0.50460E-08         0.39165E-10         0.00000E+00
    0.50459E-08         0.36562E-10         0.00000E+00
    0.50458E-08         0.33768E-10         0.00000E+00
    0.50457E-08         0.30783E-10         0.00000E+00
    0.50456E-08         0.27606E-10         0.00000E+00
    0.50455E-08         0.24237E-10         0.00000E+00
    0.50454E-08         0.20676E-10         0.00000E+00
    0.50454E-08         0.16923E-10         0.00000E+00
    0.50453E-08         0.12977E-10         0.00000E+00
    0.50453E-08         0.88384E-11         0.00000E+00
    0.50452E-08         0.45075E-11         0.00000E+00
    0.50452E-08         0.22939E-11         0.00000E+00
    0.52673E-08         0.21583E-11         0.00000E+00
    0.52673E-08         0.42644E-11         0.00000E+00
    0.52673E-08         0.83979E-11         0.00000E+00
    0.52672E-08         0.12373E-10         0.00000E+00
    0.52671E-08         0.16189E-10         0.00000E+00
    0.52670E-08         0.19843E-10         0.00000E+00
    0.52668E-08         0.23336E-10         0.00000E+00
    0.52667E-08         0.26664E-10         0.00000E+00
    0.52665E-08         0.29828E-10         0.00000E+00
    0.52663E-08         0.32825E-10         0.00000E+00
    0.52660E-08         0.35655E-10         0.00000E+00
    0.52658E-08         0.38315E-10         0.00000E+00
    0.52656E-08         0.40806E-10         0.00000E+00
    0.52653E-08         0.43125E-10         0.00000E+00
    0.52650E-08         0.45272E-10         0.00000E+00
    0.52648E-08         0.47244E-10         0.00000E+00
    0.52645E-08         0.49042E-10         0.00000E+00
    0.52642E-08         0.50664E-10         0.00000E+00
    0.52639E-08         0.52109E-10         0.00000E+00
    0.52636E-08         0.53375E-10         0.00000E+00
    0.52633E-08         0.54462E-10         0.00000E+00
    0.52630E-08         0.55368E-10         0.00000E+00
    0.52627E-08         0.56094E-10         0.00000E+00
    0.52625E-08         0.56637E-10         0.00000E+00
    0.52622E-08         0.56997E-10         0.00000E+00
    0.52619E-08         0.57172E-10         0.00000E+00
    0.52616E-08         0.57163E-10         0.00000E+00
    0.52613E-08         0.56969E-10         0.00000E+00
    0.52611E-08         0.56588E-10         0.00000E+00
    0.52608E-08         0.56020E-10         0.00000E+00
    0.52605E-08         0.55264E-10         0.00000E+00
    0.52603E-08         0.54319E-10         0.00000E+00
    0.52601E-08         0.53186E-10         0.00000E+00
    0.52598E-08         0.51862E-10         0.00000E+00
    0.52596E-08         0.50349E-10         0.00000E+00
    0.52594E-08         0.48645E-10         0.00000E+00
    0.52592E-08         0.46750E-10         0.00000E+00
    0.52590E-08         0.44663E-10         0.00000E+00
    0.52588E-08         0.42384E-10         0.00000E+00
    0.52587E-08         0.39914E-10         0.00000E+00
    0.52585E-08         0.37250E-10         0.00000E+00
    0.52584E-08         0.34394E-10         0.00000E+00
    0.52583E-08         0.31344E-10         0.00000E+00
    0.52581E-08         0.28102E-10         0.00000E+00
    0.52580E-08         0.24666E-10         0.00000E+00
    0.52580E-08         0.21036E-10         0.00000E+00
    0.52579E-08         0.17213E-10         0.00000E+00
    0.52578E-08         0.13196E-10         0.00000E+00
    0.52578E-08         0.89857E-11         0.00000E+00
    0.52578E-08         0.45816E-11         0.00000E+00
    0.52578E-08         0.23311E-11         0.00000E+00
    0.54947E-08         0.22403E-11         0.00000E+00
    0.54947E-08         0.44247E-11         0.00000E+00
    0.54947E-08         0.87094E-11         0.00000E+00
    0.54946E-08         0.12825E-10         0.00000E+00
    0.54945E-08         0.16771E-10         0.00000E+00
    0.54943E-08         0.20546E-10         0.00000E+00
    0.54942E-08         0.24149E-10         0.00000E+00
    0.54940E-08         0.27578E-10         0.00000E+00
    0.54938E-08         0.30834E-10         0.00000E+00
    0.54936E-08         0.33915E-10         0.00000E+00
    0.54934E-08         0.36819E-10         0.00000E+00
    0.54931E-08         0.39547E-10         0.00000E+00
    0.54929E-08         0.42096E-10         0.00000E+00
    0.54926E-08         0.44467E-10         0.00000E+00
    0.54923E-08         0.46658E-10         0.00000E+00
    0.54920E-08         0.48668E-10         0.00000E+00
    0.54917E-08         0.50496E-10         0.00000E+00
    0.54914E-08         0.52142E-10         0.00000E+00
    0.54911E-08         0.53604E-10         0.00000E+00
    0.54908E-08         0.54882E-10         0.00000E+00
    0.54905E-08         0.55975E-10         0.00000E+00
    0.54902E-08         0.56882E-10         0.00000E+00
    0.54899E-08         0.57603E-10         0.00000E+00
    0.54896E-08         0.58137E-10         0.00000E+00
    0.54893E-08         0.58482E-10         0.00000E+00
    0.54890E-08         0.58639E-10         0.00000E+00
    0.54887E-08         0.58607E-10         0.00000E+00
    0.54884E-08         0.58385E-10         0.00000E+00
    0.54881E-08         0.57973E-10         0.00000E+00
    0.54878E-08         0.57370E-10         0.00000E+00
    0.54875E-08         0.56575E-10         0.00000E+00
    0.54873E-08         0.55588E-10         0.00000E+00
    0.54870E-08         0.54410E-10         0.00000E+00
    0.54868E-08         0.53038E-10         0.00000E+00
    0.54865E-08         0.51473E-10         0.00000E+00
    0.54863E-08         0.49715E-10         0.00000E+00
    0.54861E-08         0.47763E-10         0.00000E+00
    0.54859E-08         0.45617E-10         0.00000E+00
    0.54857E-08         0.43276E-10         0.00000E+00
    0.54855E-08         0.40741E-10         0.00000E+00
    0.54854E-08         0.38011E-10         0.00000E+00
    0.54852E-08         0.35086E-10         0.00000E+00
    0.54851E-08         0.31967E-10         0.00000E+00
    0.54850E-08         0.28652E-10         0.00000E+00
    0.54848E-08         0.25142E-10         0.00000E+00
    0.54848E-08         0.21437E-10         0.00000E+00
    0.54847E-08         0.17536E-10         0.00000E+00
    0.54846E-08         0.13441E-10         0.00000E+00
    0.54846E-08         0.91500E-11         0.00000E+00
    0.54846E-08         0.46643E-11         0.00000E+00
    0.54845E-08         0.23728E-11         0.00000E+00
    0.57365E-08         0.23244E-11         0.00000E+00
    0.57365E-08         0.45892E-11         0.00000E+00
    0.57364E-08         0.90294E-11         0.00000E+00
    0.57363E-08         0.13290E-10         0.00000E+00
    0.57362E-08         0.17370E-10         0.00000E+00
    0.57361E-08         0.21270E-10         0.00000E+00
    0.57359E-08         0.24988E-10         0.00000E+00
    0.57358E-08         0.28523E-10         0.00000E+00
    0.57356E-08         0.31875E-10         0.00000E+00
    0.57353E-08         0.35043E-10         0.00000E+00
    0.57351E-08         0.38027E-10         0.00000E+00
    0.57349E-08         0.40825E-10         0.00000E+00
    0.57346E-08         0.43438E-10         0.00000E+00
    0.57343E-08         0.45863E-10         0.00000E+00
    0.57340E-08         0.48102E-10         0.00000E+00
    0.57337E-08         0.50152E-10         0.00000E+00
    0.57334E-08         0.52014E-10         0.00000E+00
    0.57331E-08         0.53686E-10         0.00000E+00
    0.57328E-08         0.55169E-10         0.00000E+00
    0.57325E-08         0.56461E-10         0.00000E+00
    0.57322E-08         0.57562E-10         0.00000E+00
    0.57318E-08         0.58472E-10         0.00000E+00
    0.57315E-08         0.59190E-10         0.00000E+00
    0.57312E-08         0.59715E-10         0.00000E+00
    0.57309E-08         0.60048E-10         0.00000E+00
    0.57306E-08         0.60186E-10         0.00000E+00
    0.57302E-08         0.60131E-10         0.00000E+00
    0.57299E-08         0.59882E-10         0.00000E+00
    0.57296E-08         0.59438E-10         0.00000E+00
    0.57293E-08         0.58799E-10         0.00000E+00
    0.57291E-08         0.57965E-10         0.00000E+00
    0.57288E-08         0.56935E-10         0.00000E+00
    0.57285E-08         0.55709E-10         0.00000E+00
    0.57282E-08         0.54287E-10         0.00000E+00
    0.57280E-08         0.52669E-10         0.00000E+00
    0.57278E-08         0.50854E-10         0.00000E+00
    0.57275E-08         0.48842E-10         0.00000E+00
    0.57273E-08         0.46634E-10         0.00000E+00
    0.57271E-08         0.44228E-10         0.00000E+00
    0.57269E-08         0.41625E-10         0.00000E+00
    0.57268E-08         0.38825E-10         0.00000E+00
    0.57266E-08         0.35828E-10         0.00000E+00
    0.57265E-08         0.32633E-10         0.00000E+00
    0.57263E-08         0.29242E-10         0.00000E+00
    0.57262E-08         0.25653E-10         0.00000E+00
    0.57261E-08         0.21867E-10         0.00000E+00
    0.57260E-08         0.17884E-10         0.00000E+00
    0.57260E-08         0.13704E-10         0.00000E+00
    0.57259E-08         0.93268E-11         0.00000E+00
    0.57259E-08         0.47534E-11         0.00000E+00
    0.57259E-08         0.24176E-11         0.00000E+00
    0.59930E-08         0.24096E-11         0.00000E+00
    0.59930E-08         0.47560E-11         0.00000E+00
    0.59930E-08         0.93540E-11         0.00000E+00
    0.59929E-08         0.13762E-10         0.00000E+00
    0.59928E-08         0.17980E-10         0.00000E+00
    0.59926E-08         0.22006E-10         0.00000E+00
    0.59925E-08         0.25842E-10         0.00000E+00
    0.59923E-08         0.29485E-10         0.00000E+00
    0.59921E-08         0.32936E-10         0.00000E+00
    0.59919E-08         0.36195E-10         0.00000E+00
    0.59916E-08         0.39260E-10         0.00000E+00
    0.59914E-08         0.42132E-10         0.00000E+00
    0.59911E-08         0.44809E-10         0.00000E+00
    0.59908E-08         0.47292E-10         0.00000E+00
    0.59905E-08         0.49581E-10         0.00000E+00
    0.59902E-08         0.51674E-10         0.00000E+00
    0.59899E-08         0.53571E-10         0.00000E+00
    0.59896E-08         0.55272E-10         0.00000E+00
    0.59893E-08         0.56777E-10         0.00000E+00
    0.59890E-08         0.58085E-10         0.00000E+00
    0.59886E-08         0.59196E-10         0.00000E+00
    0.59883E-08         0.60110E-10         0.00000E+00
    0.59880E-08         0.60826E-10         0.00000E+00
    0.59876E-08         0.61343E-10         0.00000E+00
    0.59873E-08         0.61663E-10         0.00000E+00
    0.59870E-08         0.61784E-10         0.00000E+00
    0.59867E-08         0.61707E-10         0.00000E+00
    0.59864E-08         0.61430E-10         0.00000E+00
    0.59861E-08         0.60955E-10         0.00000E+00
    0.59857E-08         0.60280E-10         0.00000E+00
    0.59855E-08         0.59405E-10         0.00000E+00
    0.59852E-08         0.58331E-10         0.00000E+00
    0.59849E-08         0.57058E-10         0.00000E+00
    0.59846E-08         0.55584E-10         0.00000E+00
    0.59844E-08         0.53911E-10         0.00000E+00
    0.59841E-08         0.52038E-10         0.00000E+00
    0.59839E-08         0.49965E-10         0.00000E+00
    0.59837E-08         0.47692E-10         0.00000E+00
    0.59835E-08         0.45219E-10         0.00000E+00
    0.59833E-08         0.42546E-10         0.00000E+00
    0.59831E-08         0.39673E-10         0.00000E+00
    0.59829E-08         0.36601E-10         0.00000E+00
    0.59828E-08         0.33329E-10         0.00000E+00
    0.59826E-08         0.29857E-10         0.00000E+00
    0.59825E-08         0.26186E-10         0.00000E+00
    0.59824E-08         0.22316E-10         0.00000E+00
    0.59823E-08         0.18247E-10         0.00000E+00
    0.59823E-08         0.13978E-10         0.00000E+00
    0.59822E-08         0.95117E-11         0.00000E+00
    0.59822E-08         0.48467E-11         0.00000E+00
    0.59822E-08         0.24646E-11         0.00000E+00
    0.62648E-08         0.24950E-11         0.00000E+00
    0.62648E-08         0.49234E-11         0.00000E+00
    0.62647E-08         0.96800E-11         0.00000E+00
    0.62647E-08         0.14236E-10         0.00000E+00
    0.62645E-08         0.18592E-10         0.00000E+00
    0.62644E-08         0.22747E-10         0.00000E+00
    0.62642E-08         0.26701E-10         0.00000E+00
    0.62641E-08         0.30454E-10         0.00000E+00
    0.62639E-08         0.34005E-10         0.00000E+00
    0.62636E-08         0.37355E-10         0.00000E+00
    0.62634E-08         0.40503E-10         0.00000E+00
    0.62631E-08         0.43449E-10         0.00000E+00
    0.62629E-08         0.46194E-10         0.00000E+00
    0.62626E-08         0.48735E-10         0.00000E+00
    0.62623E-08         0.51075E-10         0.00000E+00
    0.62620E-08         0.53211E-10         0.00000E+00
    0.62617E-08         0.55145E-10         0.00000E+00
    0.62614E-08         0.56876E-10         0.00000E+00
    0.62610E-08         0.58404E-10         0.00000E+00
    0.62607E-08         0.59729E-10         0.00000E+00
    0.62604E-08         0.60851E-10         0.00000E+00
    0.62601E-08         0.61769E-10         0.00000E+00
    0.62597E-08         0.62484E-10         0.00000E+00
    0.62594E-08         0.62995E-10         0.00000E+00
    0.62591E-08         0.63302E-10         0.00000E+00
    0.62587E-08         0.63406E-10         0.00000E+00
    0.62584E-08         0.63306E-10         0.00000E+00
    0.62581E-08         0.63003E-10         0.00000E+00
    0.62578E-08         0.62496E-10         0.00000E+00
    0.62575E-08         0.61785E-10         0.00000E+00
    0.62572E-08         0.60870E-10         0.00000E+00
    0.62569E-08         0.59752E-10         0.00000E+00
    0.62566E-08         0.58430E-10         0.00000E+00
    0.62563E-08         0.56905E-10         0.00000E+00
    0.62561E-08         0.55176E-10         0.00000E+00
    0.62558E-08         0.53244E-10         0.00000E+00
    0.62556E-08         0.51109E-10         0.00000E+00
    0.62554E-08         0.48770E-10         0.00000E+00
    0.62552E-08         0.46229E-10         0.00000E+00
    0.62550E-08         0.43485E-10         0.00000E+00
    0.62548E-08         0.40538E-10         0.00000E+00
    0.62546E-08         0.37389E-10         0.00000E+00
    0.62545E-08         0.34038E-10         0.00000E+00
    0.62543E-08         0.30485E-10         0.00000E+00
    0.62542E-08         0.26731E-10         0.00000E+00
    0.62541E-08         0.22774E-10         0.00000E+00
    0.62540E-08         0.18617E-10         0.00000E+00
    0.62540E-08         0.14259E-10         0.00000E+00
    0.62539E-08         0.97006E-11         0.00000E+00
    0.62539E-08         0.49419E-11         0.00000E+00
    0.62539E-08         0.25125E-11         0.00000E+00
    0.65523E-08         0.25800E-11         0.00000E+00
    0.65523E-08         0.50898E-11         0.00000E+00
    0.65522E-08         0.10004E-10         0.00000E+00
    0.65521E-08         0.14708E-10         0.00000E+00
    0.65520E-08         0.19201E-10         0.00000E+00
    0.65519E-08         0.23484E-10         0.00000E+00
    0.65517E-08         0.27556E-10         0.00000E+00
    0.65515E-08         0.31418E-10         0.00000E+00
    0.65513E-08         0.35070E-10         0.00000E+00
    0.65511E-08         0.38511E-10         0.00000E+00
    0.65509E-08         0.41742E-10         0.00000E+00
    0.65506E-08         0.44763E-10         0.00000E+00
    0.65504E-08         0.47573E-10         0.00000E+00
    0.65501E-08         0.50174E-10         0.00000E+00
    0.65498E-08         0.52565E-10         0.00000E+00
    0.65495E-08         0.54745E-10         0.00000E+00
    0.65492E-08         0.56716E-10         0.00000E+00
    0.65489E-08         0.58477E-10         0.00000E+00
    0.65485E-08         0.60029E-10         0.00000E+00
    0.65482E-08         0.61370E-10         0.00000E+00
    0.65479E-08         0.62503E-10         0.00000E+00
    0.65476E-08         0.63426E-10         0.00000E+00
    0.65472E-08         0.64139E-10         0.00000E+00
    0.65469E-08         0.64644E-10         0.00000E+00
    0.65466E-08         0.64940E-10         0.00000E+00
    0.65463E-08         0.65027E-10         0.00000E+00
    0.65459E-08         0.64905E-10         0.00000E+00
    0.65456E-08         0.64574E-10         0.00000E+00
    0.65453E-08         0.64036E-10         0.00000E+00
    0.65450E-08         0.63289E-10         0.00000E+00
    0.65447E-08         0.62334E-10         0.00000E+00
    0.65444E-08         0.61172E-10         0.00000E+00
    0.65442E-08         0.59802E-10         0.00000E+00
    0.65439E-08         0.58225E-10         0.00000E+00
    0.65436E-08         0.56441E-10         0.00000E+00
    0.65434E-08         0.54450E-10         0.00000E+00
    0.65431E-08         0.52253E-10         0.00000E+00
    0.65429E-08         0.49849E-10         0.00000E+00
    0.65427E-08         0.47239E-10         0.00000E+00
    0.65425E-08         0.44424E-10         0.00000E+00
    0.65423E-08         0.41404E-10         0.00000E+00
    0.65422E-08         0.38178E-10         0.00000E+00
    0.65420E-08         0.34748E-10         0.00000E+00
    0.65419E-08         0.31114E-10         0.00000E+00
    0.65418E-08         0.27275E-10         0.00000E+00
    0.65417E-08         0.23233E-10         0.00000E+00
    0.65416E-08         0.18988E-10         0.00000E+00
    0.65415E-08         0.14540E-10         0.00000E+00
    0.65415E-08         0.98895E-11         0.00000E+00
    0.65415E-08         0.50371E-11         0.00000E+00
    0.65415E-08         0.25605E-11         0.00000E+00
    0.68560E-08         0.26637E-11         0.00000E+00
    0.68560E-08         0.52537E-11         0.00000E+00
    0.68559E-08         0.10323E-10         0.00000E+00
    0.68558E-08         0.15172E-10         0.00000E+00
    0.68557E-08         0.19801E-10         0.00000E+00
    0.68556E-08         0.24210E-10         0.00000E+00
    0.68554E-08         0.28399E-10         0.00000E+00
    0.68553E-08         0.32368E-10         0.00000E+00
    0.68551E-08         0.36118E-10         0.00000E+00
    0.68548E-08         0.39650E-10         0.00000E+00
    0.68546E-08         0.42962E-10         0.00000E+00
    0.68544E-08         0.46057E-10         0.00000E+00
    0.68541E-08         0.48933E-10         0.00000E+00
    0.68538E-08         0.51591E-10         0.00000E+00
    0.68535E-08         0.54032E-10         0.00000E+00
    0.68532E-08         0.56256E-10         0.00000E+00
    0.68529E-08         0.58263E-10         0.00000E+00
    0.68526E-08         0.60054E-10         0.00000E+00
    0.68523E-08         0.61628E-10         0.00000E+00
    0.68520E-08         0.62987E-10         0.00000E+00
    0.68517E-08         0.64130E-10         0.00000E+00
    0.68514E-08         0.65057E-10         0.00000E+00
    0.68510E-08         0.65770E-10         0.00000E+00
    0.68507E-08         0.66268E-10         0.00000E+00
    0.68504E-08         0.66552E-10         0.00000E+00
    0.68501E-08         0.66622E-10         0.00000E+00
    0.68498E-08         0.66478E-10         0.00000E+00
    0.68495E-08         0.66121E-10         0.00000E+00
    0.68492E-08         0.65551E-10         0.00000E+00
    0.68489E-08         0.64769E-10         0.00000E+00
    0.68486E-08         0.63775E-10         0.00000E+00
    0.68483E-08         0.62569E-10         0.00000E+00
    0.68480E-08         0.61151E-10         0.00000E+00
    0.68478E-08         0.59523E-10         0.00000E+00
    0.68475E-08         0.57684E-10         0.00000E+00
    0.68473E-08         0.55635E-10         0.00000E+00
    0.68471E-08         0.53377E-10         0.00000E+00
    0.68468E-08         0.50909E-10         0.00000E+00
    0.68466E-08         0.48232E-10         0.00000E+00
    0.68465E-08         0.45346E-10         0.00000E+00
    0.68463E-08         0.42253E-10         0.00000E+00
    0.68461E-08         0.38952E-10         0.00000E+00
    0.68460E-08         0.35444E-10         0.00000E+00
    0.68458E-08         0.31730E-10         0.00000E+00
    0.68457E-08         0.27809E-10         0.00000E+00
    0.68456E-08         0.23683E-10         0.00000E+00
    0.68456E-08         0.19351E-10         0.00000E+00
    0.68455E-08         0.14815E-10         0.00000E+00
    0.68454E-08         0.10074E-10         0.00000E+00
    0.68454E-08         0.51304E-11         0.00000E+00
    0.68454E-08         0.26075E-11         0.00000E+00
    0.71765E-08         0.27454E-11         0.00000E+00
    0.71765E-08         0.54138E-11         0.00000E+00
    0.71764E-08         0.10635E-10         0.00000E+00
    0.71763E-08         0.15626E-10         0.00000E+00
    0.71762E-08         0.20387E-10         0.00000E+00
    0.71761E-08         0.24918E-10         0.00000E+00
    0.71760E-08         0.29220E-10         0.00000E+00
    0.71758E-08         0.33294E-10         0.00000E+00
    0.71756E-08         0.37140E-10         0.00000E+00
    0.71754E-08         0.40759E-10         0.00000E+00
    0.71752E-08         0.44151E-10         0.00000E+00
    0.71749E-08         0.47317E-10         0.00000E+00
    0.71747E-08         0.50256E-10         0.00000E+00
    0.71744E-08         0.52971E-10         0.00000E+00
    0.71741E-08         0.55461E-10         0.00000E+00
    0.71738E-08         0.57726E-10         0.00000E+00
    0.71735E-08         0.59768E-10         0.00000E+00
    0.71732E-08         0.61587E-10         0.00000E+00
    0.71729E-08         0.63183E-10         0.00000E+00
    0.71726E-08         0.64557E-10         0.00000E+00
    0.71723E-08         0.65710E-10         0.00000E+00
    0.71720E-08         0.66641E-10         0.00000E+00
    0.71717E-08         0.67352E-10         0.00000E+00
    0.71714E-08         0.67843E-10         0.00000E+00
    0.71711E-08         0.68115E-10         0.00000E+00
    0.71708E-08         0.68168E-10         0.00000E+00
    0.71705E-08         0.68002E-10         0.00000E+00
    0.71702E-08         0.67619E-10         0.00000E+00
    0.71699E-08         0.67019E-10         0.00000E+00
    0.71696E-08         0.66201E-10         0.00000E+00
    0.71693E-08         0.65168E-10         0.00000E+00
    0.71691E-08         0.63919E-10         0.00000E+00
    0.71688E-08         0.62455E-10         0.00000E+00
    0.71686E-08         0.60777E-10         0.00000E+00
    0.71683E-08         0.58885E-10         0.00000E+00
    0.71681E-08         0.56779E-10         0.00000E+00
    0.71679E-08         0.54461E-10         0.00000E+00
    0.71677E-08         0.51930E-10         0.00000E+00
    0.71675E-08         0.49188E-10         0.00000E+00
    0.71673E-08         0.46235E-10         0.00000E+00
    0.71671E-08         0.43071E-10         0.00000E+00
    0.71670E-08         0.39697E-10         0.00000E+00
    0.71669E-08         0.36114E-10         0.00000E+00
    0.71667E-08         0.32322E-10         0.00000E+00
    0.71666E-08         0.28322E-10         0.00000E+00
    0.71665E-08         0.24114E-10         0.00000E+00
    0.71665E-08         0.19700E-10         0.00000E+00
    0.71664E-08         0.15079E-10         0.00000E+00
    0.71664E-08         0.10252E-10         0.00000E+00
    0.71663E-08         0.52197E-11         0.00000E+00
    0.71663E-08         0.26524E-11         0.00000E+00
    0.75144E-08         0.28244E-11         0.00000E+00
    0.75144E-08         0.55685E-11         0.00000E+00
    0.75143E-08         0.10936E-10         0.00000E+00
    0.75143E-08         0.16064E-10         0.00000E+00
    0.75142E-08         0.20952E-10         0.00000E+00
    0.75140E-08         0.25601E-10         0.00000E+00
    0.75139E-08         0.30013E-10         0.00000E+00
    0.75137E-08         0.34187E-10         0.00000E+00
    0.75136E-08         0.38125E-10         0.00000E+00
    0.75133E-08         0.41827E-10         0.00000E+00
    0.75131E-08         0.45295E-10         0.00000E+00
    0.75129E-08         0.48528E-10         0.00000E+00
    0.75127E-08         0.51528E-10         0.00000E+00
    0.75124E-08         0.54296E-10         0.00000E+00
    0.75121E-08         0.56832E-10         0.00000E+00
    0.75119E-08         0.59136E-10         0.00000E+00
    0.75116E-08         0.61211E-10         0.00000E+00
    0.75113E-08         0.63056E-10         0.00000E+00
    0.75110E-08         0.64672E-10         0.00000E+00
    0.75107E-08         0.66060E-10         0.00000E+00
    0.75104E-08         0.67221E-10         0.00000E+00
    0.75102E-08         0.68155E-10         0.00000E+00
    0.75099E-08         0.68864E-10         0.00000E+00
    0.75096E-08         0.69347E-10         0.00000E+00
    0.75093E-08         0.69606E-10         0.00000E+00
    0.75090E-08         0.69642E-10         0.00000E+00
    0.75087E-08         0.69454E-10         0.00000E+00
    0.75084E-08         0.69045E-10         0.00000E+00
    0.75082E-08         0.68414E-10         0.00000E+00
    0.75079E-08         0.67563E-10         0.00000E+00
    0.75076E-08         0.66491E-10         0.00000E+00
    0.75074E-08         0.65201E-10         0.00000E+00
    0.75071E-08         0.63692E-10         0.00000E+00
    0.75069E-08         0.61965E-10         0.00000E+00
    0.75067E-08         0.60021E-10         0.00000E+00
    0.75065E-08         0.57861E-10         0.00000E+00
    0.75063E-08         0.55485E-10         0.00000E+00
    0.75061E-08         0.52895E-10         0.00000E+00
    0.75059E-08         0.50090E-10         0.00000E+00
    0.75057E-08         0.47072E-10         0.00000E+00
    0.75056E-08         0.43841E-10         0.00000E+00
    0.75054E-08         0.40398E-10         0.00000E+00
    0.75053E-08         0.36743E-10         0.00000E+00
    0.75052E-08         0.32878E-10         0.00000E+00
    0.75051E-08         0.28803E-10         0.00000E+00
    0.75050E-08         0.24519E-10         0.00000E+00
    0.75049E-08         0.20026E-10         0.00000E+00
    0.75049E-08         0.15325E-10         0.00000E+00
    0.75048E-08         0.10417E-10         0.00000E+00
    0.75048E-08         0.53031E-11         0.00000E+00
    0.75048E-08         0.26944E-11         0.00000E+00
    0.78704E-08         0.29000E-11         0.00000E+00
    0.78704E-08         0.57163E-11         0.00000E+00
    0.78703E-08         0.11224E-10         0.00000E+00
    0.78703E-08         0.16482E-10         0.00000E+00
    0.78702E-08         0.21491E-10         0.00000E+00
    0.78701E-08         0.26252E-10         0.00000E+00
    0.78699E-08         0.30767E-10         0.00000E+00
    0.78698E-08         0.35036E-10         0.00000E+00
    0.78696E-08         0.39061E-10         0.00000E+00
    0.78694E-08         0.42841E-10         0.00000E+00
    0.78692E-08         0.46380E-10         0.00000E+00
    0.78690E-08         0.49677E-10         0.00000E+00
    0.78688E-08         0.52733E-10         0.00000E+00
    0.78685E-08         0.55549E-10         0.00000E+00
    0.78683E-08         0.58128E-10         0.00000E+00
    0.78680E-08         0.60468E-10         0.00000E+00
    0.78678E-08         0.62572E-10         0.00000E+00
    0.78675E-08         0.64440E-10         0.00000E+00
    0.78672E-08         0.66074E-10         0.00000E+00
    0.78670E-08         0.67473E-10         0.00000E+00
    0.78667E-08         0.68641E-10         0.00000E+00
    0.78664E-08         0.69576E-10         0.00000E+00
    0.78661E-08         0.70281E-10         0.00000E+00
    0.78659E-08         0.70755E-10         0.00000E+00
    0.78656E-08         0.71001E-10         0.00000E+00
    0.78653E-08         0.71019E-10         0.00000E+00
    0.78651E-08         0.70810E-10         0.00000E+00
    0.78648E-08         0.70375E-10         0.00000E+00
    0.78646E-08         0.69714E-10         0.00000E+00
    0.78643E-08         0.68829E-10         0.00000E+00
    0.78641E-08         0.67721E-10         0.00000E+00
    0.78638E-08         0.66390E-10         0.00000E+00
    0.78636E-08         0.64838E-10         0.00000E+00
    0.78634E-08         0.63065E-10         0.00000E+00
    0.78632E-08         0.61072E-10         0.00000E+00
    0.78630E-08         0.58860E-10         0.00000E+00
    0.78628E-08         0.56430E-10         0.00000E+00
    0.78627E-08         0.53783E-10         0.00000E+00
    0.78625E-08         0.50920E-10         0.00000E+00
    0.78623E-08         0.47841E-10         0.00000E+00
    0.78622E-08         0.44547E-10         0.00000E+00
    0.78621E-08         0.41040E-10         0.00000E+00
    0.78620E-08         0.37319E-10         0.00000E+00
    0.78619E-08         0.33386E-10         0.00000E+00
    0.78618E-08         0.29242E-10         0.00000E+00
    0.78617E-08         0.24887E-10         0.00000E+00
    0.78616E-08         0.20323E-10         0.00000E+00
    0.78616E-08         0.15549E-10         0.00000E+00
    0.78615E-08         0.10568E-10         0.00000E+00
    0.78615E-08         0.53786E-11         0.00000E+00
    0.78615E-08         0.27323E-11         0.00000E+00
    0.82452E-08         0.29712E-11         0.00000E+00
    0.82451E-08         0.58556E-11         0.00000E+00
    0.82451E-08         0.11495E-10         0.00000E+00
    0.82450E-08         0.16875E-10         0.00000E+00
    0.82449E-08         0.21997E-10         0.00000E+00
    0.82448E-08         0.26863E-10         0.00000E+00
    0.82447E-08         0.31474E-10         0.00000E+00
    0.82446E-08         0.35831E-10         0.00000E+00
    0.82444E-08         0.39935E-10         0.00000E+00
    0.82442E-08         0.43788E-10         0.00000E+00
    0.82440E-08         0.47392E-10         0.00000E+00
    0.82438E-08         0.50746E-10         0.00000E+00
    0.82436E-08         0.53853E-10         0.00000E+00
    0.82434E-08         0.56714E-10         0.00000E+00
    0.82432E-08         0.59330E-10         0.00000E+00
    0.82430E-08         0.61701E-10         0.00000E+00
    0.82427E-08         0.63831E-10         0.00000E+00
    0.82425E-08         0.65719E-10         0.00000E+00
    0.82422E-08         0.67366E-10         0.00000E+00
    0.82420E-08         0.68775E-10         0.00000E+00
    0.82417E-08         0.69946E-10         0.00000E+00
    0.82415E-08         0.70881E-10         0.00000E+00
    0.82412E-08         0.71580E-10         0.00000E+00
    0.82410E-08         0.72044E-10         0.00000E+00
    0.82408E-08         0.72276E-10         0.00000E+00
    0.82405E-08         0.72276E-10         0.00000E+00
    0.82403E-08         0.72044E-10         0.00000E+00
    0.82401E-08         0.71583E-10         0.00000E+00
    0.82398E-08         0.70894E-10         0.00000E+00
    0.82396E-08         0.69976E-10         0.00000E+00
    0.82394E-08         0.68833E-10         0.00000E+00
    0.82392E-08         0.67464E-10         0.00000E+00
    0.82390E-08         0.65871E-10         0.00000E+00
    0.82388E-08         0.64054E-10         0.00000E+00
    0.82386E-08         0.62015E-10         0.00000E+00
    0.82385E-08         0.59755E-10         0.00000E+00
    0.82383E-08         0.57275E-10         0.00000E+00
    0.82382E-08         0.54576E-10         0.00000E+00
    0.82380E-08         0.51659E-10         0.00000E+00
    0.82379E-08         0.48524E-10         0.00000E+00
    0.82378E-08         0.45173E-10         0.00000E+00
    0.82376E-08         0.41607E-10         0.00000E+00
    0.82375E-08         0.37827E-10         0.00000E+00
    0.82375E-08         0.33834E-10         0.00000E+00
    0.82374E-08         0.29628E-10         0.00000E+00
    0.82373E-08         0.25210E-10         0.00000E+00
    0.82373E-08         0.20582E-10         0.00000E+00
    0.82372E-08         0.15745E-10         0.00000E+00
    0.82372E-08         0.10698E-10         0.00000E+00
    0.82372E-08         0.54442E-11         0.00000E+00
    0.82372E-08         0.27652E-11         0.00000E+00
    0.86394E-08         0.30373E-11         0.00000E+00
    0.86394E-08         0.59847E-11         0.00000E+00
    0.86394E-08         0.11745E-10         0.00000E+00
    0.86393E-08         0.17238E-10         0.00000E+00
    0.86392E-08         0.22464E-10         0.00000E+00
    0.86391E-08         0.27425E-10         0.00000E+00
    0.86390E-08         0.32123E-10         0.00000E+00
    0.86389E-08         0.36560E-10         0.00000E+00
    0.86387E-08         0.40736E-10         0.00000E+00
    0.86386E-08         0.44654E-10         0.00000E+00
    0.86384E-08         0.48315E-10         0.00000E+00
    0.86382E-08         0.51720E-10         0.00000E+00
    0.86380E-08         0.54871E-10         0.00000E+00
    0.86378E-08         0.57770E-10         0.00000E+00
    0.86376E-08         0.60418E-10         0.00000E+00
    0.86374E-08         0.62816E-10         0.00000E+00
    0.86372E-08         0.64966E-10         0.00000E+00
    0.86370E-08         0.66869E-10         0.00000E+00
    0.86368E-08         0.68527E-10         0.00000E+00
    0.86366E-08         0.69941E-10         0.00000E+00
    0.86364E-08         0.71113E-10         0.00000E+00
    0.86362E-08         0.72044E-10         0.00000E+00
    0.86359E-08         0.72735E-10         0.00000E+00
    0.86357E-08         0.73188E-10         0.00000E+00
    0.86355E-08         0.73404E-10         0.00000E+00
    0.86353E-08         0.73385E-10         0.00000E+00
    0.86351E-08         0.73131E-10         0.00000E+00
    0.86349E-08         0.72645E-10         0.00000E+00
    0.86347E-08         0.71927E-10         0.00000E+00
    0.86345E-08         0.70979E-10         0.00000E+00
    0.86343E-08         0.69802E-10         0.00000E+00
    0.86342E-08         0.68396E-10         0.00000E+00
    0.86340E-08         0.66765E-10         0.00000E+00
    0.86338E-08         0.64908E-10         0.00000E+00
    0.86337E-08         0.62827E-10         0.00000E+00
    0.86336E-08         0.60523E-10         0.00000E+00
    0.86334E-08         0.57998E-10         0.00000E+00
    0.86333E-08         0.55252E-10         0.00000E+00
    0.86332E-08         0.52286E-10         0.00000E+00
    0.86331E-08         0.49103E-10         0.00000E+00
    0.86330E-08         0.45702E-10         0.00000E+00
    0.86329E-08         0.42085E-10         0.00000E+00
    0.86328E-08         0.38253E-10         0.00000E+00
    0.86327E-08         0.34207E-10         0.00000E+00
    0.86327E-08         0.29949E-10         0.00000E+00
    0.86326E-08         0.25478E-10         0.00000E+00
    0.86326E-08         0.20797E-10         0.00000E+00
    0.86325E-08         0.15906E-10         0.00000E+00
    0.86325E-08         0.10806E-10         0.00000E+00
    0.86325E-08         0.54977E-11         0.00000E+00
    0.86325E-08         0.27919E-11         0.00000E+00
    0.90540E-08         0.30973E-11         0.00000E+00
    0.90540E-08         0.61016E-11         0.00000E+00
    0.90539E-08         0.11972E-10         0.00000E+00
    0.90539E-08         0.17565E-10         0.00000E+00
    0.90538E-08         0.22884E-10         0.00000E+00
    0.90537E-08         0.27930E-10         0.00000E+00
    0.90536E-08         0.32705E-10         0.00000E+00
    0.90535E-08         0.37211E-10         0.00000E+00
    0.90534E-08         0.41450E-10         0.00000E+00
    0.90532E-08         0.45423E-10         0.00000E+00
    0.90531E-08         0.49133E-10         0.00000E+00
    0.90529E-08         0.52581E-10         0.00000E+00
    0.90528E-08         0.55769E-10         0.00000E+00
    0.90526E-08         0.58698E-10         0.00000E+00
    0.90524E-08         0.61371E-10         0.00000E+00
    0.90522E-08         0.63789E-10         0.00000E+00
    0.90521E-08         0.65954E-10         0.00000E+00
    0.90519E-08         0.67867E-10         0.00000E+00
    0.90517E-08         0.69531E-10         0.00000E+00
    0.90515E-08         0.70946E-10         0.00000E+00
    0.90513E-08         0.72115E-10         0.00000E+00
    0.90512E-08         0.73039E-10         0.00000E+00
    0.90510E-08         0.73720E-10         0.00000E+00
    0.90508E-08         0.74160E-10         0.00000E+00
    0.90506E-08         0.74359E-10         0.00000E+00
    0.90505E-08         0.74320E-10         0.00000E+00
    0.90503E-08         0.74044E-10         0.00000E+00
    0.90501E-08         0.73532E-10         0.00000E+00
    0.90500E-08         0.72787E-10         0.00000E+00
    0.90498E-08         0.71809E-10         0.00000E+00
    0.90497E-08         0.70600E-10         0.00000E+00
    0.90496E-08         0.69162E-10         0.00000E+00
    0.90494E-08         0.67495E-10         0.00000E+00
    0.90493E-08         0.65602E-10         0.00000E+00
    0.90492E-08         0.63484E-10         0.00000E+00
    0.90491E-08         0.61141E-10         0.00000E+00
    0.90490E-08         0.58576E-10         0.00000E+00
    0.90489E-08         0.55789E-10         0.00000E+00
    0.90488E-08         0.52783E-10         0.00000E+00
    0.90487E-08         0.49558E-10         0.00000E+00
    0.90486E-08         0.46115E-10         0.00000E+00
    0.90486E-08         0.42456E-10         0.00000E+00
    0.90485E-08         0.38582E-10         0.00000E+00
    0.90485E-08         0.34493E-10         0.00000E+00
    0.90484E-08         0.30193E-10         0.00000E+00
    0.90484E-08         0.25680E-10         0.00000E+00
    0.90484E-08         0.20957E-10         0.00000E+00
    0.90483E-08         0.16025E-10         0.00000E+00
    0.90483E-08         0.10885E-10         0.00000E+00
    0.90483E-08         0.55369E-11         0.00000E+00
    0.90483E-08         0.28113E-11         0.00000E+00
    0.94896E-08         0.31500E-11         0.00000E+00
    0.94896E-08         0.62042E-11         0.00000E+00
    0.94896E-08         0.12170E-10         0.00000E+00
    0.94895E-08         0.17851E-10         0.00000E+00
    0.94895E-08         0.23249E-10         0.00000E+00
    0.94894E-08         0.28367E-10         0.00000E+00
    0.94893E-08         0.33207E-10         0.00000E+00
    0.94892E-08         0.37771E-10         0.00000E+00
    0.94891E-08         0.42061E-10         0.00000E+00
    0.94890E-08         0.46080E-10         0.00000E+00
    0.94889E-08         0.49828E-10         0.00000E+00
    0.94888E-08         0.53309E-10         0.00000E+00
    0.94886E-08         0.56524E-10         0.00000E+00
    0.94885E-08         0.59476E-10         0.00000E+00
    0.94883E-08         0.62166E-10         0.00000E+00
    0.94882E-08         0.64597E-10         0.00000E+00
    0.94881E-08         0.66770E-10         0.00000E+00
    0.94879E-08         0.68687E-10         0.00000E+00
    0.94878E-08         0.70351E-10         0.00000E+00
    0.94876E-08         0.71763E-10         0.00000E+00
    0.94875E-08         0.72925E-10         0.00000E+00
    0.94873E-08         0.73839E-10         0.00000E+00
    0.94872E-08         0.74506E-10         0.00000E+00
    0.94871E-08         0.74930E-10         0.00000E+00
    0.94870E-08         0.75111E-10         0.00000E+00
    0.94868E-08         0.75051E-10         0.00000E+00
    0.94867E-08         0.74752E-10         0.00000E+00
    0.94866E-08         0.74216E-10         0.00000E+00
    0.94865E-08         0.73444E-10         0.00000E+00
    0.94864E-08         0.72439E-10         0.00000E+00
    0.94863E-08         0.71201E-10         0.00000E+00
    0.94862E-08         0.69732E-10         0.00000E+00
    0.94861E-08         0.68035E-10         0.00000E+00
    0.94860E-08         0.66110E-10         0.00000E+00
    0.94859E-08         0.63959E-10         0.00000E+00
    0.94859E-08         0.61583E-10         0.00000E+00
    0.94858E-08         0.58985E-10         0.00000E+00
    0.94857E-08         0.56166E-10         0.00000E+00
    0.94857E-08         0.53126E-10         0.00000E+00
    0.94856E-08         0.49868E-10         0.00000E+00
    0.94856E-08         0.46393E-10         0.00000E+00
    0.94856E-08         0.42702E-10         0.00000E+00
    0.94855E-08         0.38796E-10         0.00000E+00
    0.94855E-08         0.34678E-10         0.00000E+00
    0.94855E-08         0.30347E-10         0.00000E+00
    0.94855E-08         0.25806E-10         0.00000E+00
    0.94854E-08         0.21056E-10         0.00000E+00
    0.94854E-08         0.16097E-10         0.00000E+00
    0.94854E-08         0.10931E-10         0.00000E+00
    0.94854E-08         0.55594E-11         0.00000E+00
    0.94854E-08         0.28223E-11         0.00000E+00
    0.99472E-08         0.31944E-11         0.00000E+00
    0.99472E-08         0.62903E-11         0.00000E+00
    0.99472E-08         0.12335E-10         0.00000E+00
    0.99472E-08         0.18088E-10         0.00000E+00
    0.99471E-08         0.23551E-10         0.00000E+00
    0.99471E-08         0.28727E-10         0.00000E+00
    0.99470E-08         0.33617E-10         0.00000E+00
    0.99469E-08         0.38226E-10         0.00000E+00
    0.99468E-08         0.42554E-10         0.00000E+00
    0.99468E-08         0.46605E-10         0.00000E+00
    0.99467E-08         0.50381E-10         0.00000E+00
    0.99466E-08         0.53883E-10         0.00000E+00
    0.99465E-08         0.57116E-10         0.00000E+00
    0.99464E-08         0.60080E-10         0.00000E+00
    0.99463E-08         0.62778E-10         0.00000E+00
    0.99462E-08         0.65213E-10         0.00000E+00
    0.99461E-08         0.67387E-10         0.00000E+00
    0.99460E-08         0.69301E-10         0.00000E+00
    0.99459E-08         0.70958E-10         0.00000E+00
    0.99458E-08         0.72361E-10         0.00000E+00
    0.99457E-08         0.73511E-10         0.00000E+00
    0.99456E-08         0.74411E-10         0.00000E+00
    0.99455E-08         0.75062E-10         0.00000E+00
    0.99454E-08         0.75467E-10         0.00000E+00
    0.99453E-08         0.75628E-10         0.00000E+00
    0.99453E-08         0.75547E-10         0.00000E+00
    0.99452E-08         0.75225E-10         0.00000E+00
    0.99451E-08         0.74664E-10         0.00000E+00
    0.99451E-08         0.73868E-10         0.00000E+00
    0.99450E-08         0.72836E-10         0.00000E+00
    0.99450E-08         0.71572E-10         0.00000E+00
    0.99449E-08         0.70077E-10         0.00000E+00
    0.99449E-08         0.68353E-10         0.00000E+00
    0.99448E-08         0.66402E-10         0.00000E+00
    0.99448E-08         0.64225E-10         0.00000E+00
    0.99448E-08         0.61823E-10         0.00000E+00
    0.99448E-08         0.59200E-10         0.00000E+00
    0.99447E-08         0.56356E-10         0.00000E+00
    0.99447E-08         0.53293E-10         0.00000E+00
    0.99447E-08         0.50012E-10         0.00000E+00
    0.99447E-08         0.46516E-10         0.00000E+00
    0.99447E-08         0.42804E-10         0.00000E+00
    0.99447E-08         0.38880E-10         0.00000E+00
    0.99447E-08         0.34745E-10         0.00000E+00
    0.99447E-08         0.30399E-10         0.00000E+00
    0.99447E-08         0.25844E-10         0.00000E+00
    0.99447E-08         0.21082E-10         0.00000E+00
    0.99447E-08         0.16113E-10         0.00000E+00
    0.99447E-08         0.10940E-10         0.00000E+00
    0.99447E-08         0.55628E-11         0.00000E+00
    0.99447E-08         0.28235E-11         0.00000E+00
    0.10428E-07         0.32291E-11         0.00000E+00
    0.10428E-07         0.63573E-11         0.00000E+00
    0.10428E-07         0.12463E-10         0.00000E+00
    0.10428E-07         0.18270E-10         0.00000E+00
    0.10428E-07         0.23780E-10         0.00000E+00
    0.10428E-07         0.28996E-10         0.00000E+00
    0.10428E-07         0.33921E-10         0.00000E+00
    0.10428E-07         0.38558E-10         0.00000E+00
    0.10427E-07         0.42910E-10         0.00000E+00
    0.10427E-07         0.46980E-10         0.00000E+00
    0.10427E-07         0.50769E-10         0.00000E+00
    0.10427E-07         0.54281E-10         0.00000E+00
    0.10427E-07         0.57519E-10         0.00000E+00
    0.10427E-07         0.60484E-10         0.00000E+00
    0.10427E-07         0.63180E-10         0.00000E+00
    0.10427E-07         0.65610E-10         0.00000E+00
    0.10427E-07         0.67775E-10         0.00000E+00
    0.10427E-07         0.69679E-10         0.00000E+00
    0.10427E-07         0.71323E-10         0.00000E+00
    0.10427E-07         0.72710E-10         0.00000E+00
    0.10427E-07         0.73843E-10         0.00000E+00
    0.10427E-07         0.74724E-10         0.00000E+00
    0.10427E-07         0.75355E-10         0.00000E+00
    0.10427E-07         0.75739E-10         0.00000E+00
    0.10427E-07         0.75877E-10         0.00000E+00
    0.10427E-07         0.75773E-10         0.00000E+00
    0.10427E-07         0.75428E-10         0.00000E+00
    0.10427E-07         0.74844E-10         0.00000E+00
    0.10427E-07         0.74024E-10         0.00000E+00
    0.10427E-07         0.72969E-10         0.00000E+00
    0.10427E-07         0.71682E-10         0.00000E+00
    0.10427E-07         0.70165E-10         0.00000E+00
    0.10427E-07         0.68420E-10         0.00000E+00
    0.10427E-07         0.66448E-10         0.00000E+00
    0.10427E-07         0.64252E-10         0.00000E+00
    0.10427E-07         0.61833E-10         0.00000E+00
    0.10427E-07         0.59193E-10         0.00000E+00
    0.10427E-07         0.56334E-10         0.00000E+00
    0.10427E-07         0.53258E-10         0.00000E+00
    0.10427E-07         0.49967E-10         0.00000E+00
    0.10427E-07         0.46461E-10         0.00000E+00
    0.10427E-07         0.42744E-10         0.00000E+00
    0.10427E-07         0.38815E-10         0.00000E+00
    0.10427E-07         0.34678E-10         0.00000E+00
    0.10427E-07         0.30333E-10         0.00000E+00
    0.10427E-07         0.25782E-10         0.00000E+00
    0.10427E-07         0.21026E-10         0.00000E+00
    0.10427E-07         0.16067E-10         0.00000E+00
    0.10427E-07         0.10906E-10         0.00000E+00
    0.10427E-07         0.55444E-11         0.00000E+00
    0.10427E-07         0.28136E-11         0.00000E+00
    0.10932E-07         0.32528E-11         0.00000E+00
    0.10932E-07         0.64023E-11         0.00000E+00
    0.10932E-07         0.12548E-10         0.00000E+00
    0.10932E-07         0.18387E-10         0.00000E+00
    0.10932E-07         0.23924E-10         0.00000E+00
    0.10932E-07         0.29162E-10         0.00000E+00
    0.10932E-07         0.34103E-10         0.00000E+00
    0.10932E-07         0.38752E-10         0.00000E+00
    0.10932E-07         0.43110E-10         0.00000E+00
    0.10932E-07         0.47182E-10         0.00000E+00
    0.10932E-07         0.50970E-10         0.00000E+00
    0.10932E-07         0.54477E-10         0.00000E+00
    0.10932E-07         0.57706E-10         0.00000E+00
    0.10932E-07         0.60661E-10         0.00000E+00
    0.10932E-07         0.63343E-10         0.00000E+00
    0.10932E-07         0.65756E-10         0.00000E+00
    0.10932E-07         0.67903E-10         0.00000E+00
    0.10932E-07         0.69787E-10         0.00000E+00
    0.10932E-07         0.71410E-10         0.00000E+00
    0.10932E-07         0.72775E-10         0.00000E+00
    0.10932E-07         0.73884E-10         0.00000E+00
    0.10932E-07         0.74741E-10         0.00000E+00
    0.10932E-07         0.75348E-10         0.00000E+00
    0.10932E-07         0.75707E-10         0.00000E+00
    0.10932E-07         0.75821E-10         0.00000E+00
    0.10932E-07         0.75693E-10         0.00000E+00
    0.10932E-07         0.75324E-10         0.00000E+00
    0.10932E-07         0.74718E-10         0.00000E+00
    0.10932E-07         0.73876E-10         0.00000E+00
    0.10932E-07         0.72801E-10         0.00000E+00
    0.10932E-07         0.71496E-10         0.00000E+00
    0.10932E-07         0.69962E-10         0.00000E+00
    0.10933E-07         0.68201E-10         0.00000E+00
    0.10933E-07         0.66216E-10         0.00000E+00
    0.10933E-07         0.64008E-10         0.00000E+00
    0.10933E-07         0.61581E-10         0.00000E+00
    0.10933E-07         0.58935E-10         0.00000E+00
    0.10933E-07         0.56073E-10         0.00000E+00
    0.10933E-07         0.52996E-10         0.00000E+00
    0.10933E-07         0.49707E-10         0.00000E+00
    0.10933E-07         0.46207E-10         0.00000E+00
    0.10933E-07         0.42498E-10         0.00000E+00
    0.10933E-07         0.38582E-10         0.00000E+00
    0.10933E-07         0.34460E-10         0.00000E+00
    0.10933E-07         0.30135E-10         0.00000E+00
    0.10933E-07         0.25607E-10         0.00000E+00
    0.10934E-07         0.20878E-10         0.00000E+00
    0.10934E-07         0.15950E-10         0.00000E+00
    0.10934E-07         0.10824E-10         0.00000E+00
    0.10934E-07         0.55015E-11         0.00000E+00
    0.10934E-07         0.27913E-11         0.00000E+00
    0.11461E-07         0.32638E-11         0.00000E+00
    0.11461E-07         0.64223E-11         0.00000E+00
    0.11461E-07         0.12583E-10         0.00000E+00
    0.11461E-07         0.18432E-10         0.00000E+00
    0.11461E-07         0.23973E-10         0.00000E+00
    0.11461E-07         0.29210E-10         0.00000E+00
    0.11461E-07         0.34147E-10         0.00000E+00
    0.11461E-07         0.38787E-10         0.00000E+00
    0.11461E-07         0.43133E-10         0.00000E+00
    0.11461E-07         0.47189E-10         0.00000E+00
    0.11461E-07         0.50958E-10         0.00000E+00
    0.11461E-07         0.54444E-10         0.00000E+00
    0.11461E-07         0.57650E-10         0.00000E+00
    0.11461E-07         0.60579E-10         0.00000E+00
    0.11461E-07         0.63234E-10         0.00000E+00
    0.11461E-07         0.65619E-10         0.00000E+00
    0.11462E-07         0.67737E-10         0.00000E+00
    0.11462E-07         0.69591E-10         0.00000E+00
    0.11462E-07         0.71183E-10         0.00000E+00
    0.11462E-07         0.72518E-10         0.00000E+00
    0.11462E-07         0.73597E-10         0.00000E+00
    0.11462E-07         0.74425E-10         0.00000E+00
    0.11462E-07         0.75002E-10         0.00000E+00
    0.11462E-07         0.75334E-10         0.00000E+00
    0.11462E-07         0.75421E-10         0.00000E+00
    0.11462E-07         0.75268E-10         0.00000E+00
    0.11463E-07         0.74876E-10         0.00000E+00
    0.11463E-07         0.74248E-10         0.00000E+00
    0.11463E-07         0.73387E-10         0.00000E+00
    0.11463E-07         0.72295E-10         0.00000E+00
    0.11463E-07         0.70975E-10         0.00000E+00
    0.11463E-07         0.69430E-10         0.00000E+00
    0.11463E-07         0.67660E-10         0.00000E+00
    0.11464E-07         0.65670E-10         0.00000E+00
    0.11464E-07         0.63461E-10         0.00000E+00
    0.11464E-07         0.61035E-10         0.00000E+00
    0.11464E-07         0.58394E-10         0.00000E+00
    0.11464E-07         0.55541E-10         0.00000E+00
    0.11464E-07         0.52478E-10         0.00000E+00
    0.11464E-07         0.49206E-10         0.00000E+00
    0.11464E-07         0.45728E-10         0.00000E+00
    0.11465E-07         0.42045E-10         0.00000E+00
    0.11465E-07         0.38160E-10         0.00000E+00
    0.11465E-07         0.34073E-10         0.00000E+00
    0.11465E-07         0.29788E-10         0.00000E+00
    0.11465E-07         0.25305E-10         0.00000E+00
    0.11465E-07         0.20626E-10         0.00000E+00
    0.11465E-07         0.15753E-10         0.00000E+00
    0.11465E-07         0.10688E-10         0.00000E+00
    0.11465E-07         0.54310E-11         0.00000E+00
    0.11465E-07         0.27549E-11         0.00000E+00
    0.12016E-07         0.32604E-11         0.00000E+00
    0.12016E-07         0.64139E-11         0.00000E+00
    0.12016E-07         0.12562E-10         0.00000E+00
    0.12016E-07         0.18394E-10         0.00000E+00
    0.12016E-07         0.23914E-10         0.00000E+00
    0.12016E-07         0.29126E-10         0.00000E+00
    0.12016E-07         0.34034E-10         0.00000E+00
    0.12016E-07         0.38643E-10         0.00000E+00
    0.12016E-07         0.42955E-10         0.00000E+00
    0.12016E-07         0.46975E-10         0.00000E+00
    0.12017E-07         0.50706E-10         0.00000E+00
    0.12017E-07         0.54152E-10         0.00000E+00
    0.12017E-07         0.57317E-10         0.00000E+00
    0.12017E-07         0.60205E-10         0.00000E+00
    0.12017E-07         0.62819E-10         0.00000E+00
    0.12017E-07         0.65162E-10         0.00000E+00
    0.12017E-07         0.67239E-10         0.00000E+00
    0.12017E-07         0.69051E-10         0.00000E+00
    0.12017E-07         0.70604E-10         0.00000E+00
    0.12018E-07         0.71899E-10         0.00000E+00
    0.12018E-07         0.72941E-10         0.00000E+00
    0.12018E-07         0.73733E-10         0.00000E+00
    0.12018E-07         0.74277E-10         0.00000E+00
    0.12018E-07         0.74576E-10         0.00000E+00
    0.12019E-07         0.74635E-10         0.00000E+00
    0.12019E-07         0.74455E-10         0.00000E+00
    0.12019E-07         0.74040E-10         0.00000E+00
    0.12019E-07         0.73392E-10         0.00000E+00
    0.12019E-07         0.72514E-10         0.00000E+00
    0.12020E-07         0.71410E-10         0.00000E+00
    0.12020E-07         0.70081E-10         0.00000E+00
    0.12020E-07         0.68530E-10         0.00000E+00
    0.12020E-07         0.66760E-10         0.00000E+00
    0.12020E-07         0.64773E-10         0.00000E+00
    0.12021E-07         0.62573E-10         0.00000E+00
    0.12021E-07         0.60160E-10         0.00000E+00
    0.12021E-07         0.57538E-10         0.00000E+00
    0.12021E-07         0.54708E-10         0.00000E+00
    0.12022E-07         0.51674E-10         0.00000E+00
    0.12022E-07         0.48436E-10         0.00000E+00
    0.12022E-07         0.44998E-10         0.00000E+00
    0.12022E-07         0.41360E-10         0.00000E+00
    0.12022E-07         0.37526E-10         0.00000E+00
    0.12022E-07         0.33498E-10         0.00000E+00
    0.12022E-07         0.29275E-10         0.00000E+00
    0.12023E-07         0.24862E-10         0.00000E+00
    0.12023E-07         0.20259E-10         0.00000E+00
    0.12023E-07         0.15469E-10         0.00000E+00
    0.12023E-07         0.10491E-10         0.00000E+00
    0.12023E-07         0.53298E-11         0.00000E+00
    0.12023E-07         0.27029E-11         0.00000E+00
    0.12598E-07         0.32408E-11         0.00000E+00
    0.12598E-07         0.63733E-11         0.00000E+00
    0.12598E-07         0.12477E-10         0.00000E+00
    0.12598E-07         0.18262E-10         0.00000E+00
    0.12598E-07         0.23732E-10         0.00000E+00
    0.12598E-07         0.28892E-10         0.00000E+00
    0.12598E-07         0.33745E-10         0.00000E+00
    0.12598E-07         0.38296E-10         0.00000E+00
    0.12598E-07         0.42550E-10         0.00000E+00
    0.12599E-07         0.46511E-10         0.00000E+00
    0.12599E-07         0.50183E-10         0.00000E+00
    0.12599E-07         0.53570E-10         0.00000E+00
    0.12599E-07         0.56676E-10         0.00000E+00
    0.12599E-07         0.59504E-10         0.00000E+00
    0.12599E-07         0.62060E-10         0.00000E+00
    0.12600E-07         0.64347E-10         0.00000E+00
    0.12600E-07         0.66368E-10         0.00000E+00
    0.12600E-07         0.68127E-10         0.00000E+00
    0.12600E-07         0.69629E-10         0.00000E+00
    0.12600E-07         0.70876E-10         0.00000E+00
    0.12601E-07         0.71872E-10         0.00000E+00
    0.12601E-07         0.72621E-10         0.00000E+00
    0.12601E-07         0.73125E-10         0.00000E+00
    0.12602E-07         0.73390E-10         0.00000E+00
    0.12602E-07         0.73416E-10         0.00000E+00
    0.12602E-07         0.73209E-10         0.00000E+00
    0.12602E-07         0.72771E-10         0.00000E+00
    0.12603E-07         0.72105E-10         0.00000E+00
    0.12603E-07         0.71214E-10         0.00000E+00
    0.12603E-07         0.70101E-10         0.00000E+00
    0.12604E-07         0.68769E-10         0.00000E+00
    0.12604E-07         0.67220E-10         0.00000E+00
    0.12604E-07         0.65459E-10         0.00000E+00
    0.12605E-07         0.63486E-10         0.00000E+00
    0.12605E-07         0.61306E-10         0.00000E+00
    0.12605E-07         0.58919E-10         0.00000E+00
    0.12605E-07         0.56330E-10         0.00000E+00
    0.12606E-07         0.53540E-10         0.00000E+00
    0.12606E-07         0.50551E-10         0.00000E+00
    0.12606E-07         0.47367E-10         0.00000E+00
    0.12606E-07         0.43989E-10         0.00000E+00
    0.12607E-07         0.40419E-10         0.00000E+00
    0.12607E-07         0.36659E-10         0.00000E+00
    0.12607E-07         0.32712E-10         0.00000E+00
    0.12607E-07         0.28579E-10         0.00000E+00
    0.12607E-07         0.24262E-10         0.00000E+00
    0.12608E-07         0.19764E-10         0.00000E+00
    0.12608E-07         0.15085E-10         0.00000E+00
    0.12608E-07         0.10228E-10         0.00000E+00
    0.12608E-07         0.51946E-11         0.00000E+00
    0.12608E-07         0.26337E-11         0.00000E+00
    0.13208E-07         0.32030E-11         0.00000E+00
    0.13208E-07         0.62966E-11         0.00000E+00
    0.13208E-07         0.12322E-10         0.00000E+00
    0.13208E-07         0.18026E-10         0.00000E+00
    0.13208E-07         0.23413E-10         0.00000E+00
    0.13208E-07         0.28489E-10         0.00000E+00
    0.13208E-07         0.33257E-10         0.00000E+00
    0.13208E-07         0.37724E-10         0.00000E+00
    0.13209E-07         0.41893E-10         0.00000E+00
    0.13209E-07         0.45769E-10         0.00000E+00
    0.13209E-07         0.49358E-10         0.00000E+00
    0.13209E-07         0.52662E-10         0.00000E+00
    0.13209E-07         0.55687E-10         0.00000E+00
    0.13210E-07         0.58438E-10         0.00000E+00
    0.13210E-07         0.60917E-10         0.00000E+00
    0.13210E-07         0.63131E-10         0.00000E+00
    0.13210E-07         0.65081E-10         0.00000E+00
    0.13211E-07         0.66774E-10         0.00000E+00
    0.13211E-07         0.68213E-10         0.00000E+00
    0.13211E-07         0.69401E-10         0.00000E+00
    0.13212E-07         0.70342E-10         0.00000E+00
    0.13212E-07         0.71041E-10         0.00000E+00
    0.13213E-07         0.71501E-10         0.00000E+00
    0.13213E-07         0.71725E-10         0.00000E+00
    0.13213E-07         0.71718E-10         0.00000E+00
    0.13214E-07         0.71482E-10         0.00000E+00
    0.13214E-07         0.71022E-10         0.00000E+00
    0.13215E-07         0.70339E-10         0.00000E+00
    0.13215E-07         0.69438E-10         0.00000E+00
    0.13215E-07         0.68322E-10         0.00000E+00
    0.13216E-07         0.66994E-10         0.00000E+00
    0.13216E-07         0.65457E-10         0.00000E+00
    0.13217E-07         0.63713E-10         0.00000E+00
    0.13217E-07         0.61766E-10         0.00000E+00
    0.13217E-07         0.59619E-10         0.00000E+00
    0.13218E-07         0.57274E-10         0.00000E+00
    0.13218E-07         0.54734E-10         0.00000E+00
    0.13218E-07         0.52001E-10         0.00000E+00
    0.13219E-07         0.49078E-10         0.00000E+00
    0.13219E-07         0.45967E-10         0.00000E+00
    0.13219E-07         0.42671E-10         0.00000E+00
    0.13220E-07         0.39192E-10         0.00000E+00
    0.13220E-07         0.35533E-10         0.00000E+00
    0.13220E-07         0.31694E-10         0.00000E+00
    0.13220E-07         0.27679E-10         0.00000E+00
    0.13221E-07         0.23490E-10         0.00000E+00
    0.13221E-07         0.19127E-10         0.00000E+00
    0.13221E-07         0.14594E-10         0.00000E+00
    0.13221E-07         0.98917E-11         0.00000E+00
    0.13221E-07         0.50219E-11         0.00000E+00
    0.13221E-07         0.25454E-11         0.00000E+00
    0.13847E-07         0.31446E-11         0.00000E+00
    0.13847E-07         0.61795E-11         0.00000E+00
    0.13847E-07         0.12087E-10         0.00000E+00
    0.13847E-07         0.17672E-10         0.00000E+00
    0.13847E-07         0.22940E-10         0.00000E+00
    0.13847E-07         0.27897E-10         0.00000E+00
    0.13848E-07         0.32548E-10         0.00000E+00
    0.13848E-07         0.36898E-10         0.00000E+00
    0.13848E-07         0.40953E-10         0.00000E+00
    0.13848E-07         0.44717E-10         0.00000E+00
    0.13848E-07         0.48195E-10         0.00000E+00
    0.13849E-07         0.51392E-10         0.00000E+00
    0.13849E-07         0.54314E-10         0.00000E+00
    0.13849E-07         0.56964E-10         0.00000E+00
    0.13850E-07         0.59347E-10         0.00000E+00
    0.13850E-07         0.61469E-10         0.00000E+00
    0.13850E-07         0.63333E-10         0.00000E+00
    0.13851E-07         0.64945E-10         0.00000E+00
    0.13851E-07         0.66307E-10         0.00000E+00
    0.13852E-07         0.67425E-10         0.00000E+00
    0.13852E-07         0.68302E-10         0.00000E+00
    0.13853E-07         0.68943E-10         0.00000E+00
    0.13853E-07         0.69352E-10         0.00000E+00
    0.13854E-07         0.69533E-10         0.00000E+00
    0.13854E-07         0.69488E-10         0.00000E+00
    0.13855E-07         0.69223E-10         0.00000E+00
    0.13855E-07         0.68741E-10         0.00000E+00
    0.13856E-07         0.68045E-10         0.00000E+00
    0.13856E-07         0.67138E-10         0.00000E+00
    0.13857E-07         0.66025E-10         0.00000E+00
    0.13857E-07         0.64708E-10         0.00000E+00
    0.13858E-07         0.63191E-10         0.00000E+00
    0.13858E-07         0.61477E-10         0.00000E+00
    0.13859E-07         0.59569E-10         0.00000E+00
    0.13859E-07         0.57470E-10         0.00000E+00
    0.13860E-07         0.55182E-10         0.00000E+00
    0.13860E-07         0.52709E-10         0.00000E+00
    0.13861E-07         0.50053E-10         0.00000E+00
    0.13861E-07         0.47217E-10         0.00000E+00
    0.13861E-07         0.44203E-10         0.00000E+00
    0.13862E-07         0.41015E-10         0.00000E+00
    0.13862E-07         0.37654E-10         0.00000E+00
    0.13862E-07         0.34122E-10         0.00000E+00
    0.13863E-07         0.30422E-10         0.00000E+00
    0.13863E-07         0.26557E-10         0.00000E+00
    0.13863E-07         0.22527E-10         0.00000E+00
    0.13863E-07         0.18336E-10         0.00000E+00
    0.13864E-07         0.13984E-10         0.00000E+00
    0.13864E-07         0.94743E-11         0.00000E+00
    0.13864E-07         0.48081E-11         0.00000E+00
    0.13864E-07         0.24362E-11         0.00000E+00
    0.14516E-07         0.30633E-11         0.00000E+00
    0.14516E-07         0.60171E-11         0.00000E+00
    0.14516E-07         0.11763E-10         0.00000E+00
    0.14517E-07         0.17187E-10         0.00000E+00
    0.14517E-07         0.22296E-10         0.00000E+00
    0.14517E-07         0.27096E-10         0.00000E+00
    0.14517E-07         0.31593E-10         0.00000E+00
    0.14517E-07         0.35792E-10         0.00000E+00
    0.14518E-07         0.39698E-10         0.00000E+00
    0.14518E-07         0.43318E-10         0.00000E+00
    0.14518E-07         0.46657E-10         0.00000E+00
    0.14519E-07         0.49720E-10         0.00000E+00
    0.14519E-07         0.52512E-10         0.00000E+00
    0.14519E-07         0.55039E-10         0.00000E+00
    0.14520E-07         0.57305E-10         0.00000E+00
    0.14520E-07         0.59315E-10         0.00000E+00
    0.14521E-07         0.61075E-10         0.00000E+00
    0.14521E-07         0.62588E-10         0.00000E+00
    0.14522E-07         0.63860E-10         0.00000E+00
    0.14522E-07         0.64896E-10         0.00000E+00
    0.14523E-07         0.65699E-10         0.00000E+00
    0.14524E-07         0.66274E-10         0.00000E+00
    0.14524E-07         0.66625E-10         0.00000E+00
    0.14525E-07         0.66757E-10         0.00000E+00
    0.14525E-07         0.66673E-10         0.00000E+00
    0.14526E-07         0.66377E-10         0.00000E+00
    0.14527E-07         0.65874E-10         0.00000E+00
    0.14527E-07         0.65168E-10         0.00000E+00
    0.14528E-07         0.64261E-10         0.00000E+00
    0.14529E-07         0.63157E-10         0.00000E+00
    0.14529E-07         0.61861E-10         0.00000E+00
    0.14530E-07         0.60375E-10         0.00000E+00
    0.14531E-07         0.58703E-10         0.00000E+00
    0.14531E-07         0.56847E-10         0.00000E+00
    0.14532E-07         0.54812E-10         0.00000E+00
    0.14532E-07         0.52600E-10         0.00000E+00
    0.14533E-07         0.50214E-10         0.00000E+00
    0.14533E-07         0.47657E-10         0.00000E+00
    0.14534E-07         0.44932E-10         0.00000E+00
    0.14534E-07         0.42041E-10         0.00000E+00
    0.14535E-07         0.38987E-10         0.00000E+00
    0.14535E-07         0.35772E-10         0.00000E+00
    0.14536E-07         0.32400E-10         0.00000E+00
    0.14536E-07         0.28872E-10         0.00000E+00
    0.14536E-07         0.25190E-10         0.00000E+00
    0.14537E-07         0.21356E-10         0.00000E+00
    0.14537E-07         0.17374E-10         0.00000E+00
    0.14537E-07         0.13244E-10         0.00000E+00
    0.14537E-07         0.89685E-11         0.00000E+00
    0.14537E-07         0.45494E-11         0.00000E+00
    0.14537E-07         0.23041E-11         0.00000E+00
    0.15217E-07         0.29566E-11         0.00000E+00
    0.15217E-07         0.58045E-11         0.00000E+00
    0.15217E-07         0.11340E-10         0.00000E+00
    0.15218E-07         0.16557E-10         0.00000E+00
    0.15218E-07         0.21462E-10         0.00000E+00
    0.15218E-07         0.26063E-10         0.00000E+00
    0.15218E-07         0.30365E-10         0.00000E+00
    0.15219E-07         0.34374E-10         0.00000E+00
    0.15219E-07         0.38097E-10         0.00000E+00
    0.15219E-07         0.41539E-10         0.00000E+00
    0.15220E-07         0.44706E-10         0.00000E+00
    0.15220E-07         0.47604E-10         0.00000E+00
    0.15221E-07         0.50239E-10         0.00000E+00
    0.15221E-07         0.52616E-10         0.00000E+00
    0.15222E-07         0.54740E-10         0.00000E+00
    0.15222E-07         0.56618E-10         0.00000E+00
    0.15223E-07         0.58253E-10         0.00000E+00
    0.15224E-07         0.59652E-10         0.00000E+00
    0.15224E-07         0.60818E-10         0.00000E+00
    0.15225E-07         0.61758E-10         0.00000E+00
    0.15226E-07         0.62475E-10         0.00000E+00
    0.15226E-07         0.62975E-10         0.00000E+00
    0.15227E-07         0.63262E-10         0.00000E+00
    0.15228E-07         0.63340E-10         0.00000E+00
    0.15229E-07         0.63214E-10         0.00000E+00
    0.15229E-07         0.62888E-10         0.00000E+00
    0.15230E-07         0.62366E-10         0.00000E+00
    0.15231E-07         0.61653E-10         0.00000E+00
    0.15232E-07         0.60751E-10         0.00000E+00
    0.15232E-07         0.59665E-10         0.00000E+00
    0.15233E-07         0.58399E-10         0.00000E+00
    0.15234E-07         0.56956E-10         0.00000E+00
    0.15235E-07         0.55339E-10         0.00000E+00
    0.15235E-07         0.53553E-10         0.00000E+00
    0.15236E-07         0.51600E-10         0.00000E+00
    0.15237E-07         0.49483E-10         0.00000E+00
    0.15237E-07         0.47206E-10         0.00000E+00
    0.15238E-07         0.44772E-10         0.00000E+00
    0.15239E-07         0.42183E-10         0.00000E+00
    0.15239E-07         0.39443E-10         0.00000E+00
    0.15240E-07         0.36554E-10         0.00000E+00
    0.15240E-07         0.33518E-10         0.00000E+00
    0.15241E-07         0.30338E-10         0.00000E+00
    0.15241E-07         0.27017E-10         0.00000E+00
    0.15242E-07         0.23557E-10         0.00000E+00
    0.15242E-07         0.19960E-10         0.00000E+00
    0.15242E-07         0.16227E-10         0.00000E+00
    0.15242E-07         0.12363E-10         0.00000E+00
    0.15243E-07         0.83667E-11         0.00000E+00
    0.15243E-07         0.42418E-11         0.00000E+00
    0.15243E-07         0.21473E-11         0.00000E+00
    0.15951E-07         0.28217E-11         0.00000E+00
    0.15951E-07         0.55363E-11         0.00000E+00
    0.15951E-07         0.10807E-10         0.00000E+00
    0.15951E-07         0.15766E-10         0.00000E+00
    0.15952E-07         0.20419E-10         0.00000E+00
    0.15952E-07         0.24773E-10         0.00000E+00
    0.15952E-07         0.28836E-10         0.00000E+00
    0.15953E-07         0.32613E-10         0.00000E+00
    0.15953E-07         0.36112E-10         0.00000E+00
    0.15953E-07         0.39339E-10         0.00000E+00
    0.15954E-07         0.42299E-10         0.00000E+00
    0.15954E-07         0.45000E-10         0.00000E+00
    0.15955E-07         0.47447E-10         0.00000E+00
    0.15956E-07         0.49646E-10         0.00000E+00
    0.15956E-07         0.51604E-10         0.00000E+00
    0.15957E-07         0.53324E-10         0.00000E+00
    0.15958E-07         0.54815E-10         0.00000E+00
    0.15959E-07         0.56079E-10         0.00000E+00
    0.15959E-07         0.57124E-10         0.00000E+00
    0.15960E-07         0.57954E-10         0.00000E+00
    0.15961E-07         0.58574E-10         0.00000E+00
    0.15962E-07         0.58989E-10         0.00000E+00
    0.15963E-07         0.59205E-10         0.00000E+00
    0.15964E-07         0.59225E-10         0.00000E+00
    0.15965E-07         0.59054E-10         0.00000E+00
    0.15966E-07         0.58697E-10         0.00000E+00
    0.15966E-07         0.58158E-10         0.00000E+00
    0.15967E-07         0.57441E-10         0.00000E+00
    0.15968E-07         0.56551E-10         0.00000E+00
    0.15969E-07         0.55492E-10         0.00000E+00
    0.15970E-07         0.54266E-10         0.00000E+00
    0.15971E-07         0.52879E-10         0.00000E+00
    0.15972E-07         0.51334E-10         0.00000E+00
    0.15973E-07         0.49634E-10         0.00000E+00
    0.15974E-07         0.47783E-10         0.00000E+00
    0.15974E-07         0.45784E-10         0.00000E+00
    0.15975E-07         0.43641E-10         0.00000E+00
    0.15976E-07         0.41355E-10         0.00000E+00
    0.15977E-07         0.38932E-10         0.00000E+00
    0.15977E-07         0.36373E-10         0.00000E+00
    0.15978E-07         0.33680E-10         0.00000E+00
    0.15979E-07         0.30858E-10         0.00000E+00
    0.15979E-07         0.27908E-10         0.00000E+00
    0.15980E-07         0.24833E-10         0.00000E+00
    0.15980E-07         0.21636E-10         0.00000E+00
    0.15980E-07         0.18317E-10         0.00000E+00
    0.15981E-07         0.14881E-10         0.00000E+00
    0.15981E-07         0.11328E-10         0.00000E+00
    0.15981E-07         0.76609E-11         0.00000E+00
    0.15981E-07         0.38812E-11         0.00000E+00
    0.15981E-07         0.19635E-11         0.00000E+00
    0.16719E-07         0.26559E-11         0.00000E+00
    0.16719E-07         0.52070E-11         0.00000E+00
    0.16719E-07         0.10155E-10         0.00000E+00
    0.16719E-07         0.14799E-10         0.00000E+00
    0.16719E-07         0.19145E-10         0.00000E+00
    0.16720E-07         0.23202E-10         0.00000E+00
    0.16720E-07         0.26977E-10         0.00000E+00
    0.16721E-07         0.30476E-10         0.00000E+00
    0.16721E-07         0.33708E-10         0.00000E+00
    0.16722E-07         0.36678E-10         0.00000E+00
    0.16722E-07         0.39394E-10         0.00000E+00
    0.16723E-07         0.41861E-10         0.00000E+00
    0.16724E-07         0.44088E-10         0.00000E+00
    0.16724E-07         0.46079E-10         0.00000E+00
    0.16725E-07         0.47841E-10         0.00000E+00
    0.16726E-07         0.49380E-10         0.00000E+00
    0.16727E-07         0.50702E-10         0.00000E+00
    0.16728E-07         0.51813E-10         0.00000E+00
    0.16729E-07         0.52719E-10         0.00000E+00
    0.16730E-07         0.53424E-10         0.00000E+00
    0.16731E-07         0.53934E-10         0.00000E+00
    0.16732E-07         0.54255E-10         0.00000E+00
    0.16733E-07         0.54391E-10         0.00000E+00
    0.16734E-07         0.54348E-10         0.00000E+00
    0.16735E-07         0.54130E-10         0.00000E+00
    0.16736E-07         0.53742E-10         0.00000E+00
    0.16737E-07         0.53188E-10         0.00000E+00
    0.16738E-07         0.52474E-10         0.00000E+00
    0.16739E-07         0.51603E-10         0.00000E+00
    0.16740E-07         0.50579E-10         0.00000E+00
    0.16741E-07         0.49407E-10         0.00000E+00
    0.16742E-07         0.48091E-10         0.00000E+00
    0.16743E-07         0.46634E-10         0.00000E+00
    0.16744E-07         0.45040E-10         0.00000E+00
    0.16745E-07         0.43312E-10         0.00000E+00
    0.16746E-07         0.41455E-10         0.00000E+00
    0.16747E-07         0.39471E-10         0.00000E+00
    0.16748E-07         0.37364E-10         0.00000E+00
    0.16749E-07         0.35136E-10         0.00000E+00
    0.16750E-07         0.32791E-10         0.00000E+00
    0.16751E-07         0.30332E-10         0.00000E+00
    0.16751E-07         0.27761E-10         0.00000E+00
    0.16752E-07         0.25081E-10         0.00000E+00
    0.16752E-07         0.22294E-10         0.00000E+00
    0.16753E-07         0.19403E-10         0.00000E+00
    0.16753E-07         0.16411E-10         0.00000E+00
    0.16754E-07         0.13318E-10         0.00000E+00
    0.16754E-07         0.10128E-10         0.00000E+00
    0.16754E-07         0.68429E-11         0.00000E+00
    0.16754E-07         0.34637E-11         0.00000E+00
    0.16754E-07         0.17509E-11         0.00000E+00
    0.17522E-07         0.24560E-11         0.00000E+00
    0.17522E-07         0.48107E-11         0.00000E+00
    0.17522E-07         0.93712E-11         0.00000E+00
    0.17522E-07         0.13638E-10         0.00000E+00
    0.17523E-07         0.17619E-10         0.00000E+00
    0.17523E-07         0.21323E-10         0.00000E+00
    0.17523E-07         0.24757E-10         0.00000E+00
    0.17524E-07         0.27928E-10         0.00000E+00
    0.17525E-07         0.30845E-10         0.00000E+00
    0.17525E-07         0.33515E-10         0.00000E+00
    0.17526E-07         0.35944E-10         0.00000E+00
    0.17527E-07         0.38141E-10         0.00000E+00
    0.17528E-07         0.40111E-10         0.00000E+00
    0.17528E-07         0.41861E-10         0.00000E+00
    0.17529E-07         0.43398E-10         0.00000E+00
    0.17530E-07         0.44728E-10         0.00000E+00
    0.17531E-07         0.45858E-10         0.00000E+00
    0.17533E-07         0.46794E-10         0.00000E+00
    0.17534E-07         0.47541E-10         0.00000E+00
    0.17535E-07         0.48105E-10         0.00000E+00
    0.17536E-07         0.48492E-10         0.00000E+00
    0.17537E-07         0.48708E-10         0.00000E+00
    0.17538E-07         0.48758E-10         0.00000E+00
    0.17540E-07         0.48646E-10         0.00000E+00
    0.17541E-07         0.48379E-10         0.00000E+00
    0.17542E-07         0.47960E-10         0.00000E+00
    0.17543E-07         0.47395E-10         0.00000E+00
    0.17544E-07         0.46689E-10         0.00000E+00
    0.17546E-07         0.45845E-10         0.00000E+00
    0.17547E-07         0.44868E-10         0.00000E+00
    0.17548E-07         0.43763E-10         0.00000E+00
    0.17549E-07         0.42534E-10         0.00000E+00
    0.17551E-07         0.41184E-10         0.00000E+00
    0.17552E-07         0.39717E-10         0.00000E+00
    0.17553E-07         0.38137E-10         0.00000E+00
    0.17554E-07         0.36447E-10         0.00000E+00
    0.17555E-07         0.34651E-10         0.00000E+00
    0.17556E-07         0.32753E-10         0.00000E+00
    0.17557E-07         0.30755E-10         0.00000E+00
    0.17558E-07         0.28660E-10         0.00000E+00
    0.17559E-07         0.26472E-10         0.00000E+00
    0.17560E-07         0.24193E-10         0.00000E+00
    0.17560E-07         0.21826E-10         0.00000E+00
    0.17561E-07         0.19373E-10         0.00000E+00
    0.17562E-07         0.16836E-10         0.00000E+00
    0.17562E-07         0.14219E-10         0.00000E+00
    0.17562E-07         0.11524E-10         0.00000E+00
    0.17563E-07         0.87515E-11         0.00000E+00
    0.17563E-07         0.59046E-11         0.00000E+00
    0.17563E-07         0.29849E-11         0.00000E+00
    0.17563E-07         0.15071E-11         0.00000E+00
    0.18362E-07         0.22191E-11         0.00000E+00
    0.18362E-07         0.43413E-11         0.00000E+00
    0.18362E-07         0.84439E-11         0.00000E+00
    0.18362E-07         0.12267E-10         0.00000E+00
    0.18362E-07         0.15819E-10         0.00000E+00
    0.18363E-07         0.19109E-10         0.00000E+00
    0.18363E-07         0.22144E-10         0.00000E+00
    0.18364E-07         0.24934E-10         0.00000E+00
    0.18365E-07         0.27485E-10         0.00000E+00
    0.18366E-07         0.29807E-10         0.00000E+00
    0.18366E-07         0.31905E-10         0.00000E+00
    0.18367E-07         0.33789E-10         0.00000E+00
    0.18368E-07         0.35464E-10         0.00000E+00
    0.18369E-07         0.36938E-10         0.00000E+00
    0.18370E-07         0.38218E-10         0.00000E+00
    0.18371E-07         0.39311E-10         0.00000E+00
    0.18373E-07         0.40222E-10         0.00000E+00
    0.18374E-07         0.40960E-10         0.00000E+00
    0.18375E-07         0.41529E-10         0.00000E+00
    0.18376E-07         0.41936E-10         0.00000E+00
    0.18378E-07         0.42186E-10         0.00000E+00
    0.18379E-07         0.42286E-10         0.00000E+00
    0.18381E-07         0.42241E-10         0.00000E+00
    0.18382E-07         0.42056E-10         0.00000E+00
    0.18383E-07         0.41737E-10         0.00000E+00
    0.18385E-07         0.41289E-10         0.00000E+00
    0.18386E-07         0.40716E-10         0.00000E+00
    0.18388E-07         0.40024E-10         0.00000E+00
    0.18389E-07         0.39217E-10         0.00000E+00
    0.18391E-07         0.38300E-10         0.00000E+00
    0.18392E-07         0.37276E-10         0.00000E+00
    0.18393E-07         0.36151E-10         0.00000E+00
    0.18395E-07         0.34928E-10         0.00000E+00
    0.18396E-07         0.33611E-10         0.00000E+00
    0.18397E-07         0.32204E-10         0.00000E+00
    0.18399E-07         0.30711E-10         0.00000E+00
    0.18400E-07         0.29135E-10         0.00000E+00
    0.18401E-07         0.27479E-10         0.00000E+00
    0.18402E-07         0.25746E-10         0.00000E+00
    0.18403E-07         0.23941E-10         0.00000E+00
    0.18404E-07         0.22065E-10         0.00000E+00
    0.18405E-07         0.20121E-10         0.00000E+00
    0.18406E-07         0.18113E-10         0.00000E+00
    0.18406E-07         0.16043E-10         0.00000E+00
    0.18407E-07         0.13912E-10         0.00000E+00
    0.18408E-07         0.11725E-10         0.00000E+00
    0.18408E-07         0.94816E-11         0.00000E+00
    0.18409E-07         0.71853E-11         0.00000E+00
    0.18409E-07         0.48378E-11         0.00000E+00
    0.18409E-07         0.24409E-11         0.00000E+00
    0.18409E-07         0.12302E-11         0.00000E+00
    0.19239E-07         0.19419E-11         0.00000E+00
    0.19239E-07         0.37926E-11         0.00000E+00
    0.19240E-07         0.73609E-11         0.00000E+00
    0.19240E-07         0.10667E-10         0.00000E+00
    0.19240E-07         0.13721E-10         0.00000E+00
    0.19241E-07         0.16532E-10         0.00000E+00
    0.19241E-07         0.19107E-10         0.00000E+00
    0.19242E-07         0.21456E-10         0.00000E+00
    0.19243E-07         0.23588E-10         0.00000E+00
    0.19244E-07         0.25509E-10         0.00000E+00
    0.19245E-07         0.27229E-10         0.00000E+00
    0.19246E-07         0.28755E-10         0.00000E+00
    0.19247E-07         0.30095E-10         0.00000E+00
    0.19248E-07         0.31256E-10         0.00000E+00
    0.19249E-07         0.32244E-10         0.00000E+00
    0.19251E-07         0.33069E-10         0.00000E+00
    0.19252E-07         0.33735E-10         0.00000E+00
    0.19253E-07         0.34250E-10         0.00000E+00
    0.19255E-07         0.34620E-10         0.00000E+00
    0.19256E-07         0.34852E-10         0.00000E+00
    0.19258E-07         0.34951E-10         0.00000E+00
    0.19259E-07         0.34924E-10         0.00000E+00
    0.19261E-07         0.34777E-10         0.00000E+00
    0.19263E-07         0.34514E-10         0.00000E+00
    0.19264E-07         0.34142E-10         0.00000E+00
    0.19266E-07         0.33665E-10         0.00000E+00
    0.19267E-07         0.33089E-10         0.00000E+00
    0.19269E-07         0.32419E-10         0.00000E+00
    0.19271E-07         0.31659E-10         0.00000E+00
    0.19272E-07         0.30814E-10         0.00000E+00
    0.19274E-07         0.29888E-10         0.00000E+00
    0.19275E-07         0.28887E-10         0.00000E+00
    0.19277E-07         0.27813E-10         0.00000E+00
    0.19278E-07         0.26671E-10         0.00000E+00
    0.19280E-07         0.25465E-10         0.00000E+00
    0.19281E-07         0.24198E-10         0.00000E+00
    0.19283E-07         0.22874E-10         0.00000E+00
    0.19284E-07         0.21497E-10         0.00000E+00
    0.19285E-07         0.20069E-10         0.00000E+00
    0.19286E-07         0.18594E-10         0.00000E+00
    0.19288E-07         0.17075E-10         0.00000E+00
    0.19289E-07         0.15514E-10         0.00000E+00
    0.19289E-07         0.13914E-10         0.00000E+00
    0.19290E-07         0.12278E-10         0.00000E+00
    0.19291E-07         0.10608E-10         0.00000E+00
    0.19292E-07         0.89069E-11         0.00000E+00
    0.19292E-07         0.71761E-11         0.00000E+00
    0.19293E-07         0.54181E-11         0.00000E+00
    0.19293E-07         0.36346E-11         0.00000E+00
    0.19293E-07         0.18275E-11         0.00000E+00
    0.19293E-07         0.91818E-12         0.00000E+00
    0.20156E-07         0.16212E-11         0.00000E+00
    0.20156E-07         0.31583E-11         0.00000E+00
    0.20156E-07         0.61101E-11         0.00000E+00
    0.20157E-07         0.88219E-11         0.00000E+00
    0.20157E-07         0.11303E-10         0.00000E+00
    0.20158E-07         0.13564E-10         0.00000E+00
    0.20158E-07         0.15613E-10         0.00000E+00
    0.20159E-07         0.17460E-10         0.00000E+00
    0.20160E-07         0.19112E-10         0.00000E+00
    0.20161E-07         0.20579E-10         0.00000E+00
    0.20162E-07         0.21870E-10         0.00000E+00
    0.20163E-07         0.22991E-10         0.00000E+00
    0.20165E-07         0.23952E-10         0.00000E+00
    0.20166E-07         0.24759E-10         0.00000E+00
    0.20167E-07         0.25421E-10         0.00000E+00
    0.20169E-07         0.25944E-10         0.00000E+00
    0.20170E-07         0.26336E-10         0.00000E+00
    0.20172E-07         0.26603E-10         0.00000E+00
    0.20174E-07         0.26753E-10         0.00000E+00
    0.20175E-07         0.26791E-10         0.00000E+00
    0.20177E-07         0.26725E-10         0.00000E+00
    0.20179E-07         0.26559E-10         0.00000E+00
    0.20181E-07         0.26301E-10         0.00000E+00
    0.20183E-07         0.25956E-10         0.00000E+00
    0.20184E-07         0.25529E-10         0.00000E+00
    0.20186E-07         0.25025E-10         0.00000E+00
    0.20188E-07         0.24451E-10         0.00000E+00
    0.20190E-07         0.23811E-10         0.00000E+00
    0.20192E-07         0.23110E-10         0.00000E+00
    0.20193E-07         0.22352E-10         0.00000E+00
    0.20195E-07         0.21542E-10         0.00000E+00
    0.20197E-07         0.20685E-10         0.00000E+00
    0.20199E-07         0.19784E-10         0.00000E+00
    0.20200E-07         0.18844E-10         0.00000E+00
    0.20202E-07         0.17869E-10         0.00000E+00
    0.20204E-07         0.16862E-10         0.00000E+00
    0.20205E-07         0.15826E-10         0.00000E+00
    0.20207E-07         0.14766E-10         0.00000E+00
    0.20208E-07         0.13684E-10         0.00000E+00
    0.20209E-07         0.12584E-10         0.00000E+00
    0.20211E-07         0.11468E-10         0.00000E+00
    0.20212E-07         0.10339E-10         0.00000E+00
    0.20213E-07         0.92001E-11         0.00000E+00
    0.20214E-07         0.80538E-11         0.00000E+00
    0.20215E-07         0.69023E-11         0.00000E+00
    0.20215E-07         0.57478E-11         0.00000E+00
    0.20216E-07         0.45926E-11         0.00000E+00
    0.20216E-07         0.34384E-11         0.00000E+00
    0.20217E-07         0.22873E-11         0.00000E+00
    0.20217E-07         0.11408E-11         0.00000E+00
    0.20217E-07         0.56899E-12         0.00000E+00
    0.21113E-07         0.12538E-11         0.00000E+00
    0.21113E-07         0.24321E-11         0.00000E+00
    0.21113E-07         0.46792E-11         0.00000E+00
    0.21114E-07         0.67125E-11         0.00000E+00
    0.21114E-07         0.85422E-11         0.00000E+00
    0.21115E-07         0.10178E-10         0.00000E+00
    0.21116E-07         0.11630E-10         0.00000E+00
    0.21117E-07         0.12907E-10         0.00000E+00
    0.21118E-07         0.14018E-10         0.00000E+00
    0.21119E-07         0.14973E-10         0.00000E+00
    0.21120E-07         0.15780E-10         0.00000E+00
    0.21122E-07         0.16447E-10         0.00000E+00
    0.21123E-07         0.16983E-10         0.00000E+00
    0.21124E-07         0.17395E-10         0.00000E+00
    0.21126E-07         0.17691E-10         0.00000E+00
    0.21128E-07         0.17879E-10         0.00000E+00
    0.21129E-07         0.17967E-10         0.00000E+00
    0.21131E-07         0.17960E-10         0.00000E+00
    0.21133E-07         0.17867E-10         0.00000E+00
    0.21135E-07         0.17693E-10         0.00000E+00
    0.21137E-07         0.17445E-10         0.00000E+00
    0.21139E-07         0.17130E-10         0.00000E+00
    0.21141E-07         0.16753E-10         0.00000E+00
    0.21143E-07         0.16320E-10         0.00000E+00
    0.21145E-07         0.15838E-10         0.00000E+00
    0.21147E-07         0.15311E-10         0.00000E+00
    0.21149E-07         0.14744E-10         0.00000E+00
    0.21151E-07         0.14143E-10         0.00000E+00
    0.21153E-07         0.13513E-10         0.00000E+00
    0.21155E-07         0.12859E-10         0.00000E+00
    0.21157E-07         0.12184E-10         0.00000E+00
    0.21159E-07         0.11494E-10         0.00000E+00
    0.21161E-07         0.10792E-10         0.00000E+00
    0.21163E-07         0.10082E-10         0.00000E+00
    0.21165E-07         0.93693E-11         0.00000E+00
    0.21167E-07         0.86564E-11         0.00000E+00
    0.21168E-07         0.79471E-11         0.00000E+00
    0.21170E-07         0.72448E-11         0.00000E+00
    0.21172E-07         0.65526E-11         0.00000E+00
    0.21173E-07         0.58737E-11         0.00000E+00
    0.21174E-07         0.52109E-11         0.00000E+00
    0.21176E-07         0.45670E-11         0.00000E+00
    0.21177E-07         0.39446E-11         0.00000E+00
    0.21178E-07         0.33462E-11         0.00000E+00
    0.21179E-07         0.27739E-11         0.00000E+00
    0.21180E-07         0.22301E-11         0.00000E+00
    0.21180E-07         0.17168E-11         0.00000E+00
    0.21181E-07         0.12357E-11         0.00000E+00
    0.21181E-07         0.78871E-12         0.00000E+00
    0.21181E-07         0.37739E-12         0.00000E+00
    0.21182E-07         0.18084E-12         0.00000E+00
    0.22112E-07         0.83657E-12         0.00000E+00
    0.22112E-07         0.16078E-11         0.00000E+00
    0.22112E-07         0.30561E-11         0.00000E+00
    0.22113E-07         0.43218E-11         0.00000E+00
    0.22113E-07         0.54152E-11         0.00000E+00
    0.22114E-07         0.63468E-11         0.00000E+00
    0.22115E-07         0.71263E-11         0.00000E+00
    0.22116E-07         0.77637E-11         0.00000E+00
    0.22117E-07         0.82682E-11         0.00000E+00
    0.22118E-07         0.86491E-11         0.00000E+00
    0.22120E-07         0.89153E-11         0.00000E+00
    0.22121E-07         0.90755E-11         0.00000E+00
    0.22123E-07         0.91380E-11         0.00000E+00
    0.22125E-07         0.91111E-11         0.00000E+00
    0.22126E-07         0.90027E-11         0.00000E+00
    0.22128E-07         0.88204E-11         0.00000E+00
    0.22130E-07         0.85717E-11         0.00000E+00
    0.22132E-07         0.82639E-11         0.00000E+00
    0.22134E-07         0.79039E-11         0.00000E+00
    0.22137E-07         0.74985E-11         0.00000E+00
    0.22139E-07         0.70542E-11         0.00000E+00
    0.22141E-07         0.65773E-11         0.00000E+00
    0.22143E-07         0.60741E-11         0.00000E+00
    0.22145E-07         0.55503E-11         0.00000E+00
    0.22148E-07         0.50117E-11         0.00000E+00
    0.22150E-07         0.44638E-11         0.00000E+00
    0.22152E-07         0.39118E-11         0.00000E+00
    0.22155E-07         0.33609E-11         0.00000E+00
    0.22157E-07         0.28159E-11         0.00000E+00
    0.22159E-07         0.22816E-11         0.00000E+00
    0.22161E-07         0.17625E-11         0.00000E+00
    0.22163E-07         0.12629E-11         0.00000E+00
    0.22166E-07         0.78708E-12         0.00000E+00
    0.22168E-07         0.33888E-12         0.00000E+00
    0.22170E-07        -0.77824E-13         0.00000E+00
    0.22172E-07        -0.45941E-12         0.00000E+00
    0.22174E-07        -0.80242E-12         0.00000E+00
    0.22175E-07        -0.11035E-11         0.00000E+00
    0.22177E-07        -0.13597E-11         0.00000E+00
    0.22179E-07        -0.15678E-11         0.00000E+00
    0.22180E-07        -0.17251E-11         0.00000E+00
    0.22182E-07        -0.18290E-11         0.00000E+00
    0.22183E-07        -0.18769E-11         0.00000E+00
    0.22184E-07        -0.18665E-11         0.00000E+00
    0.22185E-07        -0.17955E-11         0.00000E+00
    0.22186E-07        -0.16620E-11         0.00000E+00
    0.22187E-07        -0.14640E-11         0.00000E+00
    0.22187E-07        -0.11998E-11         0.00000E+00
    0.22188E-07        -0.86768E-12         0.00000E+00
    0.22188E-07        -0.46620E-12         0.00000E+00
    0.22188E-07        -0.24794E-12         0.00000E+00
    0.23154E-07         0.36642E-12         0.00000E+00
    0.23154E-07         0.67942E-12         0.00000E+00
    0.23154E-07         0.12294E-11         0.00000E+00
    0.23154E-07         0.16331E-11         0.00000E+00
    0.23155E-07         0.19012E-11         0.00000E+00
    0.23156E-07         0.20442E-11         0.00000E+00
    0.23157E-07         0.20726E-11         0.00000E+00
    0.23158E-07         0.19962E-11         0.00000E+00
    0.23159E-07         0.18247E-11         0.00000E+00
    0.23161E-07         0.15674E-11         0.00000E+00
    0.23162E-07         0.12336E-11         0.00000E+00
    0.23164E-07         0.83210E-12         0.00000E+00
    0.23166E-07         0.37137E-12         0.00000E+00
    0.23168E-07        -0.14022E-12         0.00000E+00
    0.23170E-07        -0.69464E-12         0.00000E+00
    0.23172E-07        -0.12841E-11         0.00000E+00
    0.23174E-07        -0.19011E-11         0.00000E+00
    0.23176E-07        -0.25383E-11         0.00000E+00
    0.23179E-07        -0.31886E-11         0.00000E+00
    0.23181E-07        -0.38453E-11         0.00000E+00
    0.23183E-07        -0.45018E-11         0.00000E+00
    0.23186E-07        -0.51517E-11         0.00000E+00
    0.23188E-07        -0.57890E-11         0.00000E+00
    0.23191E-07        -0.64077E-11         0.00000E+00
    0.23193E-07        -0.70021E-11         0.00000E+00
    0.23196E-07        -0.75668E-11         0.00000E+00
    0.23198E-07        -0.80966E-11         0.00000E+00
    0.23201E-07        -0.85863E-11         0.00000E+00
    0.23203E-07        -0.90312E-11         0.00000E+00
    0.23206E-07        -0.94265E-11         0.00000E+00
    0.23208E-07        -0.97679E-11         0.00000E+00
    0.23211E-07        -0.10051E-10         0.00000E+00
    0.23213E-07        -0.10272E-10         0.00000E+00
    0.23215E-07        -0.10427E-10         0.00000E+00
    0.23218E-07        -0.10511E-10         0.00000E+00
    0.23220E-07        -0.10523E-10         0.00000E+00
    0.23222E-07        -0.10457E-10         0.00000E+00
    0.23224E-07        -0.10312E-10         0.00000E+00
    0.23226E-07        -0.10084E-10         0.00000E+00
    0.23227E-07        -0.97694E-11         0.00000E+00
    0.23229E-07        -0.93667E-11         0.00000E+00
    0.23231E-07        -0.88729E-11         0.00000E+00
    0.23232E-07        -0.82858E-11         0.00000E+00
    0.23233E-07        -0.76030E-11         0.00000E+00
    0.23234E-07        -0.68225E-11         0.00000E+00
    0.23235E-07        -0.59424E-11         0.00000E+00
    0.23236E-07        -0.49609E-11         0.00000E+00
    0.23237E-07        -0.38764E-11         0.00000E+00
    0.23237E-07        -0.26875E-11         0.00000E+00
    0.23238E-07        -0.13928E-11         0.00000E+00
    0.23238E-07        -0.71877E-12         0.00000E+00
    0.24239E-07        -0.15948E-12         0.00000E+00
    0.24239E-07        -0.35850E-12         0.00000E+00
    0.24240E-07        -0.81158E-12         0.00000E+00
    0.24240E-07        -0.13691E-11         0.00000E+00
    0.24241E-07        -0.20199E-11         0.00000E+00
    0.24242E-07        -0.27533E-11         0.00000E+00
    0.24243E-07        -0.35588E-11         0.00000E+00
    0.24244E-07        -0.44262E-11         0.00000E+00
    0.24245E-07        -0.53458E-11         0.00000E+00
    0.24247E-07        -0.63080E-11         0.00000E+00
    0.24249E-07        -0.73036E-11         0.00000E+00
    0.24251E-07        -0.83237E-11         0.00000E+00
    0.24253E-07        -0.93596E-11         0.00000E+00
    0.24255E-07        -0.10403E-10         0.00000E+00
    0.24257E-07        -0.11446E-10         0.00000E+00
    0.24259E-07        -0.12480E-10         0.00000E+00
    0.24262E-07        -0.13498E-10         0.00000E+00
    0.24264E-07        -0.14494E-10         0.00000E+00
    0.24267E-07        -0.15458E-10         0.00000E+00
    0.24269E-07        -0.16386E-10         0.00000E+00
    0.24272E-07        -0.17270E-10         0.00000E+00
    0.24275E-07        -0.18105E-10         0.00000E+00
    0.24277E-07        -0.18883E-10         0.00000E+00
    0.24280E-07        -0.19600E-10         0.00000E+00
    0.24283E-07        -0.20249E-10         0.00000E+00
    0.24286E-07        -0.20826E-10         0.00000E+00
    0.24288E-07        -0.21325E-10         0.00000E+00
    0.24291E-07        -0.21741E-10         0.00000E+00
    0.24294E-07        -0.22070E-10         0.00000E+00
    0.24297E-07        -0.22306E-10         0.00000E+00
    0.24299E-07        -0.22446E-10         0.00000E+00
    0.24302E-07        -0.22486E-10         0.00000E+00
    0.24305E-07        -0.22422E-10         0.00000E+00
    0.24307E-07        -0.22249E-10         0.00000E+00
    0.24310E-07        -0.21964E-10         0.00000E+00
    0.24312E-07        -0.21565E-10         0.00000E+00
    0.24314E-07        -0.21047E-10         0.00000E+00
    0.24316E-07        -0.20408E-10         0.00000E+00
    0.24318E-07        -0.19645E-10         0.00000E+00
    0.24320E-07        -0.18755E-10         0.00000E+00
    0.24322E-07        -0.17735E-10         0.00000E+00
    0.24324E-07        -0.16584E-10         0.00000E+00
    0.24325E-07        -0.15300E-10         0.00000E+00
    0.24327E-07        -0.13879E-10         0.00000E+00
    0.24328E-07        -0.12320E-10         0.00000E+00
    0.24329E-07        -0.10622E-10         0.00000E+00
    0.24330E-07        -0.87828E-11         0.00000E+00
    0.24331E-07        -0.68010E-11         0.00000E+00
    0.24331E-07        -0.46753E-11         0.00000E+00
    0.24331E-07        -0.24045E-11         0.00000E+00
    0.24332E-07        -0.12328E-11         0.00000E+00
    0.25369E-07        -0.74370E-12         0.00000E+00
    0.25370E-07        -0.15110E-11         0.00000E+00
    0.25370E-07        -0.30766E-11         0.00000E+00
    0.25371E-07        -0.46986E-11         0.00000E+00
    0.25371E-07        -0.63656E-11         0.00000E+00
    0.25372E-07        -0.80670E-11         0.00000E+00
    0.25374E-07        -0.97920E-11         0.00000E+00
    0.25375E-07        -0.11531E-10         0.00000E+00
    0.25377E-07        -0.13273E-10         0.00000E+00
    0.25378E-07        -0.15009E-10         0.00000E+00
    0.25380E-07        -0.16730E-10         0.00000E+00
    0.25382E-07        -0.18427E-10         0.00000E+00
    0.25384E-07        -0.20091E-10         0.00000E+00
    0.25387E-07        -0.21715E-10         0.00000E+00
    0.25389E-07        -0.23289E-10         0.00000E+00
    0.25392E-07        -0.24806E-10         0.00000E+00
    0.25394E-07        -0.26260E-10         0.00000E+00
    0.25397E-07        -0.27642E-10         0.00000E+00
    0.25400E-07        -0.28945E-10         0.00000E+00
    0.25403E-07        -0.30164E-10         0.00000E+00
    0.25406E-07        -0.31291E-10         0.00000E+00
    0.25409E-07        -0.32321E-10         0.00000E+00
    0.25412E-07        -0.33247E-10         0.00000E+00
    0.25415E-07        -0.34064E-10         0.00000E+00
    0.25418E-07        -0.34767E-10         0.00000E+00
    0.25421E-07        -0.35350E-10         0.00000E+00
    0.25424E-07        -0.35809E-10         0.00000E+00
    0.25427E-07        -0.36138E-10         0.00000E+00
    0.25430E-07        -0.36333E-10         0.00000E+00
    0.25433E-07        -0.36389E-10         0.00000E+00
    0.25436E-07        -0.36304E-10         0.00000E+00
    0.25438E-07        -0.36072E-10         0.00000E+00
    0.25441E-07        -0.35690E-10         0.00000E+00
    0.25444E-07        -0.35154E-10         0.00000E+00
    0.25447E-07        -0.34462E-10         0.00000E+00
    0.25449E-07        -0.33609E-10         0.00000E+00
    0.25452E-07        -0.32594E-10         0.00000E+00
    0.25454E-07        -0.31412E-10         0.00000E+00
    0.25456E-07        -0.30062E-10         0.00000E+00
    0.25458E-07        -0.28541E-10         0.00000E+00
    0.25460E-07        -0.26847E-10         0.00000E+00
    0.25462E-07        -0.24978E-10         0.00000E+00
    0.25464E-07        -0.22931E-10         0.00000E+00
    0.25465E-07        -0.20705E-10         0.00000E+00
    0.25467E-07        -0.18298E-10         0.00000E+00
    0.25468E-07        -0.15709E-10         0.00000E+00
    0.25469E-07        -0.12936E-10         0.00000E+00
    0.25470E-07        -0.99781E-11         0.00000E+00
    0.25470E-07        -0.68341E-11         0.00000E+00
    0.25470E-07        -0.35031E-11         0.00000E+00
    0.25471E-07        -0.17908E-11         0.00000E+00
    0.26546E-07        -0.13884E-11         0.00000E+00
    0.26546E-07        -0.27823E-11         0.00000E+00
    0.26546E-07        -0.55738E-11         0.00000E+00
    0.26547E-07        -0.83671E-11         0.00000E+00
    0.26548E-07        -0.11151E-10         0.00000E+00
    0.26549E-07        -0.13914E-10         0.00000E+00
    0.26550E-07        -0.16647E-10         0.00000E+00
    0.26552E-07        -0.19339E-10         0.00000E+00
    0.26554E-07        -0.21980E-10         0.00000E+00
    0.26555E-07        -0.24561E-10         0.00000E+00
    0.26558E-07        -0.27072E-10         0.00000E+00
    0.26560E-07        -0.29506E-10         0.00000E+00
    0.26562E-07        -0.31853E-10         0.00000E+00
    0.26565E-07        -0.34105E-10         0.00000E+00
    0.26567E-07        -0.36254E-10         0.00000E+00
    0.26570E-07        -0.38294E-10         0.00000E+00
    0.26573E-07        -0.40215E-10         0.00000E+00
    0.26576E-07        -0.42013E-10         0.00000E+00
    0.26579E-07        -0.43679E-10         0.00000E+00
    0.26582E-07        -0.45208E-10         0.00000E+00
    0.26585E-07        -0.46593E-10         0.00000E+00
    0.26588E-07        -0.47829E-10         0.00000E+00
    0.26592E-07        -0.48909E-10         0.00000E+00
    0.26595E-07        -0.49828E-10         0.00000E+00
    0.26598E-07        -0.50582E-10         0.00000E+00
    0.26602E-07        -0.51165E-10         0.00000E+00
    0.26605E-07        -0.51572E-10         0.00000E+00
    0.26608E-07        -0.51799E-10         0.00000E+00
    0.26611E-07        -0.51843E-10         0.00000E+00
    0.26615E-07        -0.51697E-10         0.00000E+00
    0.26618E-07        -0.51360E-10         0.00000E+00
    0.26621E-07        -0.50827E-10         0.00000E+00
    0.26624E-07        -0.50095E-10         0.00000E+00
    0.26627E-07        -0.49160E-10         0.00000E+00
    0.26630E-07        -0.48019E-10         0.00000E+00
    0.26633E-07        -0.46670E-10         0.00000E+00
    0.26635E-07        -0.45110E-10         0.00000E+00
    0.26638E-07        -0.43337E-10         0.00000E+00
    0.26640E-07        -0.41347E-10         0.00000E+00
    0.26642E-07        -0.39139E-10         0.00000E+00
    0.26645E-07        -0.36711E-10         0.00000E+00
    0.26646E-07        -0.34061E-10         0.00000E+00
    0.26648E-07        -0.31187E-10         0.00000E+00
    0.26650E-07        -0.28087E-10         0.00000E+00
    0.26651E-07        -0.24761E-10         0.00000E+00
    0.26653E-07        -0.21207E-10         0.00000E+00
    0.26654E-07        -0.17424E-10         0.00000E+00
    0.26654E-07        -0.13410E-10         0.00000E+00
    0.26655E-07        -0.91655E-11         0.00000E+00
    0.26655E-07        -0.46892E-11         0.00000E+00
    0.26656E-07        -0.23930E-11         0.00000E+00
    0.27769E-07        -0.20954E-11         0.00000E+00
    0.27769E-07        -0.41757E-11         0.00000E+00
    0.27769E-07        -0.83094E-11         0.00000E+00
    0.27770E-07        -0.12384E-10         0.00000E+00
    0.27771E-07        -0.16387E-10         0.00000E+00
    0.27772E-07        -0.20309E-10         0.00000E+00
    0.27774E-07        -0.24139E-10         0.00000E+00
    0.27775E-07        -0.27868E-10         0.00000E+00
    0.27777E-07        -0.31486E-10         0.00000E+00
    0.27779E-07        -0.34983E-10         0.00000E+00
    0.27782E-07        -0.38350E-10         0.00000E+00
    0.27784E-07        -0.41580E-10         0.00000E+00
    0.27787E-07        -0.44664E-10         0.00000E+00
    0.27789E-07        -0.47594E-10         0.00000E+00
    0.27792E-07        -0.50362E-10         0.00000E+00
    0.27795E-07        -0.52961E-10         0.00000E+00
    0.27798E-07        -0.55385E-10         0.00000E+00
    0.27801E-07        -0.57626E-10         0.00000E+00
    0.27805E-07        -0.59679E-10         0.00000E+00
    0.27808E-07        -0.61537E-10         0.00000E+00
    0.27812E-07        -0.63194E-10         0.00000E+00
    0.27815E-07        -0.64644E-10         0.00000E+00
    0.27819E-07        -0.65884E-10         0.00000E+00
    0.27822E-07        -0.66906E-10         0.00000E+00
    0.27826E-07        -0.67707E-10         0.00000E+00
    0.27829E-07        -0.68282E-10         0.00000E+00
    0.27833E-07        -0.68627E-10         0.00000E+00
    0.27836E-07        -0.68737E-10         0.00000E+00
    0.27840E-07        -0.68609E-10         0.00000E+00
    0.27843E-07        -0.68239E-10         0.00000E+00
    0.27847E-07        -0.67623E-10         0.00000E+00
    0.27850E-07        -0.66758E-10         0.00000E+00
    0.27853E-07        -0.65642E-10         0.00000E+00
    0.27856E-07        -0.64270E-10         0.00000E+00
    0.27859E-07        -0.62641E-10         0.00000E+00
    0.27862E-07        -0.60752E-10         0.00000E+00
    0.27865E-07        -0.58600E-10         0.00000E+00
    0.27868E-07        -0.56184E-10         0.00000E+00
    0.27871E-07        -0.53501E-10         0.00000E+00
    0.27873E-07        -0.50549E-10         0.00000E+00
    0.27875E-07        -0.47327E-10         0.00000E+00
    0.27877E-07        -0.43834E-10         0.00000E+00
    0.27879E-07        -0.40067E-10         0.00000E+00
    0.27881E-07        -0.36026E-10         0.00000E+00
    0.27883E-07        -0.31709E-10         0.00000E+00
    0.27884E-07        -0.27116E-10         0.00000E+00
    0.27885E-07        -0.22245E-10         0.00000E+00
    0.27886E-07        -0.17096E-10         0.00000E+00
    0.27887E-07        -0.11669E-10         0.00000E+00
    0.27887E-07        -0.59625E-11         0.00000E+00
    0.27887E-07        -0.30395E-11         0.00000E+00
    0.29039E-07        -0.28658E-11         0.00000E+00
    0.29039E-07        -0.56935E-11         0.00000E+00
    0.29039E-07        -0.11288E-10         0.00000E+00
    0.29040E-07        -0.16754E-10         0.00000E+00
    0.29041E-07        -0.22081E-10         0.00000E+00
    0.29043E-07        -0.27259E-10         0.00000E+00
    0.29044E-07        -0.32277E-10         0.00000E+00
    0.29046E-07        -0.37127E-10         0.00000E+00
    0.29048E-07        -0.41799E-10         0.00000E+00
    0.29050E-07        -0.46283E-10         0.00000E+00
    0.29053E-07        -0.50573E-10         0.00000E+00
    0.29055E-07        -0.54659E-10         0.00000E+00
    0.29058E-07        -0.58533E-10         0.00000E+00
    0.29061E-07        -0.62189E-10         0.00000E+00
    0.29064E-07        -0.65619E-10         0.00000E+00
    0.29067E-07        -0.68816E-10         0.00000E+00
    0.29071E-07        -0.71774E-10         0.00000E+00
    0.29074E-07        -0.74487E-10         0.00000E+00
    0.29078E-07        -0.76948E-10         0.00000E+00
    0.29081E-07        -0.79153E-10         0.00000E+00
    0.29085E-07        -0.81095E-10         0.00000E+00
    0.29089E-07        -0.82770E-10         0.00000E+00
    0.29093E-07        -0.84172E-10         0.00000E+00
    0.29096E-07        -0.85297E-10         0.00000E+00
    0.29100E-07        -0.86142E-10         0.00000E+00
    0.29104E-07        -0.86701E-10         0.00000E+00
    0.29108E-07        -0.86970E-10         0.00000E+00
    0.29112E-07        -0.86947E-10         0.00000E+00
    0.29115E-07        -0.86627E-10         0.00000E+00
    0.29119E-07        -0.86008E-10         0.00000E+00
    0.29123E-07        -0.85086E-10         0.00000E+00
    0.29126E-07        -0.83859E-10         0.00000E+00
    0.29130E-07        -0.82324E-10         0.00000E+00
    0.29133E-07        -0.80477E-10         0.00000E+00
    0.29136E-07        -0.78319E-10         0.00000E+00
    0.29140E-07        -0.75845E-10         0.00000E+00
    0.29143E-07        -0.73054E-10         0.00000E+00
    0.29146E-07        -0.69944E-10         0.00000E+00
    0.29148E-07        -0.66514E-10         0.00000E+00
    0.29151E-07        -0.62762E-10         0.00000E+00
    0.29153E-07        -0.58687E-10         0.00000E+00
    0.29156E-07        -0.54288E-10         0.00000E+00
    0.29158E-07        -0.49563E-10         0.00000E+00
    0.29160E-07        -0.44512E-10         0.00000E+00
    0.29161E-07        -0.39134E-10         0.00000E+00
    0.29163E-07        -0.33429E-10         0.00000E+00
    0.29164E-07        -0.27395E-10         0.00000E+00
    0.29165E-07        -0.21033E-10         0.00000E+00
    0.29165E-07        -0.14342E-10         0.00000E+00
    0.29166E-07        -0.73215E-11         0.00000E+00
    0.29166E-07        -0.37293E-11         0.00000E+00
    0.30357E-07        -0.37000E-11         0.00000E+00
    0.30357E-07        -0.73364E-11         0.00000E+00
    0.30357E-07        -0.14510E-10         0.00000E+00
    0.30358E-07        -0.21479E-10         0.00000E+00
    0.30359E-07        -0.28234E-10         0.00000E+00
    0.30361E-07        -0.34765E-10         0.00000E+00
    0.30362E-07        -0.41062E-10         0.00000E+00
    0.30364E-07        -0.47116E-10         0.00000E+00
    0.30367E-07        -0.52919E-10         0.00000E+00
    0.30369E-07        -0.58462E-10         0.00000E+00
    0.30372E-07        -0.63738E-10         0.00000E+00
    0.30374E-07        -0.68738E-10         0.00000E+00
    0.30377E-07        -0.73456E-10         0.00000E+00
    0.30381E-07        -0.77885E-10         0.00000E+00
    0.30384E-07        -0.82019E-10         0.00000E+00
    0.30387E-07        -0.85850E-10         0.00000E+00
    0.30391E-07        -0.89374E-10         0.00000E+00
    0.30395E-07        -0.92584E-10         0.00000E+00
    0.30398E-07        -0.95475E-10         0.00000E+00
    0.30402E-07        -0.98043E-10         0.00000E+00
    0.30406E-07        -0.10028E-09         0.00000E+00
    0.30410E-07        -0.10219E-09         0.00000E+00
    0.30414E-07        -0.10376E-09         0.00000E+00
    0.30418E-07        -0.10498E-09         0.00000E+00
    0.30422E-07        -0.10586E-09         0.00000E+00
    0.30427E-07        -0.10640E-09         0.00000E+00
    0.30431E-07        -0.10658E-09         0.00000E+00
    0.30435E-07        -0.10641E-09         0.00000E+00
    0.30439E-07        -0.10587E-09         0.00000E+00
    0.30443E-07        -0.10498E-09         0.00000E+00
    0.30446E-07        -0.10373E-09         0.00000E+00
    0.30450E-07        -0.10210E-09         0.00000E+00
    0.30454E-07        -0.10012E-09         0.00000E+00
    0.30458E-07        -0.97757E-10         0.00000E+00
    0.30461E-07        -0.95027E-10         0.00000E+00
    0.30464E-07        -0.91924E-10         0.00000E+00
    0.30468E-07        -0.88447E-10         0.00000E+00
    0.30471E-07        -0.84594E-10         0.00000E+00
    0.30474E-07        -0.80364E-10         0.00000E+00
    0.30476E-07        -0.75756E-10         0.00000E+00
    0.30479E-07        -0.70770E-10         0.00000E+00
    0.30481E-07        -0.65404E-10         0.00000E+00
    0.30484E-07        -0.59657E-10         0.00000E+00
    0.30486E-07        -0.53531E-10         0.00000E+00
    0.30487E-07        -0.47023E-10         0.00000E+00
    0.30489E-07        -0.40134E-10         0.00000E+00
    0.30490E-07        -0.32863E-10         0.00000E+00
    0.30491E-07        -0.25211E-10         0.00000E+00
    0.30492E-07        -0.17178E-10         0.00000E+00
    0.30492E-07        -0.87635E-11         0.00000E+00
    0.30492E-07        -0.44611E-11         0.00000E+00
    0.31723E-07        -0.45976E-11         0.00000E+00
    0.31723E-07        -0.91034E-11         0.00000E+00
    0.31723E-07        -0.17974E-10         0.00000E+00
    0.31724E-07        -0.26556E-10         0.00000E+00
    0.31725E-07        -0.34842E-10         0.00000E+00
    0.31727E-07        -0.42821E-10         0.00000E+00
    0.31729E-07        -0.50484E-10         0.00000E+00
    0.31731E-07        -0.57825E-10         0.00000E+00
    0.31733E-07        -0.64834E-10         0.00000E+00
    0.31736E-07        -0.71505E-10         0.00000E+00
    0.31738E-07        -0.77829E-10         0.00000E+00
    0.31742E-07        -0.83801E-10         0.00000E+00
    0.31745E-07        -0.89414E-10         0.00000E+00
    0.31748E-07        -0.94661E-10         0.00000E+00
    0.31752E-07        -0.99537E-10         0.00000E+00
    0.31755E-07        -0.10404E-09         0.00000E+00
    0.31759E-07        -0.10816E-09         0.00000E+00
    0.31763E-07        -0.11189E-09         0.00000E+00
    0.31767E-07        -0.11523E-09         0.00000E+00
    0.31771E-07        -0.11817E-09         0.00000E+00
    0.31775E-07        -0.12072E-09         0.00000E+00
    0.31780E-07        -0.12286E-09         0.00000E+00
    0.31784E-07        -0.12460E-09         0.00000E+00
    0.31788E-07        -0.12592E-09         0.00000E+00
    0.31792E-07        -0.12684E-09         0.00000E+00
    0.31797E-07        -0.12733E-09         0.00000E+00
    0.31801E-07        -0.12741E-09         0.00000E+00
    0.31805E-07        -0.12707E-09         0.00000E+00
    0.31810E-07        -0.12631E-09         0.00000E+00
    0.31814E-07        -0.12511E-09         0.00000E+00
    0.31818E-07        -0.12350E-09         0.00000E+00
    0.31822E-07        -0.12145E-09         0.00000E+00
    0.31826E-07        -0.11897E-09         0.00000E+00
    0.31830E-07        -0.11607E-09         0.00000E+00
    0.31833E-07        -0.11272E-09         0.00000E+00
    0.31837E-07        -0.10895E-09         0.00000E+00
    0.31840E-07        -0.10474E-09         0.00000E+00
    0.31844E-07        -0.10010E-09         0.00000E+00
    0.31847E-07        -0.95014E-10         0.00000E+00
    0.31850E-07        -0.89497E-10         0.00000E+00
    0.31852E-07        -0.83542E-10         0.00000E+00
    0.31855E-07        -0.77151E-10         0.00000E+00
    0.31857E-07        -0.70322E-10         0.00000E+00
    0.31859E-07        -0.63055E-10         0.00000E+00
    0.31861E-07        -0.55352E-10         0.00000E+00
    0.31863E-07        -0.47211E-10         0.00000E+00
    0.31864E-07        -0.38634E-10         0.00000E+00
    0.31865E-07        -0.29620E-10         0.00000E+00
    0.31866E-07        -0.20170E-10         0.00000E+00
    0.31866E-07        -0.10284E-10         0.00000E+00
    0.31866E-07        -0.52326E-11         0.00000E+00
    0.33136E-07        -0.55573E-11         0.00000E+00
    0.33136E-07        -0.10992E-10         0.00000E+00
    0.33137E-07        -0.21674E-10         0.00000E+00
    0.33138E-07        -0.31977E-10         0.00000E+00
    0.33139E-07        -0.41892E-10         0.00000E+00
    0.33141E-07        -0.51412E-10         0.00000E+00
    0.33143E-07        -0.60528E-10         0.00000E+00
    0.33145E-07        -0.69233E-10         0.00000E+00
    0.33148E-07        -0.77521E-10         0.00000E+00
    0.33150E-07        -0.85384E-10         0.00000E+00
    0.33153E-07        -0.92816E-10         0.00000E+00
    0.33156E-07        -0.99813E-10         0.00000E+00
    0.33160E-07        -0.10637E-09         0.00000E+00
    0.33163E-07        -0.11248E-09         0.00000E+00
    0.33167E-07        -0.11813E-09         0.00000E+00
    0.33171E-07        -0.12333E-09         0.00000E+00
    0.33175E-07        -0.12807E-09         0.00000E+00
    0.33179E-07        -0.13235E-09         0.00000E+00
    0.33183E-07        -0.13615E-09         0.00000E+00
    0.33188E-07        -0.13949E-09         0.00000E+00
    0.33192E-07        -0.14235E-09         0.00000E+00
    0.33197E-07        -0.14473E-09         0.00000E+00
    0.33201E-07        -0.14664E-09         0.00000E+00
    0.33206E-07        -0.14806E-09         0.00000E+00
    0.33210E-07        -0.14899E-09         0.00000E+00
    0.33215E-07        -0.14944E-09         0.00000E+00
    0.33219E-07        -0.14941E-09         0.00000E+00
    0.33224E-07        -0.14888E-09         0.00000E+00
    0.33228E-07        -0.14786E-09         0.00000E+00
    0.33233E-07        -0.14634E-09         0.00000E+00
    0.33237E-07        -0.14433E-09         0.00000E+00
    0.33241E-07        -0.14183E-09         0.00000E+00
    0.33245E-07        -0.13883E-09         0.00000E+00
    0.33249E-07        -0.13534E-09         0.00000E+00
    0.33253E-07        -0.13135E-09         0.00000E+00
    0.33257E-07        -0.12686E-09         0.00000E+00
    0.33260E-07        -0.12188E-09         0.00000E+00
    0.33264E-07        -0.11639E-09         0.00000E+00
    0.33267E-07        -0.11041E-09         0.00000E+00
    0.33270E-07        -0.10393E-09         0.00000E+00
    0.33273E-07        -0.96958E-10         0.00000E+00
    0.33276E-07        -0.89485E-10         0.00000E+00
    0.33278E-07        -0.81516E-10         0.00000E+00
    0.33280E-07        -0.73051E-10         0.00000E+00
    0.33282E-07        -0.64090E-10         0.00000E+00
    0.33284E-07        -0.54634E-10         0.00000E+00
    0.33285E-07        -0.44684E-10         0.00000E+00
    0.33286E-07        -0.34241E-10         0.00000E+00
    0.33287E-07        -0.23305E-10         0.00000E+00
    0.33288E-07        -0.11877E-10         0.00000E+00
    0.33288E-07        -0.60408E-11         0.00000E+00
    0.34598E-07        -0.65765E-11         0.00000E+00
    0.34598E-07        -0.12997E-10         0.00000E+00
    0.34598E-07        -0.25600E-10         0.00000E+00
    0.34599E-07        -0.37726E-10         0.00000E+00
    0.34601E-07        -0.49366E-10         0.00000E+00
    0.34603E-07        -0.60513E-10         0.00000E+00
    0.34605E-07        -0.71162E-10         0.00000E+00
    0.34607E-07        -0.81305E-10         0.00000E+00
    0.34610E-07        -0.90938E-10         0.00000E+00
    0.34612E-07        -0.10005E-09         0.00000E+00
    0.34616E-07        -0.10865E-09         0.00000E+00
    0.34619E-07        -0.11672E-09         0.00000E+00
    0.34622E-07        -0.12426E-09         0.00000E+00
    0.34626E-07        -0.13127E-09         0.00000E+00
    0.34630E-07        -0.13774E-09         0.00000E+00
    0.34634E-07        -0.14366E-09         0.00000E+00
    0.34638E-07        -0.14905E-09         0.00000E+00
    0.34643E-07        -0.15388E-09         0.00000E+00
    0.34647E-07        -0.15817E-09         0.00000E+00
    0.34652E-07        -0.16191E-09         0.00000E+00
    0.34656E-07        -0.16509E-09         0.00000E+00
    0.34661E-07        -0.16772E-09         0.00000E+00
    0.34666E-07        -0.16979E-09         0.00000E+00
    0.34671E-07        -0.17130E-09         0.00000E+00
    0.34675E-07        -0.17225E-09         0.00000E+00
    0.34680E-07        -0.17264E-09         0.00000E+00
    0.34685E-07        -0.17247E-09         0.00000E+00
    0.34690E-07        -0.17173E-09         0.00000E+00
    0.34694E-07        -0.17043E-09         0.00000E+00
    0.34699E-07        -0.16857E-09         0.00000E+00
    0.34703E-07        -0.16615E-09         0.00000E+00
    0.34708E-07        -0.16316E-09         0.00000E+00
    0.34712E-07        -0.15961E-09         0.00000E+00
    0.34716E-07        -0.15550E-09         0.00000E+00
    0.34720E-07        -0.15082E-09         0.00000E+00
    0.34724E-07        -0.14558E-09         0.00000E+00
    0.34728E-07        -0.13977E-09         0.00000E+00
    0.34731E-07        -0.13341E-09         0.00000E+00
    0.34735E-07        -0.12648E-09         0.00000E+00
    0.34738E-07        -0.11900E-09         0.00000E+00
    0.34741E-07        -0.11095E-09         0.00000E+00
    0.34744E-07        -0.10235E-09         0.00000E+00
    0.34746E-07        -0.93187E-10         0.00000E+00
    0.34748E-07        -0.83468E-10         0.00000E+00
    0.34750E-07        -0.73194E-10         0.00000E+00
    0.34752E-07        -0.62366E-10         0.00000E+00
    0.34753E-07        -0.50985E-10         0.00000E+00
    0.34755E-07        -0.39052E-10         0.00000E+00
    0.34755E-07        -0.26568E-10         0.00000E+00
    0.34756E-07        -0.13535E-10         0.00000E+00
    0.34756E-07        -0.68816E-11         0.00000E+00
    0.36106E-07        -0.76516E-11         0.00000E+00
    0.36106E-07        -0.15111E-10         0.00000E+00
    0.36107E-07        -0.29738E-10         0.00000E+00
    0.36108E-07        -0.43781E-10         0.00000E+00
    0.36109E-07        -0.57233E-10         0.00000E+00
    0.36111E-07        -0.70089E-10         0.00000E+00
    0.36113E-07        -0.82343E-10         0.00000E+00
    0.36116E-07        -0.93992E-10         0.00000E+00
    0.36119E-07        -0.10503E-09         0.00000E+00
    0.36122E-07        -0.11546E-09         0.00000E+00
    0.36125E-07        -0.12526E-09         0.00000E+00
    0.36128E-07        -0.13445E-09         0.00000E+00
    0.36132E-07        -0.14301E-09         0.00000E+00
    0.36136E-07        -0.15095E-09         0.00000E+00
    0.36140E-07        -0.15826E-09         0.00000E+00
    0.36144E-07        -0.16494E-09         0.00000E+00
    0.36149E-07        -0.17099E-09         0.00000E+00
    0.36153E-07        -0.17640E-09         0.00000E+00
    0.36158E-07        -0.18118E-09         0.00000E+00
    0.36163E-07        -0.18532E-09         0.00000E+00
    0.36167E-07        -0.18883E-09         0.00000E+00
    0.36172E-07        -0.19170E-09         0.00000E+00
    0.36177E-07        -0.19393E-09         0.00000E+00
    0.36182E-07        -0.19552E-09         0.00000E+00
    0.36187E-07        -0.19648E-09         0.00000E+00
    0.36192E-07        -0.19679E-09         0.00000E+00
    0.36197E-07        -0.19647E-09         0.00000E+00
    0.36202E-07        -0.19552E-09         0.00000E+00
    0.36207E-07        -0.19392E-09         0.00000E+00
    0.36211E-07        -0.19169E-09         0.00000E+00
    0.36216E-07        -0.18882E-09         0.00000E+00
    0.36221E-07        -0.18532E-09         0.00000E+00
    0.36225E-07        -0.18119E-09         0.00000E+00
    0.36229E-07        -0.17642E-09         0.00000E+00
    0.36233E-07        -0.17102E-09         0.00000E+00
    0.36238E-07        -0.16499E-09         0.00000E+00
    0.36241E-07        -0.15834E-09         0.00000E+00
    0.36245E-07        -0.15105E-09         0.00000E+00
    0.36249E-07        -0.14314E-09         0.00000E+00
    0.36252E-07        -0.13460E-09         0.00000E+00
    0.36255E-07        -0.12545E-09         0.00000E+00
    0.36258E-07        -0.11567E-09         0.00000E+00
    0.36260E-07        -0.10527E-09         0.00000E+00
    0.36263E-07        -0.94247E-10         0.00000E+00
    0.36265E-07        -0.82612E-10         0.00000E+00
    0.36266E-07        -0.70362E-10         0.00000E+00
    0.36268E-07        -0.57499E-10         0.00000E+00
    0.36269E-07        -0.44024E-10         0.00000E+00
    0.36270E-07        -0.29940E-10         0.00000E+00
    0.36270E-07        -0.15248E-10         0.00000E+00
    0.36271E-07        -0.77501E-11         0.00000E+00
    0.37661E-07        -0.87775E-11         0.00000E+00
    0.37661E-07        -0.17324E-10         0.00000E+00
    0.37662E-07        -0.34068E-10         0.00000E+00
    0.37663E-07        -0.50113E-10         0.00000E+00
    0.37664E-07        -0.65455E-10         0.00000E+00
    0.37666E-07        -0.80090E-10         0.00000E+00
    0.37668E-07        -0.94015E-10         0.00000E+00
    0.37671E-07        -0.10723E-09         0.00000E+00
    0.37674E-07        -0.11973E-09         0.00000E+00
    0.37677E-07        -0.13151E-09         0.00000E+00
    0.37680E-07        -0.14257E-09         0.00000E+00
    0.37684E-07        -0.15291E-09         0.00000E+00
    0.37688E-07        -0.16252E-09         0.00000E+00
    0.37692E-07        -0.17142E-09         0.00000E+00
    0.37696E-07        -0.17959E-09         0.00000E+00
    0.37700E-07        -0.18704E-09         0.00000E+00
    0.37705E-07        -0.19377E-09         0.00000E+00
    0.37710E-07        -0.19977E-09         0.00000E+00
    0.37714E-07        -0.20504E-09         0.00000E+00
    0.37719E-07        -0.20959E-09         0.00000E+00
    0.37724E-07        -0.21342E-09         0.00000E+00
    0.37729E-07        -0.21653E-09         0.00000E+00
    0.37734E-07        -0.21892E-09         0.00000E+00
    0.37739E-07        -0.22058E-09         0.00000E+00
    0.37744E-07        -0.22153E-09         0.00000E+00
    0.37749E-07        -0.22176E-09         0.00000E+00
    0.37755E-07        -0.22128E-09         0.00000E+00
    0.37760E-07        -0.22008E-09         0.00000E+00
    0.37764E-07        -0.21817E-09         0.00000E+00
    0.37769E-07        -0.21554E-09         0.00000E+00
    0.37774E-07        -0.21221E-09         0.00000E+00
    0.37779E-07        -0.20817E-09         0.00000E+00
    0.37783E-07        -0.20343E-09         0.00000E+00
    0.37788E-07        -0.19798E-09         0.00000E+00
    0.37792E-07        -0.19183E-09         0.00000E+00
    0.37796E-07        -0.18498E-09         0.00000E+00
    0.37800E-07        -0.17744E-09         0.00000E+00
    0.37804E-07        -0.16920E-09         0.00000E+00
    0.37808E-07        -0.16027E-09         0.00000E+00
    0.37811E-07        -0.15065E-09         0.00000E+00
    0.37814E-07        -0.14034E-09         0.00000E+00
    0.37817E-07        -0.12935E-09         0.00000E+00
    0.37820E-07        -0.11767E-09         0.00000E+00
    0.37822E-07        -0.10531E-09         0.00000E+00
    0.37824E-07        -0.92278E-10         0.00000E+00
    0.37826E-07        -0.78566E-10         0.00000E+00
    0.37827E-07        -0.64181E-10         0.00000E+00
    0.37828E-07        -0.49123E-10         0.00000E+00
    0.37829E-07        -0.33397E-10         0.00000E+00
    0.37830E-07        -0.17003E-10         0.00000E+00
    0.37830E-07        -0.86401E-11         0.00000E+00
    0.39260E-07        -0.99474E-11         0.00000E+00
    0.39260E-07        -0.19622E-10         0.00000E+00
    0.39261E-07        -0.38563E-10         0.00000E+00
    0.39262E-07        -0.56682E-10         0.00000E+00
    0.39263E-07        -0.73980E-10         0.00000E+00
    0.39265E-07        -0.90454E-10         0.00000E+00
    0.39268E-07        -0.10610E-09         0.00000E+00
    0.39270E-07        -0.12093E-09         0.00000E+00
    0.39273E-07        -0.13493E-09         0.00000E+00
    0.39276E-07        -0.14810E-09         0.00000E+00
    0.39280E-07        -0.16044E-09         0.00000E+00
    0.39284E-07        -0.17197E-09         0.00000E+00
    0.39288E-07        -0.18266E-09         0.00000E+00
    0.39292E-07        -0.19253E-09         0.00000E+00
    0.39296E-07        -0.20158E-09         0.00000E+00
    0.39301E-07        -0.20981E-09         0.00000E+00
    0.39305E-07        -0.21722E-09         0.00000E+00
    0.39310E-07        -0.22381E-09         0.00000E+00
    0.39315E-07        -0.22959E-09         0.00000E+00
    0.39320E-07        -0.23455E-09         0.00000E+00
    0.39325E-07        -0.23870E-09         0.00000E+00
    0.39330E-07        -0.24204E-09         0.00000E+00
    0.39336E-07        -0.24457E-09         0.00000E+00
    0.39341E-07        -0.24630E-09         0.00000E+00
    0.39346E-07        -0.24723E-09         0.00000E+00
    0.39351E-07        -0.24736E-09         0.00000E+00
    0.39356E-07        -0.24669E-09         0.00000E+00
    0.39361E-07        -0.24523E-09         0.00000E+00
    0.39366E-07        -0.24299E-09         0.00000E+00
    0.39371E-07        -0.23995E-09         0.00000E+00
    0.39376E-07        -0.23613E-09         0.00000E+00
    0.39381E-07        -0.23153E-09         0.00000E+00
    0.39386E-07        -0.22615E-09         0.00000E+00
    0.39390E-07        -0.22000E-09         0.00000E+00
    0.39394E-07        -0.21307E-09         0.00000E+00
    0.39399E-07        -0.20538E-09         0.00000E+00
    0.39403E-07        -0.19693E-09         0.00000E+00
    0.39406E-07        -0.18771E-09         0.00000E+00
    0.39410E-07        -0.17773E-09         0.00000E+00
    0.39413E-07        -0.16700E-09         0.00000E+00
    0.39417E-07        -0.15551E-09         0.00000E+00
    0.39420E-07        -0.14328E-09         0.00000E+00
    0.39422E-07        -0.13030E-09         0.00000E+00
    0.39425E-07        -0.11658E-09         0.00000E+00
    0.39427E-07        -0.10211E-09         0.00000E+00
    0.39429E-07        -0.86911E-10         0.00000E+00
    0.39430E-07        -0.70975E-10         0.00000E+00
    0.39431E-07        -0.54307E-10         0.00000E+00
    0.39432E-07        -0.36910E-10         0.00000E+00
    0.39433E-07        -0.18787E-10         0.00000E+00
    0.39433E-07        -0.95441E-11         0.00000E+00
    0.40902E-07        -0.11153E-10         0.00000E+00
    0.40902E-07        -0.21990E-10         0.00000E+00
    0.40903E-07        -0.43190E-10         0.00000E+00
    0.40904E-07        -0.63443E-10         0.00000E+00
    0.40906E-07        -0.82747E-10         0.00000E+00
    0.40908E-07        -0.10111E-09         0.00000E+00
    0.40910E-07        -0.11852E-09         0.00000E+00
    0.40913E-07        -0.13499E-09         0.00000E+00
    0.40916E-07        -0.15052E-09         0.00000E+00
    0.40919E-07        -0.16511E-09         0.00000E+00
    0.40923E-07        -0.17876E-09         0.00000E+00
    0.40926E-07        -0.19148E-09         0.00000E+00
    0.40931E-07        -0.20327E-09         0.00000E+00
    0.40935E-07        -0.21413E-09         0.00000E+00
    0.40939E-07        -0.22406E-09         0.00000E+00
    0.40944E-07        -0.23307E-09         0.00000E+00
    0.40949E-07        -0.24117E-09         0.00000E+00
    0.40953E-07        -0.24835E-09         0.00000E+00
    0.40958E-07        -0.25462E-09         0.00000E+00
    0.40964E-07        -0.25998E-09         0.00000E+00
    0.40969E-07        -0.26444E-09         0.00000E+00
    0.40974E-07        -0.26801E-09         0.00000E+00
    0.40979E-07        -0.27068E-09         0.00000E+00
    0.40984E-07        -0.27246E-09         0.00000E+00
    0.40990E-07        -0.27335E-09         0.00000E+00
    0.40995E-07        -0.27337E-09         0.00000E+00
    0.41000E-07        -0.27250E-09         0.00000E+00
    0.41005E-07        -0.27077E-09         0.00000E+00
    0.41010E-07        -0.26816E-09         0.00000E+00
    0.41015E-07        -0.26470E-09         0.00000E+00
    0.41020E-07        -0.26037E-09         0.00000E+00
    0.41025E-07        -0.25519E-09         0.00000E+00
    0.41030E-07        -0.24916E-09         0.00000E+00
    0.41034E-07        -0.24228E-09         0.00000E+00
    0.41039E-07        -0.23457E-09         0.00000E+00
    0.41043E-07        -0.22601E-09         0.00000E+00
    0.41047E-07        -0.21662E-09         0.00000E+00
    0.41051E-07        -0.20641E-09         0.00000E+00
    0.41054E-07        -0.19537E-09         0.00000E+00
    0.41058E-07        -0.18351E-09         0.00000E+00
    0.41061E-07        -0.17083E-09         0.00000E+00
    0.41064E-07        -0.15734E-09         0.00000E+00
    0.41067E-07        -0.14304E-09         0.00000E+00
    0.41069E-07        -0.12793E-09         0.00000E+00
    0.41071E-07        -0.11202E-09         0.00000E+00
    0.41073E-07        -0.95318E-10         0.00000E+00
    0.41074E-07        -0.77818E-10         0.00000E+00
    0.41076E-07        -0.59526E-10         0.00000E+00
    0.41076E-07        -0.40446E-10         0.00000E+00
    0.41077E-07        -0.20582E-10         0.00000E+00
    0.41077E-07        -0.10454E-10         0.00000E+00
    0.42585E-07        -0.12385E-10         0.00000E+00
    0.42585E-07        -0.24408E-10         0.00000E+00
    0.42586E-07        -0.47912E-10         0.00000E+00
    0.42587E-07        -0.70335E-10         0.00000E+00
    0.42589E-07        -0.91681E-10         0.00000E+00
    0.42591E-07        -0.11195E-09         0.00000E+00
    0.42593E-07        -0.13115E-09         0.00000E+00
    0.42596E-07        -0.14929E-09         0.00000E+00
    0.42599E-07        -0.16636E-09         0.00000E+00
    0.42602E-07        -0.18238E-09         0.00000E+00
    0.42606E-07        -0.19735E-09         0.00000E+00
    0.42610E-07        -0.21127E-09         0.00000E+00
    0.42614E-07        -0.22415E-09         0.00000E+00
    0.42618E-07        -0.23600E-09         0.00000E+00
    0.42623E-07        -0.24681E-09         0.00000E+00
    0.42627E-07        -0.25660E-09         0.00000E+00
    0.42632E-07        -0.26538E-09         0.00000E+00
    0.42637E-07        -0.27314E-09         0.00000E+00
    0.42642E-07        -0.27989E-09         0.00000E+00
    0.42647E-07        -0.28565E-09         0.00000E+00
    0.42652E-07        -0.29041E-09         0.00000E+00
    0.42657E-07        -0.29418E-09         0.00000E+00
    0.42663E-07        -0.29697E-09         0.00000E+00
    0.42668E-07        -0.29879E-09         0.00000E+00
    0.42673E-07        -0.29963E-09         0.00000E+00
    0.42678E-07        -0.29952E-09         0.00000E+00
    0.42684E-07        -0.29844E-09         0.00000E+00
    0.42689E-07        -0.29641E-09         0.00000E+00
    0.42694E-07        -0.29344E-09         0.00000E+00
    0.42699E-07        -0.28953E-09         0.00000E+00
    0.42704E-07        -0.28469E-09         0.00000E+00
    0.42708E-07        -0.27891E-09         0.00000E+00
    0.42713E-07        -0.27222E-09         0.00000E+00
    0.42718E-07        -0.26461E-09         0.00000E+00
    0.42722E-07        -0.25608E-09         0.00000E+00
    0.42726E-07        -0.24666E-09         0.00000E+00
    0.42730E-07        -0.23633E-09         0.00000E+00
    0.42734E-07        -0.22510E-09         0.00000E+00
    0.42738E-07        -0.21299E-09         0.00000E+00
    0.42741E-07        -0.19999E-09         0.00000E+00
    0.42744E-07        -0.18612E-09         0.00000E+00
    0.42747E-07        -0.17137E-09         0.00000E+00
    0.42750E-07        -0.15574E-09         0.00000E+00
    0.42752E-07        -0.13925E-09         0.00000E+00
    0.42754E-07        -0.12190E-09         0.00000E+00
    0.42756E-07        -0.10370E-09         0.00000E+00
    0.42758E-07        -0.84635E-10         0.00000E+00
    0.42759E-07        -0.64724E-10         0.00000E+00
    0.42760E-07        -0.43967E-10         0.00000E+00
    0.42760E-07        -0.22368E-10         0.00000E+00
    0.42760E-07        -0.11359E-10         0.00000E+00
    0.44306E-07        -0.13630E-10         0.00000E+00
    0.44306E-07        -0.26851E-10         0.00000E+00
    0.44307E-07        -0.52682E-10         0.00000E+00
    0.44308E-07        -0.77293E-10         0.00000E+00
    0.44310E-07        -0.10069E-09         0.00000E+00
    0.44312E-07        -0.12288E-09         0.00000E+00
    0.44314E-07        -0.14388E-09         0.00000E+00
    0.44317E-07        -0.16368E-09         0.00000E+00
    0.44320E-07        -0.18230E-09         0.00000E+00
    0.44323E-07        -0.19974E-09         0.00000E+00
    0.44327E-07        -0.21601E-09         0.00000E+00
    0.44331E-07        -0.23113E-09         0.00000E+00
    0.44335E-07        -0.24509E-09         0.00000E+00
    0.44339E-07        -0.25791E-09         0.00000E+00
    0.44344E-07        -0.26959E-09         0.00000E+00
    0.44348E-07        -0.28015E-09         0.00000E+00
    0.44353E-07        -0.28958E-09         0.00000E+00
    0.44358E-07        -0.29791E-09         0.00000E+00
    0.44363E-07        -0.30513E-09         0.00000E+00
    0.44368E-07        -0.31126E-09         0.00000E+00
    0.44373E-07        -0.31630E-09         0.00000E+00
    0.44378E-07        -0.32027E-09         0.00000E+00
    0.44383E-07        -0.32317E-09         0.00000E+00
    0.44389E-07        -0.32500E-09         0.00000E+00
    0.44394E-07        -0.32578E-09         0.00000E+00
    0.44399E-07        -0.32552E-09         0.00000E+00
    0.44404E-07        -0.32421E-09         0.00000E+00
    0.44409E-07        -0.32188E-09         0.00000E+00
    0.44414E-07        -0.31853E-09         0.00000E+00
    0.44419E-07        -0.31416E-09         0.00000E+00
    0.44424E-07        -0.30879E-09         0.00000E+00
    0.44429E-07        -0.30241E-09         0.00000E+00
    0.44433E-07        -0.29505E-09         0.00000E+00
    0.44438E-07        -0.28670E-09         0.00000E+00
    0.44442E-07        -0.27737E-09         0.00000E+00
    0.44446E-07        -0.26706E-09         0.00000E+00
    0.44450E-07        -0.25580E-09         0.00000E+00
    0.44454E-07        -0.24357E-09         0.00000E+00
    0.44457E-07        -0.23039E-09         0.00000E+00
    0.44461E-07        -0.21626E-09         0.00000E+00
    0.44464E-07        -0.20120E-09         0.00000E+00
    0.44467E-07        -0.18520E-09         0.00000E+00
    0.44469E-07        -0.16826E-09         0.00000E+00
    0.44471E-07        -0.15041E-09         0.00000E+00
    0.44474E-07        -0.13163E-09         0.00000E+00
    0.44475E-07        -0.11194E-09         0.00000E+00
    0.44477E-07        -0.91342E-10         0.00000E+00
    0.44478E-07        -0.69836E-10         0.00000E+00
    0.44479E-07        -0.47429E-10         0.00000E+00
    0.44479E-07        -0.24124E-10         0.00000E+00
    0.44479E-07        -0.12248E-10         0.00000E+00
    0.46062E-07        -0.14876E-10         0.00000E+00
    0.46062E-07        -0.29293E-10         0.00000E+00
    0.46063E-07        -0.57445E-10         0.00000E+00
    0.46064E-07        -0.84236E-10         0.00000E+00
    0.46066E-07        -0.10967E-09         0.00000E+00
    0.46068E-07        -0.13377E-09         0.00000E+00
    0.46070E-07        -0.15654E-09         0.00000E+00
    0.46073E-07        -0.17799E-09         0.00000E+00
    0.46076E-07        -0.19813E-09         0.00000E+00
    0.46079E-07        -0.21698E-09         0.00000E+00
    0.46083E-07        -0.23453E-09         0.00000E+00
    0.46086E-07        -0.25082E-09         0.00000E+00
    0.46090E-07        -0.26584E-09         0.00000E+00
    0.46095E-07        -0.27960E-09         0.00000E+00
    0.46099E-07        -0.29212E-09         0.00000E+00
    0.46104E-07        -0.30342E-09         0.00000E+00
    0.46108E-07        -0.31349E-09         0.00000E+00
    0.46113E-07        -0.32235E-09         0.00000E+00
    0.46118E-07        -0.33002E-09         0.00000E+00
    0.46123E-07        -0.33650E-09         0.00000E+00
    0.46128E-07        -0.34180E-09         0.00000E+00
    0.46133E-07        -0.34593E-09         0.00000E+00
    0.46138E-07        -0.34891E-09         0.00000E+00
    0.46143E-07        -0.35075E-09         0.00000E+00
    0.46148E-07        -0.35145E-09         0.00000E+00
    0.46153E-07        -0.35102E-09         0.00000E+00
    0.46158E-07        -0.34948E-09         0.00000E+00
    0.46163E-07        -0.34684E-09         0.00000E+00
    0.46168E-07        -0.34309E-09         0.00000E+00
    0.46173E-07        -0.33826E-09         0.00000E+00
    0.46177E-07        -0.33236E-09         0.00000E+00
    0.46182E-07        -0.32538E-09         0.00000E+00
    0.46186E-07        -0.31734E-09         0.00000E+00
    0.46191E-07        -0.30826E-09         0.00000E+00
    0.46195E-07        -0.29812E-09         0.00000E+00
    0.46199E-07        -0.28696E-09         0.00000E+00
    0.46203E-07        -0.27476E-09         0.00000E+00
    0.46206E-07        -0.26155E-09         0.00000E+00
    0.46210E-07        -0.24732E-09         0.00000E+00
    0.46213E-07        -0.23209E-09         0.00000E+00
    0.46216E-07        -0.21586E-09         0.00000E+00
    0.46219E-07        -0.19864E-09         0.00000E+00
    0.46221E-07        -0.18043E-09         0.00000E+00
    0.46223E-07        -0.16124E-09         0.00000E+00
    0.46225E-07        -0.14107E-09         0.00000E+00
    0.46227E-07        -0.11994E-09         0.00000E+00
    0.46228E-07        -0.97844E-10         0.00000E+00
    0.46230E-07        -0.74790E-10         0.00000E+00
    0.46230E-07        -0.50782E-10         0.00000E+00
    0.46231E-07        -0.25824E-10         0.00000E+00
    0.46231E-07        -0.13109E-10         0.00000E+00
    0.47849E-07        -0.16105E-10         0.00000E+00
    0.47849E-07        -0.31703E-10         0.00000E+00
    0.47850E-07        -0.62141E-10         0.00000E+00
    0.47851E-07        -0.91073E-10         0.00000E+00
    0.47853E-07        -0.11851E-09         0.00000E+00
    0.47854E-07        -0.14448E-09         0.00000E+00
    0.47857E-07        -0.16898E-09         0.00000E+00
    0.47859E-07        -0.19203E-09         0.00000E+00
    0.47862E-07        -0.21366E-09         0.00000E+00
    0.47865E-07        -0.23386E-09         0.00000E+00
    0.47869E-07        -0.25265E-09         0.00000E+00
    0.47873E-07        -0.27006E-09         0.00000E+00
    0.47876E-07        -0.28609E-09         0.00000E+00
    0.47881E-07        -0.30077E-09         0.00000E+00
    0.47885E-07        -0.31409E-09         0.00000E+00
    0.47889E-07        -0.32608E-09         0.00000E+00
    0.47894E-07        -0.33675E-09         0.00000E+00
    0.47898E-07        -0.34612E-09         0.00000E+00
    0.47903E-07        -0.35419E-09         0.00000E+00
    0.47908E-07        -0.36099E-09         0.00000E+00
    0.47912E-07        -0.36652E-09         0.00000E+00
    0.47917E-07        -0.37080E-09         0.00000E+00
    0.47922E-07        -0.37384E-09         0.00000E+00
    0.47927E-07        -0.37565E-09         0.00000E+00
    0.47932E-07        -0.37626E-09         0.00000E+00
    0.47937E-07        -0.37565E-09         0.00000E+00
    0.47941E-07        -0.37386E-09         0.00000E+00
    0.47946E-07        -0.37089E-09         0.00000E+00
    0.47951E-07        -0.36676E-09         0.00000E+00
    0.47955E-07        -0.36146E-09         0.00000E+00
    0.47960E-07        -0.35503E-09         0.00000E+00
    0.47964E-07        -0.34745E-09         0.00000E+00
    0.47968E-07        -0.33876E-09         0.00000E+00
    0.47973E-07        -0.32895E-09         0.00000E+00
    0.47976E-07        -0.31804E-09         0.00000E+00
    0.47980E-07        -0.30603E-09         0.00000E+00
    0.47984E-07        -0.29293E-09         0.00000E+00
    0.47987E-07        -0.27876E-09         0.00000E+00
    0.47991E-07        -0.26352E-09         0.00000E+00
    0.47994E-07        -0.24722E-09         0.00000E+00
    0.47996E-07        -0.22987E-09         0.00000E+00
    0.47999E-07        -0.21147E-09         0.00000E+00
    0.48001E-07        -0.19203E-09         0.00000E+00
    0.48003E-07        -0.17156E-09         0.00000E+00
    0.48005E-07        -0.15007E-09         0.00000E+00
    0.48007E-07        -0.12756E-09         0.00000E+00
    0.48008E-07        -0.10404E-09         0.00000E+00
    0.48009E-07        -0.79505E-10         0.00000E+00
    0.48010E-07        -0.53972E-10         0.00000E+00
    0.48011E-07        -0.27441E-10         0.00000E+00
    0.48011E-07        -0.13927E-10         0.00000E+00
    0.49662E-07        -0.17301E-10         0.00000E+00
    0.49663E-07        -0.34043E-10         0.00000E+00
    0.49663E-07        -0.66699E-10         0.00000E+00
    0.49664E-07        -0.97704E-10         0.00000E+00
    0.49666E-07        -0.12708E-09         0.00000E+00
    0.49668E-07        -0.15484E-09         0.00000E+00
    0.49670E-07        -0.18100E-09         0.00000E+00
    0.49672E-07        -0.20559E-09         0.00000E+00
    0.49675E-07        -0.22862E-09         0.00000E+00
    0.49678E-07        -0.25012E-09         0.00000E+00
    0.49681E-07        -0.27009E-09         0.00000E+00
    0.49685E-07        -0.28856E-09         0.00000E+00
    0.49689E-07        -0.30554E-09         0.00000E+00
    0.49692E-07        -0.32106E-09         0.00000E+00
    0.49696E-07        -0.33513E-09         0.00000E+00
    0.49701E-07        -0.34777E-09         0.00000E+00
    0.49705E-07        -0.35899E-09         0.00000E+00
    0.49709E-07        -0.36881E-09         0.00000E+00
    0.49714E-07        -0.37725E-09         0.00000E+00
    0.49718E-07        -0.38433E-09         0.00000E+00
    0.49723E-07        -0.39005E-09         0.00000E+00
    0.49727E-07        -0.39444E-09         0.00000E+00
    0.49732E-07        -0.39752E-09         0.00000E+00
    0.49736E-07        -0.39929E-09         0.00000E+00
    0.49741E-07        -0.39977E-09         0.00000E+00
    0.49745E-07        -0.39898E-09         0.00000E+00
    0.49750E-07        -0.39693E-09         0.00000E+00
    0.49754E-07        -0.39363E-09         0.00000E+00
    0.49759E-07        -0.38910E-09         0.00000E+00
    0.49763E-07        -0.38335E-09         0.00000E+00
    0.49767E-07        -0.37640E-09         0.00000E+00
    0.49771E-07        -0.36824E-09         0.00000E+00
    0.49775E-07        -0.35891E-09         0.00000E+00
    0.49779E-07        -0.34841E-09         0.00000E+00
    0.49782E-07        -0.33674E-09         0.00000E+00
    0.49786E-07        -0.32393E-09         0.00000E+00
    0.49789E-07        -0.30997E-09         0.00000E+00
    0.49792E-07        -0.29489E-09         0.00000E+00
    0.49795E-07        -0.27869E-09         0.00000E+00
    0.49798E-07        -0.26138E-09         0.00000E+00
    0.49801E-07        -0.24296E-09         0.00000E+00
    0.49803E-07        -0.22346E-09         0.00000E+00
    0.49805E-07        -0.20287E-09         0.00000E+00
    0.49807E-07        -0.18120E-09         0.00000E+00
    0.49809E-07        -0.15846E-09         0.00000E+00
    0.49811E-07        -0.13466E-09         0.00000E+00
    0.49812E-07        -0.10980E-09         0.00000E+00
    0.49813E-07        -0.83894E-10         0.00000E+00
    0.49813E-07        -0.56939E-10         0.00000E+00
    0.49814E-07        -0.28944E-10         0.00000E+00
    0.49814E-07        -0.14687E-10         0.00000E+00
    0.51497E-07        -0.18442E-10         0.00000E+00
    0.51497E-07        -0.36276E-10         0.00000E+00
    0.51498E-07        -0.71041E-10         0.00000E+00
    0.51499E-07        -0.10401E-09         0.00000E+00
    0.51500E-07        -0.13521E-09         0.00000E+00
    0.51502E-07        -0.16466E-09         0.00000E+00
    0.51504E-07        -0.19239E-09         0.00000E+00
    0.51507E-07        -0.21842E-09         0.00000E+00
    0.51509E-07        -0.24277E-09         0.00000E+00
    0.51512E-07        -0.26546E-09         0.00000E+00
    0.51515E-07        -0.28652E-09         0.00000E+00
    0.51518E-07        -0.30597E-09         0.00000E+00
    0.51522E-07        -0.32382E-09         0.00000E+00
    0.51525E-07        -0.34011E-09         0.00000E+00
    0.51529E-07        -0.35485E-09         0.00000E+00
    0.51533E-07        -0.36807E-09         0.00000E+00
    0.51537E-07        -0.37977E-09         0.00000E+00
    0.51541E-07        -0.38999E-09         0.00000E+00
    0.51545E-07        -0.39875E-09         0.00000E+00
    0.51549E-07        -0.40606E-09         0.00000E+00
    0.51553E-07        -0.41194E-09         0.00000E+00
    0.51557E-07        -0.41640E-09         0.00000E+00
    0.51562E-07        -0.41948E-09         0.00000E+00
    0.51566E-07        -0.42119E-09         0.00000E+00
    0.51570E-07        -0.42153E-09         0.00000E+00
    0.51574E-07        -0.42054E-09         0.00000E+00
    0.51578E-07        -0.41822E-09         0.00000E+00
    0.51582E-07        -0.41460E-09         0.00000E+00
    0.51586E-07        -0.40968E-09         0.00000E+00
    0.51590E-07        -0.40348E-09         0.00000E+00
    0.51594E-07        -0.39603E-09         0.00000E+00
    0.51597E-07        -0.38732E-09         0.00000E+00
    0.51601E-07        -0.37738E-09         0.00000E+00
    0.51604E-07        -0.36622E-09         0.00000E+00
    0.51607E-07        -0.35385E-09         0.00000E+00
    0.51611E-07        -0.34028E-09         0.00000E+00
    0.51614E-07        -0.32552E-09         0.00000E+00
    0.51616E-07        -0.30959E-09         0.00000E+00
    0.51619E-07        -0.29250E-09         0.00000E+00
    0.51622E-07        -0.27426E-09         0.00000E+00
    0.51624E-07        -0.25487E-09         0.00000E+00
    0.51626E-07        -0.23435E-09         0.00000E+00
    0.51628E-07        -0.21270E-09         0.00000E+00
    0.51630E-07        -0.18994E-09         0.00000E+00
    0.51631E-07        -0.16606E-09         0.00000E+00
    0.51633E-07        -0.14109E-09         0.00000E+00
    0.51634E-07        -0.11502E-09         0.00000E+00
    0.51635E-07        -0.87860E-10         0.00000E+00
    0.51635E-07        -0.59619E-10         0.00000E+00
    0.51636E-07        -0.30301E-10         0.00000E+00
    0.51636E-07        -0.15373E-10         0.00000E+00
    0.53348E-07        -0.19507E-10         0.00000E+00
    0.53348E-07        -0.38357E-10         0.00000E+00
    0.53349E-07        -0.75083E-10         0.00000E+00
    0.53350E-07        -0.10987E-09         0.00000E+00
    0.53351E-07        -0.14276E-09         0.00000E+00
    0.53353E-07        -0.17376E-09         0.00000E+00
    0.53354E-07        -0.20292E-09         0.00000E+00
    0.53357E-07        -0.23026E-09         0.00000E+00
    0.53359E-07        -0.25580E-09         0.00000E+00
    0.53361E-07        -0.27957E-09         0.00000E+00
    0.53364E-07        -0.30160E-09         0.00000E+00
    0.53367E-07        -0.32191E-09         0.00000E+00
    0.53370E-07        -0.34054E-09         0.00000E+00
    0.53373E-07        -0.35750E-09         0.00000E+00
    0.53377E-07        -0.37282E-09         0.00000E+00
    0.53380E-07        -0.38653E-09         0.00000E+00
    0.53384E-07        -0.39865E-09         0.00000E+00
    0.53387E-07        -0.40920E-09         0.00000E+00
    0.53391E-07        -0.41820E-09         0.00000E+00
    0.53395E-07        -0.42569E-09         0.00000E+00
    0.53398E-07        -0.43167E-09         0.00000E+00
    0.53402E-07        -0.43617E-09         0.00000E+00
    0.53406E-07        -0.43922E-09         0.00000E+00
    0.53409E-07        -0.44083E-09         0.00000E+00
    0.53413E-07        -0.44102E-09         0.00000E+00
    0.53416E-07        -0.43981E-09         0.00000E+00
    0.53420E-07        -0.43723E-09         0.00000E+00
    0.53423E-07        -0.43328E-09         0.00000E+00
    0.53427E-07        -0.42799E-09         0.00000E+00
    0.53430E-07        -0.42137E-09         0.00000E+00
    0.53434E-07        -0.41344E-09         0.00000E+00
    0.53437E-07        -0.40422E-09         0.00000E+00
    0.53440E-07        -0.39371E-09         0.00000E+00
    0.53443E-07        -0.38195E-09         0.00000E+00
    0.53446E-07        -0.36893E-09         0.00000E+00
    0.53448E-07        -0.35467E-09         0.00000E+00
    0.53451E-07        -0.33919E-09         0.00000E+00
    0.53453E-07        -0.32250E-09         0.00000E+00
    0.53456E-07        -0.30462E-09         0.00000E+00
    0.53458E-07        -0.28554E-09         0.00000E+00
    0.53460E-07        -0.26528E-09         0.00000E+00
    0.53461E-07        -0.24386E-09         0.00000E+00
    0.53463E-07        -0.22128E-09         0.00000E+00
    0.53465E-07        -0.19755E-09         0.00000E+00
    0.53466E-07        -0.17268E-09         0.00000E+00
    0.53467E-07        -0.14668E-09         0.00000E+00
    0.53468E-07        -0.11955E-09         0.00000E+00
    0.53469E-07        -0.91300E-10         0.00000E+00
    0.53469E-07        -0.61941E-10         0.00000E+00
    0.53469E-07        -0.31476E-10         0.00000E+00
    0.53470E-07        -0.15967E-10         0.00000E+00
    0.55208E-07        -0.20471E-10         0.00000E+00
    0.55208E-07        -0.40238E-10         0.00000E+00
    0.55209E-07        -0.78728E-10         0.00000E+00
    0.55210E-07        -0.11515E-09         0.00000E+00
    0.55211E-07        -0.14953E-09         0.00000E+00
    0.55212E-07        -0.18192E-09         0.00000E+00
    0.55214E-07        -0.21233E-09         0.00000E+00
    0.55216E-07        -0.24081E-09         0.00000E+00
    0.55218E-07        -0.26738E-09         0.00000E+00
    0.55220E-07        -0.29208E-09         0.00000E+00
    0.55223E-07        -0.31494E-09         0.00000E+00
    0.55225E-07        -0.33599E-09         0.00000E+00
    0.55228E-07        -0.35526E-09         0.00000E+00
    0.55230E-07        -0.37278E-09         0.00000E+00
    0.55233E-07        -0.38858E-09         0.00000E+00
    0.55236E-07        -0.40268E-09         0.00000E+00
    0.55239E-07        -0.41511E-09         0.00000E+00
    0.55242E-07        -0.42590E-09         0.00000E+00
    0.55245E-07        -0.43509E-09         0.00000E+00
    0.55248E-07        -0.44268E-09         0.00000E+00
    0.55251E-07        -0.44871E-09         0.00000E+00
    0.55254E-07        -0.45320E-09         0.00000E+00
    0.55258E-07        -0.45618E-09         0.00000E+00
    0.55261E-07        -0.45767E-09         0.00000E+00
    0.55264E-07        -0.45769E-09         0.00000E+00
    0.55267E-07        -0.45626E-09         0.00000E+00
    0.55269E-07        -0.45340E-09         0.00000E+00
    0.55272E-07        -0.44914E-09         0.00000E+00
    0.55275E-07        -0.44350E-09         0.00000E+00
    0.55278E-07        -0.43648E-09         0.00000E+00
    0.55281E-07        -0.42812E-09         0.00000E+00
    0.55283E-07        -0.41843E-09         0.00000E+00
    0.55286E-07        -0.40742E-09         0.00000E+00
    0.55288E-07        -0.39512E-09         0.00000E+00
    0.55290E-07        -0.38153E-09         0.00000E+00
    0.55292E-07        -0.36668E-09         0.00000E+00
    0.55294E-07        -0.35057E-09         0.00000E+00
    0.55296E-07        -0.33323E-09         0.00000E+00
    0.55298E-07        -0.31465E-09         0.00000E+00
    0.55300E-07        -0.29487E-09         0.00000E+00
    0.55301E-07        -0.27388E-09         0.00000E+00
    0.55303E-07        -0.25169E-09         0.00000E+00
    0.55304E-07        -0.22833E-09         0.00000E+00
    0.55305E-07        -0.20380E-09         0.00000E+00
    0.55306E-07        -0.17810E-09         0.00000E+00
    0.55307E-07        -0.15125E-09         0.00000E+00
    0.55308E-07        -0.12325E-09         0.00000E+00
    0.55309E-07        -0.94106E-10         0.00000E+00
    0.55309E-07        -0.63832E-10         0.00000E+00
    0.55309E-07        -0.32431E-10         0.00000E+00
    0.55309E-07        -0.16449E-10         0.00000E+00
    0.57071E-07        -0.21308E-10         0.00000E+00
    0.57071E-07        -0.41867E-10         0.00000E+00
    0.57072E-07        -0.81876E-10         0.00000E+00
    0.57073E-07        -0.11969E-09         0.00000E+00
    0.57073E-07        -0.15535E-09         0.00000E+00
    0.57075E-07        -0.18889E-09         0.00000E+00
    0.57076E-07        -0.22035E-09         0.00000E+00
    0.57077E-07        -0.24977E-09         0.00000E+00
    0.57079E-07        -0.27718E-09         0.00000E+00
    0.57081E-07        -0.30263E-09         0.00000E+00
    0.57083E-07        -0.32615E-09         0.00000E+00
    0.57085E-07        -0.34777E-09         0.00000E+00
    0.57087E-07        -0.36753E-09         0.00000E+00
    0.57089E-07        -0.38546E-09         0.00000E+00
    0.57092E-07        -0.40160E-09         0.00000E+00
    0.57094E-07        -0.41597E-09         0.00000E+00
    0.57096E-07        -0.42862E-09         0.00000E+00
    0.57099E-07        -0.43956E-09         0.00000E+00
    0.57101E-07        -0.44883E-09         0.00000E+00
    0.57103E-07        -0.45646E-09         0.00000E+00
    0.57106E-07        -0.46248E-09         0.00000E+00
    0.57108E-07        -0.46691E-09         0.00000E+00
    0.57110E-07        -0.46978E-09         0.00000E+00
    0.57113E-07        -0.47111E-09         0.00000E+00
    0.57115E-07        -0.47094E-09         0.00000E+00
    0.57117E-07        -0.46928E-09         0.00000E+00
    0.57119E-07        -0.46617E-09         0.00000E+00
    0.57121E-07        -0.46161E-09         0.00000E+00
    0.57123E-07        -0.45564E-09         0.00000E+00
    0.57125E-07        -0.44827E-09         0.00000E+00
    0.57127E-07        -0.43953E-09         0.00000E+00
    0.57129E-07        -0.42943E-09         0.00000E+00
    0.57131E-07        -0.41799E-09         0.00000E+00
    0.57133E-07        -0.40523E-09         0.00000E+00
    0.57134E-07        -0.39117E-09         0.00000E+00
    0.57136E-07        -0.37583E-09         0.00000E+00
    0.57137E-07        -0.35921E-09         0.00000E+00
    0.57139E-07        -0.34134E-09         0.00000E+00
    0.57140E-07        -0.32222E-09         0.00000E+00
    0.57141E-07        -0.30187E-09         0.00000E+00
    0.57142E-07        -0.28031E-09         0.00000E+00
    0.57143E-07        -0.25754E-09         0.00000E+00
    0.57144E-07        -0.23358E-09         0.00000E+00
    0.57145E-07        -0.20843E-09         0.00000E+00
    0.57146E-07        -0.18211E-09         0.00000E+00
    0.57146E-07        -0.15461E-09         0.00000E+00
    0.57147E-07        -0.12596E-09         0.00000E+00
    0.57147E-07        -0.96162E-10         0.00000E+00
    0.57147E-07        -0.65214E-10         0.00000E+00
    0.57148E-07        -0.33127E-10         0.00000E+00
    0.57148E-07        -0.16800E-10         0.00000E+00
    0.58929E-07        -0.21989E-10         0.00000E+00
    0.58929E-07        -0.43187E-10         0.00000E+00
    0.58930E-07        -0.84417E-10         0.00000E+00
    0.58930E-07        -0.12333E-09         0.00000E+00
    0.58931E-07        -0.15999E-09         0.00000E+00
    0.58932E-07        -0.19442E-09         0.00000E+00
    0.58933E-07        -0.22667E-09         0.00000E+00
    0.58934E-07        -0.25679E-09         0.00000E+00
    0.58935E-07        -0.28482E-09         0.00000E+00
    0.58936E-07        -0.31080E-09         0.00000E+00
    0.58938E-07        -0.33477E-09         0.00000E+00
    0.58939E-07        -0.35678E-09         0.00000E+00
    0.58941E-07        -0.37685E-09         0.00000E+00
    0.58942E-07        -0.39503E-09         0.00000E+00
    0.58944E-07        -0.41136E-09         0.00000E+00
    0.58945E-07        -0.42587E-09         0.00000E+00
    0.58947E-07        -0.43860E-09         0.00000E+00
    0.58949E-07        -0.44958E-09         0.00000E+00
    0.58950E-07        -0.45884E-09         0.00000E+00
    0.58952E-07        -0.46642E-09         0.00000E+00
    0.58953E-07        -0.47235E-09         0.00000E+00
    0.58955E-07        -0.47666E-09         0.00000E+00
    0.58956E-07        -0.47938E-09         0.00000E+00
    0.58958E-07        -0.48054E-09         0.00000E+00
    0.58959E-07        -0.48016E-09         0.00000E+00
    0.58960E-07        -0.47827E-09         0.00000E+00
    0.58962E-07        -0.47490E-09         0.00000E+00
    0.58963E-07        -0.47007E-09         0.00000E+00
    0.58964E-07        -0.46381E-09         0.00000E+00
    0.58965E-07        -0.45614E-09         0.00000E+00
    0.58966E-07        -0.44708E-09         0.00000E+00
    0.58967E-07        -0.43665E-09         0.00000E+00
    0.58968E-07        -0.42487E-09         0.00000E+00
    0.58969E-07        -0.41176E-09         0.00000E+00
    0.58970E-07        -0.39735E-09         0.00000E+00
    0.58971E-07        -0.38164E-09         0.00000E+00
    0.58972E-07        -0.36465E-09         0.00000E+00
    0.58972E-07        -0.34640E-09         0.00000E+00
    0.58973E-07        -0.32691E-09         0.00000E+00
    0.58974E-07        -0.30618E-09         0.00000E+00
    0.58974E-07        -0.28423E-09         0.00000E+00
    0.58975E-07        -0.26108E-09         0.00000E+00
    0.58975E-07        -0.23672E-09         0.00000E+00
    0.58975E-07        -0.21118E-09         0.00000E+00
    0.58976E-07        -0.18447E-09         0.00000E+00
    0.58976E-07        -0.15659E-09         0.00000E+00
    0.58976E-07        -0.12754E-09         0.00000E+00
    0.58976E-07        -0.97348E-10         0.00000E+00
    0.58977E-07        -0.66006E-10         0.00000E+00
    0.58977E-07        -0.33524E-10         0.00000E+00
    0.58977E-07        -0.16998E-10         0.00000E+00
    0.60774E-07        -0.22483E-10         0.00000E+00
    0.60774E-07        -0.44140E-10         0.00000E+00
    0.60774E-07        -0.86233E-10         0.00000E+00
    0.60775E-07        -0.12591E-09         0.00000E+00
    0.60775E-07        -0.16323E-09         0.00000E+00
    0.60776E-07        -0.19824E-09         0.00000E+00
    0.60776E-07        -0.23099E-09         0.00000E+00
    0.60777E-07        -0.26153E-09         0.00000E+00
    0.60777E-07        -0.28990E-09         0.00000E+00
    0.60778E-07        -0.31616E-09         0.00000E+00
    0.60779E-07        -0.34035E-09         0.00000E+00
    0.60780E-07        -0.36251E-09         0.00000E+00
    0.60780E-07        -0.38269E-09         0.00000E+00
    0.60781E-07        -0.40094E-09         0.00000E+00
    0.60782E-07        -0.41728E-09         0.00000E+00
    0.60783E-07        -0.43177E-09         0.00000E+00
    0.60783E-07        -0.44444E-09         0.00000E+00
    0.60784E-07        -0.45533E-09         0.00000E+00
    0.60785E-07        -0.46448E-09         0.00000E+00
    0.60785E-07        -0.47192E-09         0.00000E+00
    0.60786E-07        -0.47768E-09         0.00000E+00
    0.60786E-07        -0.48181E-09         0.00000E+00
    0.60787E-07        -0.48433E-09         0.00000E+00
    0.60787E-07        -0.48528E-09         0.00000E+00
    0.60788E-07        -0.48468E-09         0.00000E+00
    0.60788E-07        -0.48256E-09         0.00000E+00
    0.60788E-07        -0.47896E-09         0.00000E+00
    0.60789E-07        -0.47389E-09         0.00000E+00
    0.60789E-07        -0.46739E-09         0.00000E+00
    0.60789E-07        -0.45948E-09         0.00000E+00
    0.60789E-07        -0.45017E-09         0.00000E+00
    0.60789E-07        -0.43951E-09         0.00000E+00
    0.60789E-07        -0.42750E-09         0.00000E+00
    0.60789E-07        -0.41416E-09         0.00000E+00
    0.60789E-07        -0.39953E-09         0.00000E+00
    0.60789E-07        -0.38360E-09         0.00000E+00
    0.60789E-07        -0.36641E-09         0.00000E+00
    0.60789E-07        -0.34796E-09         0.00000E+00
    0.60789E-07        -0.32828E-09         0.00000E+00
    0.60789E-07        -0.30738E-09         0.00000E+00
    0.60789E-07        -0.28527E-09         0.00000E+00
    0.60789E-07        -0.26196E-09         0.00000E+00
    0.60789E-07        -0.23746E-09         0.00000E+00
    0.60789E-07        -0.21179E-09         0.00000E+00
    0.60788E-07        -0.18495E-09         0.00000E+00
    0.60788E-07        -0.15696E-09         0.00000E+00
    0.60788E-07        -0.12782E-09         0.00000E+00
    0.60788E-07        -0.97541E-10         0.00000E+00
    0.60788E-07        -0.66125E-10         0.00000E+00
    0.60788E-07        -0.33578E-10         0.00000E+00
    0.60788E-07        -0.17023E-10         0.00000E+00
    0.62597E-07        -0.22759E-10         0.00000E+00
    0.62597E-07        -0.44661E-10         0.00000E+00
    0.62597E-07        -0.87200E-10         0.00000E+00
    0.62597E-07        -0.12724E-09         0.00000E+00
    0.62597E-07        -0.16485E-09         0.00000E+00
    0.62597E-07        -0.20007E-09         0.00000E+00
    0.62597E-07        -0.23297E-09         0.00000E+00
    0.62597E-07        -0.26360E-09         0.00000E+00
    0.62597E-07        -0.29201E-09         0.00000E+00
    0.62597E-07        -0.31825E-09         0.00000E+00
    0.62597E-07        -0.34239E-09         0.00000E+00
    0.62597E-07        -0.36446E-09         0.00000E+00
    0.62597E-07        -0.38452E-09         0.00000E+00
    0.62597E-07        -0.40260E-09         0.00000E+00
    0.62597E-07        -0.41877E-09         0.00000E+00
    0.62597E-07        -0.43306E-09         0.00000E+00
    0.62597E-07        -0.44551E-09         0.00000E+00
    0.62596E-07        -0.45617E-09         0.00000E+00
    0.62596E-07        -0.46508E-09         0.00000E+00
    0.62595E-07        -0.47228E-09         0.00000E+00
    0.62595E-07        -0.47780E-09         0.00000E+00
    0.62594E-07        -0.48168E-09         0.00000E+00
    0.62594E-07        -0.48395E-09         0.00000E+00
    0.62593E-07        -0.48466E-09         0.00000E+00
    0.62592E-07        -0.48383E-09         0.00000E+00
    0.62591E-07        -0.48149E-09         0.00000E+00
    0.62590E-07        -0.47767E-09         0.00000E+00
    0.62590E-07        -0.47241E-09         0.00000E+00
    0.62589E-07        -0.46573E-09         0.00000E+00
    0.62588E-07        -0.45765E-09         0.00000E+00
    0.62587E-07        -0.44820E-09         0.00000E+00
    0.62586E-07        -0.43740E-09         0.00000E+00
    0.62585E-07        -0.42529E-09         0.00000E+00
    0.62584E-07        -0.41187E-09         0.00000E+00
    0.62583E-07        -0.39717E-09         0.00000E+00
    0.62582E-07        -0.38120E-09         0.00000E+00
    0.62581E-07        -0.36400E-09         0.00000E+00
    0.62580E-07        -0.34556E-09         0.00000E+00
    0.62579E-07        -0.32591E-09         0.00000E+00
    0.62578E-07        -0.30507E-09         0.00000E+00
    0.62577E-07        -0.28304E-09         0.00000E+00
    0.62577E-07        -0.25984E-09         0.00000E+00
    0.62576E-07        -0.23548E-09         0.00000E+00
    0.62575E-07        -0.20997E-09         0.00000E+00
    0.62575E-07        -0.18332E-09         0.00000E+00
    0.62574E-07        -0.15554E-09         0.00000E+00
    0.62574E-07        -0.12664E-09         0.00000E+00
    0.62573E-07        -0.96618E-10         0.00000E+00
    0.62573E-07        -0.65487E-10         0.00000E+00
    0.62573E-07        -0.33249E-10         0.00000E+00
    0.62573E-07        -0.16854E-10         0.00000E+00
    0.64388E-07        -0.22782E-10         0.00000E+00
    0.64388E-07        -0.44684E-10         0.00000E+00
    0.64388E-07        -0.87190E-10         0.00000E+00
    0.64387E-07        -0.12714E-09         0.00000E+00
    0.64387E-07        -0.16459E-09         0.00000E+00
    0.64387E-07        -0.19961E-09         0.00000E+00
    0.64387E-07        -0.23226E-09         0.00000E+00
    0.64386E-07        -0.26261E-09         0.00000E+00
    0.64385E-07        -0.29070E-09         0.00000E+00
    0.64385E-07        -0.31661E-09         0.00000E+00
    0.64384E-07        -0.34038E-09         0.00000E+00
    0.64383E-07        -0.36208E-09         0.00000E+00
    0.64382E-07        -0.38175E-09         0.00000E+00
    0.64381E-07        -0.39944E-09         0.00000E+00
    0.64380E-07        -0.41521E-09         0.00000E+00
    0.64378E-07        -0.42910E-09         0.00000E+00
    0.64377E-07        -0.44116E-09         0.00000E+00
    0.64375E-07        -0.45144E-09         0.00000E+00
    0.64374E-07        -0.45998E-09         0.00000E+00
    0.64372E-07        -0.46682E-09         0.00000E+00
    0.64370E-07        -0.47200E-09         0.00000E+00
    0.64368E-07        -0.47556E-09         0.00000E+00
    0.64366E-07        -0.47754E-09         0.00000E+00
    0.64365E-07        -0.47798E-09         0.00000E+00
    0.64362E-07        -0.47691E-09         0.00000E+00
    0.64360E-07        -0.47436E-09         0.00000E+00
    0.64358E-07        -0.47037E-09         0.00000E+00
    0.64356E-07        -0.46496E-09         0.00000E+00
    0.64354E-07        -0.45816E-09         0.00000E+00
    0.64352E-07        -0.45001E-09         0.00000E+00
    0.64350E-07        -0.44052E-09         0.00000E+00
    0.64347E-07        -0.42973E-09         0.00000E+00
    0.64345E-07        -0.41765E-09         0.00000E+00
    0.64343E-07        -0.40431E-09         0.00000E+00
    0.64341E-07        -0.38973E-09         0.00000E+00
    0.64339E-07        -0.37393E-09         0.00000E+00
    0.64337E-07        -0.35692E-09         0.00000E+00
    0.64335E-07        -0.33873E-09         0.00000E+00
    0.64333E-07        -0.31936E-09         0.00000E+00
    0.64332E-07        -0.29884E-09         0.00000E+00
    0.64330E-07        -0.27718E-09         0.00000E+00
    0.64329E-07        -0.25439E-09         0.00000E+00
    0.64327E-07        -0.23048E-09         0.00000E+00
    0.64326E-07        -0.20546E-09         0.00000E+00
    0.64325E-07        -0.17934E-09         0.00000E+00
    0.64324E-07        -0.15213E-09         0.00000E+00
    0.64323E-07        -0.12383E-09         0.00000E+00
    0.64322E-07        -0.94457E-10         0.00000E+00
    0.64322E-07        -0.64010E-10         0.00000E+00
    0.64322E-07        -0.32494E-10         0.00000E+00
    0.64321E-07        -0.16469E-10         0.00000E+00
    0.66138E-07        -0.22518E-10         0.00000E+00
    0.66137E-07        -0.44140E-10         0.00000E+00
    0.66137E-07        -0.86066E-10         0.00000E+00
    0.66137E-07        -0.12539E-09         0.00000E+00
    0.66136E-07        -0.16220E-09         0.00000E+00
    0.66135E-07        -0.19655E-09         0.00000E+00
    0.66134E-07        -0.22851E-09         0.00000E+00
    0.66133E-07        -0.25815E-09         0.00000E+00
    0.66132E-07        -0.28554E-09         0.00000E+00
    0.66130E-07        -0.31074E-09         0.00000E+00
    0.66128E-07        -0.33381E-09         0.00000E+00
    0.66127E-07        -0.35481E-09         0.00000E+00
    0.66124E-07        -0.37380E-09         0.00000E+00
    0.66122E-07        -0.39083E-09         0.00000E+00
    0.66120E-07        -0.40596E-09         0.00000E+00
    0.66117E-07        -0.41924E-09         0.00000E+00
    0.66115E-07        -0.43071E-09         0.00000E+00
    0.66112E-07        -0.44044E-09         0.00000E+00
    0.66109E-07        -0.44847E-09         0.00000E+00
    0.66106E-07        -0.45483E-09         0.00000E+00
    0.66103E-07        -0.45958E-09         0.00000E+00
    0.66099E-07        -0.46276E-09         0.00000E+00
    0.66096E-07        -0.46440E-09         0.00000E+00
    0.66093E-07        -0.46454E-09         0.00000E+00
    0.66089E-07        -0.46323E-09         0.00000E+00
    0.66086E-07        -0.46049E-09         0.00000E+00
    0.66082E-07        -0.45636E-09         0.00000E+00
    0.66078E-07        -0.45087E-09         0.00000E+00
    0.66075E-07        -0.44405E-09         0.00000E+00
    0.66071E-07        -0.43592E-09         0.00000E+00
    0.66068E-07        -0.42653E-09         0.00000E+00
    0.66064E-07        -0.41588E-09         0.00000E+00
    0.66061E-07        -0.40401E-09         0.00000E+00
    0.66058E-07        -0.39093E-09         0.00000E+00
    0.66054E-07        -0.37667E-09         0.00000E+00
    0.66051E-07        -0.36125E-09         0.00000E+00
    0.66048E-07        -0.34469E-09         0.00000E+00
    0.66045E-07        -0.32700E-09         0.00000E+00
    0.66042E-07        -0.30820E-09         0.00000E+00
    0.66040E-07        -0.28830E-09         0.00000E+00
    0.66037E-07        -0.26732E-09         0.00000E+00
    0.66035E-07        -0.24526E-09         0.00000E+00
    0.66033E-07        -0.22215E-09         0.00000E+00
    0.66031E-07        -0.19798E-09         0.00000E+00
    0.66029E-07        -0.17277E-09         0.00000E+00
    0.66028E-07        -0.14652E-09         0.00000E+00
    0.66026E-07        -0.11924E-09         0.00000E+00
    0.66025E-07        -0.90937E-10         0.00000E+00
    0.66025E-07        -0.61613E-10         0.00000E+00
    0.66024E-07        -0.31272E-10         0.00000E+00
    0.66024E-07        -0.15847E-10         0.00000E+00
    0.67835E-07        -0.21930E-10         0.00000E+00
    0.67835E-07        -0.42957E-10         0.00000E+00
    0.67835E-07        -0.83690E-10         0.00000E+00
    0.67834E-07        -0.12182E-09         0.00000E+00
    0.67833E-07        -0.15742E-09         0.00000E+00
    0.67832E-07        -0.19057E-09         0.00000E+00
    0.67830E-07        -0.22135E-09         0.00000E+00
    0.67828E-07        -0.24982E-09         0.00000E+00
    0.67826E-07        -0.27607E-09         0.00000E+00
    0.67823E-07        -0.30015E-09         0.00000E+00
    0.67820E-07        -0.32214E-09         0.00000E+00
    0.67817E-07        -0.34210E-09         0.00000E+00
    0.67814E-07        -0.36008E-09         0.00000E+00
    0.67811E-07        -0.37616E-09         0.00000E+00
    0.67807E-07        -0.39039E-09         0.00000E+00
    0.67803E-07        -0.40282E-09         0.00000E+00
    0.67799E-07        -0.41351E-09         0.00000E+00
    0.67795E-07        -0.42251E-09         0.00000E+00
    0.67790E-07        -0.42987E-09         0.00000E+00
    0.67786E-07        -0.43563E-09         0.00000E+00
    0.67781E-07        -0.43985E-09         0.00000E+00
    0.67776E-07        -0.44257E-09         0.00000E+00
    0.67771E-07        -0.44382E-09         0.00000E+00
    0.67766E-07        -0.44365E-09         0.00000E+00
    0.67761E-07        -0.44210E-09         0.00000E+00
    0.67756E-07        -0.43920E-09         0.00000E+00
    0.67751E-07        -0.43498E-09         0.00000E+00
    0.67746E-07        -0.42948E-09         0.00000E+00
    0.67741E-07        -0.42274E-09         0.00000E+00
    0.67736E-07        -0.41477E-09         0.00000E+00
    0.67731E-07        -0.40560E-09         0.00000E+00
    0.67726E-07        -0.39527E-09         0.00000E+00
    0.67721E-07        -0.38379E-09         0.00000E+00
    0.67717E-07        -0.37119E-09         0.00000E+00
    0.67712E-07        -0.35748E-09         0.00000E+00
    0.67708E-07        -0.34270E-09         0.00000E+00
    0.67703E-07        -0.32685E-09         0.00000E+00
    0.67699E-07        -0.30995E-09         0.00000E+00
    0.67695E-07        -0.29202E-09         0.00000E+00
    0.67692E-07        -0.27306E-09         0.00000E+00
    0.67688E-07        -0.25310E-09         0.00000E+00
    0.67685E-07        -0.23215E-09         0.00000E+00
    0.67682E-07        -0.21021E-09         0.00000E+00
    0.67680E-07        -0.18729E-09         0.00000E+00
    0.67677E-07        -0.16339E-09         0.00000E+00
    0.67675E-07        -0.13854E-09         0.00000E+00
    0.67674E-07        -0.11272E-09         0.00000E+00
    0.67672E-07        -0.85949E-10         0.00000E+00
    0.67671E-07        -0.58223E-10         0.00000E+00
    0.67671E-07        -0.29547E-10         0.00000E+00
    0.67671E-07        -0.14972E-10         0.00000E+00
    0.69471E-07        -0.20980E-10         0.00000E+00
    0.69470E-07        -0.41064E-10         0.00000E+00
    0.69470E-07        -0.79920E-10         0.00000E+00
    0.69469E-07        -0.11620E-09         0.00000E+00
    0.69467E-07        -0.14998E-09         0.00000E+00
    0.69465E-07        -0.18136E-09         0.00000E+00
    0.69463E-07        -0.21040E-09         0.00000E+00
    0.69460E-07        -0.23720E-09         0.00000E+00
    0.69457E-07        -0.26182E-09         0.00000E+00
    0.69453E-07        -0.28435E-09         0.00000E+00
    0.69449E-07        -0.30484E-09         0.00000E+00
    0.69445E-07        -0.32338E-09         0.00000E+00
    0.69440E-07        -0.34002E-09         0.00000E+00
    0.69436E-07        -0.35484E-09         0.00000E+00
    0.69430E-07        -0.36788E-09         0.00000E+00
    0.69425E-07        -0.37921E-09         0.00000E+00
    0.69419E-07        -0.38890E-09         0.00000E+00
    0.69414E-07        -0.39698E-09         0.00000E+00
    0.69408E-07        -0.40351E-09         0.00000E+00
    0.69401E-07        -0.40855E-09         0.00000E+00
    0.69395E-07        -0.41214E-09         0.00000E+00
    0.69389E-07        -0.41433E-09         0.00000E+00
    0.69382E-07        -0.41515E-09         0.00000E+00
    0.69375E-07        -0.41465E-09         0.00000E+00
    0.69369E-07        -0.41287E-09         0.00000E+00
    0.69362E-07        -0.40985E-09         0.00000E+00
    0.69355E-07        -0.40561E-09         0.00000E+00
    0.69349E-07        -0.40020E-09         0.00000E+00
    0.69342E-07        -0.39364E-09         0.00000E+00
    0.69335E-07        -0.38596E-09         0.00000E+00
    0.69329E-07        -0.37719E-09         0.00000E+00
    0.69322E-07        -0.36736E-09         0.00000E+00
    0.69316E-07        -0.35648E-09         0.00000E+00
    0.69310E-07        -0.34458E-09         0.00000E+00
    0.69304E-07        -0.33169E-09         0.00000E+00
    0.69298E-07        -0.31781E-09         0.00000E+00
    0.69293E-07        -0.30296E-09         0.00000E+00
    0.69287E-07        -0.28717E-09         0.00000E+00
    0.69282E-07        -0.27044E-09         0.00000E+00
    0.69278E-07        -0.25279E-09         0.00000E+00
    0.69273E-07        -0.23423E-09         0.00000E+00
    0.69269E-07        -0.21476E-09         0.00000E+00
    0.69265E-07        -0.19440E-09         0.00000E+00
    0.69262E-07        -0.17315E-09         0.00000E+00
    0.69259E-07        -0.15103E-09         0.00000E+00
    0.69256E-07        -0.12802E-09         0.00000E+00
    0.69254E-07        -0.10414E-09         0.00000E+00
    0.69252E-07        -0.79393E-10         0.00000E+00
    0.69251E-07        -0.53774E-10         0.00000E+00
    0.69250E-07        -0.27286E-10         0.00000E+00
    0.69250E-07        -0.13824E-10         0.00000E+00
    0.71032E-07        -0.19633E-10         0.00000E+00
    0.71032E-07        -0.38388E-10         0.00000E+00
    0.71031E-07        -0.74618E-10         0.00000E+00
    0.71029E-07        -0.10834E-09         0.00000E+00
    0.71027E-07        -0.13963E-09         0.00000E+00
    0.71025E-07        -0.16860E-09         0.00000E+00
    0.71021E-07        -0.19532E-09         0.00000E+00
    0.71018E-07        -0.21989E-09         0.00000E+00
    0.71013E-07        -0.24237E-09         0.00000E+00
    0.71009E-07        -0.26286E-09         0.00000E+00
    0.71004E-07        -0.28142E-09         0.00000E+00
    0.70998E-07        -0.29813E-09         0.00000E+00
    0.70992E-07        -0.31306E-09         0.00000E+00
    0.70986E-07        -0.32628E-09         0.00000E+00
    0.70979E-07        -0.33784E-09         0.00000E+00
    0.70972E-07        -0.34782E-09         0.00000E+00
    0.70965E-07        -0.35627E-09         0.00000E+00
    0.70957E-07        -0.36324E-09         0.00000E+00
    0.70950E-07        -0.36879E-09         0.00000E+00
    0.70942E-07        -0.37297E-09         0.00000E+00
    0.70934E-07        -0.37584E-09         0.00000E+00
    0.70925E-07        -0.37742E-09         0.00000E+00
    0.70917E-07        -0.37778E-09         0.00000E+00
    0.70909E-07        -0.37695E-09         0.00000E+00
    0.70900E-07        -0.37496E-09         0.00000E+00
    0.70892E-07        -0.37187E-09         0.00000E+00
    0.70883E-07        -0.36769E-09         0.00000E+00
    0.70875E-07        -0.36247E-09         0.00000E+00
    0.70866E-07        -0.35622E-09         0.00000E+00
    0.70858E-07        -0.34900E-09         0.00000E+00
    0.70850E-07        -0.34080E-09         0.00000E+00
    0.70842E-07        -0.33167E-09         0.00000E+00
    0.70834E-07        -0.32163E-09         0.00000E+00
    0.70826E-07        -0.31069E-09         0.00000E+00
    0.70819E-07        -0.29887E-09         0.00000E+00
    0.70812E-07        -0.28620E-09         0.00000E+00
    0.70805E-07        -0.27268E-09         0.00000E+00
    0.70798E-07        -0.25833E-09         0.00000E+00
    0.70792E-07        -0.24317E-09         0.00000E+00
    0.70786E-07        -0.22720E-09         0.00000E+00
    0.70781E-07        -0.21042E-09         0.00000E+00
    0.70776E-07        -0.19287E-09         0.00000E+00
    0.70771E-07        -0.17452E-09         0.00000E+00
    0.70767E-07        -0.15540E-09         0.00000E+00
    0.70763E-07        -0.13550E-09         0.00000E+00
    0.70760E-07        -0.11484E-09         0.00000E+00
    0.70757E-07        -0.93399E-10         0.00000E+00
    0.70755E-07        -0.71191E-10         0.00000E+00
    0.70754E-07        -0.48213E-10         0.00000E+00
    0.70753E-07        -0.24462E-10         0.00000E+00
    0.70752E-07        -0.12393E-10         0.00000E+00
    0.72508E-07        -0.17851E-10         0.00000E+00
    0.72508E-07        -0.34859E-10         0.00000E+00
    0.72507E-07        -0.67648E-10         0.00000E+00
    0.72505E-07        -0.98036E-10         0.00000E+00
    0.72502E-07        -0.12612E-09         0.00000E+00
    0.72499E-07        -0.15200E-09         0.00000E+00
    0.72495E-07        -0.17576E-09         0.00000E+00
    0.72490E-07        -0.19750E-09         0.00000E+00
    0.72485E-07        -0.21730E-09         0.00000E+00
    0.72479E-07        -0.23525E-09         0.00000E+00
    0.72472E-07        -0.25141E-09         0.00000E+00
    0.72465E-07        -0.26588E-09         0.00000E+00
    0.72458E-07        -0.27871E-09         0.00000E+00
    0.72450E-07        -0.28999E-09         0.00000E+00
    0.72442E-07        -0.29977E-09         0.00000E+00
    0.72433E-07        -0.30812E-09         0.00000E+00
    0.72424E-07        -0.31510E-09         0.00000E+00
    0.72415E-07        -0.32077E-09         0.00000E+00
    0.72405E-07        -0.32518E-09         0.00000E+00
    0.72396E-07        -0.32838E-09         0.00000E+00
    0.72386E-07        -0.33043E-09         0.00000E+00
    0.72376E-07        -0.33136E-09         0.00000E+00
    0.72365E-07        -0.33122E-09         0.00000E+00
    0.72355E-07        -0.33006E-09         0.00000E+00
    0.72345E-07        -0.32791E-09         0.00000E+00
    0.72334E-07        -0.32480E-09         0.00000E+00
    0.72324E-07        -0.32078E-09         0.00000E+00
    0.72314E-07        -0.31586E-09         0.00000E+00
    0.72303E-07        -0.31009E-09         0.00000E+00
    0.72293E-07        -0.30348E-09         0.00000E+00
    0.72284E-07        -0.29607E-09         0.00000E+00
    0.72274E-07        -0.28787E-09         0.00000E+00
    0.72264E-07        -0.27890E-09         0.00000E+00
    0.72255E-07        -0.26919E-09         0.00000E+00
    0.72246E-07        -0.25875E-09         0.00000E+00
    0.72238E-07        -0.24760E-09         0.00000E+00
    0.72229E-07        -0.23574E-09         0.00000E+00
    0.72221E-07        -0.22320E-09         0.00000E+00
    0.72214E-07        -0.20997E-09         0.00000E+00
    0.72207E-07        -0.19608E-09         0.00000E+00
    0.72200E-07        -0.18152E-09         0.00000E+00
    0.72194E-07        -0.16630E-09         0.00000E+00
    0.72189E-07        -0.15043E-09         0.00000E+00
    0.72184E-07        -0.13390E-09         0.00000E+00
    0.72179E-07        -0.11672E-09         0.00000E+00
    0.72176E-07        -0.98899E-10         0.00000E+00
    0.72173E-07        -0.80422E-10         0.00000E+00
    0.72170E-07        -0.61292E-10         0.00000E+00
    0.72168E-07        -0.41505E-10         0.00000E+00
    0.72167E-07        -0.21057E-10         0.00000E+00
    0.72167E-07        -0.10668E-10         0.00000E+00
    0.73888E-07        -0.15602E-10         0.00000E+00
    0.73887E-07        -0.30413E-10         0.00000E+00
    0.73886E-07        -0.58889E-10         0.00000E+00
    0.73883E-07        -0.85125E-10         0.00000E+00
    0.73880E-07        -0.10923E-09         0.00000E+00
    0.73876E-07        -0.13130E-09         0.00000E+00
    0.73871E-07        -0.15143E-09         0.00000E+00
    0.73865E-07        -0.16973E-09         0.00000E+00
    0.73859E-07        -0.18627E-09         0.00000E+00
    0.73851E-07        -0.20114E-09         0.00000E+00
    0.73844E-07        -0.21443E-09         0.00000E+00
    0.73835E-07        -0.22621E-09         0.00000E+00
    0.73826E-07        -0.23656E-09         0.00000E+00
    0.73817E-07        -0.24555E-09         0.00000E+00
    0.73807E-07        -0.25324E-09         0.00000E+00
    0.73796E-07        -0.25970E-09         0.00000E+00
    0.73786E-07        -0.26499E-09         0.00000E+00
    0.73775E-07        -0.26917E-09         0.00000E+00
    0.73763E-07        -0.27229E-09         0.00000E+00
    0.73751E-07        -0.27440E-09         0.00000E+00
    0.73740E-07        -0.27555E-09         0.00000E+00
    0.73728E-07        -0.27579E-09         0.00000E+00
    0.73715E-07        -0.27515E-09         0.00000E+00
    0.73703E-07        -0.27368E-09         0.00000E+00
    0.73691E-07        -0.27141E-09         0.00000E+00
    0.73679E-07        -0.26837E-09         0.00000E+00
    0.73667E-07        -0.26461E-09         0.00000E+00
    0.73654E-07        -0.26015E-09         0.00000E+00
    0.73642E-07        -0.25500E-09         0.00000E+00
    0.73631E-07        -0.24921E-09         0.00000E+00
    0.73619E-07        -0.24279E-09         0.00000E+00
    0.73608E-07        -0.23576E-09         0.00000E+00
    0.73597E-07        -0.22814E-09         0.00000E+00
    0.73586E-07        -0.21994E-09         0.00000E+00
    0.73575E-07        -0.21118E-09         0.00000E+00
    0.73565E-07        -0.20188E-09         0.00000E+00
    0.73556E-07        -0.19204E-09         0.00000E+00
    0.73546E-07        -0.18166E-09         0.00000E+00
    0.73538E-07        -0.17077E-09         0.00000E+00
    0.73530E-07        -0.15936E-09         0.00000E+00
    0.73522E-07        -0.14744E-09         0.00000E+00
    0.73515E-07        -0.13500E-09         0.00000E+00
    0.73508E-07        -0.12206E-09         0.00000E+00
    0.73503E-07        -0.10861E-09         0.00000E+00
    0.73498E-07        -0.94653E-10         0.00000E+00
    0.73493E-07        -0.80181E-10         0.00000E+00
    0.73490E-07        -0.65191E-10         0.00000E+00
    0.73487E-07        -0.49680E-10         0.00000E+00
    0.73485E-07        -0.33642E-10         0.00000E+00
    0.73483E-07        -0.17069E-10         0.00000E+00
    0.73483E-07        -0.86483E-11         0.00000E+00
    0.75158E-07        -0.12858E-10         0.00000E+00
    0.75158E-07        -0.24996E-10         0.00000E+00
    0.75156E-07        -0.48237E-10         0.00000E+00
    0.75153E-07        -0.69461E-10         0.00000E+00
    0.75149E-07        -0.88778E-10         0.00000E+00
    0.75144E-07        -0.10629E-09         0.00000E+00
    0.75138E-07        -0.12211E-09         0.00000E+00
    0.75131E-07        -0.13632E-09         0.00000E+00
    0.75124E-07        -0.14902E-09         0.00000E+00
    0.75115E-07        -0.16029E-09         0.00000E+00
    0.75106E-07        -0.17023E-09         0.00000E+00
    0.75096E-07        -0.17889E-09         0.00000E+00
    0.75086E-07        -0.18637E-09         0.00000E+00
    0.75074E-07        -0.19273E-09         0.00000E+00
    0.75063E-07        -0.19804E-09         0.00000E+00
    0.75051E-07        -0.20237E-09         0.00000E+00
    0.75038E-07        -0.20576E-09         0.00000E+00
    0.75025E-07        -0.20828E-09         0.00000E+00
    0.75012E-07        -0.20997E-09         0.00000E+00
    0.74998E-07        -0.21090E-09         0.00000E+00
    0.74985E-07        -0.21110E-09         0.00000E+00
    0.74971E-07        -0.21061E-09         0.00000E+00
    0.74957E-07        -0.20948E-09         0.00000E+00
    0.74943E-07        -0.20774E-09         0.00000E+00
    0.74928E-07        -0.20542E-09         0.00000E+00
    0.74914E-07        -0.20256E-09         0.00000E+00
    0.74900E-07        -0.19919E-09         0.00000E+00
    0.74886E-07        -0.19532E-09         0.00000E+00
    0.74873E-07        -0.19100E-09         0.00000E+00
    0.74859E-07        -0.18622E-09         0.00000E+00
    0.74846E-07        -0.18102E-09         0.00000E+00
    0.74833E-07        -0.17541E-09         0.00000E+00
    0.74820E-07        -0.16940E-09         0.00000E+00
    0.74808E-07        -0.16302E-09         0.00000E+00
    0.74796E-07        -0.15626E-09         0.00000E+00
    0.74784E-07        -0.14914E-09         0.00000E+00
    0.74773E-07        -0.14166E-09         0.00000E+00
    0.74763E-07        -0.13383E-09         0.00000E+00
    0.74753E-07        -0.12566E-09         0.00000E+00
    0.74744E-07        -0.11714E-09         0.00000E+00
    0.74735E-07        -0.10828E-09         0.00000E+00
    0.74727E-07        -0.99072E-10         0.00000E+00
    0.74720E-07        -0.89519E-10         0.00000E+00
    0.74713E-07        -0.79617E-10         0.00000E+00
    0.74708E-07        -0.69360E-10         0.00000E+00
    0.74703E-07        -0.58742E-10         0.00000E+00
    0.74699E-07        -0.47757E-10         0.00000E+00
    0.74695E-07        -0.36396E-10         0.00000E+00
    0.74693E-07        -0.24651E-10         0.00000E+00
    0.74692E-07        -0.12511E-10         0.00000E+00
    0.74691E-07        -0.63409E-11         0.00000E+00
    0.76309E-07        -0.95980E-11         0.00000E+00
    0.76308E-07        -0.18571E-10         0.00000E+00
    0.76306E-07        -0.35625E-10         0.00000E+00
    0.76302E-07        -0.50952E-10         0.00000E+00
    0.76298E-07        -0.64665E-10         0.00000E+00
    0.76292E-07        -0.76873E-10         0.00000E+00
    0.76285E-07        -0.87677E-10         0.00000E+00
    0.76277E-07        -0.97176E-10         0.00000E+00
    0.76268E-07        -0.10546E-09         0.00000E+00
    0.76259E-07        -0.11262E-09         0.00000E+00
    0.76248E-07        -0.11873E-09         0.00000E+00
    0.76237E-07        -0.12388E-09         0.00000E+00
    0.76225E-07        -0.12813E-09         0.00000E+00
    0.76212E-07        -0.13156E-09         0.00000E+00
    0.76199E-07        -0.13422E-09         0.00000E+00
    0.76185E-07        -0.13618E-09         0.00000E+00
    0.76170E-07        -0.13750E-09         0.00000E+00
    0.76156E-07        -0.13822E-09         0.00000E+00
    0.76141E-07        -0.13840E-09         0.00000E+00
    0.76125E-07        -0.13808E-09         0.00000E+00
    0.76110E-07        -0.13729E-09         0.00000E+00
    0.76094E-07        -0.13609E-09         0.00000E+00
    0.76078E-07        -0.13450E-09         0.00000E+00
    0.76062E-07        -0.13256E-09         0.00000E+00
    0.76047E-07        -0.13029E-09         0.00000E+00
    0.76031E-07        -0.12773E-09         0.00000E+00
    0.76015E-07        -0.12489E-09         0.00000E+00
    0.75999E-07        -0.12180E-09         0.00000E+00
    0.75984E-07        -0.11847E-09         0.00000E+00
    0.75969E-07        -0.11493E-09         0.00000E+00
    0.75954E-07        -0.11118E-09         0.00000E+00
    0.75939E-07        -0.10725E-09         0.00000E+00
    0.75925E-07        -0.10313E-09         0.00000E+00
    0.75912E-07        -0.98842E-10         0.00000E+00
    0.75898E-07        -0.94389E-10         0.00000E+00
    0.75886E-07        -0.89776E-10         0.00000E+00
    0.75874E-07        -0.85005E-10         0.00000E+00
    0.75862E-07        -0.80079E-10         0.00000E+00
    0.75851E-07        -0.74997E-10         0.00000E+00
    0.75841E-07        -0.69758E-10         0.00000E+00
    0.75831E-07        -0.64359E-10         0.00000E+00
    0.75822E-07        -0.58795E-10         0.00000E+00
    0.75814E-07        -0.53061E-10         0.00000E+00
    0.75807E-07        -0.47149E-10         0.00000E+00
    0.75801E-07        -0.41052E-10         0.00000E+00
    0.75795E-07        -0.34760E-10         0.00000E+00
    0.75791E-07        -0.28263E-10         0.00000E+00
    0.75787E-07        -0.21549E-10         0.00000E+00
    0.75784E-07        -0.14606E-10         0.00000E+00
    0.75783E-07        -0.74199E-11         0.00000E+00
    0.75782E-07        -0.37646E-11         0.00000E+00
    0.77327E-07        -0.58146E-11         0.00000E+00
    0.77326E-07        -0.11126E-10         0.00000E+00
    0.77324E-07        -0.21038E-10         0.00000E+00
    0.77320E-07        -0.29590E-10         0.00000E+00
    0.77314E-07        -0.36896E-10         0.00000E+00
    0.77308E-07        -0.43063E-10         0.00000E+00
    0.77300E-07        -0.48194E-10         0.00000E+00
    0.77291E-07        -0.52383E-10         0.00000E+00
    0.77281E-07        -0.55722E-10         0.00000E+00
    0.77270E-07        -0.58293E-10         0.00000E+00
    0.77258E-07        -0.60175E-10         0.00000E+00
    0.77245E-07        -0.61443E-10         0.00000E+00
    0.77232E-07        -0.62162E-10         0.00000E+00
    0.77218E-07        -0.62398E-10         0.00000E+00
    0.77203E-07        -0.62209E-10         0.00000E+00
    0.77187E-07        -0.61649E-10         0.00000E+00
    0.77172E-07        -0.60768E-10         0.00000E+00
    0.77155E-07        -0.59611E-10         0.00000E+00
    0.77139E-07        -0.58221E-10         0.00000E+00
    0.77122E-07        -0.56637E-10         0.00000E+00
    0.77105E-07        -0.54893E-10         0.00000E+00
    0.77087E-07        -0.53021E-10         0.00000E+00
    0.77070E-07        -0.51049E-10         0.00000E+00
    0.77053E-07        -0.49003E-10         0.00000E+00
    0.77035E-07        -0.46906E-10         0.00000E+00
    0.77018E-07        -0.44778E-10         0.00000E+00
    0.77001E-07        -0.42637E-10         0.00000E+00
    0.76984E-07        -0.40499E-10         0.00000E+00
    0.76967E-07        -0.38376E-10         0.00000E+00
    0.76951E-07        -0.36279E-10         0.00000E+00
    0.76934E-07        -0.34218E-10         0.00000E+00
    0.76919E-07        -0.32200E-10         0.00000E+00
    0.76903E-07        -0.30229E-10         0.00000E+00
    0.76888E-07        -0.28311E-10         0.00000E+00
    0.76874E-07        -0.26447E-10         0.00000E+00
    0.76860E-07        -0.24636E-10         0.00000E+00
    0.76847E-07        -0.22879E-10         0.00000E+00
    0.76835E-07        -0.21172E-10         0.00000E+00
    0.76823E-07        -0.19511E-10         0.00000E+00
    0.76812E-07        -0.17891E-10         0.00000E+00
    0.76801E-07        -0.16305E-10         0.00000E+00
    0.76792E-07        -0.14746E-10         0.00000E+00
    0.76783E-07        -0.13204E-10         0.00000E+00
    0.76775E-07        -0.11668E-10         0.00000E+00
    0.76769E-07        -0.10127E-10         0.00000E+00
    0.76763E-07        -0.85682E-11         0.00000E+00
    0.76758E-07        -0.69779E-11         0.00000E+00
    0.76754E-07        -0.53412E-11         0.00000E+00
    0.76751E-07        -0.36423E-11         0.00000E+00
    0.76749E-07        -0.18646E-11         0.00000E+00
    0.76749E-07        -0.95385E-12         0.00000E+00
    0.78201E-07        -0.15196E-11         0.00000E+00
    0.78200E-07        -0.26876E-11         0.00000E+00
    0.78197E-07        -0.45413E-11         0.00000E+00
    0.78193E-07        -0.54881E-11         0.00000E+00
    0.78187E-07        -0.56398E-11         0.00000E+00
    0.78180E-07        -0.51010E-11         0.00000E+00
    0.78171E-07        -0.39686E-11         0.00000E+00
    0.78161E-07        -0.23329E-11         0.00000E+00
    0.78150E-07        -0.27738E-12         0.00000E+00
    0.78138E-07         0.21209E-11         0.00000E+00
    0.78125E-07         0.47909E-11         0.00000E+00
    0.78111E-07         0.76676E-11         0.00000E+00
    0.78096E-07         0.10691E-10         0.00000E+00
    0.78081E-07         0.13808E-10         0.00000E+00
    0.78065E-07         0.16968E-10         0.00000E+00
    0.78048E-07         0.20127E-10         0.00000E+00
    0.78031E-07         0.23244E-10         0.00000E+00
    0.78014E-07         0.26284E-10         0.00000E+00
    0.77996E-07         0.29213E-10         0.00000E+00
    0.77978E-07         0.32004E-10         0.00000E+00
    0.77959E-07         0.34631E-10         0.00000E+00
    0.77941E-07         0.37071E-10         0.00000E+00
    0.77922E-07         0.39305E-10         0.00000E+00
    0.77904E-07         0.41317E-10         0.00000E+00
    0.77885E-07         0.43091E-10         0.00000E+00
    0.77867E-07         0.44616E-10         0.00000E+00
    0.77849E-07         0.45882E-10         0.00000E+00
    0.77831E-07         0.46881E-10         0.00000E+00
    0.77813E-07         0.47606E-10         0.00000E+00
    0.77796E-07         0.48054E-10         0.00000E+00
    0.77779E-07         0.48222E-10         0.00000E+00
    0.77762E-07         0.48107E-10         0.00000E+00
    0.77746E-07         0.47711E-10         0.00000E+00
    0.77731E-07         0.47035E-10         0.00000E+00
    0.77716E-07         0.46082E-10         0.00000E+00
    0.77701E-07         0.44855E-10         0.00000E+00
    0.77687E-07         0.43360E-10         0.00000E+00
    0.77674E-07         0.41604E-10         0.00000E+00
    0.77662E-07         0.39593E-10         0.00000E+00
    0.77650E-07         0.37338E-10         0.00000E+00
    0.77640E-07         0.34847E-10         0.00000E+00
    0.77630E-07         0.32133E-10         0.00000E+00
    0.77621E-07         0.29206E-10         0.00000E+00
    0.77612E-07         0.26081E-10         0.00000E+00
    0.77605E-07         0.22772E-10         0.00000E+00
    0.77599E-07         0.19294E-10         0.00000E+00
    0.77594E-07         0.15664E-10         0.00000E+00
    0.77590E-07         0.11900E-10         0.00000E+00
    0.77587E-07         0.80210E-11         0.00000E+00
    0.77585E-07         0.40458E-11         0.00000E+00
    0.77585E-07         0.20368E-11         0.00000E+00
    0.78919E-07         0.32467E-11         0.00000E+00
    0.78918E-07         0.66580E-11         0.00000E+00
    0.78915E-07         0.13684E-10         0.00000E+00
    0.78910E-07         0.21064E-10         0.00000E+00
    0.78904E-07         0.28694E-10         0.00000E+00
    0.78896E-07         0.36476E-10         0.00000E+00
    0.78887E-07         0.44325E-10         0.00000E+00
    0.78876E-07         0.52160E-10         0.00000E+00
    0.78865E-07         0.59911E-10         0.00000E+00
    0.78852E-07         0.67512E-10         0.00000E+00
    0.78838E-07         0.74906E-10         0.00000E+00
    0.78823E-07         0.82042E-10         0.00000E+00
    0.78807E-07         0.88874E-10         0.00000E+00
    0.78791E-07         0.95361E-10         0.00000E+00
    0.78774E-07         0.10147E-09         0.00000E+00
    0.78757E-07         0.10717E-09         0.00000E+00
    0.78739E-07         0.11244E-09         0.00000E+00
    0.78721E-07         0.11725E-09         0.00000E+00
    0.78702E-07         0.12158E-09         0.00000E+00
    0.78684E-07         0.12543E-09         0.00000E+00
    0.78665E-07         0.12877E-09         0.00000E+00
    0.78646E-07         0.13161E-09         0.00000E+00
    0.78627E-07         0.13392E-09         0.00000E+00
    0.78608E-07         0.13572E-09         0.00000E+00
    0.78589E-07         0.13698E-09         0.00000E+00
    0.78571E-07         0.13772E-09         0.00000E+00
    0.78552E-07         0.13792E-09         0.00000E+00
    0.78534E-07         0.13760E-09         0.00000E+00
    0.78516E-07         0.13676E-09         0.00000E+00
    0.78498E-07         0.13539E-09         0.00000E+00
    0.78481E-07         0.13350E-09         0.00000E+00
    0.78465E-07         0.13110E-09         0.00000E+00
    0.78448E-07         0.12819E-09         0.00000E+00
    0.78433E-07         0.12477E-09         0.00000E+00
    0.78417E-07         0.12087E-09         0.00000E+00
    0.78403E-07         0.11647E-09         0.00000E+00
    0.78389E-07         0.11160E-09         0.00000E+00
    0.78376E-07         0.10626E-09         0.00000E+00
    0.78363E-07         0.10045E-09         0.00000E+00
    0.78352E-07         0.94202E-10         0.00000E+00
    0.78341E-07         0.87515E-10         0.00000E+00
    0.78331E-07         0.80404E-10         0.00000E+00
    0.78322E-07         0.72883E-10         0.00000E+00
    0.78313E-07         0.64967E-10         0.00000E+00
    0.78306E-07         0.56672E-10         0.00000E+00
    0.78300E-07         0.48016E-10         0.00000E+00
    0.78295E-07         0.39015E-10         0.00000E+00
    0.78291E-07         0.29690E-10         0.00000E+00
    0.78288E-07         0.20061E-10         0.00000E+00
    0.78286E-07         0.10150E-10         0.00000E+00
    0.78285E-07         0.51269E-11         0.00000E+00
    0.79470E-07         0.84032E-11         0.00000E+00
    0.79469E-07         0.16743E-10         0.00000E+00
    0.79465E-07         0.33289E-10         0.00000E+00
    0.79461E-07         0.49521E-10         0.00000E+00
    0.79454E-07         0.65349E-10         0.00000E+00
    0.79446E-07         0.80694E-10         0.00000E+00
    0.79436E-07         0.95486E-10         0.00000E+00
    0.79425E-07         0.10966E-09         0.00000E+00
    0.79413E-07         0.12318E-09         0.00000E+00
    0.79400E-07         0.13598E-09         0.00000E+00
    0.79385E-07         0.14803E-09         0.00000E+00
    0.79370E-07         0.15931E-09         0.00000E+00
    0.79355E-07         0.16979E-09         0.00000E+00
    0.79338E-07         0.17946E-09         0.00000E+00
    0.79321E-07         0.18829E-09         0.00000E+00
    0.79304E-07         0.19628E-09         0.00000E+00
    0.79286E-07         0.20343E-09         0.00000E+00
    0.79268E-07         0.20974E-09         0.00000E+00
    0.79250E-07         0.21520E-09         0.00000E+00
    0.79232E-07         0.21982E-09         0.00000E+00
    0.79213E-07         0.22360E-09         0.00000E+00
    0.79195E-07         0.22657E-09         0.00000E+00
    0.79176E-07         0.22871E-09         0.00000E+00
    0.79158E-07         0.23004E-09         0.00000E+00
    0.79140E-07         0.23058E-09         0.00000E+00
    0.79122E-07         0.23033E-09         0.00000E+00
    0.79104E-07         0.22931E-09         0.00000E+00
    0.79087E-07         0.22752E-09         0.00000E+00
    0.79070E-07         0.22497E-09         0.00000E+00
    0.79053E-07         0.22168E-09         0.00000E+00
    0.79037E-07         0.21766E-09         0.00000E+00
    0.79021E-07         0.21292E-09         0.00000E+00
    0.79005E-07         0.20747E-09         0.00000E+00
    0.78990E-07         0.20131E-09         0.00000E+00
    0.78976E-07         0.19446E-09         0.00000E+00
    0.78962E-07         0.18693E-09         0.00000E+00
    0.78949E-07         0.17873E-09         0.00000E+00
    0.78936E-07         0.16986E-09         0.00000E+00
    0.78924E-07         0.16035E-09         0.00000E+00
    0.78913E-07         0.15019E-09         0.00000E+00
    0.78903E-07         0.13940E-09         0.00000E+00
    0.78893E-07         0.12799E-09         0.00000E+00
    0.78885E-07         0.11597E-09         0.00000E+00
    0.78877E-07         0.10337E-09         0.00000E+00
    0.78870E-07         0.90185E-10         0.00000E+00
    0.78864E-07         0.76440E-10         0.00000E+00
    0.78859E-07         0.62151E-10         0.00000E+00
    0.78855E-07         0.47338E-10         0.00000E+00
    0.78852E-07         0.32020E-10         0.00000E+00
    0.78850E-07         0.16221E-10         0.00000E+00
    0.78850E-07         0.82039E-11         0.00000E+00
    0.79840E-07         0.13808E-10         0.00000E+00
    0.79839E-07         0.27278E-10         0.00000E+00
    0.79836E-07         0.53677E-10         0.00000E+00
    0.79831E-07         0.78963E-10         0.00000E+00
    0.79824E-07         0.10307E-09         0.00000E+00
    0.79816E-07         0.12595E-09         0.00000E+00
    0.79806E-07         0.14755E-09         0.00000E+00
    0.79796E-07         0.16785E-09         0.00000E+00
    0.79784E-07         0.18683E-09         0.00000E+00
    0.79771E-07         0.20447E-09         0.00000E+00
    0.79757E-07         0.22078E-09         0.00000E+00
    0.79743E-07         0.23575E-09         0.00000E+00
    0.79728E-07         0.24939E-09         0.00000E+00
    0.79713E-07         0.26172E-09         0.00000E+00
    0.79697E-07         0.27276E-09         0.00000E+00
    0.79681E-07         0.28252E-09         0.00000E+00
    0.79664E-07         0.29104E-09         0.00000E+00
    0.79648E-07         0.29834E-09         0.00000E+00
    0.79631E-07         0.30445E-09         0.00000E+00
    0.79615E-07         0.30940E-09         0.00000E+00
    0.79598E-07         0.31322E-09         0.00000E+00
    0.79582E-07         0.31593E-09         0.00000E+00
    0.79565E-07         0.31757E-09         0.00000E+00
    0.79549E-07         0.31817E-09         0.00000E+00
    0.79533E-07         0.31774E-09         0.00000E+00
    0.79517E-07         0.31632E-09         0.00000E+00
    0.79502E-07         0.31392E-09         0.00000E+00
    0.79486E-07         0.31057E-09         0.00000E+00
    0.79472E-07         0.30630E-09         0.00000E+00
    0.79457E-07         0.30111E-09         0.00000E+00
    0.79443E-07         0.29502E-09         0.00000E+00
    0.79429E-07         0.28805E-09         0.00000E+00
    0.79416E-07         0.28021E-09         0.00000E+00
    0.79403E-07         0.27151E-09         0.00000E+00
    0.79390E-07         0.26197E-09         0.00000E+00
    0.79378E-07         0.25158E-09         0.00000E+00
    0.79367E-07         0.24036E-09         0.00000E+00
    0.79356E-07         0.22831E-09         0.00000E+00
    0.79346E-07         0.21544E-09         0.00000E+00
    0.79336E-07         0.20176E-09         0.00000E+00
    0.79327E-07         0.18728E-09         0.00000E+00
    0.79318E-07         0.17199E-09         0.00000E+00
    0.79311E-07         0.15590E-09         0.00000E+00
    0.79304E-07         0.13903E-09         0.00000E+00
    0.79298E-07         0.12139E-09         0.00000E+00
    0.79292E-07         0.10297E-09         0.00000E+00
    0.79288E-07         0.83807E-10         0.00000E+00
    0.79284E-07         0.63903E-10         0.00000E+00
    0.79282E-07         0.43277E-10         0.00000E+00
    0.79280E-07         0.21951E-10         0.00000E+00
    0.79279E-07         0.11114E-10         0.00000E+00
    0.80018E-07         0.19237E-10         0.00000E+00
    0.80017E-07         0.37798E-10         0.00000E+00
    0.80014E-07         0.73892E-10         0.00000E+00
    0.80009E-07         0.10792E-09         0.00000E+00
    0.80003E-07         0.13985E-09         0.00000E+00
    0.79995E-07         0.16968E-09         0.00000E+00
    0.79986E-07         0.19742E-09         0.00000E+00
    0.79977E-07         0.22307E-09         0.00000E+00
    0.79966E-07         0.24667E-09         0.00000E+00
    0.79955E-07         0.26826E-09         0.00000E+00
    0.79943E-07         0.28789E-09         0.00000E+00
    0.79931E-07         0.30560E-09         0.00000E+00
    0.79918E-07         0.32145E-09         0.00000E+00
    0.79905E-07         0.33551E-09         0.00000E+00
    0.79892E-07         0.34784E-09         0.00000E+00
    0.79879E-07         0.35850E-09         0.00000E+00
    0.79866E-07         0.36756E-09         0.00000E+00
    0.79853E-07         0.37509E-09         0.00000E+00
    0.79840E-07         0.38114E-09         0.00000E+00
    0.79827E-07         0.38578E-09         0.00000E+00
    0.79815E-07         0.38907E-09         0.00000E+00
    0.79802E-07         0.39105E-09         0.00000E+00
    0.79790E-07         0.39179E-09         0.00000E+00
    0.79778E-07         0.39134E-09         0.00000E+00
    0.79766E-07         0.38972E-09         0.00000E+00
    0.79754E-07         0.38699E-09         0.00000E+00
    0.79743E-07         0.38318E-09         0.00000E+00
    0.79732E-07         0.37831E-09         0.00000E+00
    0.79721E-07         0.37243E-09         0.00000E+00
    0.79711E-07         0.36554E-09         0.00000E+00
    0.79701E-07         0.35767E-09         0.00000E+00
    0.79691E-07         0.34884E-09         0.00000E+00
    0.79681E-07         0.33905E-09         0.00000E+00
    0.79672E-07         0.32832E-09         0.00000E+00
    0.79663E-07         0.31664E-09         0.00000E+00
    0.79654E-07         0.30402E-09         0.00000E+00
    0.79646E-07         0.29046E-09         0.00000E+00
    0.79638E-07         0.27597E-09         0.00000E+00
    0.79631E-07         0.26052E-09         0.00000E+00
    0.79624E-07         0.24413E-09         0.00000E+00
    0.79617E-07         0.22677E-09         0.00000E+00
    0.79611E-07         0.20846E-09         0.00000E+00
    0.79605E-07         0.18917E-09         0.00000E+00
    0.79600E-07         0.16892E-09         0.00000E+00
    0.79595E-07         0.14768E-09         0.00000E+00
    0.79591E-07         0.12547E-09         0.00000E+00
    0.79587E-07         0.10228E-09         0.00000E+00
    0.79585E-07         0.78126E-10         0.00000E+00
    0.79582E-07         0.53005E-10         0.00000E+00
    0.79581E-07         0.26933E-10         0.00000E+00
    0.79581E-07         0.13661E-10         0.00000E+00
    0.79988E-07         0.24305E-10         0.00000E+00
    0.79987E-07         0.47541E-10         0.00000E+00
    0.79985E-07         0.92399E-10         0.00000E+00
    0.79981E-07         0.13404E-09         0.00000E+00
    0.79975E-07         0.17250E-09         0.00000E+00
    0.79969E-07         0.20785E-09         0.00000E+00
    0.79963E-07         0.24018E-09         0.00000E+00
    0.79955E-07         0.26957E-09         0.00000E+00
    0.79948E-07         0.29614E-09         0.00000E+00
    0.79940E-07         0.32000E-09         0.00000E+00
    0.79932E-07         0.34127E-09         0.00000E+00
    0.79924E-07         0.36009E-09         0.00000E+00
    0.79916E-07         0.37657E-09         0.00000E+00
    0.79908E-07         0.39085E-09         0.00000E+00
    0.79900E-07         0.40306E-09         0.00000E+00
    0.79893E-07         0.41330E-09         0.00000E+00
    0.79886E-07         0.42172E-09         0.00000E+00
    0.79879E-07         0.42840E-09         0.00000E+00
    0.79872E-07         0.43346E-09         0.00000E+00
    0.79866E-07         0.43699E-09         0.00000E+00
    0.79860E-07         0.43909E-09         0.00000E+00
    0.79855E-07         0.43982E-09         0.00000E+00
    0.79849E-07         0.43928E-09         0.00000E+00
    0.79844E-07         0.43751E-09         0.00000E+00
    0.79839E-07         0.43459E-09         0.00000E+00
    0.79835E-07         0.43056E-09         0.00000E+00
    0.79830E-07         0.42546E-09         0.00000E+00
    0.79826E-07         0.41934E-09         0.00000E+00
    0.79822E-07         0.41222E-09         0.00000E+00
    0.79818E-07         0.40413E-09         0.00000E+00
    0.79815E-07         0.39509E-09         0.00000E+00
    0.79811E-07         0.38510E-09         0.00000E+00
    0.79808E-07         0.37417E-09         0.00000E+00
    0.79804E-07         0.36231E-09         0.00000E+00
    0.79801E-07         0.34951E-09         0.00000E+00
    0.79798E-07         0.33575E-09         0.00000E+00
    0.79795E-07         0.32102E-09         0.00000E+00
    0.79792E-07         0.30531E-09         0.00000E+00
    0.79789E-07         0.28860E-09         0.00000E+00
    0.79786E-07         0.27085E-09         0.00000E+00
    0.79783E-07         0.25204E-09         0.00000E+00
    0.79780E-07         0.23214E-09         0.00000E+00
    0.79777E-07         0.21112E-09         0.00000E+00
    0.79775E-07         0.18896E-09         0.00000E+00
    0.79772E-07         0.16562E-09         0.00000E+00
    0.79770E-07         0.14109E-09         0.00000E+00
    0.79768E-07         0.11534E-09         0.00000E+00
    0.79767E-07         0.88351E-10         0.00000E+00
    0.79765E-07         0.60115E-10         0.00000E+00
    0.79765E-07         0.30625E-10         0.00000E+00
    0.79764E-07         0.15567E-10         0.00000E+00
    0.79733E-07         0.28492E-10         0.00000E+00
    0.79733E-07         0.55336E-10         0.00000E+00
    0.79731E-07         0.10667E-09         0.00000E+00
    0.79729E-07         0.15339E-09         0.00000E+00
    0.79726E-07         0.19569E-09         0.00000E+00
    0.79723E-07         0.23376E-09         0.00000E+00
    0.79721E-07         0.26778E-09         0.00000E+00
    0.79718E-07         0.29800E-09         0.00000E+00
    0.79716E-07         0.32463E-09         0.00000E+00
    0.79715E-07         0.34794E-09         0.00000E+00
    0.79714E-07         0.36816E-09         0.00000E+00
    0.79714E-07         0.38554E-09         0.00000E+00
    0.79714E-07         0.40030E-09         0.00000E+00
    0.79715E-07         0.41267E-09         0.00000E+00
    0.79716E-07         0.42284E-09         0.00000E+00
    0.79719E-07         0.43099E-09         0.00000E+00
    0.79721E-07         0.43730E-09         0.00000E+00
    0.79725E-07         0.44192E-09         0.00000E+00
    0.79728E-07         0.44498E-09         0.00000E+00
    0.79733E-07         0.44662E-09         0.00000E+00
    0.79737E-07         0.44694E-09         0.00000E+00
    0.79742E-07         0.44604E-09         0.00000E+00
    0.79747E-07         0.44401E-09         0.00000E+00
    0.79753E-07         0.44091E-09         0.00000E+00
    0.79758E-07         0.43683E-09         0.00000E+00
    0.79764E-07         0.43180E-09         0.00000E+00
    0.79770E-07         0.42588E-09         0.00000E+00
    0.79776E-07         0.41910E-09         0.00000E+00
    0.79782E-07         0.41150E-09         0.00000E+00
    0.79787E-07         0.40308E-09         0.00000E+00
    0.79793E-07         0.39387E-09         0.00000E+00
    0.79799E-07         0.38386E-09         0.00000E+00
    0.79804E-07         0.37306E-09         0.00000E+00
    0.79810E-07         0.36145E-09         0.00000E+00
    0.79815E-07         0.34902E-09         0.00000E+00
    0.79819E-07         0.33574E-09         0.00000E+00
    0.79824E-07         0.32158E-09         0.00000E+00
    0.79828E-07         0.30651E-09         0.00000E+00
    0.79831E-07         0.29046E-09         0.00000E+00
    0.79835E-07         0.27339E-09         0.00000E+00
    0.79837E-07         0.25525E-09         0.00000E+00
    0.79840E-07         0.23596E-09         0.00000E+00
    0.79842E-07         0.21545E-09         0.00000E+00
    0.79843E-07         0.19366E-09         0.00000E+00
    0.79845E-07         0.17052E-09         0.00000E+00
    0.79846E-07         0.14595E-09         0.00000E+00
    0.79846E-07         0.11990E-09         0.00000E+00
    0.79846E-07         0.92316E-10         0.00000E+00
    0.79846E-07         0.63152E-10         0.00000E+00
    0.79846E-07         0.32359E-10         0.00000E+00
    0.79846E-07         0.16547E-10         0.00000E+00
    0.79229E-07         0.30237E-10         0.00000E+00
    0.79229E-07         0.58463E-10         0.00000E+00
    0.79230E-07         0.11176E-09         0.00000E+00
    0.79231E-07         0.15881E-09         0.00000E+00
    0.79234E-07         0.19983E-09         0.00000E+00
    0.79238E-07         0.23528E-09         0.00000E+00
    0.79244E-07         0.26570E-09         0.00000E+00
    0.79251E-07         0.29162E-09         0.00000E+00
    0.79260E-07         0.31355E-09         0.00000E+00
    0.79271E-07         0.33196E-09         0.00000E+00
    0.79283E-07         0.34727E-09         0.00000E+00
    0.79296E-07         0.35984E-09         0.00000E+00
    0.79310E-07         0.37000E-09         0.00000E+00
    0.79326E-07         0.37804E-09         0.00000E+00
    0.79342E-07         0.38419E-09         0.00000E+00
    0.79359E-07         0.38868E-09         0.00000E+00
    0.79377E-07         0.39168E-09         0.00000E+00
    0.79395E-07         0.39336E-09         0.00000E+00
    0.79414E-07         0.39387E-09         0.00000E+00
    0.79434E-07         0.39331E-09         0.00000E+00
    0.79453E-07         0.39179E-09         0.00000E+00
    0.79473E-07         0.38941E-09         0.00000E+00
    0.79493E-07         0.38624E-09         0.00000E+00
    0.79513E-07         0.38235E-09         0.00000E+00
    0.79533E-07         0.37778E-09         0.00000E+00
    0.79553E-07         0.37259E-09         0.00000E+00
    0.79573E-07         0.36680E-09         0.00000E+00
    0.79592E-07         0.36045E-09         0.00000E+00
    0.79611E-07         0.35356E-09         0.00000E+00
    0.79630E-07         0.34614E-09         0.00000E+00
    0.79649E-07         0.33820E-09         0.00000E+00
    0.79667E-07         0.32972E-09         0.00000E+00
    0.79684E-07         0.32071E-09         0.00000E+00
    0.79701E-07         0.31115E-09         0.00000E+00
    0.79717E-07         0.30101E-09         0.00000E+00
    0.79733E-07         0.29026E-09         0.00000E+00
    0.79748E-07         0.27886E-09         0.00000E+00
    0.79762E-07         0.26676E-09         0.00000E+00
    0.79775E-07         0.25390E-09         0.00000E+00
    0.79787E-07         0.24019E-09         0.00000E+00
    0.79799E-07         0.22556E-09         0.00000E+00
    0.79809E-07         0.20991E-09         0.00000E+00
    0.79818E-07         0.19311E-09         0.00000E+00
    0.79826E-07         0.17503E-09         0.00000E+00
    0.79833E-07         0.15552E-09         0.00000E+00
    0.79839E-07         0.13442E-09         0.00000E+00
    0.79843E-07         0.11154E-09         0.00000E+00
    0.79846E-07         0.86730E-10         0.00000E+00
    0.79849E-07         0.59846E-10         0.00000E+00
    0.79850E-07         0.30845E-10         0.00000E+00
    0.79850E-07         0.15817E-10         0.00000E+00
    0.78428E-07         0.29321E-10         0.00000E+00
    0.78431E-07         0.54206E-10         0.00000E+00
    0.78440E-07         0.98630E-10         0.00000E+00
    0.78454E-07         0.13364E-09         0.00000E+00
    0.78472E-07         0.16143E-09         0.00000E+00
    0.78494E-07         0.18359E-09         0.00000E+00
    0.78519E-07         0.20128E-09         0.00000E+00
    0.78547E-07         0.21539E-09         0.00000E+00
    0.78577E-07         0.22659E-09         0.00000E+00
    0.78609E-07         0.23540E-09         0.00000E+00
    0.78643E-07         0.24222E-09         0.00000E+00
    0.78679E-07         0.24738E-09         0.00000E+00
    0.78715E-07         0.25114E-09         0.00000E+00
    0.78753E-07         0.25372E-09         0.00000E+00
    0.78791E-07         0.25528E-09         0.00000E+00
    0.78830E-07         0.25598E-09         0.00000E+00
    0.78869E-07         0.25593E-09         0.00000E+00
    0.78908E-07         0.25522E-09         0.00000E+00
    0.78947E-07         0.25396E-09         0.00000E+00
    0.78987E-07         0.25220E-09         0.00000E+00
    0.79026E-07         0.25000E-09         0.00000E+00
    0.79065E-07         0.24741E-09         0.00000E+00
    0.79104E-07         0.24448E-09         0.00000E+00
    0.79142E-07         0.24124E-09         0.00000E+00
    0.79180E-07         0.23771E-09         0.00000E+00
    0.79218E-07         0.23393E-09         0.00000E+00
    0.79255E-07         0.22990E-09         0.00000E+00
    0.79291E-07         0.22563E-09         0.00000E+00
    0.79327E-07         0.22115E-09         0.00000E+00
    0.79362E-07         0.21645E-09         0.00000E+00
    0.79396E-07         0.21153E-09         0.00000E+00
    0.79430E-07         0.20640E-09         0.00000E+00
    0.79462E-07         0.20103E-09         0.00000E+00
    0.79494E-07         0.19543E-09         0.00000E+00
    0.79524E-07         0.18957E-09         0.00000E+00
    0.79554E-07         0.18343E-09         0.00000E+00
    0.79582E-07         0.17698E-09         0.00000E+00
    0.79610E-07         0.17019E-09         0.00000E+00
    0.79636E-07         0.16301E-09         0.00000E+00
    0.79661E-07         0.15539E-09         0.00000E+00
    0.79684E-07         0.14727E-09         0.00000E+00
    0.79706E-07         0.13855E-09         0.00000E+00
    0.79726E-07         0.12913E-09         0.00000E+00
    0.79744E-07         0.11888E-09         0.00000E+00
    0.79761E-07         0.10763E-09         0.00000E+00
    0.79775E-07         0.95156E-10         0.00000E+00
    0.79788E-07         0.81168E-10         0.00000E+00
    0.79798E-07         0.65272E-10         0.00000E+00
    0.79805E-07         0.46925E-10         0.00000E+00
    0.79810E-07         0.25369E-10         0.00000E+00
    0.79811E-07         0.13677E-10         0.00000E+00
    0.77945E-07         0.00000E+00         0.00000E+00
    0.77951E-07         0.00000E+00         0.00000E+00
    0.77966E-07         0.00000E+00         0.00000E+00
    0.77990E-07         0.00000E+00         0.00000E+00
    0.78020E-07         0.00000E+00         0.00000E+00
    0.78055E-07         0.00000E+00         0.00000E+00
    0.78093E-07         0.00000E+00         0.00000E+00
    0.78135E-07         0.00000E+00         0.00000E+00
    0.78180E-07         0.00000E+00         0.00000E+00
    0.78226E-07        -0.18626E-20         0.00000E+00
    0.78274E-07         0.00000E+00         0.00000E+00
    0.78323E-07         0.18626E-20         0.00000E+00
    0.78373E-07         0.00000E+00         0.00000E+00
    0.78423E-07         0.00000E+00         0.00000E+00
    0.78474E-07         0.00000E+00         0.00000E+00
    0.78525E-07         0.00000E+00         0.00000E+00
    0.78577E-07         0.00000E+00         0.00000E+00
    0.78628E-07         0.18626E-20         0.00000E+00
    0.78679E-07         0.00000E+00         0.00000E+00
    0.78729E-07        -0.18626E-20         0.00000E+00
    0.78779E-07         0.00000E+00         0.00000E+00
    0.78829E-07         0.00000E+00         0.00000E+00
    0.78878E-07         0.00000E+00         0.00000E+00
    0.78927E-07         0.00000E+00         0.00000E+00
    0.78975E-07         0.00000E+00         0.00000E+00
    0.79022E-07         0.00000E+00         0.00000E+00
    0.79069E-07         0.00000E+00         0.00000E+00
    0.79114E-07         0.00000E+00         0.00000E+00
    0.79159E-07         0.00000E+00         0.00000E+00
    0.79203E-07         0.00000E+00         0.00000E+00
    0.79245E-07         0.00000E+00         0.00000E+00
    0.79287E-07         0.00000E+00         0.00000E+00
    0.79328E-07         0.00000E+00         0.00000E+00
    0.79368E-07         0.00000E+00         0.00000E+00
    0.79406E-07         0.00000E+00         0.00000E+00
    0.79443E-07         0.00000E+00         0.00000E+00
    0.79479E-07         0.00000E+00         0.00000E+00
    0.79514E-07         0.00000E+00         0.00000E+00
    0.79548E-07         0.00000E+00         0.00000E+00
    0.79579E-07        -0.27940E-20         0.00000E+00
    0.79610E-07        -0.18626E-20         0.00000E+00
    0.79638E-07         0.18626E-20         0.00000E+00
    0.79665E-07         0.18626E-20         0.00000E+00
    0.79690E-07         0.00000E+00         0.00000E+00
    0.79713E-07         0.00000E+00         0.00000E+00
    0.79733E-07         0.00000E+00         0.00000E+00
    0.79751E-07         0.00000E+00         0.00000E+00
    0.79765E-07         0.18626E-20         0.00000E+00
    0.79777E-07         0.93132E-21         0.00000E+00
    0.79784E-07         0.00000E+00         0.00000E+00
    0.79787E-07         0.37253E-20         0.00000E+00
CELL_DATA       5000
TENSORS stressef double 
    0.67780E+06        -0.57943E+04         0.00000E+00
   -0.57943E+04        -0.20315E+05         0.00000E+00
    0.00000E+00         0.00000E+00         0.00000E+00
 
    0.65328E+06        -0.69978E+04         0.00000E+00
   -0.69978E+04        -0.21960E+05         0.00000E+00
    0.00000E+00         0.00000E+00         0.00000E+00
 
    0.63190E+06        -0.74711E+04         0.00000E+00
   -0.74711E+04        -0.24084E+05         0.00000E+00
    0.00000E+00         0.00000E+00         0.00000E+00
 
    0.61285E+06        -0.75361E+04         0.00000E+00
   -0.75361E+04        -0.26456E+05         0.00000E+00
    0.00000E+00         0.00000E+00         0.00000E+00
 
    0.59556E+06        -0.73648E+04         0.00000E+00
   -0.73648E+04        -0.28922E+05         0.00000E+00
    0.00000E+00         0.00000E+00         0.00000E+00
 
    0.57966E+06        -0.70521E+04         0.00000E+00
   -0.70521E+04        -0.31386E+05         0.00000E+00
    0.00000E+00         0.00000E+00         0.00000E+00
 
    0.56485E+06        -0.66522E+04         0.00000E+00
   -0.66522E+04        -0.33781E+05         0.00000E+00
    0.00000E+00         0.00000E+00         0.00000E+00
 
    0.55092E+06        -0.61971E+04         0.00000E+00
   -0.61971E+04        -0.36063E+05         0.00000E+00
    0.00000E+00         0.00000E+00         0.00000E+00
 
    0.53772E+06        -0.57065E+04         0.00000E+00
   -0.57065E+04        -0.38201E+05         0.00000E+00
    0.00000E+00         0.00000E+00         0.00000E+00
 
    0.52509E+06        -0.51925E+04         0.00000E+00
   -0.51925E+04        -0.40173E+05         0.00000E+00
    0.00000E+00         0.00000E+00         0.00000E+00
 
    0.51296E+06        -0.46632E+04         0.00000E+00
   -0.46632E+04        -0.41964E+05         0.00000E+00
    0.00000E+00         0.00000E+00         0.00000E+00
 
    0.50122E+06        -0.41239E+04         0.00000E+00
   -0.41239E+04        -0.43564E+05         0.00000E+00
    0.00000E+00         0.00000E+00         0.00000E+00
 
    0.48980E+06        -0.35781E+04         0.00000E+00
   -0.35781E+04        -0.44964E+05         0.00000E+00
    0.00000E+00         0.00000E+00         0.00000E+00
 
    0.47865E+06        -0.30283E+04         0.00000E+00
   -0.30283E+04        -0.46161E+05         0.00000E+00
    0.00000E+00         0.00000E+00         0.00000E+00
 
    0.46772E+06        -0.24762E+04         0.00000E+00
   -0.24762E+04        -0.47149E+05         0.00000E+00
    0.00000E+00         0.00000E+00         0.00000E+00
 
    0.45696E+06        -0.19228E+04         0.00000E+00
   -0.19228E+04        -0.47926E+05         0.00000E+00
    0.00000E+00         0.00000E+00         0.00000E+00
 
    0.44633E+06        -0.13687E+04         0.00000E+00
   -0.13687E+04        -0.48490E+05         0.00000E+00
    0.00000E+00         0.00000E+00         0.00000E+00
 
    0.43580E+06        -0.81451E+03         0.00000E+00
   -0.81451E+03        -0.48840E+05         0.00000E+00
    0.00000E+00         0.00000E+00         0.00000E+00
 
    0.42533E+06        -0.26024E+03         0.00000E+00
   -0.26024E+03        -0.48975E+05         0.00000E+00
    0.00000E+00         0.00000E+00         0.00000E+00
 
    0.41492E+06         0.29408E+03         0.00000E+00
    0.29408E+03        -0.48893E+05         0.00000E+00
    0.00000E+00         0.00000E+00         0.00000E+00
 
    0.40452E+06         0.84864E+03         0.00000E+00
    0.84864E+03        -0.48594E+05         0.00000E+00
    0.00000E+00         0.00000E+00         0.00000E+00
 
    0.39411E+06         0.14037E+04         0.00000E+00
    0.14037E+04        -0.48078E+05         0.00000E+00
    0.00000E+00         0.00000E+00         0.00000E+00
 
    0.38368E+06         0.19598E+04         0.00000E+00
    0.19598E+04        -0.47343E+05         0.00000E+00
    0.00000E+00         0.00000E+00         0.00000E+00
 
    0.37321E+06         0.25174E+04         0.00000E+00
    0.25174E+04        -0.46389E+05         0.00000E+00
    0.00000E+00         0.00000E+00         0.00000E+00
 
    0.36268E+06         0.30771E+04         0.00000E+00
    0.30771E+04        -0.45214E+05         0.00000E+00
    0.00000E+00         0.00000E+00         0.00000E+00
 
    0.35207E+06         0.36396E+04         0.00000E+00
    0.36396E+04        -0.43818E+05         0.00000E+00
    0.00000E+00         0.00000E+00         0.00000E+00
 
    0.34137E+06         0.42060E+04         0.00000E+00
    0.42060E+04        -0.42198E+05         0.00000E+00
    0.00000E+00         0.00000E+00         0.00000E+00
 
    0.33055E+06         0.47771E+04         0.00000E+00
    0.47771E+04        -0.40353E+05         0.00000E+00
    0.00000E+00         0.00000E+00         0.00000E+00
 
    0.31961E+06         0.53541E+04         0.00000E+00
    0.53541E+04        -0.38281E+05         0.00000E+00
    0.00000E+00         0.00000E+00         0.00000E+00
 
    0.30852E+06         0.59383E+04         0.00000E+00
    0.59383E+04        -0.35979E+05         0.00000E+00
    0.00000E+00         0.00000E+00         0.00000E+00
 
    0.29728E+06         0.65314E+04         0.00000E+00
    0.65314E+04        -0.33444E+05         0.00000E+00
    0.00000E+00         0.00000E+00         0.00000E+00
 
    0.28586E+06         0.71349E+04         0.00000E+00
    0.71349E+04        -0.30671E+05         0.00000E+00
    0.00000E+00         0.00000E+00         0.00000E+00
 
    0.27424E+06         0.77511E+04         0.00000E+00
    0.77511E+04        -0.27656E+05         0.00000E+00
    0.00000E+00         0.00000E+00         0.00000E+00
 
    0.26241E+06         0.83824E+04         0.00000E+00
    0.83824E+04        -0.24393E+05         0.00000E+00
    0.00000E+00         0.00000E+00         0.00000E+00
 
    0.25035E+06         0.90317E+04         0.00000E+00
    0.90317E+04        -0.20876E+05         0.00000E+00
    0.00000E+00         0.00000E+00         0.00000E+00
 
    0.23804E+06         0.97023E+04         0.00000E+00
    0.97023E+04        -0.17097E+05         0.00000E+00
    0.00000E+00         0.00000E+00         0.00000E+00
 
    0.22544E+06         0.10399E+05         0.00000E+00
    0.10399E+05        -0.13047E+05         0.00000E+00
    0.00000E+00         0.00000E+00         0.00000E+00
 
    0.21254E+06         0.11126E+05         0.00000E+00
    0.11126E+05        -0.87152E+04         0.00000E+00
    0.00000E+00         0.00000E+00         0.00000E+00
 
    0.19929E+06         0.11890E+05         0.00000E+00
    0.11890E+05        -0.40874E+04         0.00000E+00
    0.00000E+00         0.00000E+00         0.00000E+00
 
    0.18567E+06         0.12699E+05         0.00000E+00
    0.12699E+05         0.85194E+03         0.00000E+00
    0.00000E+00         0.00000E+00         0.00000E+00
 
    0.17164E+06         0.13564E+05         0.00000E+00
    0.13564E+05         0.61222E+04         0.00000E+00
    0.00000E+00         0.00000E+00         0.00000E+00
 
    0.15713E+06         0.14497E+05         0.00000E+00
    0.14497E+05         0.11747E+05         0.00000E+00
    0.00000E+00         0.00000E+00         0.00000E+00
 
    0.14210E+06         0.15517E+05         0.00000E+00
    0.15517E+05         0.17756E+05         0.00000E+00
    0.00000E+00         0.00000E+00         0.00000E+00
 
    0.12647E+06         0.16647E+05         0.00000E+00
    0.16647E+05         0.24185E+05         0.00000E+00
    0.00000E+00         0.00000E+00         0.00000E+00
 
    0.11013E+06         0.17922E+05         0.00000E+00
    0.17922E+05         0.31082E+05         0.00000E+00
    0.00000E+00         0.00000E+00         0.00000E+00
 
    0.92984E+05         0.19390E+05         0.00000E+00
    0.19390E+05         0.38507E+05         0.00000E+00
    0.00000E+00         0.00000E+00         0.00000E+00
 
    0.74856E+05         0.21123E+05         0.00000E+00
    0.21123E+05         0.46539E+05         0.00000E+00
    0.00000E+00         0.00000E+00         0.00000E+00
 
    0.55535E+05         0.23233E+05         0.00000E+00
    0.23233E+05         0.55284E+05         0.00000E+00
    0.00000E+00         0.00000E+00         0.00000E+00
 
    0.34713E+05         0.25899E+05         0.00000E+00
    0.25899E+05         0.64890E+05         0.00000E+00
    0.00000E+00         0.00000E+00         0.00000E+00
 
    0.11941E+05         0.29422E+05         0.00000E+00
    0.29422E+05         0.75567E+05         0.00000E+00
    0.00000E+00         0.00000E+00         0.00000E+00
 
    0.61579E+06        -0.40873E+04         0.00000E+00
   -0.40873E+04        -0.57543E+05         0.00000E+00
    0.00000E+00         0.00000E+00         0.00000E+00
 
    0.60065E+06        -0.85807E+04         0.00000E+00
   -0.85807E+04        -0.56891E+05         0.00000E+00
    0.00000E+00         0.00000E+00         0.00000E+00
 
    0.58531E+06        -0.11473E+05         0.00000E+00
   -0.11473E+05        -0.56514E+05         0.00000E+00
    0.00000E+00         0.00000E+00         0.00000E+00
 
    0.57026E+06        -0.13201E+05         0.00000E+00
   -0.13201E+05        -0.56423E+05         0.00000E+00
    0.00000E+00         0.00000E+00         0.00000E+00
 
    0.55569E+06        -0.14082E+05         0.00000E+00
   -0.14082E+05        -0.56579E+05         0.00000E+00
    0.00000E+00         0.00000E+00         0.00000E+00
 
    0.54169E+06        -0.14346E+05         0.00000E+00
   -0.14346E+05        -0.56928E+05         0.00000E+00
    0.00000E+00         0.00000E+00         0.00000E+00
 
    0.52823E+06        -0.14156E+05         0.00000E+00
   -0.14156E+05        -0.57411E+05         0.00000E+00
    0.00000E+00         0.00000E+00         0.00000E+00
 
    0.51529E+06        -0.13632E+05         0.00000E+00
   -0.13632E+05        -0.57977E+05         0.00000E+00
    0.00000E+00         0.00000E+00         0.00000E+00
 
    0.50281E+06        -0.12858E+05         0.00000E+00
   -0.12858E+05        -0.58579E+05         0.00000E+00
    0.00000E+00         0.00000E+00         0.00000E+00
 
    0.49074E+06        -0.11897E+05         0.00000E+00
   -0.11897E+05        -0.59177E+05         0.00000E+00
    0.00000E+00         0.00000E+00         0.00000E+00
 
    0.47902E+06        -0.10794E+05         0.00000E+00
   -0.10794E+05        -0.59738E+05         0.00000E+00
    0.00000E+00         0.00000E+00         0.00000E+00
 
    0.46761E+06        -0.95842E+04         0.00000E+00
   -0.95842E+04        -0.60234E+05         0.00000E+00
    0.00000E+00         0.00000E+00         0.00000E+00
 
    0.45645E+06        -0.82920E+04         0.00000E+00
   -0.82920E+04        -0.60643E+05         0.00000E+00
    0.00000E+00         0.00000E+00         0.00000E+00
 
    0.44552E+06        -0.69364E+04         0.00000E+00
   -0.69364E+04        -0.60946E+05         0.00000E+00
    0.00000E+00         0.00000E+00         0.00000E+00
 
    0.43476E+06        -0.55314E+04         0.00000E+00
   -0.55314E+04        -0.61128E+05         0.00000E+00
    0.00000E+00         0.00000E+00         0.00000E+00
 
    0.42415E+06        -0.40878E+04         0.00000E+00
   -0.40878E+04        -0.61174E+05         0.00000E+00
    0.00000E+00         0.00000E+00         0.00000E+00
 
    0.41365E+06        -0.26134E+04         0.00000E+00
   -0.26134E+04        -0.61075E+05         0.00000E+00
    0.00000E+00         0.00000E+00         0.00000E+00
 
    0.40324E+06        -0.11142E+04         0.00000E+00
   -0.11142E+04        -0.60821E+05         0.00000E+00
    0.00000E+00         0.00000E+00         0.00000E+00
 
    0.39289E+06         0.40546E+03         0.00000E+00
    0.40546E+03        -0.60404E+05         0.00000E+00
    0.00000E+00         0.00000E+00         0.00000E+00
 
    0.38257E+06         0.19426E+04         0.00000E+00
    0.19426E+04        -0.59818E+05         0.00000E+00
    0.00000E+00         0.00000E+00         0.00000E+00
 
    0.37227E+06         0.34951E+04         0.00000E+00
    0.34951E+04        -0.59058E+05         0.00000E+00
    0.00000E+00         0.00000E+00         0.00000E+00
 
    0.36196E+06         0.50618E+04         0.00000E+00
    0.50618E+04        -0.58117E+05         0.00000E+00
    0.00000E+00         0.00000E+00         0.00000E+00
 
    0.35164E+06         0.66421E+04         0.00000E+00
    0.66421E+04        -0.56993E+05         0.00000E+00
    0.00000E+00         0.00000E+00         0.00000E+00
 
    0.34126E+06         0.82362E+04         0.00000E+00
    0.82362E+04        -0.55679E+05         0.00000E+00
    0.00000E+00         0.00000E+00         0.00000E+00
 
    0.33084E+06         0.98447E+04         0.00000E+00
    0.98447E+04        -0.54174E+05         0.00000E+00
    0.00000E+00         0.00000E+00         0.00000E+00
 
    0.32034E+06         0.11469E+05         0.00000E+00
    0.11469E+05        -0.52473E+05         0.00000E+00
    0.00000E+00         0.00000E+00         0.00000E+00
 
    0.30975E+06         0.13110E+05         0.00000E+00
    0.13110E+05        -0.50572E+05         0.00000E+00
    0.00000E+00         0.00000E+00         0.00000E+00
 
    0.29906E+06         0.14771E+05         0.00000E+00
    0.14771E+05        -0.48468E+05         0.00000E+00
    0.00000E+00         0.00000E+00         0.00000E+00
 
    0.28825E+06         0.16453E+05         0.00000E+00
    0.16453E+05        -0.46157E+05         0.00000E+00
    0.00000E+00         0.00000E+00         0.00000E+00
 
    0.27731E+06         0.18161E+05         0.00000E+00
    0.18161E+05        -0.43635E+05         0.00000E+00
    0.00000E+00         0.00000E+00         0.00000E+00
 
    0.26622E+06         0.19898E+05         0.00000E+00
    0.19898E+05        -0.40897E+05         0.00000E+00
    0.00000E+00         0.00000E+00         0.00000E+00
 
    0.25498E+06         0.21669E+05         0.00000E+00
    0.21669E+05        -0.37941E+05         0.00000E+00
    0.00000E+00         0.00000E+00         0.00000E+00
 
    0.24356E+06         0.23479E+05         0.00000E+00
    0.23479E+05        -0.34759E+05         0.00000E+00
    0.00000E+00         0.00000E+00         0.00000E+00
 
    0.23196E+06         0.25335E+05         0.00000E+00
    0.25335E+05        -0.31347E+05         0.00000E+00
    0.00000E+00         0.00000E+00         0.00000E+00
 
    0.22014E+06         0.27244E+05         0.00000E+00
    0.27244E+05        -0.27699E+05         0.00000E+00
    0.00000E+00         0.00000E+00         0.00000E+00
 
    0.20811E+06         0.29215E+05         0.00000E+00
    0.29215E+05        -0.23808E+05         0.00000E+00
    0.00000E+00         0.00000E+00         0.00000E+00
 
    0.19584E+06         0.31259E+05         0.00000E+00
    0.31259E+05        -0.19665E+05         0.00000E+00
    0.00000E+00         0.00000E+00         0.00000E+00
 
    0.18331E+06         0.33390E+05         0.00000E+00
    0.33390E+05        -0.15263E+05         0.00000E+00
    0.00000E+00         0.00000E+00         0.00000E+00
 
    0.17050E+06         0.35622E+05         0.00000E+00
    0.35622E+05        -0.10592E+05         0.00000E+00
    0.00000E+00         0.00000E+00         0.00000E+00
 
    0.15740E+06         0.37975E+05         0.00000E+00
    0.37975E+05        -0.56401E+04         0.00000E+00
    0.00000E+00         0.00000E+00         0.00000E+00
 
    0.14398E+06         0.40473E+05         0.00000E+00
    0.40473E+05        -0.39613E+03         0.00000E+00
    0.00000E+00         0.00000E+00         0.00000E+00
 
    0.13023E+06         0.43145E+05         0.00000E+00
    0.43145E+05         0.51533E+04         0.00000E+00
    0.00000E+00         0.00000E+00         0.00000E+00
 
    0.11611E+06         0.46028E+05         0.00000E+00
    0.46028E+05         0.11023E+05         0.00000E+00
    0.00000E+00         0.00000E+00         0.00000E+00
 
    0.10161E+06         0.49169E+05         0.00000E+00
    0.49169E+05         0.17226E+05         0.00000E+00
    0.00000E+00         0.00000E+00         0.00000E+00
 
    0.86724E+05         0.52628E+05         0.00000E+00
    0.52628E+05         0.23779E+05         0.00000E+00
    0.00000E+00         0.00000E+00         0.00000E+00
 
    0.71442E+05         0.56482E+05         0.00000E+00
    0.56482E+05         0.30693E+05         0.00000E+00
    0.00000E+00         0.00000E+00         0.00000E+00
 
    0.55790E+05         0.60832E+05         0.00000E+00
    0.60832E+05         0.37973E+05         0.00000E+00
    0.00000E+00         0.00000E+00         0.00000E+00
 
    0.39835E+05         0.65808E+05         0.00000E+00
    0.65808E+05         0.45612E+05         0.00000E+00
    0.00000E+00         0.00000E+00         0.00000E+00
 
    0.23740E+05         0.71581E+05         0.00000E+00
    0.71581E+05         0.53575E+05         0.00000E+00
    0.00000E+00         0.00000E+00         0.00000E+00
 
    0.78423E+04         0.78364E+05         0.00000E+00
    0.78364E+05         0.61776E+05         0.00000E+00
    0.00000E+00         0.00000E+00         0.00000E+00
 
    0.55635E+06        -0.26534E+04         0.00000E+00
   -0.26534E+04        -0.94990E+05         0.00000E+00
    0.00000E+00         0.00000E+00         0.00000E+00
 
    0.54629E+06        -0.61145E+04         0.00000E+00
   -0.61145E+04        -0.94698E+05         0.00000E+00
    0.00000E+00         0.00000E+00         0.00000E+00
 
    0.53578E+06        -0.89175E+04         0.00000E+00
   -0.89175E+04        -0.94129E+05         0.00000E+00
    0.00000E+00         0.00000E+00         0.00000E+00
 
    0.52493E+06        -0.11009E+05         0.00000E+00
   -0.11009E+05        -0.93416E+05         0.00000E+00
    0.00000E+00         0.00000E+00         0.00000E+00
 
    0.51387E+06        -0.12420E+05         0.00000E+00
   -0.12420E+05        -0.92644E+05         0.00000E+00
    0.00000E+00         0.00000E+00         0.00000E+00
 
    0.50273E+06        -0.13218E+05         0.00000E+00
   -0.13218E+05        -0.91867E+05         0.00000E+00
    0.00000E+00         0.00000E+00         0.00000E+00
 
    0.49159E+06        -0.13483E+05         0.00000E+00
   -0.13483E+05        -0.91108E+05         0.00000E+00
    0.00000E+00         0.00000E+00         0.00000E+00
 
    0.48052E+06        -0.13293E+05         0.00000E+00
   -0.13293E+05        -0.90377E+05         0.00000E+00
    0.00000E+00         0.00000E+00         0.00000E+00
 
    0.46955E+06        -0.12719E+05         0.00000E+00
   -0.12719E+05        -0.89670E+05         0.00000E+00
    0.00000E+00         0.00000E+00         0.00000E+00
 
    0.45869E+06        -0.11825E+05         0.00000E+00
   -0.11825E+05        -0.88977E+05         0.00000E+00
    0.00000E+00         0.00000E+00         0.00000E+00
 
    0.44796E+06        -0.10664E+05         0.00000E+00
   -0.10664E+05        -0.88286E+05         0.00000E+00
    0.00000E+00         0.00000E+00         0.00000E+00
 
    0.43736E+06        -0.92797E+04         0.00000E+00
   -0.92797E+04        -0.87580E+05         0.00000E+00
    0.00000E+00         0.00000E+00         0.00000E+00
 
    0.42686E+06        -0.77100E+04         0.00000E+00
   -0.77100E+04        -0.86844E+05         0.00000E+00
    0.00000E+00         0.00000E+00         0.00000E+00
 
    0.41647E+06        -0.59857E+04         0.00000E+00
   -0.59857E+04        -0.86063E+05         0.00000E+00
    0.00000E+00         0.00000E+00         0.00000E+00
 
    0.40617E+06        -0.41319E+04         0.00000E+00
   -0.41319E+04        -0.85222E+05         0.00000E+00
    0.00000E+00         0.00000E+00         0.00000E+00
 
    0.39594E+06        -0.21692E+04         0.00000E+00
   -0.21692E+04        -0.84308E+05         0.00000E+00
    0.00000E+00         0.00000E+00         0.00000E+00
 
    0.38577E+06        -0.11443E+03         0.00000E+00
   -0.11443E+03        -0.83307E+05         0.00000E+00
    0.00000E+00         0.00000E+00         0.00000E+00
 
    0.37564E+06         0.20190E+04         0.00000E+00
    0.20190E+04        -0.82209E+05         0.00000E+00
    0.00000E+00         0.00000E+00         0.00000E+00
 
    0.36554E+06         0.42202E+04         0.00000E+00
    0.42202E+04        -0.81004E+05         0.00000E+00
    0.00000E+00         0.00000E+00         0.00000E+00
 
    0.35544E+06         0.64807E+04         0.00000E+00
    0.64807E+04        -0.79681E+05         0.00000E+00
    0.00000E+00         0.00000E+00         0.00000E+00
 
    0.34534E+06         0.87939E+04         0.00000E+00
    0.87939E+04        -0.78232E+05         0.00000E+00
    0.00000E+00         0.00000E+00         0.00000E+00
 
    0.33523E+06         0.11155E+05         0.00000E+00
    0.11155E+05        -0.76650E+05         0.00000E+00
    0.00000E+00         0.00000E+00         0.00000E+00
 
    0.32508E+06         0.13560E+05         0.00000E+00
    0.13560E+05        -0.74927E+05         0.00000E+00
    0.00000E+00         0.00000E+00         0.00000E+00
 
    0.31489E+06         0.16006E+05         0.00000E+00
    0.16006E+05        -0.73056E+05         0.00000E+00
    0.00000E+00         0.00000E+00         0.00000E+00
 
    0.30464E+06         0.18493E+05         0.00000E+00
    0.18493E+05        -0.71033E+05         0.00000E+00
    0.00000E+00         0.00000E+00         0.00000E+00
 
    0.29432E+06         0.21021E+05         0.00000E+00
    0.21021E+05        -0.68850E+05         0.00000E+00
    0.00000E+00         0.00000E+00         0.00000E+00
 
    0.28392E+06         0.23589E+05         0.00000E+00
    0.23589E+05        -0.66504E+05         0.00000E+00
    0.00000E+00         0.00000E+00         0.00000E+00
 
    0.27344E+06         0.26201E+05         0.00000E+00
    0.26201E+05        -0.63988E+05         0.00000E+00
    0.00000E+00         0.00000E+00         0.00000E+00
 
    0.26284E+06         0.28857E+05         0.00000E+00
    0.28857E+05        -0.61298E+05         0.00000E+00
    0.00000E+00         0.00000E+00         0.00000E+00
 
    0.25214E+06         0.31563E+05         0.00000E+00
    0.31563E+05        -0.58429E+05         0.00000E+00
    0.00000E+00         0.00000E+00         0.00000E+00
 
    0.24131E+06         0.34322E+05         0.00000E+00
    0.34322E+05        -0.55376E+05         0.00000E+00
    0.00000E+00         0.00000E+00         0.00000E+00
 
    0.23036E+06         0.37140E+05         0.00000E+00
    0.37140E+05        -0.52135E+05         0.00000E+00
    0.00000E+00         0.00000E+00         0.00000E+00
 
    0.21926E+06         0.40023E+05         0.00000E+00
    0.40023E+05        -0.48702E+05         0.00000E+00
    0.00000E+00         0.00000E+00         0.00000E+00
 
    0.20801E+06         0.42979E+05         0.00000E+00
    0.42979E+05        -0.45072E+05         0.00000E+00
    0.00000E+00         0.00000E+00         0.00000E+00
 
    0.19660E+06         0.46019E+05         0.00000E+00
    0.46019E+05        -0.41240E+05         0.00000E+00
    0.00000E+00         0.00000E+00         0.00000E+00
 
    0.18502E+06         0.49151E+05         0.00000E+00
    0.49151E+05        -0.37202E+05         0.00000E+00
    0.00000E+00         0.00000E+00         0.00000E+00
 
    0.17327E+06         0.52390E+05         0.00000E+00
    0.52390E+05        -0.32954E+05         0.00000E+00
    0.00000E+00         0.00000E+00         0.00000E+00
 
    0.16134E+06         0.55749E+05         0.00000E+00
    0.55749E+05        -0.28491E+05         0.00000E+00
    0.00000E+00         0.00000E+00         0.00000E+00
 
    0.14923E+06         0.59246E+05         0.00000E+00
    0.59246E+05        -0.23811E+05         0.00000E+00
    0.00000E+00         0.00000E+00         0.00000E+00
 
    0.13692E+06         0.62901E+05         0.00000E+00
    0.62901E+05        -0.18910E+05         0.00000E+00
    0.00000E+00         0.00000E+00         0.00000E+00
 
    0.12443E+06         0.66735E+05         0.00000E+00
    0.66735E+05        -0.13787E+05         0.00000E+00
    0.00000E+00         0.00000E+00         0.00000E+00
 
    0.11175E+06         0.70776E+05         0.00000E+00
    0.70776E+05        -0.84405E+04         0.00000E+00
    0.00000E+00         0.00000E+00         0.00000E+00
 
    0.98899E+05         0.75053E+05         0.00000E+00
    0.75053E+05        -0.28742E+04         0.00000E+00
    0.00000E+00         0.00000E+00         0.00000E+00
 
    0.85887E+05         0.79597E+05         0.00000E+00
    0.79597E+05         0.29063E+04         0.00000E+00
    0.00000E+00         0.00000E+00         0.00000E+00
 
    0.72740E+05         0.84445E+05         0.00000E+00
    0.84445E+05         0.88894E+04         0.00000E+00
    0.00000E+00         0.00000E+00         0.00000E+00
 
    0.59495E+05         0.89633E+05         0.00000E+00
    0.89633E+05         0.15056E+05         0.00000E+00
    0.00000E+00         0.00000E+00         0.00000E+00
 
    0.46201E+05         0.95191E+05         0.00000E+00
    0.95191E+05         0.21379E+05         0.00000E+00
    0.00000E+00         0.00000E+00         0.00000E+00
 
    0.32917E+05         0.10114E+06         0.00000E+00
    0.10114E+06         0.27814E+05         0.00000E+00
    0.00000E+00         0.00000E+00         0.00000E+00
 
    0.19699E+05         0.10748E+06         0.00000E+00
    0.10748E+06         0.34305E+05         0.00000E+00
    0.00000E+00         0.00000E+00         0.00000E+00
 
    0.65560E+04         0.11416E+06         0.00000E+00
    0.11416E+06         0.40777E+05         0.00000E+00
    0.00000E+00         0.00000E+00         0.00000E+00
 
    0.50439E+06        -0.18022E+04         0.00000E+00
   -0.18022E+04        -0.13105E+06         0.00000E+00
    0.00000E+00         0.00000E+00         0.00000E+00
 
    0.49718E+06        -0.41039E+04         0.00000E+00
   -0.41039E+04        -0.13075E+06         0.00000E+00
    0.00000E+00         0.00000E+00         0.00000E+00
 
    0.48951E+06        -0.59305E+04         0.00000E+00
   -0.59305E+04        -0.13023E+06         0.00000E+00
    0.00000E+00         0.00000E+00         0.00000E+00
 
    0.48145E+06        -0.73048E+04         0.00000E+00
   -0.73048E+04        -0.12951E+06         0.00000E+00
    0.00000E+00         0.00000E+00         0.00000E+00
 
    0.47304E+06        -0.82362E+04         0.00000E+00
   -0.82362E+04        -0.12862E+06         0.00000E+00
    0.00000E+00         0.00000E+00         0.00000E+00
 
    0.46435E+06        -0.87372E+04         0.00000E+00
   -0.87372E+04        -0.12758E+06         0.00000E+00
    0.00000E+00         0.00000E+00         0.00000E+00
 
    0.45544E+06        -0.88279E+04         0.00000E+00
   -0.88279E+04        -0.12644E+06         0.00000E+00
    0.00000E+00         0.00000E+00         0.00000E+00
 
    0.44635E+06        -0.85344E+04         0.00000E+00
   -0.85344E+04        -0.12520E+06         0.00000E+00
    0.00000E+00         0.00000E+00         0.00000E+00
 
    0.43712E+06        -0.78873E+04         0.00000E+00
   -0.78873E+04        -0.12390E+06         0.00000E+00
    0.00000E+00         0.00000E+00         0.00000E+00
 
    0.42779E+06        -0.69187E+04         0.00000E+00
   -0.69187E+04        -0.12254E+06         0.00000E+00
    0.00000E+00         0.00000E+00         0.00000E+00
 
    0.41838E+06        -0.56604E+04         0.00000E+00
   -0.56604E+04        -0.12112E+06         0.00000E+00
    0.00000E+00         0.00000E+00         0.00000E+00
 
    0.40893E+06        -0.41433E+04         0.00000E+00
   -0.41433E+04        -0.11966E+06         0.00000E+00
    0.00000E+00         0.00000E+00         0.00000E+00
 
    0.39943E+06        -0.23958E+04         0.00000E+00
   -0.23958E+04        -0.11814E+06         0.00000E+00
    0.00000E+00         0.00000E+00         0.00000E+00
 
    0.38991E+06        -0.44409E+03         0.00000E+00
   -0.44409E+03        -0.11657E+06         0.00000E+00
    0.00000E+00         0.00000E+00         0.00000E+00
 
    0.38036E+06         0.16886E+04         0.00000E+00
    0.16886E+04        -0.11495E+06         0.00000E+00
    0.00000E+00         0.00000E+00         0.00000E+00
 
    0.37079E+06         0.39817E+04         0.00000E+00
    0.39817E+04        -0.11326E+06         0.00000E+00
    0.00000E+00         0.00000E+00         0.00000E+00
 
    0.36119E+06         0.64171E+04         0.00000E+00
    0.64171E+04        -0.11150E+06         0.00000E+00
    0.00000E+00         0.00000E+00         0.00000E+00
 
    0.35157E+06         0.89794E+04         0.00000E+00
    0.89794E+04        -0.10967E+06         0.00000E+00
    0.00000E+00         0.00000E+00         0.00000E+00
 
    0.34192E+06         0.11655E+05         0.00000E+00
    0.11655E+05        -0.10775E+06         0.00000E+00
    0.00000E+00         0.00000E+00         0.00000E+00
 
    0.33224E+06         0.14433E+05         0.00000E+00
    0.14433E+05        -0.10574E+06         0.00000E+00
    0.00000E+00         0.00000E+00         0.00000E+00
 
    0.32251E+06         0.17305E+05         0.00000E+00
    0.17305E+05        -0.10364E+06         0.00000E+00
    0.00000E+00         0.00000E+00         0.00000E+00
 
    0.31275E+06         0.20261E+05         0.00000E+00
    0.20261E+05        -0.10143E+06         0.00000E+00
    0.00000E+00         0.00000E+00         0.00000E+00
 
    0.30292E+06         0.23298E+05         0.00000E+00
    0.23298E+05        -0.99116E+05         0.00000E+00
    0.00000E+00         0.00000E+00         0.00000E+00
 
    0.29304E+06         0.26409E+05         0.00000E+00
    0.26409E+05        -0.96685E+05         0.00000E+00
    0.00000E+00         0.00000E+00         0.00000E+00
 
    0.28310E+06         0.29592E+05         0.00000E+00
    0.29592E+05        -0.94134E+05         0.00000E+00
    0.00000E+00         0.00000E+00         0.00000E+00
 
    0.27308E+06         0.32844E+05         0.00000E+00
    0.32844E+05        -0.91458E+05         0.00000E+00
    0.00000E+00         0.00000E+00         0.00000E+00
 
    0.26298E+06         0.36165E+05         0.00000E+00
    0.36165E+05        -0.88650E+05         0.00000E+00
    0.00000E+00         0.00000E+00         0.00000E+00
 
    0.25280E+06         0.39555E+05         0.00000E+00
    0.39555E+05        -0.85707E+05         0.00000E+00
    0.00000E+00         0.00000E+00         0.00000E+00
 
    0.24253E+06         0.43015E+05         0.00000E+00
    0.43015E+05        -0.82624E+05         0.00000E+00
    0.00000E+00         0.00000E+00         0.00000E+00
 
    0.23217E+06         0.46548E+05         0.00000E+00
    0.46548E+05        -0.79398E+05         0.00000E+00
    0.00000E+00         0.00000E+00         0.00000E+00
 
    0.22170E+06         0.50157E+05         0.00000E+00
    0.50157E+05        -0.76024E+05         0.00000E+00
    0.00000E+00         0.00000E+00         0.00000E+00
 
    0.21113E+06         0.53846E+05         0.00000E+00
    0.53846E+05        -0.72499E+05         0.00000E+00
    0.00000E+00         0.00000E+00         0.00000E+00
 
    0.20045E+06         0.57620E+05         0.00000E+00
    0.57620E+05        -0.68821E+05         0.00000E+00
    0.00000E+00         0.00000E+00         0.00000E+00
 
    0.18966E+06         0.61487E+05         0.00000E+00
    0.61487E+05        -0.64986E+05         0.00000E+00
    0.00000E+00         0.00000E+00         0.00000E+00
 
    0.17875E+06         0.65453E+05         0.00000E+00
    0.65453E+05        -0.60993E+05         0.00000E+00
    0.00000E+00         0.00000E+00         0.00000E+00
 
    0.16773E+06         0.69528E+05         0.00000E+00
    0.69528E+05        -0.56841E+05         0.00000E+00
    0.00000E+00         0.00000E+00         0.00000E+00
 
    0.15660E+06         0.73721E+05         0.00000E+00
    0.73721E+05        -0.52528E+05         0.00000E+00
    0.00000E+00         0.00000E+00         0.00000E+00
 
    0.14535E+06         0.78044E+05         0.00000E+00
    0.78044E+05        -0.48056E+05         0.00000E+00
    0.00000E+00         0.00000E+00         0.00000E+00
 
    0.13400E+06         0.82508E+05         0.00000E+00
    0.82508E+05        -0.43426E+05         0.00000E+00
    0.00000E+00         0.00000E+00         0.00000E+00
 
    0.12254E+06         0.87126E+05         0.00000E+00
    0.87126E+05        -0.38639E+05         0.00000E+00
    0.00000E+00         0.00000E+00         0.00000E+00
 
    0.11099E+06         0.91912E+05         0.00000E+00
    0.91912E+05        -0.33702E+05         0.00000E+00
    0.00000E+00         0.00000E+00         0.00000E+00
 
    0.99352E+05         0.96881E+05         0.00000E+00
    0.96881E+05        -0.28620E+05         0.00000E+00
    0.00000E+00         0.00000E+00         0.00000E+00
 
    0.87650E+05         0.10205E+06         0.00000E+00
    0.10205E+06        -0.23403E+05         0.00000E+00
    0.00000E+00         0.00000E+00         0.00000E+00
 
    0.75898E+05         0.10742E+06         0.00000E+00
    0.10742E+06        -0.18062E+05         0.00000E+00
    0.00000E+00         0.00000E+00         0.00000E+00
 
    0.64120E+05         0.11302E+06         0.00000E+00
    0.11302E+06        -0.12611E+05         0.00000E+00
    0.00000E+00         0.00000E+00         0.00000E+00
 
    0.52338E+05         0.11885E+06         0.00000E+00
    0.11885E+06        -0.70686E+04         0.00000E+00
    0.00000E+00         0.00000E+00         0.00000E+00
 
    0.40579E+05         0.12492E+06         0.00000E+00
    0.12492E+06        -0.14530E+04         0.00000E+00
    0.00000E+00         0.00000E+00         0.00000E+00
 
    0.28869E+05         0.13124E+06         0.00000E+00
    0.13124E+06         0.42158E+04         0.00000E+00
    0.00000E+00         0.00000E+00         0.00000E+00
 
    0.17235E+05         0.13780E+06         0.00000E+00
    0.13780E+06         0.99213E+04         0.00000E+00
    0.00000E+00         0.00000E+00         0.00000E+00
 
    0.57204E+04         0.14464E+06         0.00000E+00
    0.14464E+06         0.15656E+05         0.00000E+00
    0.00000E+00         0.00000E+00         0.00000E+00
 
    0.45945E+06        -0.10002E+04         0.00000E+00
   -0.10002E+04        -0.16647E+06         0.00000E+00
    0.00000E+00         0.00000E+00         0.00000E+00
 
    0.45422E+06        -0.21194E+04         0.00000E+00
   -0.21194E+04        -0.16619E+06         0.00000E+00
    0.00000E+00         0.00000E+00         0.00000E+00
 
    0.44852E+06        -0.29094E+04         0.00000E+00
   -0.29094E+04        -0.16566E+06         0.00000E+00
    0.00000E+00         0.00000E+00         0.00000E+00
 
    0.44238E+06        -0.33681E+04         0.00000E+00
   -0.33681E+04        -0.16492E+06         0.00000E+00
    0.00000E+00         0.00000E+00         0.00000E+00
 
    0.43586E+06        -0.35011E+04         0.00000E+00
   -0.35011E+04        -0.16398E+06         0.00000E+00
    0.00000E+00         0.00000E+00         0.00000E+00
 
    0.42899E+06        -0.33165E+04         0.00000E+00
   -0.33165E+04        -0.16287E+06         0.00000E+00
    0.00000E+00         0.00000E+00         0.00000E+00
 
    0.42181E+06        -0.28237E+04         0.00000E+00
   -0.28237E+04        -0.16160E+06         0.00000E+00
    0.00000E+00         0.00000E+00         0.00000E+00
 
    0.41435E+06        -0.20336E+04         0.00000E+00
   -0.20336E+04        -0.16019E+06         0.00000E+00
    0.00000E+00         0.00000E+00         0.00000E+00
 
    0.40665E+06        -0.95919E+03         0.00000E+00
   -0.95919E+03        -0.15865E+06         0.00000E+00
    0.00000E+00         0.00000E+00         0.00000E+00
 
    0.39874E+06         0.38523E+03         0.00000E+00
    0.38523E+03        -0.15701E+06         0.00000E+00
    0.00000E+00         0.00000E+00         0.00000E+00
 
    0.39064E+06         0.19842E+04         0.00000E+00
    0.19842E+04        -0.15526E+06         0.00000E+00
    0.00000E+00         0.00000E+00         0.00000E+00
 
    0.38238E+06         0.38214E+04         0.00000E+00
    0.38214E+04        -0.15341E+06         0.00000E+00
    0.00000E+00         0.00000E+00         0.00000E+00
 
    0.37397E+06         0.58805E+04         0.00000E+00
    0.58805E+04        -0.15148E+06         0.00000E+00
    0.00000E+00         0.00000E+00         0.00000E+00
 
    0.36543E+06         0.81455E+04         0.00000E+00
    0.81455E+04        -0.14946E+06         0.00000E+00
    0.00000E+00         0.00000E+00         0.00000E+00
 
    0.35677E+06         0.10601E+05         0.00000E+00
    0.10601E+05        -0.14737E+06         0.00000E+00
    0.00000E+00         0.00000E+00         0.00000E+00
 
    0.34801E+06         0.13232E+05         0.00000E+00
    0.13232E+05        -0.14519E+06         0.00000E+00
    0.00000E+00         0.00000E+00         0.00000E+00
 
    0.33916E+06         0.16024E+05         0.00000E+00
    0.16024E+05        -0.14294E+06         0.00000E+00
    0.00000E+00         0.00000E+00         0.00000E+00
 
    0.33021E+06         0.18967E+05         0.00000E+00
    0.18967E+05        -0.14060E+06         0.00000E+00
    0.00000E+00         0.00000E+00         0.00000E+00
 
    0.32117E+06         0.22047E+05         0.00000E+00
    0.22047E+05        -0.13819E+06         0.00000E+00
    0.00000E+00         0.00000E+00         0.00000E+00
 
    0.31206E+06         0.25255E+05         0.00000E+00
    0.25255E+05        -0.13568E+06         0.00000E+00
    0.00000E+00         0.00000E+00         0.00000E+00
 
    0.30286E+06         0.28583E+05         0.00000E+00
    0.28583E+05        -0.13309E+06         0.00000E+00
    0.00000E+00         0.00000E+00         0.00000E+00
 
    0.29358E+06         0.32022E+05         0.00000E+00
    0.32022E+05        -0.13041E+06         0.00000E+00
    0.00000E+00         0.00000E+00         0.00000E+00
 
    0.28422E+06         0.35567E+05         0.00000E+00
    0.35567E+05        -0.12764E+06         0.00000E+00
    0.00000E+00         0.00000E+00         0.00000E+00
 
    0.27478E+06         0.39211E+05         0.00000E+00
    0.39211E+05        -0.12477E+06         0.00000E+00
    0.00000E+00         0.00000E+00         0.00000E+00
 
    0.26526E+06         0.42952E+05         0.00000E+00
    0.42952E+05        -0.12179E+06         0.00000E+00
    0.00000E+00         0.00000E+00         0.00000E+00
 
    0.25565E+06         0.46785E+05         0.00000E+00
    0.46785E+05        -0.11872E+06         0.00000E+00
    0.00000E+00         0.00000E+00         0.00000E+00
 
    0.24597E+06         0.50708E+05         0.00000E+00
    0.50708E+05        -0.11554E+06         0.00000E+00
    0.00000E+00         0.00000E+00         0.00000E+00
 
    0.23620E+06         0.54721E+05         0.00000E+00
    0.54721E+05        -0.11225E+06         0.00000E+00
    0.00000E+00         0.00000E+00         0.00000E+00
 
    0.22634E+06         0.58823E+05         0.00000E+00
    0.58823E+05        -0.10885E+06         0.00000E+00
    0.00000E+00         0.00000E+00         0.00000E+00
 
    0.21640E+06         0.63014E+05         0.00000E+00
    0.63014E+05        -0.10533E+06         0.00000E+00
    0.00000E+00         0.00000E+00         0.00000E+00
 
    0.20637E+06         0.67297E+05         0.00000E+00
    0.67297E+05        -0.10170E+06         0.00000E+00
    0.00000E+00         0.00000E+00         0.00000E+00
 
    0.19626E+06         0.71673E+05         0.00000E+00
    0.71673E+05        -0.97956E+05         0.00000E+00
    0.00000E+00         0.00000E+00         0.00000E+00
 
    0.18606E+06         0.76145E+05         0.00000E+00
    0.76145E+05        -0.94091E+05         0.00000E+00
    0.00000E+00         0.00000E+00         0.00000E+00
 
    0.17578E+06         0.80718E+05         0.00000E+00
    0.80718E+05        -0.90108E+05         0.00000E+00
    0.00000E+00         0.00000E+00         0.00000E+00
 
    0.16541E+06         0.85395E+05         0.00000E+00
    0.85395E+05        -0.86006E+05         0.00000E+00
    0.00000E+00         0.00000E+00         0.00000E+00
 
    0.15497E+06         0.90182E+05         0.00000E+00
    0.90182E+05        -0.81787E+05         0.00000E+00
    0.00000E+00         0.00000E+00         0.00000E+00
 
    0.14445E+06         0.95083E+05         0.00000E+00
    0.95083E+05        -0.77452E+05         0.00000E+00
    0.00000E+00         0.00000E+00         0.00000E+00
 
    0.13386E+06         0.10011E+06         0.00000E+00
    0.10011E+06        -0.73004E+05         0.00000E+00
    0.00000E+00         0.00000E+00         0.00000E+00
 
    0.12321E+06         0.10526E+06         0.00000E+00
    0.10526E+06        -0.68446E+05         0.00000E+00
    0.00000E+00         0.00000E+00         0.00000E+00
 
    0.11250E+06         0.11054E+06         0.00000E+00
    0.11054E+06        -0.63783E+05         0.00000E+00
    0.00000E+00         0.00000E+00         0.00000E+00
 
    0.10175E+06         0.11596E+06         0.00000E+00
    0.11596E+06        -0.59021E+05         0.00000E+00
    0.00000E+00         0.00000E+00         0.00000E+00
 
    0.90961E+05         0.12153E+06         0.00000E+00
    0.12153E+06        -0.54166E+05         0.00000E+00
    0.00000E+00         0.00000E+00         0.00000E+00
 
    0.80153E+05         0.12725E+06         0.00000E+00
    0.12725E+06        -0.49227E+05         0.00000E+00
    0.00000E+00         0.00000E+00         0.00000E+00
 
    0.69337E+05         0.13313E+06         0.00000E+00
    0.13313E+06        -0.44212E+05         0.00000E+00
    0.00000E+00         0.00000E+00         0.00000E+00
 
    0.58528E+05         0.13917E+06         0.00000E+00
    0.13917E+06        -0.39133E+05         0.00000E+00
    0.00000E+00         0.00000E+00         0.00000E+00
 
    0.47743E+05         0.14537E+06         0.00000E+00
    0.14537E+06        -0.33999E+05         0.00000E+00
    0.00000E+00         0.00000E+00         0.00000E+00
 
    0.37000E+05         0.15174E+06         0.00000E+00
    0.15174E+06        -0.28824E+05         0.00000E+00
    0.00000E+00         0.00000E+00         0.00000E+00
 
    0.26318E+05         0.15827E+06         0.00000E+00
    0.15827E+06        -0.23620E+05         0.00000E+00
    0.00000E+00         0.00000E+00         0.00000E+00
 
    0.15719E+05         0.16497E+06         0.00000E+00
    0.16497E+06        -0.18401E+05         0.00000E+00
    0.00000E+00         0.00000E+00         0.00000E+00
 
    0.52216E+04         0.17183E+06         0.00000E+00
    0.17183E+06        -0.13188E+05         0.00000E+00
    0.00000E+00         0.00000E+00         0.00000E+00
 
    0.42123E+06        -0.27882E+03         0.00000E+00
   -0.27882E+03        -0.20139E+06         0.00000E+00
    0.00000E+00         0.00000E+00         0.00000E+00
 
    0.41739E+06        -0.21265E+03         0.00000E+00
   -0.21265E+03        -0.20112E+06         0.00000E+00
    0.00000E+00         0.00000E+00         0.00000E+00
 
    0.41308E+06         0.87466E+02         0.00000E+00
    0.87466E+02        -0.20061E+06         0.00000E+00
    0.00000E+00         0.00000E+00         0.00000E+00
 
    0.40835E+06         0.62374E+03         0.00000E+00
    0.62374E+03        -0.19988E+06         0.00000E+00
    0.00000E+00         0.00000E+00         0.00000E+00
 
    0.40321E+06         0.13975E+04         0.00000E+00
    0.13975E+04        -0.19895E+06         0.00000E+00
    0.00000E+00         0.00000E+00         0.00000E+00
 
    0.39770E+06         0.24080E+04         0.00000E+00
    0.24080E+04        -0.19782E+06         0.00000E+00
    0.00000E+00         0.00000E+00         0.00000E+00
 
    0.39184E+06         0.36524E+04         0.00000E+00
    0.36524E+04        -0.19652E+06         0.00000E+00
    0.00000E+00         0.00000E+00         0.00000E+00
 
    0.38567E+06         0.51264E+04         0.00000E+00
    0.51264E+04        -0.19505E+06         0.00000E+00
    0.00000E+00         0.00000E+00         0.00000E+00
 
    0.37921E+06         0.68244E+04         0.00000E+00
    0.68244E+04        -0.19343E+06         0.00000E+00
    0.00000E+00         0.00000E+00         0.00000E+00
 
    0.37248E+06         0.87398E+04         0.00000E+00
    0.87398E+04        -0.19167E+06         0.00000E+00
    0.00000E+00         0.00000E+00         0.00000E+00
 
    0.36550E+06         0.10865E+05         0.00000E+00
    0.10865E+05        -0.18978E+06         0.00000E+00
    0.00000E+00         0.00000E+00         0.00000E+00
 
    0.35830E+06         0.13193E+05         0.00000E+00
    0.13193E+05        -0.18777E+06         0.00000E+00
    0.00000E+00         0.00000E+00         0.00000E+00
 
    0.35090E+06         0.15713E+05         0.00000E+00
    0.15713E+05        -0.18565E+06         0.00000E+00
    0.00000E+00         0.00000E+00         0.00000E+00
 
    0.34330E+06         0.18419E+05         0.00000E+00
    0.18419E+05        -0.18341E+06         0.00000E+00
    0.00000E+00         0.00000E+00         0.00000E+00
 
    0.33553E+06         0.21299E+05         0.00000E+00
    0.21299E+05        -0.18108E+06         0.00000E+00
    0.00000E+00         0.00000E+00         0.00000E+00
 
    0.32760E+06         0.24347E+05         0.00000E+00
    0.24347E+05        -0.17864E+06         0.00000E+00
    0.00000E+00         0.00000E+00         0.00000E+00
 
    0.31952E+06         0.27552E+05         0.00000E+00
    0.27552E+05        -0.17611E+06         0.00000E+00
    0.00000E+00         0.00000E+00         0.00000E+00
 
    0.31129E+06         0.30907E+05         0.00000E+00
    0.30907E+05        -0.17349E+06         0.00000E+00
    0.00000E+00         0.00000E+00         0.00000E+00
 
    0.30294E+06         0.34404E+05         0.00000E+00
    0.34404E+05        -0.17078E+06         0.00000E+00
    0.00000E+00         0.00000E+00         0.00000E+00
 
    0.29446E+06         0.38035E+05         0.00000E+00
    0.38035E+05        -0.16798E+06         0.00000E+00
    0.00000E+00         0.00000E+00         0.00000E+00
 
    0.28587E+06         0.41794E+05         0.00000E+00
    0.41794E+05        -0.16509E+06         0.00000E+00
    0.00000E+00         0.00000E+00         0.00000E+00
 
    0.27716E+06         0.45674E+05         0.00000E+00
    0.45674E+05        -0.16211E+06         0.00000E+00
    0.00000E+00         0.00000E+00         0.00000E+00
 
    0.26834E+06         0.49670E+05         0.00000E+00
    0.49670E+05        -0.15904E+06         0.00000E+00
    0.00000E+00         0.00000E+00         0.00000E+00
 
    0.25942E+06         0.53778E+05         0.00000E+00
    0.53778E+05        -0.15588E+06         0.00000E+00
    0.00000E+00         0.00000E+00         0.00000E+00
 
    0.25041E+06         0.57994E+05         0.00000E+00
    0.57994E+05        -0.15263E+06         0.00000E+00
    0.00000E+00         0.00000E+00         0.00000E+00
 
    0.24129E+06         0.62313E+05         0.00000E+00
    0.62313E+05        -0.14929E+06         0.00000E+00
    0.00000E+00         0.00000E+00         0.00000E+00
 
    0.23209E+06         0.66734E+05         0.00000E+00
    0.66734E+05        -0.14586E+06         0.00000E+00
    0.00000E+00         0.00000E+00         0.00000E+00
 
    0.22279E+06         0.71255E+05         0.00000E+00
    0.71255E+05        -0.14234E+06         0.00000E+00
    0.00000E+00         0.00000E+00         0.00000E+00
 
    0.21341E+06         0.75873E+05         0.00000E+00
    0.75873E+05        -0.13873E+06         0.00000E+00
    0.00000E+00         0.00000E+00         0.00000E+00
 
    0.20394E+06         0.80589E+05         0.00000E+00
    0.80589E+05        -0.13503E+06         0.00000E+00
    0.00000E+00         0.00000E+00         0.00000E+00
 
    0.19439E+06         0.85402E+05         0.00000E+00
    0.85402E+05        -0.13123E+06         0.00000E+00
    0.00000E+00         0.00000E+00         0.00000E+00
 
    0.18476E+06         0.90312E+05         0.00000E+00
    0.90312E+05        -0.12734E+06         0.00000E+00
    0.00000E+00         0.00000E+00         0.00000E+00
 
    0.17506E+06         0.95321E+05         0.00000E+00
    0.95321E+05        -0.12336E+06         0.00000E+00
    0.00000E+00         0.00000E+00         0.00000E+00
 
    0.16528E+06         0.10043E+06         0.00000E+00
    0.10043E+06        -0.11929E+06         0.00000E+00
    0.00000E+00         0.00000E+00         0.00000E+00
 
    0.15544E+06         0.10564E+06         0.00000E+00
    0.10564E+06        -0.11513E+06         0.00000E+00
    0.00000E+00         0.00000E+00         0.00000E+00
 
    0.14554E+06         0.11095E+06         0.00000E+00
    0.11095E+06        -0.11089E+06         0.00000E+00
    0.00000E+00         0.00000E+00         0.00000E+00
 
    0.13558E+06         0.11637E+06         0.00000E+00
    0.11637E+06        -0.10656E+06         0.00000E+00
    0.00000E+00         0.00000E+00         0.00000E+00
 
    0.12558E+06         0.12189E+06         0.00000E+00
    0.12189E+06        -0.10215E+06         0.00000E+00
    0.00000E+00         0.00000E+00         0.00000E+00
 
    0.11553E+06         0.12752E+06         0.00000E+00
    0.12752E+06        -0.97661E+05         0.00000E+00
    0.00000E+00         0.00000E+00         0.00000E+00
 
    0.10544E+06         0.13326E+06         0.00000E+00
    0.13326E+06        -0.93103E+05         0.00000E+00
    0.00000E+00         0.00000E+00         0.00000E+00
 
    0.95332E+05         0.13912E+06         0.00000E+00
    0.13912E+06        -0.88477E+05         0.00000E+00
    0.00000E+00         0.00000E+00         0.00000E+00
 
    0.85205E+05         0.14509E+06         0.00000E+00
    0.14509E+06        -0.83791E+05         0.00000E+00
    0.00000E+00         0.00000E+00         0.00000E+00
 
    0.75070E+05         0.15118E+06         0.00000E+00
    0.15118E+06        -0.79049E+05         0.00000E+00
    0.00000E+00         0.00000E+00         0.00000E+00
 
    0.64939E+05         0.15739E+06         0.00000E+00
    0.15739E+06        -0.74258E+05         0.00000E+00
    0.00000E+00         0.00000E+00         0.00000E+00
 
    0.54823E+05         0.16371E+06         0.00000E+00
    0.16371E+06        -0.69428E+05         0.00000E+00
    0.00000E+00         0.00000E+00         0.00000E+00
 
    0.44734E+05         0.17014E+06         0.00000E+00
    0.17014E+06        -0.64565E+05         0.00000E+00
    0.00000E+00         0.00000E+00         0.00000E+00
 
    0.34685E+05         0.17670E+06         0.00000E+00
    0.17670E+06        -0.59678E+05         0.00000E+00
    0.00000E+00         0.00000E+00         0.00000E+00
 
    0.24688E+05         0.18336E+06         0.00000E+00
    0.18336E+06        -0.54778E+05         0.00000E+00
    0.00000E+00         0.00000E+00         0.00000E+00
 
    0.14757E+05         0.19014E+06         0.00000E+00
    0.19014E+06        -0.49872E+05         0.00000E+00
    0.00000E+00         0.00000E+00         0.00000E+00
 
    0.49045E+04         0.19702E+06         0.00000E+00
    0.19702E+06        -0.44968E+05         0.00000E+00
    0.00000E+00         0.00000E+00         0.00000E+00
 
    0.38934E+06         0.39238E+03         0.00000E+00
    0.39238E+03        -0.23603E+06         0.00000E+00
    0.00000E+00         0.00000E+00         0.00000E+00
 
    0.38647E+06         0.16077E+04         0.00000E+00
    0.16077E+04        -0.23577E+06         0.00000E+00
    0.00000E+00         0.00000E+00         0.00000E+00
 
    0.38317E+06         0.29881E+04         0.00000E+00
    0.29881E+04        -0.23529E+06         0.00000E+00
    0.00000E+00         0.00000E+00         0.00000E+00
 
    0.37944E+06         0.45380E+04         0.00000E+00
    0.45380E+04        -0.23459E+06         0.00000E+00
    0.00000E+00         0.00000E+00         0.00000E+00
 
    0.37531E+06         0.62601E+04         0.00000E+00
    0.62601E+04        -0.23368E+06         0.00000E+00
    0.00000E+00         0.00000E+00         0.00000E+00
 
    0.37082E+06         0.81563E+04         0.00000E+00
    0.81563E+04        -0.23257E+06         0.00000E+00
    0.00000E+00         0.00000E+00         0.00000E+00
 
    0.36597E+06         0.10227E+05         0.00000E+00
    0.10227E+05        -0.23128E+06         0.00000E+00
    0.00000E+00         0.00000E+00         0.00000E+00
 
    0.36079E+06         0.12473E+05         0.00000E+00
    0.12473E+05        -0.22982E+06         0.00000E+00
    0.00000E+00         0.00000E+00         0.00000E+00
 
    0.35530E+06         0.14892E+05         0.00000E+00
    0.14892E+05        -0.22819E+06         0.00000E+00
    0.00000E+00         0.00000E+00         0.00000E+00
 
    0.34952E+06         0.17481E+05         0.00000E+00
    0.17481E+05        -0.22641E+06         0.00000E+00
    0.00000E+00         0.00000E+00         0.00000E+00
 
    0.34347E+06         0.20239E+05         0.00000E+00
    0.20239E+05        -0.22449E+06         0.00000E+00
    0.00000E+00         0.00000E+00         0.00000E+00
 
    0.33716E+06         0.23162E+05         0.00000E+00
    0.23162E+05        -0.22242E+06         0.00000E+00
    0.00000E+00         0.00000E+00         0.00000E+00
 
    0.33062E+06         0.26245E+05         0.00000E+00
    0.26245E+05        -0.22023E+06         0.00000E+00
    0.00000E+00         0.00000E+00         0.00000E+00
 
    0.32385E+06         0.29485E+05         0.00000E+00
    0.29485E+05        -0.21792E+06         0.00000E+00
    0.00000E+00         0.00000E+00         0.00000E+00
 
    0.31687E+06         0.32876E+05         0.00000E+00
    0.32876E+05        -0.21549E+06         0.00000E+00
    0.00000E+00         0.00000E+00         0.00000E+00
 
    0.30970E+06         0.36414E+05         0.00000E+00
    0.36414E+05        -0.21294E+06         0.00000E+00
    0.00000E+00         0.00000E+00         0.00000E+00
 
    0.30234E+06         0.40094E+05         0.00000E+00
    0.40094E+05        -0.21029E+06         0.00000E+00
    0.00000E+00         0.00000E+00         0.00000E+00
 
    0.29482E+06         0.43911E+05         0.00000E+00
    0.43911E+05        -0.20754E+06         0.00000E+00
    0.00000E+00         0.00000E+00         0.00000E+00
 
    0.28713E+06         0.47859E+05         0.00000E+00
    0.47859E+05        -0.20469E+06         0.00000E+00
    0.00000E+00         0.00000E+00         0.00000E+00
 
    0.27928E+06         0.51935E+05         0.00000E+00
    0.51935E+05        -0.20174E+06         0.00000E+00
    0.00000E+00         0.00000E+00         0.00000E+00
 
    0.27130E+06         0.56133E+05         0.00000E+00
    0.56133E+05        -0.19870E+06         0.00000E+00
    0.00000E+00         0.00000E+00         0.00000E+00
 
    0.26318E+06         0.60450E+05         0.00000E+00
    0.60450E+05        -0.19557E+06         0.00000E+00
    0.00000E+00         0.00000E+00         0.00000E+00
 
    0.25492E+06         0.64881E+05         0.00000E+00
    0.64881E+05        -0.19234E+06         0.00000E+00
    0.00000E+00         0.00000E+00         0.00000E+00
 
    0.24655E+06         0.69423E+05         0.00000E+00
    0.69423E+05        -0.18904E+06         0.00000E+00
    0.00000E+00         0.00000E+00         0.00000E+00
 
    0.23806E+06         0.74072E+05         0.00000E+00
    0.74072E+05        -0.18564E+06         0.00000E+00
    0.00000E+00         0.00000E+00         0.00000E+00
 
    0.22946E+06         0.78825E+05         0.00000E+00
    0.78825E+05        -0.18216E+06         0.00000E+00
    0.00000E+00         0.00000E+00         0.00000E+00
 
    0.22075E+06         0.83681E+05         0.00000E+00
    0.83681E+05        -0.17860E+06         0.00000E+00
    0.00000E+00         0.00000E+00         0.00000E+00
 
    0.21195E+06         0.88636E+05         0.00000E+00
    0.88636E+05        -0.17496E+06         0.00000E+00
    0.00000E+00         0.00000E+00         0.00000E+00
 
    0.20305E+06         0.93689E+05         0.00000E+00
    0.93689E+05        -0.17123E+06         0.00000E+00
    0.00000E+00         0.00000E+00         0.00000E+00
 
    0.19406E+06         0.98838E+05         0.00000E+00
    0.98838E+05        -0.16743E+06         0.00000E+00
    0.00000E+00         0.00000E+00         0.00000E+00
 
    0.18499E+06         0.10408E+06         0.00000E+00
    0.10408E+06        -0.16355E+06         0.00000E+00
    0.00000E+00         0.00000E+00         0.00000E+00
 
    0.17584E+06         0.10942E+06         0.00000E+00
    0.10942E+06        -0.15960E+06         0.00000E+00
    0.00000E+00         0.00000E+00         0.00000E+00
 
    0.16661E+06         0.11485E+06         0.00000E+00
    0.11485E+06        -0.15557E+06         0.00000E+00
    0.00000E+00         0.00000E+00         0.00000E+00
 
    0.15732E+06         0.12038E+06         0.00000E+00
    0.12038E+06        -0.15146E+06         0.00000E+00
    0.00000E+00         0.00000E+00         0.00000E+00
 
    0.14796E+06         0.12599E+06         0.00000E+00
    0.12599E+06        -0.14729E+06         0.00000E+00
    0.00000E+00         0.00000E+00         0.00000E+00
 
    0.13855E+06         0.13170E+06         0.00000E+00
    0.13170E+06        -0.14305E+06         0.00000E+00
    0.00000E+00         0.00000E+00         0.00000E+00
 
    0.12908E+06         0.13750E+06         0.00000E+00
    0.13750E+06        -0.13875E+06         0.00000E+00
    0.00000E+00         0.00000E+00         0.00000E+00
 
    0.11957E+06         0.14339E+06         0.00000E+00
    0.14339E+06        -0.13439E+06         0.00000E+00
    0.00000E+00         0.00000E+00         0.00000E+00
 
    0.11002E+06         0.14938E+06         0.00000E+00
    0.14938E+06        -0.12997E+06         0.00000E+00
    0.00000E+00         0.00000E+00         0.00000E+00
 
    0.10044E+06         0.15545E+06         0.00000E+00
    0.15545E+06        -0.12550E+06         0.00000E+00
    0.00000E+00         0.00000E+00         0.00000E+00
 
    0.90839E+05         0.16162E+06         0.00000E+00
    0.16162E+06        -0.12098E+06         0.00000E+00
    0.00000E+00         0.00000E+00         0.00000E+00
 
    0.81220E+05         0.16788E+06         0.00000E+00
    0.16788E+06        -0.11642E+06         0.00000E+00
    0.00000E+00         0.00000E+00         0.00000E+00
 
    0.71593E+05         0.17422E+06         0.00000E+00
    0.17422E+06        -0.11182E+06         0.00000E+00
    0.00000E+00         0.00000E+00         0.00000E+00
 
    0.61966E+05         0.18065E+06         0.00000E+00
    0.18065E+06        -0.10719E+06         0.00000E+00
    0.00000E+00         0.00000E+00         0.00000E+00
 
    0.52348E+05         0.18717E+06         0.00000E+00
    0.18717E+06        -0.10252E+06         0.00000E+00
    0.00000E+00         0.00000E+00         0.00000E+00
 
    0.42749E+05         0.19377E+06         0.00000E+00
    0.19377E+06        -0.97842E+05         0.00000E+00
    0.00000E+00         0.00000E+00         0.00000E+00
 
    0.33175E+05         0.20045E+06         0.00000E+00
    0.20045E+06        -0.93145E+05         0.00000E+00
    0.00000E+00         0.00000E+00         0.00000E+00
 
    0.23637E+05         0.20721E+06         0.00000E+00
    0.20721E+06        -0.88438E+05         0.00000E+00
    0.00000E+00         0.00000E+00         0.00000E+00
 
    0.14145E+05         0.21404E+06         0.00000E+00
    0.21404E+06        -0.83730E+05         0.00000E+00
    0.00000E+00         0.00000E+00         0.00000E+00
 
    0.47052E+04         0.22094E+06         0.00000E+00
    0.22094E+06        -0.79025E+05         0.00000E+00
    0.00000E+00         0.00000E+00         0.00000E+00
 
    0.36332E+06         0.10162E+04         0.00000E+00
    0.10162E+04        -0.27058E+06         0.00000E+00
    0.00000E+00         0.00000E+00         0.00000E+00
 
    0.36113E+06         0.33336E+04         0.00000E+00
    0.33336E+04        -0.27034E+06         0.00000E+00
    0.00000E+00         0.00000E+00         0.00000E+00
 
    0.35852E+06         0.57635E+04         0.00000E+00
    0.57635E+04        -0.26988E+06         0.00000E+00
    0.00000E+00         0.00000E+00         0.00000E+00
 
    0.35551E+06         0.83110E+04         0.00000E+00
    0.83110E+04        -0.26921E+06         0.00000E+00
    0.00000E+00         0.00000E+00         0.00000E+00
 
    0.35212E+06         0.10980E+05         0.00000E+00
    0.10980E+05        -0.26833E+06         0.00000E+00
    0.00000E+00         0.00000E+00         0.00000E+00
 
    0.34837E+06         0.13775E+05         0.00000E+00
    0.13775E+05        -0.26727E+06         0.00000E+00
    0.00000E+00         0.00000E+00         0.00000E+00
 
    0.34427E+06         0.16697E+05         0.00000E+00
    0.16697E+05        -0.26602E+06         0.00000E+00
    0.00000E+00         0.00000E+00         0.00000E+00
 
    0.33984E+06         0.19750E+05         0.00000E+00
    0.19750E+05        -0.26460E+06         0.00000E+00
    0.00000E+00         0.00000E+00         0.00000E+00
 
    0.33510E+06         0.22932E+05         0.00000E+00
    0.22932E+05        -0.26300E+06         0.00000E+00
    0.00000E+00         0.00000E+00         0.00000E+00
 
    0.33006E+06         0.26246E+05         0.00000E+00
    0.26246E+05        -0.26125E+06         0.00000E+00
    0.00000E+00         0.00000E+00         0.00000E+00
 
    0.32474E+06         0.29691E+05         0.00000E+00
    0.29691E+05        -0.25935E+06         0.00000E+00
    0.00000E+00         0.00000E+00         0.00000E+00
 
    0.31916E+06         0.33265E+05         0.00000E+00
    0.33265E+05        -0.25731E+06         0.00000E+00
    0.00000E+00         0.00000E+00         0.00000E+00
 
    0.31332E+06         0.36969E+05         0.00000E+00
    0.36969E+05        -0.25512E+06         0.00000E+00
    0.00000E+00         0.00000E+00         0.00000E+00
 
    0.30725E+06         0.40799E+05         0.00000E+00
    0.40799E+05        -0.25281E+06         0.00000E+00
    0.00000E+00         0.00000E+00         0.00000E+00
 
    0.30094E+06         0.44755E+05         0.00000E+00
    0.44755E+05        -0.25037E+06         0.00000E+00
    0.00000E+00         0.00000E+00         0.00000E+00
 
    0.29443E+06         0.48834E+05         0.00000E+00
    0.48834E+05        -0.24781E+06         0.00000E+00
    0.00000E+00         0.00000E+00         0.00000E+00
 
    0.28771E+06         0.53034E+05         0.00000E+00
    0.53034E+05        -0.24514E+06         0.00000E+00
    0.00000E+00         0.00000E+00         0.00000E+00
 
    0.28080E+06         0.57351E+05         0.00000E+00
    0.57351E+05        -0.24236E+06         0.00000E+00
    0.00000E+00         0.00000E+00         0.00000E+00
 
    0.27372E+06         0.61784E+05         0.00000E+00
    0.61784E+05        -0.23947E+06         0.00000E+00
    0.00000E+00         0.00000E+00         0.00000E+00
 
    0.26646E+06         0.66329E+05         0.00000E+00
    0.66329E+05        -0.23648E+06         0.00000E+00
    0.00000E+00         0.00000E+00         0.00000E+00
 
    0.25903E+06         0.70983E+05         0.00000E+00
    0.70983E+05        -0.23339E+06         0.00000E+00
    0.00000E+00         0.00000E+00         0.00000E+00
 
    0.25146E+06         0.75745E+05         0.00000E+00
    0.75745E+05        -0.23021E+06         0.00000E+00
    0.00000E+00         0.00000E+00         0.00000E+00
 
    0.24374E+06         0.80611E+05         0.00000E+00
    0.80611E+05        -0.22694E+06         0.00000E+00
    0.00000E+00         0.00000E+00         0.00000E+00
 
    0.23588E+06         0.85578E+05         0.00000E+00
    0.85578E+05        -0.22359E+06         0.00000E+00
    0.00000E+00         0.00000E+00         0.00000E+00
 
    0.22790E+06         0.90644E+05         0.00000E+00
    0.90644E+05        -0.22014E+06         0.00000E+00
    0.00000E+00         0.00000E+00         0.00000E+00
 
    0.21979E+06         0.95807E+05         0.00000E+00
    0.95807E+05        -0.21662E+06         0.00000E+00
    0.00000E+00         0.00000E+00         0.00000E+00
 
    0.21156E+06         0.10106E+06         0.00000E+00
    0.10106E+06        -0.21301E+06         0.00000E+00
    0.00000E+00         0.00000E+00         0.00000E+00
 
    0.20323E+06         0.10641E+06         0.00000E+00
    0.10641E+06        -0.20933E+06         0.00000E+00
    0.00000E+00         0.00000E+00         0.00000E+00
 
    0.19479E+06         0.11185E+06         0.00000E+00
    0.11185E+06        -0.20558E+06         0.00000E+00
    0.00000E+00         0.00000E+00         0.00000E+00
 
    0.18625E+06         0.11738E+06         0.00000E+00
    0.11738E+06        -0.20175E+06         0.00000E+00
    0.00000E+00         0.00000E+00         0.00000E+00
 
    0.17763E+06         0.12300E+06         0.00000E+00
    0.12300E+06        -0.19785E+06         0.00000E+00
    0.00000E+00         0.00000E+00         0.00000E+00
 
    0.16892E+06         0.12870E+06         0.00000E+00
    0.12870E+06        -0.19389E+06         0.00000E+00
    0.00000E+00         0.00000E+00         0.00000E+00
 
    0.16013E+06         0.13449E+06         0.00000E+00
    0.13449E+06        -0.18986E+06         0.00000E+00
    0.00000E+00         0.00000E+00         0.00000E+00
 
    0.15126E+06         0.14035E+06         0.00000E+00
    0.14035E+06        -0.18577E+06         0.00000E+00
    0.00000E+00         0.00000E+00         0.00000E+00
 
    0.14233E+06         0.14630E+06         0.00000E+00
    0.14630E+06        -0.18162E+06         0.00000E+00
    0.00000E+00         0.00000E+00         0.00000E+00
 
    0.13334E+06         0.15233E+06         0.00000E+00
    0.15233E+06        -0.17741E+06         0.00000E+00
    0.00000E+00         0.00000E+00         0.00000E+00
 
    0.12429E+06         0.15844E+06         0.00000E+00
    0.15844E+06        -0.17315E+06         0.00000E+00
    0.00000E+00         0.00000E+00         0.00000E+00
 
    0.11520E+06         0.16462E+06         0.00000E+00
    0.16462E+06        -0.16885E+06         0.00000E+00
    0.00000E+00         0.00000E+00         0.00000E+00
 
    0.10606E+06         0.17088E+06         0.00000E+00
    0.17088E+06        -0.16449E+06         0.00000E+00
    0.00000E+00         0.00000E+00         0.00000E+00
 
    0.96885E+05         0.17721E+06         0.00000E+00
    0.17721E+06        -0.16010E+06         0.00000E+00
    0.00000E+00         0.00000E+00         0.00000E+00
 
    0.87681E+05         0.18362E+06         0.00000E+00
    0.18362E+06        -0.15567E+06         0.00000E+00
    0.00000E+00         0.00000E+00         0.00000E+00
 
    0.78453E+05         0.19009E+06         0.00000E+00
    0.19009E+06        -0.15120E+06         0.00000E+00
    0.00000E+00         0.00000E+00         0.00000E+00
 
    0.69209E+05         0.19664E+06         0.00000E+00
    0.19664E+06        -0.14670E+06         0.00000E+00
    0.00000E+00         0.00000E+00         0.00000E+00
 
    0.59954E+05         0.20324E+06         0.00000E+00
    0.20324E+06        -0.14218E+06         0.00000E+00
    0.00000E+00         0.00000E+00         0.00000E+00
 
    0.50696E+05         0.20992E+06         0.00000E+00
    0.20992E+06        -0.13764E+06         0.00000E+00
    0.00000E+00         0.00000E+00         0.00000E+00
 
    0.41441E+05         0.21665E+06         0.00000E+00
    0.21665E+06        -0.13308E+06         0.00000E+00
    0.00000E+00         0.00000E+00         0.00000E+00
 
    0.32195E+05         0.22343E+06         0.00000E+00
    0.22343E+06        -0.12851E+06         0.00000E+00
    0.00000E+00         0.00000E+00         0.00000E+00
 
    0.22966E+05         0.23027E+06         0.00000E+00
    0.23027E+06        -0.12393E+06         0.00000E+00
    0.00000E+00         0.00000E+00         0.00000E+00
 
    0.13759E+05         0.23716E+06         0.00000E+00
    0.23716E+06        -0.11934E+06         0.00000E+00
    0.00000E+00         0.00000E+00         0.00000E+00
 
    0.45811E+04         0.24409E+06         0.00000E+00
    0.24409E+06        -0.11476E+06         0.00000E+00
    0.00000E+00         0.00000E+00         0.00000E+00
 
    0.34272E+06         0.15955E+04         0.00000E+00
    0.15955E+04        -0.30520E+06         0.00000E+00
    0.00000E+00         0.00000E+00         0.00000E+00
 
    0.34097E+06         0.49588E+04         0.00000E+00
    0.49588E+04        -0.30498E+06         0.00000E+00
    0.00000E+00         0.00000E+00         0.00000E+00
 
    0.33882E+06         0.83937E+04         0.00000E+00
    0.83937E+04        -0.30455E+06         0.00000E+00
    0.00000E+00         0.00000E+00         0.00000E+00
 
    0.33631E+06         0.11906E+05         0.00000E+00
    0.11906E+05        -0.30391E+06         0.00000E+00
    0.00000E+00         0.00000E+00         0.00000E+00
 
    0.33343E+06         0.15500E+05         0.00000E+00
    0.15500E+05        -0.30309E+06         0.00000E+00
    0.00000E+00         0.00000E+00         0.00000E+00
 
    0.33021E+06         0.19180E+05         0.00000E+00
    0.19180E+05        -0.30207E+06         0.00000E+00
    0.00000E+00         0.00000E+00         0.00000E+00
 
    0.32665E+06         0.22950E+05         0.00000E+00
    0.22950E+05        -0.30088E+06         0.00000E+00
    0.00000E+00         0.00000E+00         0.00000E+00
 
    0.32277E+06         0.26813E+05         0.00000E+00
    0.26813E+05        -0.29951E+06         0.00000E+00
    0.00000E+00         0.00000E+00         0.00000E+00
 
    0.31859E+06         0.30771E+05         0.00000E+00
    0.30771E+05        -0.29797E+06         0.00000E+00
    0.00000E+00         0.00000E+00         0.00000E+00
 
    0.31411E+06         0.34825E+05         0.00000E+00
    0.34825E+05        -0.29628E+06         0.00000E+00
    0.00000E+00         0.00000E+00         0.00000E+00
 
    0.30936E+06         0.38978E+05         0.00000E+00
    0.38978E+05        -0.29444E+06         0.00000E+00
    0.00000E+00         0.00000E+00         0.00000E+00
 
    0.30434E+06         0.43230E+05         0.00000E+00
    0.43230E+05        -0.29245E+06         0.00000E+00
    0.00000E+00         0.00000E+00         0.00000E+00
 
    0.29906E+06         0.47582E+05         0.00000E+00
    0.47582E+05        -0.29031E+06         0.00000E+00
    0.00000E+00         0.00000E+00         0.00000E+00
 
    0.29354E+06         0.52033E+05         0.00000E+00
    0.52033E+05        -0.28805E+06         0.00000E+00
    0.00000E+00         0.00000E+00         0.00000E+00
 
    0.28779E+06         0.56583E+05         0.00000E+00
    0.56583E+05        -0.28565E+06         0.00000E+00
    0.00000E+00         0.00000E+00         0.00000E+00
 
    0.28181E+06         0.61232E+05         0.00000E+00
    0.61232E+05        -0.28314E+06         0.00000E+00
    0.00000E+00         0.00000E+00         0.00000E+00
 
    0.27563E+06         0.65979E+05         0.00000E+00
    0.65979E+05        -0.28050E+06         0.00000E+00
    0.00000E+00         0.00000E+00         0.00000E+00
 
    0.26924E+06         0.70823E+05         0.00000E+00
    0.70823E+05        -0.27775E+06         0.00000E+00
    0.00000E+00         0.00000E+00         0.00000E+00
 
    0.26267E+06         0.75762E+05         0.00000E+00
    0.75762E+05        -0.27489E+06         0.00000E+00
    0.00000E+00         0.00000E+00         0.00000E+00
 
    0.25591E+06         0.80795E+05         0.00000E+00
    0.80795E+05        -0.27193E+06         0.00000E+00
    0.00000E+00         0.00000E+00         0.00000E+00
 
    0.24898E+06         0.85921E+05         0.00000E+00
    0.85921E+05        -0.26887E+06         0.00000E+00
    0.00000E+00         0.00000E+00         0.00000E+00
 
    0.24189E+06         0.91138E+05         0.00000E+00
    0.91138E+05        -0.26571E+06         0.00000E+00
    0.00000E+00         0.00000E+00         0.00000E+00
 
    0.23464E+06         0.96445E+05         0.00000E+00
    0.96445E+05        -0.26246E+06         0.00000E+00
    0.00000E+00         0.00000E+00         0.00000E+00
 
    0.22724E+06         0.10184E+06         0.00000E+00
    0.10184E+06        -0.25912E+06         0.00000E+00
    0.00000E+00         0.00000E+00         0.00000E+00
 
    0.21970E+06         0.10732E+06         0.00000E+00
    0.10732E+06        -0.25569E+06         0.00000E+00
    0.00000E+00         0.00000E+00         0.00000E+00
 
    0.21203E+06         0.11288E+06         0.00000E+00
    0.11288E+06        -0.25219E+06         0.00000E+00
    0.00000E+00         0.00000E+00         0.00000E+00
 
    0.20424E+06         0.11853E+06         0.00000E+00
    0.11853E+06        -0.24860E+06         0.00000E+00
    0.00000E+00         0.00000E+00         0.00000E+00
 
    0.19632E+06         0.12426E+06         0.00000E+00
    0.12426E+06        -0.24494E+06         0.00000E+00
    0.00000E+00         0.00000E+00         0.00000E+00
 
    0.18829E+06         0.13006E+06         0.00000E+00
    0.13006E+06        -0.24120E+06         0.00000E+00
    0.00000E+00         0.00000E+00         0.00000E+00
 
    0.18016E+06         0.13594E+06         0.00000E+00
    0.13594E+06        -0.23740E+06         0.00000E+00
    0.00000E+00         0.00000E+00         0.00000E+00
 
    0.17193E+06         0.14190E+06         0.00000E+00
    0.14190E+06        -0.23353E+06         0.00000E+00
    0.00000E+00         0.00000E+00         0.00000E+00
 
    0.16361E+06         0.14793E+06         0.00000E+00
    0.14793E+06        -0.22960E+06         0.00000E+00
    0.00000E+00         0.00000E+00         0.00000E+00
 
    0.15519E+06         0.15404E+06         0.00000E+00
    0.15404E+06        -0.22560E+06         0.00000E+00
    0.00000E+00         0.00000E+00         0.00000E+00
 
    0.14670E+06         0.16021E+06         0.00000E+00
    0.16021E+06        -0.22155E+06         0.00000E+00
    0.00000E+00         0.00000E+00         0.00000E+00
 
    0.13813E+06         0.16645E+06         0.00000E+00
    0.16645E+06        -0.21745E+06         0.00000E+00
    0.00000E+00         0.00000E+00         0.00000E+00
 
    0.12950E+06         0.17276E+06         0.00000E+00
    0.17276E+06        -0.21329E+06         0.00000E+00
    0.00000E+00         0.00000E+00         0.00000E+00
 
    0.12080E+06         0.17913E+06         0.00000E+00
    0.17913E+06        -0.20909E+06         0.00000E+00
    0.00000E+00         0.00000E+00         0.00000E+00
 
    0.11204E+06         0.18556E+06         0.00000E+00
    0.18556E+06        -0.20484E+06         0.00000E+00
    0.00000E+00         0.00000E+00         0.00000E+00
 
    0.10323E+06         0.19206E+06         0.00000E+00
    0.19206E+06        -0.20056E+06         0.00000E+00
    0.00000E+00         0.00000E+00         0.00000E+00
 
    0.94377E+05         0.19861E+06         0.00000E+00
    0.19861E+06        -0.19623E+06         0.00000E+00
    0.00000E+00         0.00000E+00         0.00000E+00
 
    0.85482E+05         0.20522E+06         0.00000E+00
    0.20522E+06        -0.19187E+06         0.00000E+00
    0.00000E+00         0.00000E+00         0.00000E+00
 
    0.76553E+05         0.21189E+06         0.00000E+00
    0.21189E+06        -0.18748E+06         0.00000E+00
    0.00000E+00         0.00000E+00         0.00000E+00
 
    0.67594E+05         0.21860E+06         0.00000E+00
    0.21860E+06        -0.18306E+06         0.00000E+00
    0.00000E+00         0.00000E+00         0.00000E+00
 
    0.58611E+05         0.22536E+06         0.00000E+00
    0.22536E+06        -0.17862E+06         0.00000E+00
    0.00000E+00         0.00000E+00         0.00000E+00
 
    0.49610E+05         0.23217E+06         0.00000E+00
    0.23217E+06        -0.17416E+06         0.00000E+00
    0.00000E+00         0.00000E+00         0.00000E+00
 
    0.40596E+05         0.23902E+06         0.00000E+00
    0.23902E+06        -0.16968E+06         0.00000E+00
    0.00000E+00         0.00000E+00         0.00000E+00
 
    0.31574E+05         0.24591E+06         0.00000E+00
    0.24591E+06        -0.16519E+06         0.00000E+00
    0.00000E+00         0.00000E+00         0.00000E+00
 
    0.22549E+05         0.25283E+06         0.00000E+00
    0.25283E+06        -0.16070E+06         0.00000E+00
    0.00000E+00         0.00000E+00         0.00000E+00
 
    0.13525E+05         0.25978E+06         0.00000E+00
    0.25978E+06        -0.15619E+06         0.00000E+00
    0.00000E+00         0.00000E+00         0.00000E+00
 
    0.45069E+04         0.26676E+06         0.00000E+00
    0.26676E+06        -0.15168E+06         0.00000E+00
    0.00000E+00         0.00000E+00         0.00000E+00
 
    0.32704E+06         0.21322E+04         0.00000E+00
    0.21322E+04        -0.34007E+06         0.00000E+00
    0.00000E+00         0.00000E+00         0.00000E+00
 
    0.32555E+06         0.64816E+04         0.00000E+00
    0.64816E+04        -0.33986E+06         0.00000E+00
    0.00000E+00         0.00000E+00         0.00000E+00
 
    0.32369E+06         0.10870E+05         0.00000E+00
    0.10870E+05        -0.33946E+06         0.00000E+00
    0.00000E+00         0.00000E+00         0.00000E+00
 
    0.32149E+06         0.15305E+05         0.00000E+00
    0.15305E+05        -0.33886E+06         0.00000E+00
    0.00000E+00         0.00000E+00         0.00000E+00
 
    0.31895E+06         0.19789E+05         0.00000E+00
    0.19789E+05        -0.33808E+06         0.00000E+00
    0.00000E+00         0.00000E+00         0.00000E+00
 
    0.31608E+06         0.24328E+05         0.00000E+00
    0.24328E+05        -0.33712E+06         0.00000E+00
    0.00000E+00         0.00000E+00         0.00000E+00
 
    0.31289E+06         0.28926E+05         0.00000E+00
    0.28926E+05        -0.33598E+06         0.00000E+00
    0.00000E+00         0.00000E+00         0.00000E+00
 
    0.30941E+06         0.33586E+05         0.00000E+00
    0.33586E+05        -0.33468E+06         0.00000E+00
    0.00000E+00         0.00000E+00         0.00000E+00
 
    0.30562E+06         0.38311E+05         0.00000E+00
    0.38311E+05        -0.33322E+06         0.00000E+00
    0.00000E+00         0.00000E+00         0.00000E+00
 
    0.30156E+06         0.43104E+05         0.00000E+00
    0.43104E+05        -0.33160E+06         0.00000E+00
    0.00000E+00         0.00000E+00         0.00000E+00
 
    0.29722E+06         0.47967E+05         0.00000E+00
    0.47967E+05        -0.32983E+06         0.00000E+00
    0.00000E+00         0.00000E+00         0.00000E+00
 
    0.29262E+06         0.52903E+05         0.00000E+00
    0.52903E+05        -0.32791E+06         0.00000E+00
    0.00000E+00         0.00000E+00         0.00000E+00
 
    0.28776E+06         0.57911E+05         0.00000E+00
    0.57911E+05        -0.32585E+06         0.00000E+00
    0.00000E+00         0.00000E+00         0.00000E+00
 
    0.28267E+06         0.62994E+05         0.00000E+00
    0.62994E+05        -0.32366E+06         0.00000E+00
    0.00000E+00         0.00000E+00         0.00000E+00
 
    0.27734E+06         0.68152E+05         0.00000E+00
    0.68152E+05        -0.32134E+06         0.00000E+00
    0.00000E+00         0.00000E+00         0.00000E+00
 
    0.27180E+06         0.73385E+05         0.00000E+00
    0.73385E+05        -0.31890E+06         0.00000E+00
    0.00000E+00         0.00000E+00         0.00000E+00
 
    0.26604E+06         0.78694E+05         0.00000E+00
    0.78694E+05        -0.31633E+06         0.00000E+00
    0.00000E+00         0.00000E+00         0.00000E+00
 
    0.26007E+06         0.84078E+05         0.00000E+00
    0.84078E+05        -0.31365E+06         0.00000E+00
    0.00000E+00         0.00000E+00         0.00000E+00
 
    0.25391E+06         0.89538E+05         0.00000E+00
    0.89538E+05        -0.31086E+06         0.00000E+00
    0.00000E+00         0.00000E+00         0.00000E+00
 
    0.24756E+06         0.95073E+05         0.00000E+00
    0.95073E+05        -0.30796E+06         0.00000E+00
    0.00000E+00         0.00000E+00         0.00000E+00
 
    0.24104E+06         0.10068E+06         0.00000E+00
    0.10068E+06        -0.30496E+06         0.00000E+00
    0.00000E+00         0.00000E+00         0.00000E+00
 
    0.23435E+06         0.10636E+06         0.00000E+00
    0.10636E+06        -0.30186E+06         0.00000E+00
    0.00000E+00         0.00000E+00         0.00000E+00
 
    0.22749E+06         0.11212E+06         0.00000E+00
    0.11212E+06        -0.29867E+06         0.00000E+00
    0.00000E+00         0.00000E+00         0.00000E+00
 
    0.22048E+06         0.11794E+06         0.00000E+00
    0.11794E+06        -0.29539E+06         0.00000E+00
    0.00000E+00         0.00000E+00         0.00000E+00
 
    0.21332E+06         0.12384E+06         0.00000E+00
    0.12384E+06        -0.29202E+06         0.00000E+00
    0.00000E+00         0.00000E+00         0.00000E+00
 
    0.20602E+06         0.12981E+06         0.00000E+00
    0.12981E+06        -0.28857E+06         0.00000E+00
    0.00000E+00         0.00000E+00         0.00000E+00
 
    0.19859E+06         0.13584E+06         0.00000E+00
    0.13584E+06        -0.28504E+06         0.00000E+00
    0.00000E+00         0.00000E+00         0.00000E+00
 
    0.19103E+06         0.14194E+06         0.00000E+00
    0.14194E+06        -0.28143E+06         0.00000E+00
    0.00000E+00         0.00000E+00         0.00000E+00
 
    0.18335E+06         0.14810E+06         0.00000E+00
    0.14810E+06        -0.27775E+06         0.00000E+00
    0.00000E+00         0.00000E+00         0.00000E+00
 
    0.17555E+06         0.15433E+06         0.00000E+00
    0.15433E+06        -0.27400E+06         0.00000E+00
    0.00000E+00         0.00000E+00         0.00000E+00
 
    0.16765E+06         0.16062E+06         0.00000E+00
    0.16062E+06        -0.27018E+06         0.00000E+00
    0.00000E+00         0.00000E+00         0.00000E+00
 
    0.15965E+06         0.16697E+06         0.00000E+00
    0.16697E+06        -0.26631E+06         0.00000E+00
    0.00000E+00         0.00000E+00         0.00000E+00
 
    0.15155E+06         0.17338E+06         0.00000E+00
    0.17338E+06        -0.26237E+06         0.00000E+00
    0.00000E+00         0.00000E+00         0.00000E+00
 
    0.14336E+06         0.17984E+06         0.00000E+00
    0.17984E+06        -0.25838E+06         0.00000E+00
    0.00000E+00         0.00000E+00         0.00000E+00
 
    0.13509E+06         0.18636E+06         0.00000E+00
    0.18636E+06        -0.25433E+06         0.00000E+00
    0.00000E+00         0.00000E+00         0.00000E+00
 
    0.12674E+06         0.19293E+06         0.00000E+00
    0.19293E+06        -0.25023E+06         0.00000E+00
    0.00000E+00         0.00000E+00         0.00000E+00
 
    0.11832E+06         0.19955E+06         0.00000E+00
    0.19955E+06        -0.24609E+06         0.00000E+00
    0.00000E+00         0.00000E+00         0.00000E+00
 
    0.10983E+06         0.20622E+06         0.00000E+00
    0.20622E+06        -0.24190E+06         0.00000E+00
    0.00000E+00         0.00000E+00         0.00000E+00
 
    0.10128E+06         0.21294E+06         0.00000E+00
    0.21294E+06        -0.23768E+06         0.00000E+00
    0.00000E+00         0.00000E+00         0.00000E+00
 
    0.92668E+05         0.21970E+06         0.00000E+00
    0.21970E+06        -0.23341E+06         0.00000E+00
    0.00000E+00         0.00000E+00         0.00000E+00
 
    0.84006E+05         0.22651E+06         0.00000E+00
    0.22651E+06        -0.22912E+06         0.00000E+00
    0.00000E+00         0.00000E+00         0.00000E+00
 
    0.75298E+05         0.23335E+06         0.00000E+00
    0.23335E+06        -0.22479E+06         0.00000E+00
    0.00000E+00         0.00000E+00         0.00000E+00
 
    0.66546E+05         0.24023E+06         0.00000E+00
    0.24023E+06        -0.22043E+06         0.00000E+00
    0.00000E+00         0.00000E+00         0.00000E+00
 
    0.57758E+05         0.24714E+06         0.00000E+00
    0.24714E+06        -0.21605E+06         0.00000E+00
    0.00000E+00         0.00000E+00         0.00000E+00
 
    0.48935E+05         0.25409E+06         0.00000E+00
    0.25409E+06        -0.21165E+06         0.00000E+00
    0.00000E+00         0.00000E+00         0.00000E+00
 
    0.40084E+05         0.26106E+06         0.00000E+00
    0.26106E+06        -0.20723E+06         0.00000E+00
    0.00000E+00         0.00000E+00         0.00000E+00
 
    0.31208E+05         0.26806E+06         0.00000E+00
    0.26806E+06        -0.20279E+06         0.00000E+00
    0.00000E+00         0.00000E+00         0.00000E+00
 
    0.22310E+05         0.27508E+06         0.00000E+00
    0.27508E+06        -0.19834E+06         0.00000E+00
    0.00000E+00         0.00000E+00         0.00000E+00
 
    0.13396E+05         0.28211E+06         0.00000E+00
    0.28211E+06        -0.19388E+06         0.00000E+00
    0.00000E+00         0.00000E+00         0.00000E+00
 
    0.44673E+04         0.28916E+06         0.00000E+00
    0.28916E+06        -0.18942E+06         0.00000E+00
    0.00000E+00         0.00000E+00         0.00000E+00
 
    0.31582E+06         0.26290E+04         0.00000E+00
    0.26290E+04        -0.37533E+06         0.00000E+00
    0.00000E+00         0.00000E+00         0.00000E+00
 
    0.31444E+06         0.79045E+04         0.00000E+00
    0.79045E+04        -0.37514E+06         0.00000E+00
    0.00000E+00         0.00000E+00         0.00000E+00
 
    0.31273E+06         0.13194E+05         0.00000E+00
    0.13194E+05        -0.37476E+06         0.00000E+00
    0.00000E+00         0.00000E+00         0.00000E+00
 
    0.31070E+06         0.18504E+05         0.00000E+00
    0.18504E+05        -0.37420E+06         0.00000E+00
    0.00000E+00         0.00000E+00         0.00000E+00
 
    0.30835E+06         0.23839E+05         0.00000E+00
    0.23839E+05        -0.37347E+06         0.00000E+00
    0.00000E+00         0.00000E+00         0.00000E+00
 
    0.30570E+06         0.29203E+05         0.00000E+00
    0.29203E+05        -0.37256E+06         0.00000E+00
    0.00000E+00         0.00000E+00         0.00000E+00
 
    0.30275E+06         0.34600E+05         0.00000E+00
    0.34600E+05        -0.37149E+06         0.00000E+00
    0.00000E+00         0.00000E+00         0.00000E+00
 
    0.29951E+06         0.40035E+05         0.00000E+00
    0.40035E+05        -0.37025E+06         0.00000E+00
    0.00000E+00         0.00000E+00         0.00000E+00
 
    0.29599E+06         0.45510E+05         0.00000E+00
    0.45510E+05        -0.36886E+06         0.00000E+00
    0.00000E+00         0.00000E+00         0.00000E+00
 
    0.29221E+06         0.51029E+05         0.00000E+00
    0.51029E+05        -0.36731E+06         0.00000E+00
    0.00000E+00         0.00000E+00         0.00000E+00
 
    0.28815E+06         0.56594E+05         0.00000E+00
    0.56594E+05        -0.36562E+06         0.00000E+00
    0.00000E+00         0.00000E+00         0.00000E+00
 
    0.28385E+06         0.62207E+05         0.00000E+00
    0.62207E+05        -0.36379E+06         0.00000E+00
    0.00000E+00         0.00000E+00         0.00000E+00
 
    0.27930E+06         0.67870E+05         0.00000E+00
    0.67870E+05        -0.36182E+06         0.00000E+00
    0.00000E+00         0.00000E+00         0.00000E+00
 
    0.27452E+06         0.73584E+05         0.00000E+00
    0.73584E+05        -0.35971E+06         0.00000E+00
    0.00000E+00         0.00000E+00         0.00000E+00
 
    0.26951E+06         0.79352E+05         0.00000E+00
    0.79352E+05        -0.35747E+06         0.00000E+00
    0.00000E+00         0.00000E+00         0.00000E+00
 
    0.26428E+06         0.85174E+05         0.00000E+00
    0.85174E+05        -0.35512E+06         0.00000E+00
    0.00000E+00         0.00000E+00         0.00000E+00
 
    0.25884E+06         0.91051E+05         0.00000E+00
    0.91051E+05        -0.35264E+06         0.00000E+00
    0.00000E+00         0.00000E+00         0.00000E+00
 
    0.25319E+06         0.96984E+05         0.00000E+00
    0.96984E+05        -0.35004E+06         0.00000E+00
    0.00000E+00         0.00000E+00         0.00000E+00
 
    0.24735E+06         0.10297E+06         0.00000E+00
    0.10297E+06        -0.34733E+06         0.00000E+00
    0.00000E+00         0.00000E+00         0.00000E+00
 
    0.24132E+06         0.10902E+06         0.00000E+00
    0.10902E+06        -0.34452E+06         0.00000E+00
    0.00000E+00         0.00000E+00         0.00000E+00
 
    0.23511E+06         0.11512E+06         0.00000E+00
    0.11512E+06        -0.34160E+06         0.00000E+00
    0.00000E+00         0.00000E+00         0.00000E+00
 
    0.22873E+06         0.12127E+06         0.00000E+00
    0.12127E+06        -0.33858E+06         0.00000E+00
    0.00000E+00         0.00000E+00         0.00000E+00
 
    0.22219E+06         0.12748E+06         0.00000E+00
    0.12748E+06        -0.33547E+06         0.00000E+00
    0.00000E+00         0.00000E+00         0.00000E+00
 
    0.21548E+06         0.13375E+06         0.00000E+00
    0.13375E+06        -0.33227E+06         0.00000E+00
    0.00000E+00         0.00000E+00         0.00000E+00
 
    0.20862E+06         0.14007E+06         0.00000E+00
    0.14007E+06        -0.32897E+06         0.00000E+00
    0.00000E+00         0.00000E+00         0.00000E+00
 
    0.20161E+06         0.14644E+06         0.00000E+00
    0.14644E+06        -0.32560E+06         0.00000E+00
    0.00000E+00         0.00000E+00         0.00000E+00
 
    0.19447E+06         0.15287E+06         0.00000E+00
    0.15287E+06        -0.32214E+06         0.00000E+00
    0.00000E+00         0.00000E+00         0.00000E+00
 
    0.18719E+06         0.15934E+06         0.00000E+00
    0.15934E+06        -0.31860E+06         0.00000E+00
    0.00000E+00         0.00000E+00         0.00000E+00
 
    0.17979E+06         0.16587E+06         0.00000E+00
    0.16587E+06        -0.31499E+06         0.00000E+00
    0.00000E+00         0.00000E+00         0.00000E+00
 
    0.17227E+06         0.17244E+06         0.00000E+00
    0.17244E+06        -0.31131E+06         0.00000E+00
    0.00000E+00         0.00000E+00         0.00000E+00
 
    0.16463E+06         0.17906E+06         0.00000E+00
    0.17906E+06        -0.30756E+06         0.00000E+00
    0.00000E+00         0.00000E+00         0.00000E+00
 
    0.15688E+06         0.18573E+06         0.00000E+00
    0.18573E+06        -0.30375E+06         0.00000E+00
    0.00000E+00         0.00000E+00         0.00000E+00
 
    0.14903E+06         0.19245E+06         0.00000E+00
    0.19245E+06        -0.29988E+06         0.00000E+00
    0.00000E+00         0.00000E+00         0.00000E+00
 
    0.14108E+06         0.19920E+06         0.00000E+00
    0.19920E+06        -0.29595E+06         0.00000E+00
    0.00000E+00         0.00000E+00         0.00000E+00
 
    0.13303E+06         0.20600E+06         0.00000E+00
    0.20600E+06        -0.29196E+06         0.00000E+00
    0.00000E+00         0.00000E+00         0.00000E+00
 
    0.12490E+06         0.21283E+06         0.00000E+00
    0.21283E+06        -0.28793E+06         0.00000E+00
    0.00000E+00         0.00000E+00         0.00000E+00
 
    0.11669E+06         0.21971E+06         0.00000E+00
    0.21971E+06        -0.28384E+06         0.00000E+00
    0.00000E+00         0.00000E+00         0.00000E+00
 
    0.10840E+06         0.22662E+06         0.00000E+00
    0.22662E+06        -0.27971E+06         0.00000E+00
    0.00000E+00         0.00000E+00         0.00000E+00
 
    0.10004E+06         0.23356E+06         0.00000E+00
    0.23356E+06        -0.27554E+06         0.00000E+00
    0.00000E+00         0.00000E+00         0.00000E+00
 
    0.91605E+05         0.24053E+06         0.00000E+00
    0.24053E+06        -0.27133E+06         0.00000E+00
    0.00000E+00         0.00000E+00         0.00000E+00
 
    0.83109E+05         0.24753E+06         0.00000E+00
    0.24753E+06        -0.26708E+06         0.00000E+00
    0.00000E+00         0.00000E+00         0.00000E+00
 
    0.74555E+05         0.25456E+06         0.00000E+00
    0.25456E+06        -0.26280E+06         0.00000E+00
    0.00000E+00         0.00000E+00         0.00000E+00
 
    0.65945E+05         0.26162E+06         0.00000E+00
    0.26162E+06        -0.25849E+06         0.00000E+00
    0.00000E+00         0.00000E+00         0.00000E+00
 
    0.57285E+05         0.26869E+06         0.00000E+00
    0.26869E+06        -0.25415E+06         0.00000E+00
    0.00000E+00         0.00000E+00         0.00000E+00
 
    0.48577E+05         0.27579E+06         0.00000E+00
    0.27579E+06        -0.24979E+06         0.00000E+00
    0.00000E+00         0.00000E+00         0.00000E+00
 
    0.39826E+05         0.28290E+06         0.00000E+00
    0.28290E+06        -0.24540E+06         0.00000E+00
    0.00000E+00         0.00000E+00         0.00000E+00
 
    0.31035E+05         0.29002E+06         0.00000E+00
    0.29002E+06        -0.24100E+06         0.00000E+00
    0.00000E+00         0.00000E+00         0.00000E+00
 
    0.22207E+05         0.29715E+06         0.00000E+00
    0.29715E+06        -0.23657E+06         0.00000E+00
    0.00000E+00         0.00000E+00         0.00000E+00
 
    0.13345E+05         0.30430E+06         0.00000E+00
    0.30430E+06        -0.23214E+06         0.00000E+00
    0.00000E+00         0.00000E+00         0.00000E+00
 
    0.44534E+04         0.31144E+06         0.00000E+00
    0.31144E+06        -0.22768E+06         0.00000E+00
    0.00000E+00         0.00000E+00         0.00000E+00
 
    0.30860E+06         0.30893E+04         0.00000E+00
    0.30893E+04        -0.41114E+06         0.00000E+00
    0.00000E+00         0.00000E+00         0.00000E+00
 
    0.30723E+06         0.92337E+04         0.00000E+00
    0.92337E+04        -0.41095E+06         0.00000E+00
    0.00000E+00         0.00000E+00         0.00000E+00
 
    0.30555E+06         0.15373E+05         0.00000E+00
    0.15373E+05        -0.41060E+06         0.00000E+00
    0.00000E+00         0.00000E+00         0.00000E+00
 
    0.30358E+06         0.21513E+05         0.00000E+00
    0.21513E+05        -0.41007E+06         0.00000E+00
    0.00000E+00         0.00000E+00         0.00000E+00
 
    0.30131E+06         0.27657E+05         0.00000E+00
    0.27657E+05        -0.40938E+06         0.00000E+00
    0.00000E+00         0.00000E+00         0.00000E+00
 
    0.29876E+06         0.33810E+05         0.00000E+00
    0.33810E+05        -0.40852E+06         0.00000E+00
    0.00000E+00         0.00000E+00         0.00000E+00
 
    0.29593E+06         0.39976E+05         0.00000E+00
    0.39976E+05        -0.40751E+06         0.00000E+00
    0.00000E+00         0.00000E+00         0.00000E+00
 
    0.29283E+06         0.46159E+05         0.00000E+00
    0.46159E+05        -0.40634E+06         0.00000E+00
    0.00000E+00         0.00000E+00         0.00000E+00
 
    0.28947E+06         0.52362E+05         0.00000E+00
    0.52362E+05        -0.40502E+06         0.00000E+00
    0.00000E+00         0.00000E+00         0.00000E+00
 
    0.28585E+06         0.58588E+05         0.00000E+00
    0.58588E+05        -0.40355E+06         0.00000E+00
    0.00000E+00         0.00000E+00         0.00000E+00
 
    0.28198E+06         0.64839E+05         0.00000E+00
    0.64839E+05        -0.40193E+06         0.00000E+00
    0.00000E+00         0.00000E+00         0.00000E+00
 
    0.27786E+06         0.71118E+05         0.00000E+00
    0.71118E+05        -0.40018E+06         0.00000E+00
    0.00000E+00         0.00000E+00         0.00000E+00
 
    0.27351E+06         0.77428E+05         0.00000E+00
    0.77428E+05        -0.39829E+06         0.00000E+00
    0.00000E+00         0.00000E+00         0.00000E+00
 
    0.26894E+06         0.83769E+05         0.00000E+00
    0.83769E+05        -0.39627E+06         0.00000E+00
    0.00000E+00         0.00000E+00         0.00000E+00
 
    0.26414E+06         0.90144E+05         0.00000E+00
    0.90144E+05        -0.39412E+06         0.00000E+00
    0.00000E+00         0.00000E+00         0.00000E+00
 
    0.25913E+06         0.96554E+05         0.00000E+00
    0.96554E+05        -0.39185E+06         0.00000E+00
    0.00000E+00         0.00000E+00         0.00000E+00
 
    0.25391E+06         0.10300E+06         0.00000E+00
    0.10300E+06        -0.38946E+06         0.00000E+00
    0.00000E+00         0.00000E+00         0.00000E+00
 
    0.24849E+06         0.10948E+06         0.00000E+00
    0.10948E+06        -0.38696E+06         0.00000E+00
    0.00000E+00         0.00000E+00         0.00000E+00
 
    0.24288E+06         0.11600E+06         0.00000E+00
    0.11600E+06        -0.38434E+06         0.00000E+00
    0.00000E+00         0.00000E+00         0.00000E+00
 
    0.23708E+06         0.12256E+06         0.00000E+00
    0.12256E+06        -0.38161E+06         0.00000E+00
    0.00000E+00         0.00000E+00         0.00000E+00
 
    0.23110E+06         0.12916E+06         0.00000E+00
    0.12916E+06        -0.37878E+06         0.00000E+00
    0.00000E+00         0.00000E+00         0.00000E+00
 
    0.22494E+06         0.13580E+06         0.00000E+00
    0.13580E+06        -0.37585E+06         0.00000E+00
    0.00000E+00         0.00000E+00         0.00000E+00
 
    0.21862E+06         0.14247E+06         0.00000E+00
    0.14247E+06        -0.37282E+06         0.00000E+00
    0.00000E+00         0.00000E+00         0.00000E+00
 
    0.21214E+06         0.14918E+06         0.00000E+00
    0.14918E+06        -0.36970E+06         0.00000E+00
    0.00000E+00         0.00000E+00         0.00000E+00
 
    0.20550E+06         0.15593E+06         0.00000E+00
    0.15593E+06        -0.36649E+06         0.00000E+00
    0.00000E+00         0.00000E+00         0.00000E+00
 
    0.19871E+06         0.16272E+06         0.00000E+00
    0.16272E+06        -0.36319E+06         0.00000E+00
    0.00000E+00         0.00000E+00         0.00000E+00
 
    0.19178E+06         0.16955E+06         0.00000E+00
    0.16955E+06        -0.35981E+06         0.00000E+00
    0.00000E+00         0.00000E+00         0.00000E+00
 
    0.18471E+06         0.17641E+06         0.00000E+00
    0.17641E+06        -0.35635E+06         0.00000E+00
    0.00000E+00         0.00000E+00         0.00000E+00
 
    0.17751E+06         0.18331E+06         0.00000E+00
    0.18331E+06        -0.35281E+06         0.00000E+00
    0.00000E+00         0.00000E+00         0.00000E+00
 
    0.17019E+06         0.19024E+06         0.00000E+00
    0.19024E+06        -0.34920E+06         0.00000E+00
    0.00000E+00         0.00000E+00         0.00000E+00
 
    0.16274E+06         0.19720E+06         0.00000E+00
    0.19720E+06        -0.34553E+06         0.00000E+00
    0.00000E+00         0.00000E+00         0.00000E+00
 
    0.15518E+06         0.20420E+06         0.00000E+00
    0.20420E+06        -0.34178E+06         0.00000E+00
    0.00000E+00         0.00000E+00         0.00000E+00
 
    0.14750E+06         0.21123E+06         0.00000E+00
    0.21123E+06        -0.33797E+06         0.00000E+00
    0.00000E+00         0.00000E+00         0.00000E+00
 
    0.13973E+06         0.21828E+06         0.00000E+00
    0.21828E+06        -0.33410E+06         0.00000E+00
    0.00000E+00         0.00000E+00         0.00000E+00
 
    0.13185E+06         0.22537E+06         0.00000E+00
    0.22537E+06        -0.33017E+06         0.00000E+00
    0.00000E+00         0.00000E+00         0.00000E+00
 
    0.12387E+06         0.23248E+06         0.00000E+00
    0.23248E+06        -0.32619E+06         0.00000E+00
    0.00000E+00         0.00000E+00         0.00000E+00
 
    0.11580E+06         0.23961E+06         0.00000E+00
    0.23961E+06        -0.32216E+06         0.00000E+00
    0.00000E+00         0.00000E+00         0.00000E+00
 
    0.10765E+06         0.24677E+06         0.00000E+00
    0.24677E+06        -0.31808E+06         0.00000E+00
    0.00000E+00         0.00000E+00         0.00000E+00
 
    0.99410E+05         0.25395E+06         0.00000E+00
    0.25395E+06        -0.31395E+06         0.00000E+00
    0.00000E+00         0.00000E+00         0.00000E+00
 
    0.91095E+05         0.26115E+06         0.00000E+00
    0.26115E+06        -0.30978E+06         0.00000E+00
    0.00000E+00         0.00000E+00         0.00000E+00
 
    0.82706E+05         0.26836E+06         0.00000E+00
    0.26836E+06        -0.30558E+06         0.00000E+00
    0.00000E+00         0.00000E+00         0.00000E+00
 
    0.74246E+05         0.27560E+06         0.00000E+00
    0.27560E+06        -0.30133E+06         0.00000E+00
    0.00000E+00         0.00000E+00         0.00000E+00
 
    0.65720E+05         0.28284E+06         0.00000E+00
    0.28284E+06        -0.29705E+06         0.00000E+00
    0.00000E+00         0.00000E+00         0.00000E+00
 
    0.57131E+05         0.29009E+06         0.00000E+00
    0.29009E+06        -0.29274E+06         0.00000E+00
    0.00000E+00         0.00000E+00         0.00000E+00
 
    0.48483E+05         0.29736E+06         0.00000E+00
    0.29736E+06        -0.28839E+06         0.00000E+00
    0.00000E+00         0.00000E+00         0.00000E+00
 
    0.39779E+05         0.30463E+06         0.00000E+00
    0.30463E+06        -0.28402E+06         0.00000E+00
    0.00000E+00         0.00000E+00         0.00000E+00
 
    0.31021E+05         0.31190E+06         0.00000E+00
    0.31190E+06        -0.27963E+06         0.00000E+00
    0.00000E+00         0.00000E+00         0.00000E+00
 
    0.22214E+05         0.31917E+06         0.00000E+00
    0.31917E+06        -0.27521E+06         0.00000E+00
    0.00000E+00         0.00000E+00         0.00000E+00
 
    0.13360E+05         0.32644E+06         0.00000E+00
    0.32644E+06        -0.27077E+06         0.00000E+00
    0.00000E+00         0.00000E+00         0.00000E+00
 
    0.44605E+04         0.33371E+06         0.00000E+00
    0.33371E+06        -0.26632E+06         0.00000E+00
    0.00000E+00         0.00000E+00         0.00000E+00
 
    0.30495E+06         0.35171E+04         0.00000E+00
    0.35171E+04        -0.44762E+06         0.00000E+00
    0.00000E+00         0.00000E+00         0.00000E+00
 
    0.30350E+06         0.10478E+05         0.00000E+00
    0.10478E+05        -0.44745E+06         0.00000E+00
    0.00000E+00         0.00000E+00         0.00000E+00
 
    0.30178E+06         0.17420E+05         0.00000E+00
    0.17420E+05        -0.44711E+06         0.00000E+00
    0.00000E+00         0.00000E+00         0.00000E+00
 
    0.29977E+06         0.24346E+05         0.00000E+00
    0.24346E+05        -0.44662E+06         0.00000E+00
    0.00000E+00         0.00000E+00         0.00000E+00
 
    0.29750E+06         0.31261E+05         0.00000E+00
    0.31261E+05        -0.44596E+06         0.00000E+00
    0.00000E+00         0.00000E+00         0.00000E+00
 
    0.29496E+06         0.38169E+05         0.00000E+00
    0.38169E+05        -0.44515E+06         0.00000E+00
    0.00000E+00         0.00000E+00         0.00000E+00
 
    0.29216E+06         0.45073E+05         0.00000E+00
    0.45073E+05        -0.44419E+06         0.00000E+00
    0.00000E+00         0.00000E+00         0.00000E+00
 
    0.28910E+06         0.51977E+05         0.00000E+00
    0.51977E+05        -0.44308E+06         0.00000E+00
    0.00000E+00         0.00000E+00         0.00000E+00
 
    0.28580E+06         0.58883E+05         0.00000E+00
    0.58883E+05        -0.44182E+06         0.00000E+00
    0.00000E+00         0.00000E+00         0.00000E+00
 
    0.28225E+06         0.65796E+05         0.00000E+00
    0.65796E+05        -0.44042E+06         0.00000E+00
    0.00000E+00         0.00000E+00         0.00000E+00
 
    0.27847E+06         0.72717E+05         0.00000E+00
    0.72717E+05        -0.43888E+06         0.00000E+00
    0.00000E+00         0.00000E+00         0.00000E+00
 
    0.27445E+06         0.79649E+05         0.00000E+00
    0.79649E+05        -0.43720E+06         0.00000E+00
    0.00000E+00         0.00000E+00         0.00000E+00
 
    0.27021E+06         0.86595E+05         0.00000E+00
    0.86595E+05        -0.43539E+06         0.00000E+00
    0.00000E+00         0.00000E+00         0.00000E+00
 
    0.26575E+06         0.93554E+05         0.00000E+00
    0.93554E+05        -0.43345E+06         0.00000E+00
    0.00000E+00         0.00000E+00         0.00000E+00
 
    0.26108E+06         0.10053E+06         0.00000E+00
    0.10053E+06        -0.43138E+06         0.00000E+00
    0.00000E+00         0.00000E+00         0.00000E+00
 
    0.25619E+06         0.10753E+06         0.00000E+00
    0.10753E+06        -0.42920E+06         0.00000E+00
    0.00000E+00         0.00000E+00         0.00000E+00
 
    0.25111E+06         0.11454E+06         0.00000E+00
    0.11454E+06        -0.42689E+06         0.00000E+00
    0.00000E+00         0.00000E+00         0.00000E+00
 
    0.24583E+06         0.12157E+06         0.00000E+00
    0.12157E+06        -0.42447E+06         0.00000E+00
    0.00000E+00         0.00000E+00         0.00000E+00
 
    0.24036E+06         0.12863E+06         0.00000E+00
    0.12863E+06        -0.42193E+06         0.00000E+00
    0.00000E+00         0.00000E+00         0.00000E+00
 
    0.23471E+06         0.13571E+06         0.00000E+00
    0.13571E+06        -0.41929E+06         0.00000E+00
    0.00000E+00         0.00000E+00         0.00000E+00
 
    0.22887E+06         0.14281E+06         0.00000E+00
    0.14281E+06        -0.41654E+06         0.00000E+00
    0.00000E+00         0.00000E+00         0.00000E+00
 
    0.22287E+06         0.14993E+06         0.00000E+00
    0.14993E+06        -0.41370E+06         0.00000E+00
    0.00000E+00         0.00000E+00         0.00000E+00
 
    0.21669E+06         0.15707E+06         0.00000E+00
    0.15707E+06        -0.41075E+06         0.00000E+00
    0.00000E+00         0.00000E+00         0.00000E+00
 
    0.21036E+06         0.16424E+06         0.00000E+00
    0.16424E+06        -0.40771E+06         0.00000E+00
    0.00000E+00         0.00000E+00         0.00000E+00
 
    0.20387E+06         0.17144E+06         0.00000E+00
    0.17144E+06        -0.40457E+06         0.00000E+00
    0.00000E+00         0.00000E+00         0.00000E+00
 
    0.19722E+06         0.17865E+06         0.00000E+00
    0.17865E+06        -0.40135E+06         0.00000E+00
    0.00000E+00         0.00000E+00         0.00000E+00
 
    0.19043E+06         0.18589E+06         0.00000E+00
    0.18589E+06        -0.39804E+06         0.00000E+00
    0.00000E+00         0.00000E+00         0.00000E+00
 
    0.18350E+06         0.19314E+06         0.00000E+00
    0.19314E+06        -0.39465E+06         0.00000E+00
    0.00000E+00         0.00000E+00         0.00000E+00
 
    0.17644E+06         0.20042E+06         0.00000E+00
    0.20042E+06        -0.39118E+06         0.00000E+00
    0.00000E+00         0.00000E+00         0.00000E+00
 
    0.16924E+06         0.20772E+06         0.00000E+00
    0.20772E+06        -0.38764E+06         0.00000E+00
    0.00000E+00         0.00000E+00         0.00000E+00
 
    0.16192E+06         0.21504E+06         0.00000E+00
    0.21504E+06        -0.38402E+06         0.00000E+00
    0.00000E+00         0.00000E+00         0.00000E+00
 
    0.15447E+06         0.22238E+06         0.00000E+00
    0.22238E+06        -0.38033E+06         0.00000E+00
    0.00000E+00         0.00000E+00         0.00000E+00
 
    0.14691E+06         0.22974E+06         0.00000E+00
    0.22974E+06        -0.37658E+06         0.00000E+00
    0.00000E+00         0.00000E+00         0.00000E+00
 
    0.13924E+06         0.23711E+06         0.00000E+00
    0.23711E+06        -0.37276E+06         0.00000E+00
    0.00000E+00         0.00000E+00         0.00000E+00
 
    0.13146E+06         0.24450E+06         0.00000E+00
    0.24450E+06        -0.36888E+06         0.00000E+00
    0.00000E+00         0.00000E+00         0.00000E+00
 
    0.12357E+06         0.25190E+06         0.00000E+00
    0.25190E+06        -0.36495E+06         0.00000E+00
    0.00000E+00         0.00000E+00         0.00000E+00
 
    0.11559E+06         0.25932E+06         0.00000E+00
    0.25932E+06        -0.36096E+06         0.00000E+00
    0.00000E+00         0.00000E+00         0.00000E+00
 
    0.10751E+06         0.26674E+06         0.00000E+00
    0.26674E+06        -0.35691E+06         0.00000E+00
    0.00000E+00         0.00000E+00         0.00000E+00
 
    0.99342E+05         0.27418E+06         0.00000E+00
    0.27418E+06        -0.35282E+06         0.00000E+00
    0.00000E+00         0.00000E+00         0.00000E+00
 
    0.91086E+05         0.28162E+06         0.00000E+00
    0.28162E+06        -0.34868E+06         0.00000E+00
    0.00000E+00         0.00000E+00         0.00000E+00
 
    0.82747E+05         0.28907E+06         0.00000E+00
    0.28907E+06        -0.34449E+06         0.00000E+00
    0.00000E+00         0.00000E+00         0.00000E+00
 
    0.74327E+05         0.29652E+06         0.00000E+00
    0.29652E+06        -0.34027E+06         0.00000E+00
    0.00000E+00         0.00000E+00         0.00000E+00
 
    0.65832E+05         0.30397E+06         0.00000E+00
    0.30397E+06        -0.33600E+06         0.00000E+00
    0.00000E+00         0.00000E+00         0.00000E+00
 
    0.57263E+05         0.31143E+06         0.00000E+00
    0.31143E+06        -0.33170E+06         0.00000E+00
    0.00000E+00         0.00000E+00         0.00000E+00
 
    0.48625E+05         0.31889E+06         0.00000E+00
    0.31889E+06        -0.32736E+06         0.00000E+00
    0.00000E+00         0.00000E+00         0.00000E+00
 
    0.39920E+05         0.32634E+06         0.00000E+00
    0.32634E+06        -0.32299E+06         0.00000E+00
    0.00000E+00         0.00000E+00         0.00000E+00
 
    0.31150E+05         0.33378E+06         0.00000E+00
    0.33378E+06        -0.31859E+06         0.00000E+00
    0.00000E+00         0.00000E+00         0.00000E+00
 
    0.22320E+05         0.34122E+06         0.00000E+00
    0.34122E+06        -0.31416E+06         0.00000E+00
    0.00000E+00         0.00000E+00         0.00000E+00
 
    0.13431E+05         0.34865E+06         0.00000E+00
    0.34865E+06        -0.30971E+06         0.00000E+00
    0.00000E+00         0.00000E+00         0.00000E+00
 
    0.44863E+04         0.35607E+06         0.00000E+00
    0.35607E+06        -0.30523E+06         0.00000E+00
    0.00000E+00         0.00000E+00         0.00000E+00
 
    0.30448E+06         0.39171E+04         0.00000E+00
    0.39171E+04        -0.48492E+06         0.00000E+00
    0.00000E+00         0.00000E+00         0.00000E+00
 
    0.30290E+06         0.11650E+05         0.00000E+00
    0.11650E+05        -0.48476E+06         0.00000E+00
    0.00000E+00         0.00000E+00         0.00000E+00
 
    0.30105E+06         0.19351E+05         0.00000E+00
    0.19351E+05        -0.48444E+06         0.00000E+00
    0.00000E+00         0.00000E+00         0.00000E+00
 
    0.29895E+06         0.27025E+05         0.00000E+00
    0.27025E+05        -0.48397E+06         0.00000E+00
    0.00000E+00         0.00000E+00         0.00000E+00
 
    0.29659E+06         0.34676E+05         0.00000E+00
    0.34676E+05        -0.48335E+06         0.00000E+00
    0.00000E+00         0.00000E+00         0.00000E+00
 
    0.29399E+06         0.42306E+05         0.00000E+00
    0.42306E+05        -0.48258E+06         0.00000E+00
    0.00000E+00         0.00000E+00         0.00000E+00
 
    0.29115E+06         0.49920E+05         0.00000E+00
    0.49920E+05        -0.48166E+06         0.00000E+00
    0.00000E+00         0.00000E+00         0.00000E+00
 
    0.28806E+06         0.57520E+05         0.00000E+00
    0.57520E+05        -0.48060E+06         0.00000E+00
    0.00000E+00         0.00000E+00         0.00000E+00
 
    0.28474E+06         0.65109E+05         0.00000E+00
    0.65109E+05        -0.47939E+06         0.00000E+00
    0.00000E+00         0.00000E+00         0.00000E+00
 
    0.28119E+06         0.72690E+05         0.00000E+00
    0.72690E+05        -0.47805E+06         0.00000E+00
    0.00000E+00         0.00000E+00         0.00000E+00
 
    0.27742E+06         0.80264E+05         0.00000E+00
    0.80264E+05        -0.47657E+06         0.00000E+00
    0.00000E+00         0.00000E+00         0.00000E+00
 
    0.27342E+06         0.87836E+05         0.00000E+00
    0.87836E+05        -0.47496E+06         0.00000E+00
    0.00000E+00         0.00000E+00         0.00000E+00
 
    0.26921E+06         0.95405E+05         0.00000E+00
    0.95405E+05        -0.47322E+06         0.00000E+00
    0.00000E+00         0.00000E+00         0.00000E+00
 
    0.26478E+06         0.10297E+06         0.00000E+00
    0.10297E+06        -0.47135E+06         0.00000E+00
    0.00000E+00         0.00000E+00         0.00000E+00
 
    0.26016E+06         0.11055E+06         0.00000E+00
    0.11055E+06        -0.46936E+06         0.00000E+00
    0.00000E+00         0.00000E+00         0.00000E+00
 
    0.25533E+06         0.11812E+06         0.00000E+00
    0.11812E+06        -0.46724E+06         0.00000E+00
    0.00000E+00         0.00000E+00         0.00000E+00
 
    0.25030E+06         0.12570E+06         0.00000E+00
    0.12570E+06        -0.46501E+06         0.00000E+00
    0.00000E+00         0.00000E+00         0.00000E+00
 
    0.24509E+06         0.13329E+06         0.00000E+00
    0.13329E+06        -0.46266E+06         0.00000E+00
    0.00000E+00         0.00000E+00         0.00000E+00
 
    0.23968E+06         0.14088E+06         0.00000E+00
    0.14088E+06        -0.46020E+06         0.00000E+00
    0.00000E+00         0.00000E+00         0.00000E+00
 
    0.23410E+06         0.14848E+06         0.00000E+00
    0.14848E+06        -0.45763E+06         0.00000E+00
    0.00000E+00         0.00000E+00         0.00000E+00
 
    0.22834E+06         0.15608E+06         0.00000E+00
    0.15608E+06        -0.45496E+06         0.00000E+00
    0.00000E+00         0.00000E+00         0.00000E+00
 
    0.22241E+06         0.16370E+06         0.00000E+00
    0.16370E+06        -0.45218E+06         0.00000E+00
    0.00000E+00         0.00000E+00         0.00000E+00
 
    0.21631E+06         0.17133E+06         0.00000E+00
    0.17133E+06        -0.44930E+06         0.00000E+00
    0.00000E+00         0.00000E+00         0.00000E+00
 
    0.21005E+06         0.17896E+06         0.00000E+00
    0.17896E+06        -0.44633E+06         0.00000E+00
    0.00000E+00         0.00000E+00         0.00000E+00
 
    0.20363E+06         0.18660E+06         0.00000E+00
    0.18660E+06        -0.44326E+06         0.00000E+00
    0.00000E+00         0.00000E+00         0.00000E+00
 
    0.19706E+06         0.19425E+06         0.00000E+00
    0.19425E+06        -0.44011E+06         0.00000E+00
    0.00000E+00         0.00000E+00         0.00000E+00
 
    0.19034E+06         0.20191E+06         0.00000E+00
    0.20191E+06        -0.43686E+06         0.00000E+00
    0.00000E+00         0.00000E+00         0.00000E+00
 
    0.18348E+06         0.20958E+06         0.00000E+00
    0.20958E+06        -0.43353E+06         0.00000E+00
    0.00000E+00         0.00000E+00         0.00000E+00
 
    0.17648E+06         0.21726E+06         0.00000E+00
    0.21726E+06        -0.43012E+06         0.00000E+00
    0.00000E+00         0.00000E+00         0.00000E+00
 
    0.16935E+06         0.22494E+06         0.00000E+00
    0.22494E+06        -0.42663E+06         0.00000E+00
    0.00000E+00         0.00000E+00         0.00000E+00
 
    0.16209E+06         0.23263E+06         0.00000E+00
    0.23263E+06        -0.42306E+06         0.00000E+00
    0.00000E+00         0.00000E+00         0.00000E+00
 
    0.15470E+06         0.24033E+06         0.00000E+00
    0.24033E+06        -0.41942E+06         0.00000E+00
    0.00000E+00         0.00000E+00         0.00000E+00
 
    0.14719E+06         0.24803E+06         0.00000E+00
    0.24803E+06        -0.41571E+06         0.00000E+00
    0.00000E+00         0.00000E+00         0.00000E+00
 
    0.13956E+06         0.25574E+06         0.00000E+00
    0.25574E+06        -0.41193E+06         0.00000E+00
    0.00000E+00         0.00000E+00         0.00000E+00
 
    0.13182E+06         0.26345E+06         0.00000E+00
    0.26345E+06        -0.40809E+06         0.00000E+00
    0.00000E+00         0.00000E+00         0.00000E+00
 
    0.12397E+06         0.27116E+06         0.00000E+00
    0.27116E+06        -0.40418E+06         0.00000E+00
    0.00000E+00         0.00000E+00         0.00000E+00
 
    0.11601E+06         0.27888E+06         0.00000E+00
    0.27888E+06        -0.40022E+06         0.00000E+00
    0.00000E+00         0.00000E+00         0.00000E+00
 
    0.10795E+06         0.28659E+06         0.00000E+00
    0.28659E+06        -0.39620E+06         0.00000E+00
    0.00000E+00         0.00000E+00         0.00000E+00
 
    0.99796E+05         0.29430E+06         0.00000E+00
    0.29430E+06        -0.39212E+06         0.00000E+00
    0.00000E+00         0.00000E+00         0.00000E+00
 
    0.91545E+05         0.30201E+06         0.00000E+00
    0.30201E+06        -0.38800E+06         0.00000E+00
    0.00000E+00         0.00000E+00         0.00000E+00
 
    0.83203E+05         0.30971E+06         0.00000E+00
    0.30971E+06        -0.38382E+06         0.00000E+00
    0.00000E+00         0.00000E+00         0.00000E+00
 
    0.74774E+05         0.31741E+06         0.00000E+00
    0.31741E+06        -0.37959E+06         0.00000E+00
    0.00000E+00         0.00000E+00         0.00000E+00
 
    0.66259E+05         0.32510E+06         0.00000E+00
    0.32510E+06        -0.37533E+06         0.00000E+00
    0.00000E+00         0.00000E+00         0.00000E+00
 
    0.57663E+05         0.33278E+06         0.00000E+00
    0.33278E+06        -0.37102E+06         0.00000E+00
    0.00000E+00         0.00000E+00         0.00000E+00
 
    0.48988E+05         0.34046E+06         0.00000E+00
    0.34046E+06        -0.36667E+06         0.00000E+00
    0.00000E+00         0.00000E+00         0.00000E+00
 
    0.40237E+05         0.34812E+06         0.00000E+00
    0.34812E+06        -0.36228E+06         0.00000E+00
    0.00000E+00         0.00000E+00         0.00000E+00
 
    0.31414E+05         0.35576E+06         0.00000E+00
    0.35576E+06        -0.35785E+06         0.00000E+00
    0.00000E+00         0.00000E+00         0.00000E+00
 
    0.22520E+05         0.36339E+06         0.00000E+00
    0.36339E+06        -0.35340E+06         0.00000E+00
    0.00000E+00         0.00000E+00         0.00000E+00
 
    0.13558E+05         0.37100E+06         0.00000E+00
    0.37100E+06        -0.34891E+06         0.00000E+00
    0.00000E+00         0.00000E+00         0.00000E+00
 
    0.45300E+04         0.37859E+06         0.00000E+00
    0.37859E+06        -0.34439E+06         0.00000E+00
    0.00000E+00         0.00000E+00         0.00000E+00
 
    0.30684E+06         0.42940E+04         0.00000E+00
    0.42940E+04        -0.52317E+06         0.00000E+00
    0.00000E+00         0.00000E+00         0.00000E+00
 
    0.30507E+06         0.12760E+05         0.00000E+00
    0.12760E+05        -0.52302E+06         0.00000E+00
    0.00000E+00         0.00000E+00         0.00000E+00
 
    0.30306E+06         0.21185E+05         0.00000E+00
    0.21185E+05        -0.52271E+06         0.00000E+00
    0.00000E+00         0.00000E+00         0.00000E+00
 
    0.30080E+06         0.29575E+05         0.00000E+00
    0.29575E+05        -0.52226E+06         0.00000E+00
    0.00000E+00         0.00000E+00         0.00000E+00
 
    0.29831E+06         0.37931E+05         0.00000E+00
    0.37931E+05        -0.52167E+06         0.00000E+00
    0.00000E+00         0.00000E+00         0.00000E+00
 
    0.29559E+06         0.46257E+05         0.00000E+00
    0.46257E+05        -0.52093E+06         0.00000E+00
    0.00000E+00         0.00000E+00         0.00000E+00
 
    0.29264E+06         0.54556E+05         0.00000E+00
    0.54556E+05        -0.52005E+06         0.00000E+00
    0.00000E+00         0.00000E+00         0.00000E+00
 
    0.28946E+06         0.62830E+05         0.00000E+00
    0.62830E+05        -0.51903E+06         0.00000E+00
    0.00000E+00         0.00000E+00         0.00000E+00
 
    0.28606E+06         0.71082E+05         0.00000E+00
    0.71082E+05        -0.51787E+06         0.00000E+00
    0.00000E+00         0.00000E+00         0.00000E+00
 
    0.28245E+06         0.79314E+05         0.00000E+00
    0.79314E+05        -0.51658E+06         0.00000E+00
    0.00000E+00         0.00000E+00         0.00000E+00
 
    0.27862E+06         0.87528E+05         0.00000E+00
    0.87528E+05        -0.51515E+06         0.00000E+00
    0.00000E+00         0.00000E+00         0.00000E+00
 
    0.27457E+06         0.95726E+05         0.00000E+00
    0.95726E+05        -0.51359E+06         0.00000E+00
    0.00000E+00         0.00000E+00         0.00000E+00
 
    0.27033E+06         0.10391E+06         0.00000E+00
    0.10391E+06        -0.51190E+06         0.00000E+00
    0.00000E+00         0.00000E+00         0.00000E+00
 
    0.26587E+06         0.11208E+06         0.00000E+00
    0.11208E+06        -0.51009E+06         0.00000E+00
    0.00000E+00         0.00000E+00         0.00000E+00
 
    0.26122E+06         0.12024E+06         0.00000E+00
    0.12024E+06        -0.50816E+06         0.00000E+00
    0.00000E+00         0.00000E+00         0.00000E+00
 
    0.25638E+06         0.12840E+06         0.00000E+00
    0.12840E+06        -0.50610E+06         0.00000E+00
    0.00000E+00         0.00000E+00         0.00000E+00
 
    0.25134E+06         0.13654E+06         0.00000E+00
    0.13654E+06        -0.50393E+06         0.00000E+00
    0.00000E+00         0.00000E+00         0.00000E+00
 
    0.24612E+06         0.14468E+06         0.00000E+00
    0.14468E+06        -0.50165E+06         0.00000E+00
    0.00000E+00         0.00000E+00         0.00000E+00
 
    0.24072E+06         0.15281E+06         0.00000E+00
    0.15281E+06        -0.49925E+06         0.00000E+00
    0.00000E+00         0.00000E+00         0.00000E+00
 
    0.23514E+06         0.16093E+06         0.00000E+00
    0.16093E+06        -0.49674E+06         0.00000E+00
    0.00000E+00         0.00000E+00         0.00000E+00
 
    0.22939E+06         0.16905E+06         0.00000E+00
    0.16905E+06        -0.49412E+06         0.00000E+00
    0.00000E+00         0.00000E+00         0.00000E+00
 
    0.22346E+06         0.17717E+06         0.00000E+00
    0.17717E+06        -0.49140E+06         0.00000E+00
    0.00000E+00         0.00000E+00         0.00000E+00
 
    0.21737E+06         0.18528E+06         0.00000E+00
    0.18528E+06        -0.48858E+06         0.00000E+00
    0.00000E+00         0.00000E+00         0.00000E+00
 
    0.21112E+06         0.19339E+06         0.00000E+00
    0.19339E+06        -0.48566E+06         0.00000E+00
    0.00000E+00         0.00000E+00         0.00000E+00
 
    0.20472E+06         0.20149E+06         0.00000E+00
    0.20149E+06        -0.48265E+06         0.00000E+00
    0.00000E+00         0.00000E+00         0.00000E+00
 
    0.19816E+06         0.20959E+06         0.00000E+00
    0.20959E+06        -0.47954E+06         0.00000E+00
    0.00000E+00         0.00000E+00         0.00000E+00
 
    0.19145E+06         0.21769E+06         0.00000E+00
    0.21769E+06        -0.47634E+06         0.00000E+00
    0.00000E+00         0.00000E+00         0.00000E+00
 
    0.18459E+06         0.22578E+06         0.00000E+00
    0.22578E+06        -0.47306E+06         0.00000E+00
    0.00000E+00         0.00000E+00         0.00000E+00
 
    0.17760E+06         0.23387E+06         0.00000E+00
    0.23387E+06        -0.46969E+06         0.00000E+00
    0.00000E+00         0.00000E+00         0.00000E+00
 
    0.17047E+06         0.24196E+06         0.00000E+00
    0.24196E+06        -0.46623E+06         0.00000E+00
    0.00000E+00         0.00000E+00         0.00000E+00
 
    0.16320E+06         0.25004E+06         0.00000E+00
    0.25004E+06        -0.46270E+06         0.00000E+00
    0.00000E+00         0.00000E+00         0.00000E+00
 
    0.15581E+06         0.25811E+06         0.00000E+00
    0.25811E+06        -0.45909E+06         0.00000E+00
    0.00000E+00         0.00000E+00         0.00000E+00
 
    0.14829E+06         0.26618E+06         0.00000E+00
    0.26618E+06        -0.45541E+06         0.00000E+00
    0.00000E+00         0.00000E+00         0.00000E+00
 
    0.14065E+06         0.27424E+06         0.00000E+00
    0.27424E+06        -0.45165E+06         0.00000E+00
    0.00000E+00         0.00000E+00         0.00000E+00
 
    0.13289E+06         0.28229E+06         0.00000E+00
    0.28229E+06        -0.44783E+06         0.00000E+00
    0.00000E+00         0.00000E+00         0.00000E+00
 
    0.12502E+06         0.29033E+06         0.00000E+00
    0.29033E+06        -0.44394E+06         0.00000E+00
    0.00000E+00         0.00000E+00         0.00000E+00
 
    0.11704E+06         0.29837E+06         0.00000E+00
    0.29837E+06        -0.43999E+06         0.00000E+00
    0.00000E+00         0.00000E+00         0.00000E+00
 
    0.10895E+06         0.30639E+06         0.00000E+00
    0.30639E+06        -0.43597E+06         0.00000E+00
    0.00000E+00         0.00000E+00         0.00000E+00
 
    0.10075E+06         0.31440E+06         0.00000E+00
    0.31440E+06        -0.43190E+06         0.00000E+00
    0.00000E+00         0.00000E+00         0.00000E+00
 
    0.92454E+05         0.32240E+06         0.00000E+00
    0.32240E+06        -0.42777E+06         0.00000E+00
    0.00000E+00         0.00000E+00         0.00000E+00
 
    0.84060E+05         0.33038E+06         0.00000E+00
    0.33038E+06        -0.42358E+06         0.00000E+00
    0.00000E+00         0.00000E+00         0.00000E+00
 
    0.75571E+05         0.33835E+06         0.00000E+00
    0.33835E+06        -0.41934E+06         0.00000E+00
    0.00000E+00         0.00000E+00         0.00000E+00
 
    0.66991E+05         0.34630E+06         0.00000E+00
    0.34630E+06        -0.41506E+06         0.00000E+00
    0.00000E+00         0.00000E+00         0.00000E+00
 
    0.58321E+05         0.35424E+06         0.00000E+00
    0.35424E+06        -0.41072E+06         0.00000E+00
    0.00000E+00         0.00000E+00         0.00000E+00
 
    0.49566E+05         0.36215E+06         0.00000E+00
    0.36215E+06        -0.40634E+06         0.00000E+00
    0.00000E+00         0.00000E+00         0.00000E+00
 
    0.40728E+05         0.37005E+06         0.00000E+00
    0.37005E+06        -0.40192E+06         0.00000E+00
    0.00000E+00         0.00000E+00         0.00000E+00
 
    0.31808E+05         0.37792E+06         0.00000E+00
    0.37792E+06        -0.39745E+06         0.00000E+00
    0.00000E+00         0.00000E+00         0.00000E+00
 
    0.22811E+05         0.38576E+06         0.00000E+00
    0.38576E+06        -0.39295E+06         0.00000E+00
    0.00000E+00         0.00000E+00         0.00000E+00
 
    0.13738E+05         0.39359E+06         0.00000E+00
    0.39359E+06        -0.38841E+06         0.00000E+00
    0.00000E+00         0.00000E+00         0.00000E+00
 
    0.45914E+04         0.40138E+06         0.00000E+00
    0.40138E+06        -0.38383E+06         0.00000E+00
    0.00000E+00         0.00000E+00         0.00000E+00
 
    0.31173E+06         0.46525E+04         0.00000E+00
    0.46525E+04        -0.56250E+06         0.00000E+00
    0.00000E+00         0.00000E+00         0.00000E+00
 
    0.30973E+06         0.13820E+05         0.00000E+00
    0.13820E+05        -0.56235E+06         0.00000E+00
    0.00000E+00         0.00000E+00         0.00000E+00
 
    0.30751E+06         0.22942E+05         0.00000E+00
    0.22942E+05        -0.56206E+06         0.00000E+00
    0.00000E+00         0.00000E+00         0.00000E+00
 
    0.30506E+06         0.32020E+05         0.00000E+00
    0.32020E+05        -0.56163E+06         0.00000E+00
    0.00000E+00         0.00000E+00         0.00000E+00
 
    0.30239E+06         0.41058E+05         0.00000E+00
    0.41058E+05        -0.56105E+06         0.00000E+00
    0.00000E+00         0.00000E+00         0.00000E+00
 
    0.29951E+06         0.50057E+05         0.00000E+00
    0.50057E+05        -0.56034E+06         0.00000E+00
    0.00000E+00         0.00000E+00         0.00000E+00
 
    0.29640E+06         0.59021E+05         0.00000E+00
    0.59021E+05        -0.55949E+06         0.00000E+00
    0.00000E+00         0.00000E+00         0.00000E+00
 
    0.29309E+06         0.67952E+05         0.00000E+00
    0.67952E+05        -0.55850E+06         0.00000E+00
    0.00000E+00         0.00000E+00         0.00000E+00
 
    0.28956E+06         0.76851E+05         0.00000E+00
    0.76851E+05        -0.55737E+06         0.00000E+00
    0.00000E+00         0.00000E+00         0.00000E+00
 
    0.28582E+06         0.85720E+05         0.00000E+00
    0.85720E+05        -0.55612E+06         0.00000E+00
    0.00000E+00         0.00000E+00         0.00000E+00
 
    0.28188E+06         0.94562E+05         0.00000E+00
    0.94562E+05        -0.55473E+06         0.00000E+00
    0.00000E+00         0.00000E+00         0.00000E+00
 
    0.27774E+06         0.10338E+06         0.00000E+00
    0.10338E+06        -0.55321E+06         0.00000E+00
    0.00000E+00         0.00000E+00         0.00000E+00
 
    0.27339E+06         0.11217E+06         0.00000E+00
    0.11217E+06        -0.55157E+06         0.00000E+00
    0.00000E+00         0.00000E+00         0.00000E+00
 
    0.26886E+06         0.12094E+06         0.00000E+00
    0.12094E+06        -0.54980E+06         0.00000E+00
    0.00000E+00         0.00000E+00         0.00000E+00
 
    0.26413E+06         0.12969E+06         0.00000E+00
    0.12969E+06        -0.54792E+06         0.00000E+00
    0.00000E+00         0.00000E+00         0.00000E+00
 
    0.25921E+06         0.13841E+06         0.00000E+00
    0.13841E+06        -0.54591E+06         0.00000E+00
    0.00000E+00         0.00000E+00         0.00000E+00
 
    0.25411E+06         0.14712E+06         0.00000E+00
    0.14712E+06        -0.54378E+06         0.00000E+00
    0.00000E+00         0.00000E+00         0.00000E+00
 
    0.24882E+06         0.15581E+06         0.00000E+00
    0.15581E+06        -0.54154E+06         0.00000E+00
    0.00000E+00         0.00000E+00         0.00000E+00
 
    0.24336E+06         0.16448E+06         0.00000E+00
    0.16448E+06        -0.53918E+06         0.00000E+00
    0.00000E+00         0.00000E+00         0.00000E+00
 
    0.23772E+06         0.17314E+06         0.00000E+00
    0.17314E+06        -0.53672E+06         0.00000E+00
    0.00000E+00         0.00000E+00         0.00000E+00
 
    0.23191E+06         0.18178E+06         0.00000E+00
    0.18178E+06        -0.53415E+06         0.00000E+00
    0.00000E+00         0.00000E+00         0.00000E+00
 
    0.22594E+06         0.19040E+06         0.00000E+00
    0.19040E+06        -0.53147E+06         0.00000E+00
    0.00000E+00         0.00000E+00         0.00000E+00
 
    0.21980E+06         0.19901E+06         0.00000E+00
    0.19901E+06        -0.52869E+06         0.00000E+00
    0.00000E+00         0.00000E+00         0.00000E+00
 
    0.21350E+06         0.20760E+06         0.00000E+00
    0.20760E+06        -0.52581E+06         0.00000E+00
    0.00000E+00         0.00000E+00         0.00000E+00
 
    0.20704E+06         0.21618E+06         0.00000E+00
    0.21618E+06        -0.52283E+06         0.00000E+00
    0.00000E+00         0.00000E+00         0.00000E+00
 
    0.20044E+06         0.22474E+06         0.00000E+00
    0.22474E+06        -0.51975E+06         0.00000E+00
    0.00000E+00         0.00000E+00         0.00000E+00
 
    0.19368E+06         0.23329E+06         0.00000E+00
    0.23329E+06        -0.51659E+06         0.00000E+00
    0.00000E+00         0.00000E+00         0.00000E+00
 
    0.18677E+06         0.24182E+06         0.00000E+00
    0.24182E+06        -0.51333E+06         0.00000E+00
    0.00000E+00         0.00000E+00         0.00000E+00
 
    0.17973E+06         0.25034E+06         0.00000E+00
    0.25034E+06        -0.50998E+06         0.00000E+00
    0.00000E+00         0.00000E+00         0.00000E+00
 
    0.17254E+06         0.25884E+06         0.00000E+00
    0.25884E+06        -0.50655E+06         0.00000E+00
    0.00000E+00         0.00000E+00         0.00000E+00
 
    0.16522E+06         0.26733E+06         0.00000E+00
    0.26733E+06        -0.50304E+06         0.00000E+00
    0.00000E+00         0.00000E+00         0.00000E+00
 
    0.15777E+06         0.27579E+06         0.00000E+00
    0.27579E+06        -0.49944E+06         0.00000E+00
    0.00000E+00         0.00000E+00         0.00000E+00
 
    0.15019E+06         0.28425E+06         0.00000E+00
    0.28425E+06        -0.49577E+06         0.00000E+00
    0.00000E+00         0.00000E+00         0.00000E+00
 
    0.14248E+06         0.29268E+06         0.00000E+00
    0.29268E+06        -0.49202E+06         0.00000E+00
    0.00000E+00         0.00000E+00         0.00000E+00
 
    0.13466E+06         0.30110E+06         0.00000E+00
    0.30110E+06        -0.48820E+06         0.00000E+00
    0.00000E+00         0.00000E+00         0.00000E+00
 
    0.12671E+06         0.30950E+06         0.00000E+00
    0.30950E+06        -0.48430E+06         0.00000E+00
    0.00000E+00         0.00000E+00         0.00000E+00
 
    0.11865E+06         0.31787E+06         0.00000E+00
    0.31787E+06        -0.48034E+06         0.00000E+00
    0.00000E+00         0.00000E+00         0.00000E+00
 
    0.11047E+06         0.32623E+06         0.00000E+00
    0.32623E+06        -0.47632E+06         0.00000E+00
    0.00000E+00         0.00000E+00         0.00000E+00
 
    0.10219E+06         0.33456E+06         0.00000E+00
    0.33456E+06        -0.47222E+06         0.00000E+00
    0.00000E+00         0.00000E+00         0.00000E+00
 
    0.93799E+05         0.34288E+06         0.00000E+00
    0.34288E+06        -0.46807E+06         0.00000E+00
    0.00000E+00         0.00000E+00         0.00000E+00
 
    0.85306E+05         0.35117E+06         0.00000E+00
    0.35117E+06        -0.46386E+06         0.00000E+00
    0.00000E+00         0.00000E+00         0.00000E+00
 
    0.76712E+05         0.35943E+06         0.00000E+00
    0.35943E+06        -0.45959E+06         0.00000E+00
    0.00000E+00         0.00000E+00         0.00000E+00
 
    0.68021E+05         0.36767E+06         0.00000E+00
    0.36767E+06        -0.45526E+06         0.00000E+00
    0.00000E+00         0.00000E+00         0.00000E+00
 
    0.59235E+05         0.37588E+06         0.00000E+00
    0.37588E+06        -0.45089E+06         0.00000E+00
    0.00000E+00         0.00000E+00         0.00000E+00
 
    0.50357E+05         0.38406E+06         0.00000E+00
    0.38406E+06        -0.44646E+06         0.00000E+00
    0.00000E+00         0.00000E+00         0.00000E+00
 
    0.41389E+05         0.39222E+06         0.00000E+00
    0.39222E+06        -0.44198E+06         0.00000E+00
    0.00000E+00         0.00000E+00         0.00000E+00
 
    0.32334E+05         0.40034E+06         0.00000E+00
    0.40034E+06        -0.43746E+06         0.00000E+00
    0.00000E+00         0.00000E+00         0.00000E+00
 
    0.23194E+05         0.40843E+06         0.00000E+00
    0.40843E+06        -0.43289E+06         0.00000E+00
    0.00000E+00         0.00000E+00         0.00000E+00
 
    0.13972E+05         0.41649E+06         0.00000E+00
    0.41649E+06        -0.42828E+06         0.00000E+00
    0.00000E+00         0.00000E+00         0.00000E+00
 
    0.46706E+04         0.42452E+06         0.00000E+00
    0.42452E+06        -0.42362E+06         0.00000E+00
    0.00000E+00         0.00000E+00         0.00000E+00
 
    0.31886E+06         0.49971E+04         0.00000E+00
    0.49971E+04        -0.60304E+06         0.00000E+00
    0.00000E+00         0.00000E+00         0.00000E+00
 
    0.31661E+06         0.14843E+05         0.00000E+00
    0.14843E+05        -0.60290E+06         0.00000E+00
    0.00000E+00         0.00000E+00         0.00000E+00
 
    0.31416E+06         0.24639E+05         0.00000E+00
    0.24639E+05        -0.60262E+06         0.00000E+00
    0.00000E+00         0.00000E+00         0.00000E+00
 
    0.31149E+06         0.34386E+05         0.00000E+00
    0.34386E+05        -0.60220E+06         0.00000E+00
    0.00000E+00         0.00000E+00         0.00000E+00
 
    0.30861E+06         0.44087E+05         0.00000E+00
    0.44087E+05        -0.60164E+06         0.00000E+00
    0.00000E+00         0.00000E+00         0.00000E+00
 
    0.30552E+06         0.53744E+05         0.00000E+00
    0.53744E+05        -0.60094E+06         0.00000E+00
    0.00000E+00         0.00000E+00         0.00000E+00
 
    0.30222E+06         0.63358E+05         0.00000E+00
    0.63358E+05        -0.60011E+06         0.00000E+00
    0.00000E+00         0.00000E+00         0.00000E+00
 
    0.29873E+06         0.72932E+05         0.00000E+00
    0.72932E+05        -0.59914E+06         0.00000E+00
    0.00000E+00         0.00000E+00         0.00000E+00
 
    0.29503E+06         0.82467E+05         0.00000E+00
    0.82467E+05        -0.59804E+06         0.00000E+00
    0.00000E+00         0.00000E+00         0.00000E+00
 
    0.29113E+06         0.91964E+05         0.00000E+00
    0.91964E+05        -0.59681E+06         0.00000E+00
    0.00000E+00         0.00000E+00         0.00000E+00
 
    0.28703E+06         0.10143E+06         0.00000E+00
    0.10143E+06        -0.59545E+06         0.00000E+00
    0.00000E+00         0.00000E+00         0.00000E+00
 
    0.28274E+06         0.11085E+06         0.00000E+00
    0.11085E+06        -0.59396E+06         0.00000E+00
    0.00000E+00         0.00000E+00         0.00000E+00
 
    0.27826E+06         0.12025E+06         0.00000E+00
    0.12025E+06        -0.59235E+06         0.00000E+00
    0.00000E+00         0.00000E+00         0.00000E+00
 
    0.27358E+06         0.12961E+06         0.00000E+00
    0.12961E+06        -0.59061E+06         0.00000E+00
    0.00000E+00         0.00000E+00         0.00000E+00
 
    0.26873E+06         0.13894E+06         0.00000E+00
    0.13894E+06        -0.58876E+06         0.00000E+00
    0.00000E+00         0.00000E+00         0.00000E+00
 
    0.26368E+06         0.14825E+06         0.00000E+00
    0.14825E+06        -0.58678E+06         0.00000E+00
    0.00000E+00         0.00000E+00         0.00000E+00
 
    0.25846E+06         0.15752E+06         0.00000E+00
    0.15752E+06        -0.58468E+06         0.00000E+00
    0.00000E+00         0.00000E+00         0.00000E+00
 
    0.25306E+06         0.16676E+06         0.00000E+00
    0.16676E+06        -0.58247E+06         0.00000E+00
    0.00000E+00         0.00000E+00         0.00000E+00
 
    0.24749E+06         0.17598E+06         0.00000E+00
    0.17598E+06        -0.58014E+06         0.00000E+00
    0.00000E+00         0.00000E+00         0.00000E+00
 
    0.24174E+06         0.18517E+06         0.00000E+00
    0.18517E+06        -0.57771E+06         0.00000E+00
    0.00000E+00         0.00000E+00         0.00000E+00
 
    0.23583E+06         0.19434E+06         0.00000E+00
    0.19434E+06        -0.57516E+06         0.00000E+00
    0.00000E+00         0.00000E+00         0.00000E+00
 
    0.22975E+06         0.20348E+06         0.00000E+00
    0.20348E+06        -0.57251E+06         0.00000E+00
    0.00000E+00         0.00000E+00         0.00000E+00
 
    0.22351E+06         0.21259E+06         0.00000E+00
    0.21259E+06        -0.56975E+06         0.00000E+00
    0.00000E+00         0.00000E+00         0.00000E+00
 
    0.21711E+06         0.22168E+06         0.00000E+00
    0.22168E+06        -0.56689E+06         0.00000E+00
    0.00000E+00         0.00000E+00         0.00000E+00
 
    0.21055E+06         0.23074E+06         0.00000E+00
    0.23074E+06        -0.56392E+06         0.00000E+00
    0.00000E+00         0.00000E+00         0.00000E+00
 
    0.20384E+06         0.23978E+06         0.00000E+00
    0.23978E+06        -0.56087E+06         0.00000E+00
    0.00000E+00         0.00000E+00         0.00000E+00
 
    0.19698E+06         0.24879E+06         0.00000E+00
    0.24879E+06        -0.55771E+06         0.00000E+00
    0.00000E+00         0.00000E+00         0.00000E+00
 
    0.18997E+06         0.25778E+06         0.00000E+00
    0.25778E+06        -0.55446E+06         0.00000E+00
    0.00000E+00         0.00000E+00         0.00000E+00
 
    0.18282E+06         0.26674E+06         0.00000E+00
    0.26674E+06        -0.55112E+06         0.00000E+00
    0.00000E+00         0.00000E+00         0.00000E+00
 
    0.17553E+06         0.27568E+06         0.00000E+00
    0.27568E+06        -0.54769E+06         0.00000E+00
    0.00000E+00         0.00000E+00         0.00000E+00
 
    0.16810E+06         0.28459E+06         0.00000E+00
    0.28459E+06        -0.54418E+06         0.00000E+00
    0.00000E+00         0.00000E+00         0.00000E+00
 
    0.16054E+06         0.29347E+06         0.00000E+00
    0.29347E+06        -0.54058E+06         0.00000E+00
    0.00000E+00         0.00000E+00         0.00000E+00
 
    0.15285E+06         0.30233E+06         0.00000E+00
    0.30233E+06        -0.53690E+06         0.00000E+00
    0.00000E+00         0.00000E+00         0.00000E+00
 
    0.14503E+06         0.31116E+06         0.00000E+00
    0.31116E+06        -0.53313E+06         0.00000E+00
    0.00000E+00         0.00000E+00         0.00000E+00
 
    0.13708E+06         0.31996E+06         0.00000E+00
    0.31996E+06        -0.52930E+06         0.00000E+00
    0.00000E+00         0.00000E+00         0.00000E+00
 
    0.12901E+06         0.32874E+06         0.00000E+00
    0.32874E+06        -0.52538E+06         0.00000E+00
    0.00000E+00         0.00000E+00         0.00000E+00
 
    0.12082E+06         0.33748E+06         0.00000E+00
    0.33748E+06        -0.52139E+06         0.00000E+00
    0.00000E+00         0.00000E+00         0.00000E+00
 
    0.11252E+06         0.34619E+06         0.00000E+00
    0.34619E+06        -0.51734E+06         0.00000E+00
    0.00000E+00         0.00000E+00         0.00000E+00
 
    0.10410E+06         0.35488E+06         0.00000E+00
    0.35488E+06        -0.51321E+06         0.00000E+00
    0.00000E+00         0.00000E+00         0.00000E+00
 
    0.95571E+05         0.36353E+06         0.00000E+00
    0.36353E+06        -0.50901E+06         0.00000E+00
    0.00000E+00         0.00000E+00         0.00000E+00
 
    0.86934E+05         0.37215E+06         0.00000E+00
    0.37215E+06        -0.50476E+06         0.00000E+00
    0.00000E+00         0.00000E+00         0.00000E+00
 
    0.78191E+05         0.38073E+06         0.00000E+00
    0.38073E+06        -0.50044E+06         0.00000E+00
    0.00000E+00         0.00000E+00         0.00000E+00
 
    0.69346E+05         0.38928E+06         0.00000E+00
    0.38928E+06        -0.49606E+06         0.00000E+00
    0.00000E+00         0.00000E+00         0.00000E+00
 
    0.60401E+05         0.39780E+06         0.00000E+00
    0.39780E+06        -0.49162E+06         0.00000E+00
    0.00000E+00         0.00000E+00         0.00000E+00
 
    0.51358E+05         0.40627E+06         0.00000E+00
    0.40627E+06        -0.48712E+06         0.00000E+00
    0.00000E+00         0.00000E+00         0.00000E+00
 
    0.42221E+05         0.41472E+06         0.00000E+00
    0.41472E+06        -0.48257E+06         0.00000E+00
    0.00000E+00         0.00000E+00         0.00000E+00
 
    0.32991E+05         0.42312E+06         0.00000E+00
    0.42312E+06        -0.47797E+06         0.00000E+00
    0.00000E+00         0.00000E+00         0.00000E+00
 
    0.23670E+05         0.43148E+06         0.00000E+00
    0.43148E+06        -0.47332E+06         0.00000E+00
    0.00000E+00         0.00000E+00         0.00000E+00
 
    0.14262E+05         0.43981E+06         0.00000E+00
    0.43981E+06        -0.46862E+06         0.00000E+00
    0.00000E+00         0.00000E+00         0.00000E+00
 
    0.47680E+04         0.44809E+06         0.00000E+00
    0.44809E+06        -0.46388E+06         0.00000E+00
    0.00000E+00         0.00000E+00         0.00000E+00
 
    0.32801E+06         0.53319E+04         0.00000E+00
    0.53319E+04        -0.64492E+06         0.00000E+00
    0.00000E+00         0.00000E+00         0.00000E+00
 
    0.32550E+06         0.15841E+05         0.00000E+00
    0.15841E+05        -0.64479E+06         0.00000E+00
    0.00000E+00         0.00000E+00         0.00000E+00
 
    0.32278E+06         0.26295E+05         0.00000E+00
    0.26295E+05        -0.64451E+06         0.00000E+00
    0.00000E+00         0.00000E+00         0.00000E+00
 
    0.31987E+06         0.36698E+05         0.00000E+00
    0.36698E+05        -0.64409E+06         0.00000E+00
    0.00000E+00         0.00000E+00         0.00000E+00
 
    0.31675E+06         0.47050E+05         0.00000E+00
    0.47050E+05        -0.64354E+06         0.00000E+00
    0.00000E+00         0.00000E+00         0.00000E+00
 
    0.31343E+06         0.57352E+05         0.00000E+00
    0.57352E+05        -0.64286E+06         0.00000E+00
    0.00000E+00         0.00000E+00         0.00000E+00
 
    0.30991E+06         0.67607E+05         0.00000E+00
    0.67607E+05        -0.64204E+06         0.00000E+00
    0.00000E+00         0.00000E+00         0.00000E+00
 
    0.30620E+06         0.77816E+05         0.00000E+00
    0.77816E+05        -0.64108E+06         0.00000E+00
    0.00000E+00         0.00000E+00         0.00000E+00
 
    0.30230E+06         0.87979E+05         0.00000E+00
    0.87979E+05        -0.64000E+06         0.00000E+00
    0.00000E+00         0.00000E+00         0.00000E+00
 
    0.29820E+06         0.98099E+05         0.00000E+00
    0.98099E+05        -0.63879E+06         0.00000E+00
    0.00000E+00         0.00000E+00         0.00000E+00
 
    0.29391E+06         0.10818E+06         0.00000E+00
    0.10818E+06        -0.63744E+06         0.00000E+00
    0.00000E+00         0.00000E+00         0.00000E+00
 
    0.28943E+06         0.11821E+06         0.00000E+00
    0.11821E+06        -0.63597E+06         0.00000E+00
    0.00000E+00         0.00000E+00         0.00000E+00
 
    0.28477E+06         0.12821E+06         0.00000E+00
    0.12821E+06        -0.63438E+06         0.00000E+00
    0.00000E+00         0.00000E+00         0.00000E+00
 
    0.27992E+06         0.13817E+06         0.00000E+00
    0.13817E+06        -0.63266E+06         0.00000E+00
    0.00000E+00         0.00000E+00         0.00000E+00
 
    0.27489E+06         0.14808E+06         0.00000E+00
    0.14808E+06        -0.63081E+06         0.00000E+00
    0.00000E+00         0.00000E+00         0.00000E+00
 
    0.26969E+06         0.15796E+06         0.00000E+00
    0.15796E+06        -0.62885E+06         0.00000E+00
    0.00000E+00         0.00000E+00         0.00000E+00
 
    0.26430E+06         0.16781E+06         0.00000E+00
    0.16781E+06        -0.62677E+06         0.00000E+00
    0.00000E+00         0.00000E+00         0.00000E+00
 
    0.25874E+06         0.17761E+06         0.00000E+00
    0.17761E+06        -0.62457E+06         0.00000E+00
    0.00000E+00         0.00000E+00         0.00000E+00
 
    0.25301E+06         0.18738E+06         0.00000E+00
    0.18738E+06        -0.62226E+06         0.00000E+00
    0.00000E+00         0.00000E+00         0.00000E+00
 
    0.24711E+06         0.19712E+06         0.00000E+00
    0.19712E+06        -0.61983E+06         0.00000E+00
    0.00000E+00         0.00000E+00         0.00000E+00
 
    0.24104E+06         0.20682E+06         0.00000E+00
    0.20682E+06        -0.61729E+06         0.00000E+00
    0.00000E+00         0.00000E+00         0.00000E+00
 
    0.23481E+06         0.21648E+06         0.00000E+00
    0.21648E+06        -0.61465E+06         0.00000E+00
    0.00000E+00         0.00000E+00         0.00000E+00
 
    0.22842E+06         0.22611E+06         0.00000E+00
    0.22611E+06        -0.61189E+06         0.00000E+00
    0.00000E+00         0.00000E+00         0.00000E+00
 
    0.22187E+06         0.23571E+06         0.00000E+00
    0.23571E+06        -0.60903E+06         0.00000E+00
    0.00000E+00         0.00000E+00         0.00000E+00
 
    0.21516E+06         0.24527E+06         0.00000E+00
    0.24527E+06        -0.60607E+06         0.00000E+00
    0.00000E+00         0.00000E+00         0.00000E+00
 
    0.20830E+06         0.25480E+06         0.00000E+00
    0.25480E+06        -0.60301E+06         0.00000E+00
    0.00000E+00         0.00000E+00         0.00000E+00
 
    0.20129E+06         0.26429E+06         0.00000E+00
    0.26429E+06        -0.59985E+06         0.00000E+00
    0.00000E+00         0.00000E+00         0.00000E+00
 
    0.19414E+06         0.27375E+06         0.00000E+00
    0.27375E+06        -0.59659E+06         0.00000E+00
    0.00000E+00         0.00000E+00         0.00000E+00
 
    0.18683E+06         0.28318E+06         0.00000E+00
    0.28318E+06        -0.59324E+06         0.00000E+00
    0.00000E+00         0.00000E+00         0.00000E+00
 
    0.17939E+06         0.29257E+06         0.00000E+00
    0.29257E+06        -0.58979E+06         0.00000E+00
    0.00000E+00         0.00000E+00         0.00000E+00
 
    0.17181E+06         0.30192E+06         0.00000E+00
    0.30192E+06        -0.58626E+06         0.00000E+00
    0.00000E+00         0.00000E+00         0.00000E+00
 
    0.16409E+06         0.31124E+06         0.00000E+00
    0.31124E+06        -0.58263E+06         0.00000E+00
    0.00000E+00         0.00000E+00         0.00000E+00
 
    0.15624E+06         0.32052E+06         0.00000E+00
    0.32052E+06        -0.57893E+06         0.00000E+00
    0.00000E+00         0.00000E+00         0.00000E+00
 
    0.14825E+06         0.32977E+06         0.00000E+00
    0.32977E+06        -0.57513E+06         0.00000E+00
    0.00000E+00         0.00000E+00         0.00000E+00
 
    0.14014E+06         0.33897E+06         0.00000E+00
    0.33897E+06        -0.57126E+06         0.00000E+00
    0.00000E+00         0.00000E+00         0.00000E+00
 
    0.13191E+06         0.34815E+06         0.00000E+00
    0.34815E+06        -0.56730E+06         0.00000E+00
    0.00000E+00         0.00000E+00         0.00000E+00
 
    0.12355E+06         0.35728E+06         0.00000E+00
    0.35728E+06        -0.56327E+06         0.00000E+00
    0.00000E+00         0.00000E+00         0.00000E+00
 
    0.11507E+06         0.36637E+06         0.00000E+00
    0.36637E+06        -0.55916E+06         0.00000E+00
    0.00000E+00         0.00000E+00         0.00000E+00
 
    0.10647E+06         0.37543E+06         0.00000E+00
    0.37543E+06        -0.55498E+06         0.00000E+00
    0.00000E+00         0.00000E+00         0.00000E+00
 
    0.97760E+05         0.38444E+06         0.00000E+00
    0.38444E+06        -0.55073E+06         0.00000E+00
    0.00000E+00         0.00000E+00         0.00000E+00
 
    0.88936E+05         0.39341E+06         0.00000E+00
    0.39341E+06        -0.54640E+06         0.00000E+00
    0.00000E+00         0.00000E+00         0.00000E+00
 
    0.80003E+05         0.40235E+06         0.00000E+00
    0.40235E+06        -0.54201E+06         0.00000E+00
    0.00000E+00         0.00000E+00         0.00000E+00
 
    0.70962E+05         0.41123E+06         0.00000E+00
    0.41123E+06        -0.53756E+06         0.00000E+00
    0.00000E+00         0.00000E+00         0.00000E+00
 
    0.61817E+05         0.42008E+06         0.00000E+00
    0.42008E+06        -0.53304E+06         0.00000E+00
    0.00000E+00         0.00000E+00         0.00000E+00
 
    0.52570E+05         0.42888E+06         0.00000E+00
    0.42888E+06        -0.52846E+06         0.00000E+00
    0.00000E+00         0.00000E+00         0.00000E+00
 
    0.43223E+05         0.43764E+06         0.00000E+00
    0.43764E+06        -0.52382E+06         0.00000E+00
    0.00000E+00         0.00000E+00         0.00000E+00
 
    0.33778E+05         0.44634E+06         0.00000E+00
    0.44634E+06        -0.51913E+06         0.00000E+00
    0.00000E+00         0.00000E+00         0.00000E+00
 
    0.24239E+05         0.45501E+06         0.00000E+00
    0.45501E+06        -0.51437E+06         0.00000E+00
    0.00000E+00         0.00000E+00         0.00000E+00
 
    0.14606E+05         0.46362E+06         0.00000E+00
    0.46362E+06        -0.50957E+06         0.00000E+00
    0.00000E+00         0.00000E+00         0.00000E+00
 
    0.48837E+04         0.47218E+06         0.00000E+00
    0.47218E+06        -0.50471E+06         0.00000E+00
    0.00000E+00         0.00000E+00         0.00000E+00
 
    0.33898E+06         0.56609E+04         0.00000E+00
    0.56609E+04        -0.68828E+06         0.00000E+00
    0.00000E+00         0.00000E+00         0.00000E+00
 
    0.33619E+06         0.16823E+05         0.00000E+00
    0.16823E+05        -0.68814E+06         0.00000E+00
    0.00000E+00         0.00000E+00         0.00000E+00
 
    0.33320E+06         0.27928E+05         0.00000E+00
    0.27928E+05        -0.68786E+06         0.00000E+00
    0.00000E+00         0.00000E+00         0.00000E+00
 
    0.33002E+06         0.38977E+05         0.00000E+00
    0.38977E+05        -0.68745E+06         0.00000E+00
    0.00000E+00         0.00000E+00         0.00000E+00
 
    0.32664E+06         0.49973E+05         0.00000E+00
    0.49973E+05        -0.68691E+06         0.00000E+00
    0.00000E+00         0.00000E+00         0.00000E+00
 
    0.32307E+06         0.60916E+05         0.00000E+00
    0.60916E+05        -0.68623E+06         0.00000E+00
    0.00000E+00         0.00000E+00         0.00000E+00
 
    0.31931E+06         0.71807E+05         0.00000E+00
    0.71807E+05        -0.68541E+06         0.00000E+00
    0.00000E+00         0.00000E+00         0.00000E+00
 
    0.31536E+06         0.82647E+05         0.00000E+00
    0.82647E+05        -0.68446E+06         0.00000E+00
    0.00000E+00         0.00000E+00         0.00000E+00
 
    0.31122E+06         0.93437E+05         0.00000E+00
    0.93437E+05        -0.68338E+06         0.00000E+00
    0.00000E+00         0.00000E+00         0.00000E+00
 
    0.30690E+06         0.10418E+06         0.00000E+00
    0.10418E+06        -0.68218E+06         0.00000E+00
    0.00000E+00         0.00000E+00         0.00000E+00
 
    0.30239E+06         0.11487E+06         0.00000E+00
    0.11487E+06        -0.68084E+06         0.00000E+00
    0.00000E+00         0.00000E+00         0.00000E+00
 
    0.29769E+06         0.12552E+06         0.00000E+00
    0.12552E+06        -0.67937E+06         0.00000E+00
    0.00000E+00         0.00000E+00         0.00000E+00
 
    0.29281E+06         0.13612E+06         0.00000E+00
    0.13612E+06        -0.67778E+06         0.00000E+00
    0.00000E+00         0.00000E+00         0.00000E+00
 
    0.28775E+06         0.14667E+06         0.00000E+00
    0.14667E+06        -0.67606E+06         0.00000E+00
    0.00000E+00         0.00000E+00         0.00000E+00
 
    0.28252E+06         0.15718E+06         0.00000E+00
    0.15718E+06        -0.67422E+06         0.00000E+00
    0.00000E+00         0.00000E+00         0.00000E+00
 
    0.27710E+06         0.16764E+06         0.00000E+00
    0.16764E+06        -0.67226E+06         0.00000E+00
    0.00000E+00         0.00000E+00         0.00000E+00
 
    0.27152E+06         0.17806E+06         0.00000E+00
    0.17806E+06        -0.67018E+06         0.00000E+00
    0.00000E+00         0.00000E+00         0.00000E+00
 
    0.26576E+06         0.18843E+06         0.00000E+00
    0.18843E+06        -0.66798E+06         0.00000E+00
    0.00000E+00         0.00000E+00         0.00000E+00
 
    0.25983E+06         0.19876E+06         0.00000E+00
    0.19876E+06        -0.66566E+06         0.00000E+00
    0.00000E+00         0.00000E+00         0.00000E+00
 
    0.25373E+06         0.20905E+06         0.00000E+00
    0.20905E+06        -0.66323E+06         0.00000E+00
    0.00000E+00         0.00000E+00         0.00000E+00
 
    0.24747E+06         0.21930E+06         0.00000E+00
    0.21930E+06        -0.66068E+06         0.00000E+00
    0.00000E+00         0.00000E+00         0.00000E+00
 
    0.24105E+06         0.22950E+06         0.00000E+00
    0.22950E+06        -0.65803E+06         0.00000E+00
    0.00000E+00         0.00000E+00         0.00000E+00
 
    0.23447E+06         0.23966E+06         0.00000E+00
    0.23966E+06        -0.65526E+06         0.00000E+00
    0.00000E+00         0.00000E+00         0.00000E+00
 
    0.22772E+06         0.24978E+06         0.00000E+00
    0.24978E+06        -0.65239E+06         0.00000E+00
    0.00000E+00         0.00000E+00         0.00000E+00
 
    0.22083E+06         0.25985E+06         0.00000E+00
    0.25985E+06        -0.64941E+06         0.00000E+00
    0.00000E+00         0.00000E+00         0.00000E+00
 
    0.21377E+06         0.26989E+06         0.00000E+00
    0.26989E+06        -0.64633E+06         0.00000E+00
    0.00000E+00         0.00000E+00         0.00000E+00
 
    0.20657E+06         0.27988E+06         0.00000E+00
    0.27988E+06        -0.64314E+06         0.00000E+00
    0.00000E+00         0.00000E+00         0.00000E+00
 
    0.19922E+06         0.28982E+06         0.00000E+00
    0.28982E+06        -0.63986E+06         0.00000E+00
    0.00000E+00         0.00000E+00         0.00000E+00
 
    0.19172E+06         0.29973E+06         0.00000E+00
    0.29973E+06        -0.63647E+06         0.00000E+00
    0.00000E+00         0.00000E+00         0.00000E+00
 
    0.18409E+06         0.30959E+06         0.00000E+00
    0.30959E+06        -0.63299E+06         0.00000E+00
    0.00000E+00         0.00000E+00         0.00000E+00
 
    0.17630E+06         0.31940E+06         0.00000E+00
    0.31940E+06        -0.62942E+06         0.00000E+00
    0.00000E+00         0.00000E+00         0.00000E+00
 
    0.16839E+06         0.32918E+06         0.00000E+00
    0.32918E+06        -0.62575E+06         0.00000E+00
    0.00000E+00         0.00000E+00         0.00000E+00
 
    0.16033E+06         0.33890E+06         0.00000E+00
    0.33890E+06        -0.62200E+06         0.00000E+00
    0.00000E+00         0.00000E+00         0.00000E+00
 
    0.15214E+06         0.34859E+06         0.00000E+00
    0.34859E+06        -0.61815E+06         0.00000E+00
    0.00000E+00         0.00000E+00         0.00000E+00
 
    0.14382E+06         0.35823E+06         0.00000E+00
    0.35823E+06        -0.61422E+06         0.00000E+00
    0.00000E+00         0.00000E+00         0.00000E+00
 
    0.13538E+06         0.36782E+06         0.00000E+00
    0.36782E+06        -0.61021E+06         0.00000E+00
    0.00000E+00         0.00000E+00         0.00000E+00
 
    0.12681E+06         0.37736E+06         0.00000E+00
    0.37736E+06        -0.60611E+06         0.00000E+00
    0.00000E+00         0.00000E+00         0.00000E+00
 
    0.11811E+06         0.38686E+06         0.00000E+00
    0.38686E+06        -0.60194E+06         0.00000E+00
    0.00000E+00         0.00000E+00         0.00000E+00
 
    0.10929E+06         0.39631E+06         0.00000E+00
    0.39631E+06        -0.59768E+06         0.00000E+00
    0.00000E+00         0.00000E+00         0.00000E+00
 
    0.10036E+06         0.40571E+06         0.00000E+00
    0.40571E+06        -0.59335E+06         0.00000E+00
    0.00000E+00         0.00000E+00         0.00000E+00
 
    0.91306E+05         0.41507E+06         0.00000E+00
    0.41507E+06        -0.58894E+06         0.00000E+00
    0.00000E+00         0.00000E+00         0.00000E+00
 
    0.82141E+05         0.42437E+06         0.00000E+00
    0.42437E+06        -0.58447E+06         0.00000E+00
    0.00000E+00         0.00000E+00         0.00000E+00
 
    0.72865E+05         0.43362E+06         0.00000E+00
    0.43362E+06        -0.57992E+06         0.00000E+00
    0.00000E+00         0.00000E+00         0.00000E+00
 
    0.63480E+05         0.44282E+06         0.00000E+00
    0.44282E+06        -0.57530E+06         0.00000E+00
    0.00000E+00         0.00000E+00         0.00000E+00
 
    0.53989E+05         0.45197E+06         0.00000E+00
    0.45197E+06        -0.57062E+06         0.00000E+00
    0.00000E+00         0.00000E+00         0.00000E+00
 
    0.44394E+05         0.46106E+06         0.00000E+00
    0.46106E+06        -0.56587E+06         0.00000E+00
    0.00000E+00         0.00000E+00         0.00000E+00
 
    0.34697E+05         0.47011E+06         0.00000E+00
    0.47011E+06        -0.56106E+06         0.00000E+00
    0.00000E+00         0.00000E+00         0.00000E+00
 
    0.24900E+05         0.47909E+06         0.00000E+00
    0.47909E+06        -0.55619E+06         0.00000E+00
    0.00000E+00         0.00000E+00         0.00000E+00
 
    0.15007E+05         0.48802E+06         0.00000E+00
    0.48802E+06        -0.55126E+06         0.00000E+00
    0.00000E+00         0.00000E+00         0.00000E+00
 
    0.50178E+04         0.49690E+06         0.00000E+00
    0.49690E+06        -0.54627E+06         0.00000E+00
    0.00000E+00         0.00000E+00         0.00000E+00
 
    0.35162E+06         0.59874E+04         0.00000E+00
    0.59874E+04        -0.73323E+06         0.00000E+00
    0.00000E+00         0.00000E+00         0.00000E+00
 
    0.34853E+06         0.17798E+05         0.00000E+00
    0.17798E+05        -0.73309E+06         0.00000E+00
    0.00000E+00         0.00000E+00         0.00000E+00
 
    0.34526E+06         0.29551E+05         0.00000E+00
    0.29551E+05        -0.73281E+06         0.00000E+00
    0.00000E+00         0.00000E+00         0.00000E+00
 
    0.34180E+06         0.41246E+05         0.00000E+00
    0.41246E+05        -0.73240E+06         0.00000E+00
    0.00000E+00         0.00000E+00         0.00000E+00
 
    0.33815E+06         0.52885E+05         0.00000E+00
    0.52885E+05        -0.73186E+06         0.00000E+00
    0.00000E+00         0.00000E+00         0.00000E+00
 
    0.33431E+06         0.64467E+05         0.00000E+00
    0.64467E+05        -0.73117E+06         0.00000E+00
    0.00000E+00         0.00000E+00         0.00000E+00
 
    0.33028E+06         0.75994E+05         0.00000E+00
    0.75994E+05        -0.73036E+06         0.00000E+00
    0.00000E+00         0.00000E+00         0.00000E+00
 
    0.32607E+06         0.87466E+05         0.00000E+00
    0.87466E+05        -0.72941E+06         0.00000E+00
    0.00000E+00         0.00000E+00         0.00000E+00
 
    0.32167E+06         0.98884E+05         0.00000E+00
    0.98884E+05        -0.72833E+06         0.00000E+00
    0.00000E+00         0.00000E+00         0.00000E+00
 
    0.31709E+06         0.11025E+06         0.00000E+00
    0.11025E+06        -0.72711E+06         0.00000E+00
    0.00000E+00         0.00000E+00         0.00000E+00
 
    0.31233E+06         0.12156E+06         0.00000E+00
    0.12156E+06        -0.72577E+06         0.00000E+00
    0.00000E+00         0.00000E+00         0.00000E+00
 
    0.30739E+06         0.13282E+06         0.00000E+00
    0.13282E+06        -0.72430E+06         0.00000E+00
    0.00000E+00         0.00000E+00         0.00000E+00
 
    0.30227E+06         0.14403E+06         0.00000E+00
    0.14403E+06        -0.72270E+06         0.00000E+00
    0.00000E+00         0.00000E+00         0.00000E+00
 
    0.29697E+06         0.15518E+06         0.00000E+00
    0.15518E+06        -0.72097E+06         0.00000E+00
    0.00000E+00         0.00000E+00         0.00000E+00
 
    0.29149E+06         0.16629E+06         0.00000E+00
    0.16629E+06        -0.71912E+06         0.00000E+00
    0.00000E+00         0.00000E+00         0.00000E+00
 
    0.28584E+06         0.17734E+06         0.00000E+00
    0.17734E+06        -0.71715E+06         0.00000E+00
    0.00000E+00         0.00000E+00         0.00000E+00
 
    0.28002E+06         0.18834E+06         0.00000E+00
    0.18834E+06        -0.71505E+06         0.00000E+00
    0.00000E+00         0.00000E+00         0.00000E+00
 
    0.27403E+06         0.19930E+06         0.00000E+00
    0.19930E+06        -0.71284E+06         0.00000E+00
    0.00000E+00         0.00000E+00         0.00000E+00
 
    0.26787E+06         0.21020E+06         0.00000E+00
    0.21020E+06        -0.71050E+06         0.00000E+00
    0.00000E+00         0.00000E+00         0.00000E+00
 
    0.26154E+06         0.22105E+06         0.00000E+00
    0.22105E+06        -0.70805E+06         0.00000E+00
    0.00000E+00         0.00000E+00         0.00000E+00
 
    0.25505E+06         0.23186E+06         0.00000E+00
    0.23186E+06        -0.70548E+06         0.00000E+00
    0.00000E+00         0.00000E+00         0.00000E+00
 
    0.24840E+06         0.24261E+06         0.00000E+00
    0.24261E+06        -0.70280E+06         0.00000E+00
    0.00000E+00         0.00000E+00         0.00000E+00
 
    0.24158E+06         0.25331E+06         0.00000E+00
    0.25331E+06        -0.70000E+06         0.00000E+00
    0.00000E+00         0.00000E+00         0.00000E+00
 
    0.23461E+06         0.26397E+06         0.00000E+00
    0.26397E+06        -0.69710E+06         0.00000E+00
    0.00000E+00         0.00000E+00         0.00000E+00
 
    0.22748E+06         0.27457E+06         0.00000E+00
    0.27457E+06        -0.69408E+06         0.00000E+00
    0.00000E+00         0.00000E+00         0.00000E+00
 
    0.22020E+06         0.28512E+06         0.00000E+00
    0.28512E+06        -0.69096E+06         0.00000E+00
    0.00000E+00         0.00000E+00         0.00000E+00
 
    0.21277E+06         0.29563E+06         0.00000E+00
    0.29563E+06        -0.68773E+06         0.00000E+00
    0.00000E+00         0.00000E+00         0.00000E+00
 
    0.20518E+06         0.30608E+06         0.00000E+00
    0.30608E+06        -0.68440E+06         0.00000E+00
    0.00000E+00         0.00000E+00         0.00000E+00
 
    0.19745E+06         0.31648E+06         0.00000E+00
    0.31648E+06        -0.68097E+06         0.00000E+00
    0.00000E+00         0.00000E+00         0.00000E+00
 
    0.18958E+06         0.32683E+06         0.00000E+00
    0.32683E+06        -0.67744E+06         0.00000E+00
    0.00000E+00         0.00000E+00         0.00000E+00
 
    0.18156E+06         0.33713E+06         0.00000E+00
    0.33713E+06        -0.67381E+06         0.00000E+00
    0.00000E+00         0.00000E+00         0.00000E+00
 
    0.17340E+06         0.34738E+06         0.00000E+00
    0.34738E+06        -0.67008E+06         0.00000E+00
    0.00000E+00         0.00000E+00         0.00000E+00
 
    0.16510E+06         0.35757E+06         0.00000E+00
    0.35757E+06        -0.66626E+06         0.00000E+00
    0.00000E+00         0.00000E+00         0.00000E+00
 
    0.15667E+06         0.36772E+06         0.00000E+00
    0.36772E+06        -0.66235E+06         0.00000E+00
    0.00000E+00         0.00000E+00         0.00000E+00
 
    0.14810E+06         0.37781E+06         0.00000E+00
    0.37781E+06        -0.65834E+06         0.00000E+00
    0.00000E+00         0.00000E+00         0.00000E+00
 
    0.13941E+06         0.38784E+06         0.00000E+00
    0.38784E+06        -0.65425E+06         0.00000E+00
    0.00000E+00         0.00000E+00         0.00000E+00
 
    0.13058E+06         0.39782E+06         0.00000E+00
    0.39782E+06        -0.65007E+06         0.00000E+00
    0.00000E+00         0.00000E+00         0.00000E+00
 
    0.12163E+06         0.40775E+06         0.00000E+00
    0.40775E+06        -0.64581E+06         0.00000E+00
    0.00000E+00         0.00000E+00         0.00000E+00
 
    0.11255E+06         0.41762E+06         0.00000E+00
    0.41762E+06        -0.64146E+06         0.00000E+00
    0.00000E+00         0.00000E+00         0.00000E+00
 
    0.10335E+06         0.42743E+06         0.00000E+00
    0.42743E+06        -0.63703E+06         0.00000E+00
    0.00000E+00         0.00000E+00         0.00000E+00
 
    0.94036E+05         0.43719E+06         0.00000E+00
    0.43719E+06        -0.63253E+06         0.00000E+00
    0.00000E+00         0.00000E+00         0.00000E+00
 
    0.84601E+05         0.44689E+06         0.00000E+00
    0.44689E+06        -0.62794E+06         0.00000E+00
    0.00000E+00         0.00000E+00         0.00000E+00
 
    0.75050E+05         0.45653E+06         0.00000E+00
    0.45653E+06        -0.62328E+06         0.00000E+00
    0.00000E+00         0.00000E+00         0.00000E+00
 
    0.65388E+05         0.46611E+06         0.00000E+00
    0.46611E+06        -0.61855E+06         0.00000E+00
    0.00000E+00         0.00000E+00         0.00000E+00
 
    0.55614E+05         0.47564E+06         0.00000E+00
    0.47564E+06        -0.61374E+06         0.00000E+00
    0.00000E+00         0.00000E+00         0.00000E+00
 
    0.45733E+05         0.48510E+06         0.00000E+00
    0.48510E+06        -0.60887E+06         0.00000E+00
    0.00000E+00         0.00000E+00         0.00000E+00
 
    0.35746E+05         0.49450E+06         0.00000E+00
    0.49450E+06        -0.60393E+06         0.00000E+00
    0.00000E+00         0.00000E+00         0.00000E+00
 
    0.25655E+05         0.50384E+06         0.00000E+00
    0.50384E+06        -0.59892E+06         0.00000E+00
    0.00000E+00         0.00000E+00         0.00000E+00
 
    0.15462E+05         0.51311E+06         0.00000E+00
    0.51311E+06        -0.59384E+06         0.00000E+00
    0.00000E+00         0.00000E+00         0.00000E+00
 
    0.51704E+04         0.52232E+06         0.00000E+00
    0.52232E+06        -0.58871E+06         0.00000E+00
    0.00000E+00         0.00000E+00         0.00000E+00
 
    0.36577E+06         0.63145E+04         0.00000E+00
    0.63145E+04        -0.77991E+06         0.00000E+00
    0.00000E+00         0.00000E+00         0.00000E+00
 
    0.36239E+06         0.18777E+05         0.00000E+00
    0.18777E+05        -0.77977E+06         0.00000E+00
    0.00000E+00         0.00000E+00         0.00000E+00
 
    0.35883E+06         0.31180E+05         0.00000E+00
    0.31180E+05        -0.77949E+06         0.00000E+00
    0.00000E+00         0.00000E+00         0.00000E+00
 
    0.35507E+06         0.43523E+05         0.00000E+00
    0.43523E+05        -0.77908E+06         0.00000E+00
    0.00000E+00         0.00000E+00         0.00000E+00
 
    0.35114E+06         0.55808E+05         0.00000E+00
    0.55808E+05        -0.77853E+06         0.00000E+00
    0.00000E+00         0.00000E+00         0.00000E+00
 
    0.34701E+06         0.68033E+05         0.00000E+00
    0.68033E+05        -0.77784E+06         0.00000E+00
    0.00000E+00         0.00000E+00         0.00000E+00
 
    0.34270E+06         0.80201E+05         0.00000E+00
    0.80201E+05        -0.77701E+06         0.00000E+00
    0.00000E+00         0.00000E+00         0.00000E+00
 
    0.33821E+06         0.92310E+05         0.00000E+00
    0.92310E+05        -0.77605E+06         0.00000E+00
    0.00000E+00         0.00000E+00         0.00000E+00
 
    0.33354E+06         0.10436E+06         0.00000E+00
    0.10436E+06        -0.77496E+06         0.00000E+00
    0.00000E+00         0.00000E+00         0.00000E+00
 
    0.32868E+06         0.11636E+06         0.00000E+00
    0.11636E+06        -0.77374E+06         0.00000E+00
    0.00000E+00         0.00000E+00         0.00000E+00
 
    0.32365E+06         0.12829E+06         0.00000E+00
    0.12829E+06        -0.77238E+06         0.00000E+00
    0.00000E+00         0.00000E+00         0.00000E+00
 
    0.31844E+06         0.14017E+06         0.00000E+00
    0.14017E+06        -0.77089E+06         0.00000E+00
    0.00000E+00         0.00000E+00         0.00000E+00
 
    0.31305E+06         0.15200E+06         0.00000E+00
    0.15200E+06        -0.76927E+06         0.00000E+00
    0.00000E+00         0.00000E+00         0.00000E+00
 
    0.30748E+06         0.16377E+06         0.00000E+00
    0.16377E+06        -0.76753E+06         0.00000E+00
    0.00000E+00         0.00000E+00         0.00000E+00
 
    0.30174E+06         0.17548E+06         0.00000E+00
    0.17548E+06        -0.76565E+06         0.00000E+00
    0.00000E+00         0.00000E+00         0.00000E+00
 
    0.29582E+06         0.18713E+06         0.00000E+00
    0.18713E+06        -0.76365E+06         0.00000E+00
    0.00000E+00         0.00000E+00         0.00000E+00
 
    0.28974E+06         0.19873E+06         0.00000E+00
    0.19873E+06        -0.76153E+06         0.00000E+00
    0.00000E+00         0.00000E+00         0.00000E+00
 
    0.28348E+06         0.21027E+06         0.00000E+00
    0.21027E+06        -0.75928E+06         0.00000E+00
    0.00000E+00         0.00000E+00         0.00000E+00
 
    0.27706E+06         0.22176E+06         0.00000E+00
    0.22176E+06        -0.75692E+06         0.00000E+00
    0.00000E+00         0.00000E+00         0.00000E+00
 
    0.27047E+06         0.23319E+06         0.00000E+00
    0.23319E+06        -0.75443E+06         0.00000E+00
    0.00000E+00         0.00000E+00         0.00000E+00
 
    0.26371E+06         0.24457E+06         0.00000E+00
    0.24457E+06        -0.75182E+06         0.00000E+00
    0.00000E+00         0.00000E+00         0.00000E+00
 
    0.25680E+06         0.25589E+06         0.00000E+00
    0.25589E+06        -0.74910E+06         0.00000E+00
    0.00000E+00         0.00000E+00         0.00000E+00
 
    0.24972E+06         0.26715E+06         0.00000E+00
    0.26715E+06        -0.74626E+06         0.00000E+00
    0.00000E+00         0.00000E+00         0.00000E+00
 
    0.24248E+06         0.27835E+06         0.00000E+00
    0.27835E+06        -0.74331E+06         0.00000E+00
    0.00000E+00         0.00000E+00         0.00000E+00
 
    0.23509E+06         0.28950E+06         0.00000E+00
    0.28950E+06        -0.74024E+06         0.00000E+00
    0.00000E+00         0.00000E+00         0.00000E+00
 
    0.22754E+06         0.30059E+06         0.00000E+00
    0.30059E+06        -0.73706E+06         0.00000E+00
    0.00000E+00         0.00000E+00         0.00000E+00
 
    0.21984E+06         0.31163E+06         0.00000E+00
    0.31163E+06        -0.73378E+06         0.00000E+00
    0.00000E+00         0.00000E+00         0.00000E+00
 
    0.21198E+06         0.32261E+06         0.00000E+00
    0.32261E+06        -0.73038E+06         0.00000E+00
    0.00000E+00         0.00000E+00         0.00000E+00
 
    0.20398E+06         0.33353E+06         0.00000E+00
    0.33353E+06        -0.72689E+06         0.00000E+00
    0.00000E+00         0.00000E+00         0.00000E+00
 
    0.19583E+06         0.34439E+06         0.00000E+00
    0.34439E+06        -0.72328E+06         0.00000E+00
    0.00000E+00         0.00000E+00         0.00000E+00
 
    0.18754E+06         0.35519E+06         0.00000E+00
    0.35519E+06        -0.71958E+06         0.00000E+00
    0.00000E+00         0.00000E+00         0.00000E+00
 
    0.17910E+06         0.36593E+06         0.00000E+00
    0.36593E+06        -0.71578E+06         0.00000E+00
    0.00000E+00         0.00000E+00         0.00000E+00
 
    0.17053E+06         0.37662E+06         0.00000E+00
    0.37662E+06        -0.71187E+06         0.00000E+00
    0.00000E+00         0.00000E+00         0.00000E+00
 
    0.16181E+06         0.38724E+06         0.00000E+00
    0.38724E+06        -0.70787E+06         0.00000E+00
    0.00000E+00         0.00000E+00         0.00000E+00
 
    0.15296E+06         0.39781E+06         0.00000E+00
    0.39781E+06        -0.70378E+06         0.00000E+00
    0.00000E+00         0.00000E+00         0.00000E+00
 
    0.14398E+06         0.40831E+06         0.00000E+00
    0.40831E+06        -0.69959E+06         0.00000E+00
    0.00000E+00         0.00000E+00         0.00000E+00
 
    0.13486E+06         0.41875E+06         0.00000E+00
    0.41875E+06        -0.69531E+06         0.00000E+00
    0.00000E+00         0.00000E+00         0.00000E+00
 
    0.12561E+06         0.42913E+06         0.00000E+00
    0.42913E+06        -0.69094E+06         0.00000E+00
    0.00000E+00         0.00000E+00         0.00000E+00
 
    0.11624E+06         0.43944E+06         0.00000E+00
    0.43944E+06        -0.68648E+06         0.00000E+00
    0.00000E+00         0.00000E+00         0.00000E+00
 
    0.10674E+06         0.44969E+06         0.00000E+00
    0.44969E+06        -0.68194E+06         0.00000E+00
    0.00000E+00         0.00000E+00         0.00000E+00
 
    0.97118E+05         0.45988E+06         0.00000E+00
    0.45988E+06        -0.67731E+06         0.00000E+00
    0.00000E+00         0.00000E+00         0.00000E+00
 
    0.87375E+05         0.47000E+06         0.00000E+00
    0.47000E+06        -0.67260E+06         0.00000E+00
    0.00000E+00         0.00000E+00         0.00000E+00
 
    0.77513E+05         0.48006E+06         0.00000E+00
    0.48006E+06        -0.66781E+06         0.00000E+00
    0.00000E+00         0.00000E+00         0.00000E+00
 
    0.67535E+05         0.49005E+06         0.00000E+00
    0.49005E+06        -0.66294E+06         0.00000E+00
    0.00000E+00         0.00000E+00         0.00000E+00
 
    0.57442E+05         0.49997E+06         0.00000E+00
    0.49997E+06        -0.65800E+06         0.00000E+00
    0.00000E+00         0.00000E+00         0.00000E+00
 
    0.47237E+05         0.50982E+06         0.00000E+00
    0.50982E+06        -0.65298E+06         0.00000E+00
    0.00000E+00         0.00000E+00         0.00000E+00
 
    0.36923E+05         0.51961E+06         0.00000E+00
    0.51961E+06        -0.64788E+06         0.00000E+00
    0.00000E+00         0.00000E+00         0.00000E+00
 
    0.26500E+05         0.52932E+06         0.00000E+00
    0.52932E+06        -0.64272E+06         0.00000E+00
    0.00000E+00         0.00000E+00         0.00000E+00
 
    0.15973E+05         0.53897E+06         0.00000E+00
    0.53897E+06        -0.63749E+06         0.00000E+00
    0.00000E+00         0.00000E+00         0.00000E+00
 
    0.53412E+04         0.54854E+06         0.00000E+00
    0.54854E+06        -0.63218E+06         0.00000E+00
    0.00000E+00         0.00000E+00         0.00000E+00
 
    0.38134E+06         0.66451E+04         0.00000E+00
    0.66451E+04        -0.82845E+06         0.00000E+00
    0.00000E+00         0.00000E+00         0.00000E+00
 
    0.37766E+06         0.19767E+05         0.00000E+00
    0.19767E+05        -0.82831E+06         0.00000E+00
    0.00000E+00         0.00000E+00         0.00000E+00
 
    0.37379E+06         0.32827E+05         0.00000E+00
    0.32827E+05        -0.82803E+06         0.00000E+00
    0.00000E+00         0.00000E+00         0.00000E+00
 
    0.36974E+06         0.45826E+05         0.00000E+00
    0.45826E+05        -0.82761E+06         0.00000E+00
    0.00000E+00         0.00000E+00         0.00000E+00
 
    0.36550E+06         0.58765E+05         0.00000E+00
    0.58765E+05        -0.82705E+06         0.00000E+00
    0.00000E+00         0.00000E+00         0.00000E+00
 
    0.36108E+06         0.71642E+05         0.00000E+00
    0.71642E+05        -0.82635E+06         0.00000E+00
    0.00000E+00         0.00000E+00         0.00000E+00
 
    0.35648E+06         0.84458E+05         0.00000E+00
    0.84458E+05        -0.82551E+06         0.00000E+00
    0.00000E+00         0.00000E+00         0.00000E+00
 
    0.35169E+06         0.97214E+05         0.00000E+00
    0.97214E+05        -0.82453E+06         0.00000E+00
    0.00000E+00         0.00000E+00         0.00000E+00
 
    0.34672E+06         0.10991E+06         0.00000E+00
    0.10991E+06        -0.82342E+06         0.00000E+00
    0.00000E+00         0.00000E+00         0.00000E+00
 
    0.34158E+06         0.12254E+06         0.00000E+00
    0.12254E+06        -0.82218E+06         0.00000E+00
    0.00000E+00         0.00000E+00         0.00000E+00
 
    0.33625E+06         0.13512E+06         0.00000E+00
    0.13512E+06        -0.82080E+06         0.00000E+00
    0.00000E+00         0.00000E+00         0.00000E+00
 
    0.33074E+06         0.14763E+06         0.00000E+00
    0.14763E+06        -0.81928E+06         0.00000E+00
    0.00000E+00         0.00000E+00         0.00000E+00
 
    0.32506E+06         0.16008E+06         0.00000E+00
    0.16008E+06        -0.81764E+06         0.00000E+00
    0.00000E+00         0.00000E+00         0.00000E+00
 
    0.31921E+06         0.17247E+06         0.00000E+00
    0.17247E+06        -0.81586E+06         0.00000E+00
    0.00000E+00         0.00000E+00         0.00000E+00
 
    0.31317E+06         0.18480E+06         0.00000E+00
    0.18480E+06        -0.81396E+06         0.00000E+00
    0.00000E+00         0.00000E+00         0.00000E+00
 
    0.30697E+06         0.19707E+06         0.00000E+00
    0.19707E+06        -0.81192E+06         0.00000E+00
    0.00000E+00         0.00000E+00         0.00000E+00
 
    0.30059E+06         0.20928E+06         0.00000E+00
    0.20928E+06        -0.80976E+06         0.00000E+00
    0.00000E+00         0.00000E+00         0.00000E+00
 
    0.29405E+06         0.22143E+06         0.00000E+00
    0.22143E+06        -0.80747E+06         0.00000E+00
    0.00000E+00         0.00000E+00         0.00000E+00
 
    0.28733E+06         0.23351E+06         0.00000E+00
    0.23351E+06        -0.80505E+06         0.00000E+00
    0.00000E+00         0.00000E+00         0.00000E+00
 
    0.28045E+06         0.24554E+06         0.00000E+00
    0.24554E+06        -0.80252E+06         0.00000E+00
    0.00000E+00         0.00000E+00         0.00000E+00
 
    0.27340E+06         0.25750E+06         0.00000E+00
    0.25750E+06        -0.79986E+06         0.00000E+00
    0.00000E+00         0.00000E+00         0.00000E+00
 
    0.26619E+06         0.26940E+06         0.00000E+00
    0.26940E+06        -0.79708E+06         0.00000E+00
    0.00000E+00         0.00000E+00         0.00000E+00
 
    0.25882E+06         0.28124E+06         0.00000E+00
    0.28124E+06        -0.79418E+06         0.00000E+00
    0.00000E+00         0.00000E+00         0.00000E+00
 
    0.25128E+06         0.29302E+06         0.00000E+00
    0.29302E+06        -0.79116E+06         0.00000E+00
    0.00000E+00         0.00000E+00         0.00000E+00
 
    0.24359E+06         0.30473E+06         0.00000E+00
    0.30473E+06        -0.78803E+06         0.00000E+00
    0.00000E+00         0.00000E+00         0.00000E+00
 
    0.23574E+06         0.31638E+06         0.00000E+00
    0.31638E+06        -0.78479E+06         0.00000E+00
    0.00000E+00         0.00000E+00         0.00000E+00
 
    0.22774E+06         0.32796E+06         0.00000E+00
    0.32796E+06        -0.78143E+06         0.00000E+00
    0.00000E+00         0.00000E+00         0.00000E+00
 
    0.21959E+06         0.33949E+06         0.00000E+00
    0.33949E+06        -0.77795E+06         0.00000E+00
    0.00000E+00         0.00000E+00         0.00000E+00
 
    0.21128E+06         0.35094E+06         0.00000E+00
    0.35094E+06        -0.77437E+06         0.00000E+00
    0.00000E+00         0.00000E+00         0.00000E+00
 
    0.20282E+06         0.36234E+06         0.00000E+00
    0.36234E+06        -0.77069E+06         0.00000E+00
    0.00000E+00         0.00000E+00         0.00000E+00
 
    0.19422E+06         0.37366E+06         0.00000E+00
    0.37366E+06        -0.76689E+06         0.00000E+00
    0.00000E+00         0.00000E+00         0.00000E+00
 
    0.18547E+06         0.38493E+06         0.00000E+00
    0.38493E+06        -0.76299E+06         0.00000E+00
    0.00000E+00         0.00000E+00         0.00000E+00
 
    0.17658E+06         0.39612E+06         0.00000E+00
    0.39612E+06        -0.75899E+06         0.00000E+00
    0.00000E+00         0.00000E+00         0.00000E+00
 
    0.16755E+06         0.40725E+06         0.00000E+00
    0.40725E+06        -0.75488E+06         0.00000E+00
    0.00000E+00         0.00000E+00         0.00000E+00
 
    0.15838E+06         0.41831E+06         0.00000E+00
    0.41831E+06        -0.75068E+06         0.00000E+00
    0.00000E+00         0.00000E+00         0.00000E+00
 
    0.14907E+06         0.42930E+06         0.00000E+00
    0.42930E+06        -0.74638E+06         0.00000E+00
    0.00000E+00         0.00000E+00         0.00000E+00
 
    0.13963E+06         0.44023E+06         0.00000E+00
    0.44023E+06        -0.74198E+06         0.00000E+00
    0.00000E+00         0.00000E+00         0.00000E+00
 
    0.13005E+06         0.45108E+06         0.00000E+00
    0.45108E+06        -0.73749E+06         0.00000E+00
    0.00000E+00         0.00000E+00         0.00000E+00
 
    0.12034E+06         0.46186E+06         0.00000E+00
    0.46186E+06        -0.73290E+06         0.00000E+00
    0.00000E+00         0.00000E+00         0.00000E+00
 
    0.11051E+06         0.47258E+06         0.00000E+00
    0.47258E+06        -0.72823E+06         0.00000E+00
    0.00000E+00         0.00000E+00         0.00000E+00
 
    0.10054E+06         0.48322E+06         0.00000E+00
    0.48322E+06        -0.72346E+06         0.00000E+00
    0.00000E+00         0.00000E+00         0.00000E+00
 
    0.90456E+05         0.49379E+06         0.00000E+00
    0.49379E+06        -0.71861E+06         0.00000E+00
    0.00000E+00         0.00000E+00         0.00000E+00
 
    0.80247E+05         0.50429E+06         0.00000E+00
    0.50429E+06        -0.71367E+06         0.00000E+00
    0.00000E+00         0.00000E+00         0.00000E+00
 
    0.69917E+05         0.51471E+06         0.00000E+00
    0.51471E+06        -0.70865E+06         0.00000E+00
    0.00000E+00         0.00000E+00         0.00000E+00
 
    0.59469E+05         0.52506E+06         0.00000E+00
    0.52506E+06        -0.70355E+06         0.00000E+00
    0.00000E+00         0.00000E+00         0.00000E+00
 
    0.48905E+05         0.53533E+06         0.00000E+00
    0.53533E+06        -0.69836E+06         0.00000E+00
    0.00000E+00         0.00000E+00         0.00000E+00
 
    0.38227E+05         0.54553E+06         0.00000E+00
    0.54553E+06        -0.69310E+06         0.00000E+00
    0.00000E+00         0.00000E+00         0.00000E+00
 
    0.27437E+05         0.55565E+06         0.00000E+00
    0.55565E+06        -0.68776E+06         0.00000E+00
    0.00000E+00         0.00000E+00         0.00000E+00
 
    0.16537E+05         0.56569E+06         0.00000E+00
    0.56569E+06        -0.68235E+06         0.00000E+00
    0.00000E+00         0.00000E+00         0.00000E+00
 
    0.55302E+04         0.57566E+06         0.00000E+00
    0.57566E+06        -0.67686E+06         0.00000E+00
    0.00000E+00         0.00000E+00         0.00000E+00
 
    0.39824E+06         0.69814E+04         0.00000E+00
    0.69814E+04        -0.87899E+06         0.00000E+00
    0.00000E+00         0.00000E+00         0.00000E+00
 
    0.39425E+06         0.20773E+05         0.00000E+00
    0.20773E+05        -0.87885E+06         0.00000E+00
    0.00000E+00         0.00000E+00         0.00000E+00
 
    0.39007E+06         0.34503E+05         0.00000E+00
    0.34503E+05        -0.87856E+06         0.00000E+00
    0.00000E+00         0.00000E+00         0.00000E+00
 
    0.38571E+06         0.48170E+05         0.00000E+00
    0.48170E+05        -0.87813E+06         0.00000E+00
    0.00000E+00         0.00000E+00         0.00000E+00
 
    0.38117E+06         0.61774E+05         0.00000E+00
    0.61774E+05        -0.87755E+06         0.00000E+00
    0.00000E+00         0.00000E+00         0.00000E+00
 
    0.37644E+06         0.75316E+05         0.00000E+00
    0.75316E+05        -0.87684E+06         0.00000E+00
    0.00000E+00         0.00000E+00         0.00000E+00
 
    0.37153E+06         0.88794E+05         0.00000E+00
    0.88794E+05        -0.87598E+06         0.00000E+00
    0.00000E+00         0.00000E+00         0.00000E+00
 
    0.36643E+06         0.10221E+06         0.00000E+00
    0.10221E+06        -0.87499E+06         0.00000E+00
    0.00000E+00         0.00000E+00         0.00000E+00
 
    0.36115E+06         0.11556E+06         0.00000E+00
    0.11556E+06        -0.87385E+06         0.00000E+00
    0.00000E+00         0.00000E+00         0.00000E+00
 
    0.35570E+06         0.12885E+06         0.00000E+00
    0.12885E+06        -0.87258E+06         0.00000E+00
    0.00000E+00         0.00000E+00         0.00000E+00
 
    0.35006E+06         0.14207E+06         0.00000E+00
    0.14207E+06        -0.87117E+06         0.00000E+00
    0.00000E+00         0.00000E+00         0.00000E+00
 
    0.34424E+06         0.15523E+06         0.00000E+00
    0.15523E+06        -0.86962E+06         0.00000E+00
    0.00000E+00         0.00000E+00         0.00000E+00
 
    0.33825E+06         0.16832E+06         0.00000E+00
    0.16832E+06        -0.86794E+06         0.00000E+00
    0.00000E+00         0.00000E+00         0.00000E+00
 
    0.33208E+06         0.18135E+06         0.00000E+00
    0.18135E+06        -0.86612E+06         0.00000E+00
    0.00000E+00         0.00000E+00         0.00000E+00
 
    0.32574E+06         0.19432E+06         0.00000E+00
    0.19432E+06        -0.86417E+06         0.00000E+00
    0.00000E+00         0.00000E+00         0.00000E+00
 
    0.31922E+06         0.20722E+06         0.00000E+00
    0.20722E+06        -0.86209E+06         0.00000E+00
    0.00000E+00         0.00000E+00         0.00000E+00
 
    0.31253E+06         0.22005E+06         0.00000E+00
    0.22005E+06        -0.85988E+06         0.00000E+00
    0.00000E+00         0.00000E+00         0.00000E+00
 
    0.30566E+06         0.23282E+06         0.00000E+00
    0.23282E+06        -0.85753E+06         0.00000E+00
    0.00000E+00         0.00000E+00         0.00000E+00
 
    0.29863E+06         0.24552E+06         0.00000E+00
    0.24552E+06        -0.85506E+06         0.00000E+00
    0.00000E+00         0.00000E+00         0.00000E+00
 
    0.29143E+06         0.25816E+06         0.00000E+00
    0.25816E+06        -0.85246E+06         0.00000E+00
    0.00000E+00         0.00000E+00         0.00000E+00
 
    0.28406E+06         0.27073E+06         0.00000E+00
    0.27073E+06        -0.84974E+06         0.00000E+00
    0.00000E+00         0.00000E+00         0.00000E+00
 
    0.27653E+06         0.28323E+06         0.00000E+00
    0.28323E+06        -0.84689E+06         0.00000E+00
    0.00000E+00         0.00000E+00         0.00000E+00
 
    0.26884E+06         0.29566E+06         0.00000E+00
    0.29566E+06        -0.84392E+06         0.00000E+00
    0.00000E+00         0.00000E+00         0.00000E+00
 
    0.26098E+06         0.30802E+06         0.00000E+00
    0.30802E+06        -0.84083E+06         0.00000E+00
    0.00000E+00         0.00000E+00         0.00000E+00
 
    0.25296E+06         0.32032E+06         0.00000E+00
    0.32032E+06        -0.83761E+06         0.00000E+00
    0.00000E+00         0.00000E+00         0.00000E+00
 
    0.24478E+06         0.33255E+06         0.00000E+00
    0.33255E+06        -0.83428E+06         0.00000E+00
    0.00000E+00         0.00000E+00         0.00000E+00
 
    0.23645E+06         0.34471E+06         0.00000E+00
    0.34471E+06        -0.83083E+06         0.00000E+00
    0.00000E+00         0.00000E+00         0.00000E+00
 
    0.22796E+06         0.35679E+06         0.00000E+00
    0.35679E+06        -0.82727E+06         0.00000E+00
    0.00000E+00         0.00000E+00         0.00000E+00
 
    0.21931E+06         0.36881E+06         0.00000E+00
    0.36881E+06        -0.82359E+06         0.00000E+00
    0.00000E+00         0.00000E+00         0.00000E+00
 
    0.21052E+06         0.38076E+06         0.00000E+00
    0.38076E+06        -0.81980E+06         0.00000E+00
    0.00000E+00         0.00000E+00         0.00000E+00
 
    0.20157E+06         0.39263E+06         0.00000E+00
    0.39263E+06        -0.81590E+06         0.00000E+00
    0.00000E+00         0.00000E+00         0.00000E+00
 
    0.19248E+06         0.40443E+06         0.00000E+00
    0.40443E+06        -0.81189E+06         0.00000E+00
    0.00000E+00         0.00000E+00         0.00000E+00
 
    0.18324E+06         0.41616E+06         0.00000E+00
    0.41616E+06        -0.80777E+06         0.00000E+00
    0.00000E+00         0.00000E+00         0.00000E+00
 
    0.17386E+06         0.42782E+06         0.00000E+00
    0.42782E+06        -0.80354E+06         0.00000E+00
    0.00000E+00         0.00000E+00         0.00000E+00
 
    0.16433E+06         0.43940E+06         0.00000E+00
    0.43940E+06        -0.79921E+06         0.00000E+00
    0.00000E+00         0.00000E+00         0.00000E+00
 
    0.15467E+06         0.45091E+06         0.00000E+00
    0.45091E+06        -0.79478E+06         0.00000E+00
    0.00000E+00         0.00000E+00         0.00000E+00
 
    0.14486E+06         0.46234E+06         0.00000E+00
    0.46234E+06        -0.79025E+06         0.00000E+00
    0.00000E+00         0.00000E+00         0.00000E+00
 
    0.13492E+06         0.47370E+06         0.00000E+00
    0.47370E+06        -0.78562E+06         0.00000E+00
    0.00000E+00         0.00000E+00         0.00000E+00
 
    0.12485E+06         0.48497E+06         0.00000E+00
    0.48497E+06        -0.78089E+06         0.00000E+00
    0.00000E+00         0.00000E+00         0.00000E+00
 
    0.11464E+06         0.49618E+06         0.00000E+00
    0.49618E+06        -0.77606E+06         0.00000E+00
    0.00000E+00         0.00000E+00         0.00000E+00
 
    0.10430E+06         0.50730E+06         0.00000E+00
    0.50730E+06        -0.77114E+06         0.00000E+00
    0.00000E+00         0.00000E+00         0.00000E+00
 
    0.93839E+05         0.51834E+06         0.00000E+00
    0.51834E+06        -0.76613E+06         0.00000E+00
    0.00000E+00         0.00000E+00         0.00000E+00
 
    0.83247E+05         0.52931E+06         0.00000E+00
    0.52931E+06        -0.76103E+06         0.00000E+00
    0.00000E+00         0.00000E+00         0.00000E+00
 
    0.72530E+05         0.54019E+06         0.00000E+00
    0.54019E+06        -0.75583E+06         0.00000E+00
    0.00000E+00         0.00000E+00         0.00000E+00
 
    0.61691E+05         0.55099E+06         0.00000E+00
    0.55099E+06        -0.75055E+06         0.00000E+00
    0.00000E+00         0.00000E+00         0.00000E+00
 
    0.50733E+05         0.56171E+06         0.00000E+00
    0.56171E+06        -0.74519E+06         0.00000E+00
    0.00000E+00         0.00000E+00         0.00000E+00
 
    0.39656E+05         0.57235E+06         0.00000E+00
    0.57235E+06        -0.73974E+06         0.00000E+00
    0.00000E+00         0.00000E+00         0.00000E+00
 
    0.28463E+05         0.58290E+06         0.00000E+00
    0.58290E+06        -0.73421E+06         0.00000E+00
    0.00000E+00         0.00000E+00         0.00000E+00
 
    0.17156E+05         0.59337E+06         0.00000E+00
    0.59337E+06        -0.72860E+06         0.00000E+00
    0.00000E+00         0.00000E+00         0.00000E+00
 
    0.57370E+04         0.60375E+06         0.00000E+00
    0.60375E+06        -0.72291E+06         0.00000E+00
    0.00000E+00         0.00000E+00         0.00000E+00
 
    0.41640E+06         0.73256E+04         0.00000E+00
    0.73256E+04        -0.93166E+06         0.00000E+00
    0.00000E+00         0.00000E+00         0.00000E+00
 
    0.41210E+06         0.21804E+05         0.00000E+00
    0.21804E+05        -0.93151E+06         0.00000E+00
    0.00000E+00         0.00000E+00         0.00000E+00
 
    0.40760E+06         0.36218E+05         0.00000E+00
    0.36218E+05        -0.93122E+06         0.00000E+00
    0.00000E+00         0.00000E+00         0.00000E+00
 
    0.40293E+06         0.50569E+05         0.00000E+00
    0.50569E+05        -0.93078E+06         0.00000E+00
    0.00000E+00         0.00000E+00         0.00000E+00
 
    0.39806E+06         0.64855E+05         0.00000E+00
    0.64855E+05        -0.93019E+06         0.00000E+00
    0.00000E+00         0.00000E+00         0.00000E+00
 
    0.39301E+06         0.79076E+05         0.00000E+00
    0.79076E+05        -0.92946E+06         0.00000E+00
    0.00000E+00         0.00000E+00         0.00000E+00
 
    0.38778E+06         0.93232E+05         0.00000E+00
    0.93232E+05        -0.92858E+06         0.00000E+00
    0.00000E+00         0.00000E+00         0.00000E+00
 
    0.38236E+06         0.10732E+06         0.00000E+00
    0.10732E+06        -0.92756E+06         0.00000E+00
    0.00000E+00         0.00000E+00         0.00000E+00
 
    0.37676E+06         0.12135E+06         0.00000E+00
    0.12135E+06        -0.92639E+06         0.00000E+00
    0.00000E+00         0.00000E+00         0.00000E+00
 
    0.37098E+06         0.13530E+06         0.00000E+00
    0.13530E+06        -0.92508E+06         0.00000E+00
    0.00000E+00         0.00000E+00         0.00000E+00
 
    0.36502E+06         0.14919E+06         0.00000E+00
    0.14919E+06        -0.92363E+06         0.00000E+00
    0.00000E+00         0.00000E+00         0.00000E+00
 
    0.35887E+06         0.16301E+06         0.00000E+00
    0.16301E+06        -0.92205E+06         0.00000E+00
    0.00000E+00         0.00000E+00         0.00000E+00
 
    0.35255E+06         0.17677E+06         0.00000E+00
    0.17677E+06        -0.92032E+06         0.00000E+00
    0.00000E+00         0.00000E+00         0.00000E+00
 
    0.34605E+06         0.19046E+06         0.00000E+00
    0.19046E+06        -0.91845E+06         0.00000E+00
    0.00000E+00         0.00000E+00         0.00000E+00
 
    0.33937E+06         0.20407E+06         0.00000E+00
    0.20407E+06        -0.91645E+06         0.00000E+00
    0.00000E+00         0.00000E+00         0.00000E+00
 
    0.33252E+06         0.21762E+06         0.00000E+00
    0.21762E+06        -0.91431E+06         0.00000E+00
    0.00000E+00         0.00000E+00         0.00000E+00
 
    0.32549E+06         0.23110E+06         0.00000E+00
    0.23110E+06        -0.91204E+06         0.00000E+00
    0.00000E+00         0.00000E+00         0.00000E+00
 
    0.31829E+06         0.24451E+06         0.00000E+00
    0.24451E+06        -0.90963E+06         0.00000E+00
    0.00000E+00         0.00000E+00         0.00000E+00
 
    0.31092E+06         0.25784E+06         0.00000E+00
    0.25784E+06        -0.90709E+06         0.00000E+00
    0.00000E+00         0.00000E+00         0.00000E+00
 
    0.30337E+06         0.27111E+06         0.00000E+00
    0.27111E+06        -0.90442E+06         0.00000E+00
    0.00000E+00         0.00000E+00         0.00000E+00
 
    0.29566E+06         0.28430E+06         0.00000E+00
    0.28430E+06        -0.90161E+06         0.00000E+00
    0.00000E+00         0.00000E+00         0.00000E+00
 
    0.28778E+06         0.29742E+06         0.00000E+00
    0.29742E+06        -0.89868E+06         0.00000E+00
    0.00000E+00         0.00000E+00         0.00000E+00
 
    0.27974E+06         0.31047E+06         0.00000E+00
    0.31047E+06        -0.89563E+06         0.00000E+00
    0.00000E+00         0.00000E+00         0.00000E+00
 
    0.27152E+06         0.32345E+06         0.00000E+00
    0.32345E+06        -0.89244E+06         0.00000E+00
    0.00000E+00         0.00000E+00         0.00000E+00
 
    0.26315E+06         0.33635E+06         0.00000E+00
    0.33635E+06        -0.88914E+06         0.00000E+00
    0.00000E+00         0.00000E+00         0.00000E+00
 
    0.25462E+06         0.34918E+06         0.00000E+00
    0.34918E+06        -0.88571E+06         0.00000E+00
    0.00000E+00         0.00000E+00         0.00000E+00
 
    0.24592E+06         0.36193E+06         0.00000E+00
    0.36193E+06        -0.88215E+06         0.00000E+00
    0.00000E+00         0.00000E+00         0.00000E+00
 
    0.23707E+06         0.37460E+06         0.00000E+00
    0.37460E+06        -0.87848E+06         0.00000E+00
    0.00000E+00         0.00000E+00         0.00000E+00
 
    0.22806E+06         0.38720E+06         0.00000E+00
    0.38720E+06        -0.87469E+06         0.00000E+00
    0.00000E+00         0.00000E+00         0.00000E+00
 
    0.21889E+06         0.39973E+06         0.00000E+00
    0.39973E+06        -0.87078E+06         0.00000E+00
    0.00000E+00         0.00000E+00         0.00000E+00
 
    0.20958E+06         0.41217E+06         0.00000E+00
    0.41217E+06        -0.86676E+06         0.00000E+00
    0.00000E+00         0.00000E+00         0.00000E+00
 
    0.20011E+06         0.42454E+06         0.00000E+00
    0.42454E+06        -0.86262E+06         0.00000E+00
    0.00000E+00         0.00000E+00         0.00000E+00
 
    0.19049E+06         0.43683E+06         0.00000E+00
    0.43683E+06        -0.85837E+06         0.00000E+00
    0.00000E+00         0.00000E+00         0.00000E+00
 
    0.18073E+06         0.44904E+06         0.00000E+00
    0.44904E+06        -0.85401E+06         0.00000E+00
    0.00000E+00         0.00000E+00         0.00000E+00
 
    0.17081E+06         0.46116E+06         0.00000E+00
    0.46116E+06        -0.84954E+06         0.00000E+00
    0.00000E+00         0.00000E+00         0.00000E+00
 
    0.16076E+06         0.47321E+06         0.00000E+00
    0.47321E+06        -0.84496E+06         0.00000E+00
    0.00000E+00         0.00000E+00         0.00000E+00
 
    0.15056E+06         0.48517E+06         0.00000E+00
    0.48517E+06        -0.84028E+06         0.00000E+00
    0.00000E+00         0.00000E+00         0.00000E+00
 
    0.14023E+06         0.49706E+06         0.00000E+00
    0.49706E+06        -0.83549E+06         0.00000E+00
    0.00000E+00         0.00000E+00         0.00000E+00
 
    0.12975E+06         0.50886E+06         0.00000E+00
    0.50886E+06        -0.83060E+06         0.00000E+00
    0.00000E+00         0.00000E+00         0.00000E+00
 
    0.11914E+06         0.52057E+06         0.00000E+00
    0.52057E+06        -0.82561E+06         0.00000E+00
    0.00000E+00         0.00000E+00         0.00000E+00
 
    0.10839E+06         0.53220E+06         0.00000E+00
    0.53220E+06        -0.82052E+06         0.00000E+00
    0.00000E+00         0.00000E+00         0.00000E+00
 
    0.97515E+05         0.54375E+06         0.00000E+00
    0.54375E+06        -0.81533E+06         0.00000E+00
    0.00000E+00         0.00000E+00         0.00000E+00
 
    0.86506E+05         0.55520E+06         0.00000E+00
    0.55520E+06        -0.81004E+06         0.00000E+00
    0.00000E+00         0.00000E+00         0.00000E+00
 
    0.75369E+05         0.56657E+06         0.00000E+00
    0.56657E+06        -0.80466E+06         0.00000E+00
    0.00000E+00         0.00000E+00         0.00000E+00
 
    0.64105E+05         0.57786E+06         0.00000E+00
    0.57786E+06        -0.79919E+06         0.00000E+00
    0.00000E+00         0.00000E+00         0.00000E+00
 
    0.52717E+05         0.58905E+06         0.00000E+00
    0.58905E+06        -0.79363E+06         0.00000E+00
    0.00000E+00         0.00000E+00         0.00000E+00
 
    0.41207E+05         0.60015E+06         0.00000E+00
    0.60015E+06        -0.78798E+06         0.00000E+00
    0.00000E+00         0.00000E+00         0.00000E+00
 
    0.29576E+05         0.61117E+06         0.00000E+00
    0.61117E+06        -0.78224E+06         0.00000E+00
    0.00000E+00         0.00000E+00         0.00000E+00
 
    0.17827E+05         0.62209E+06         0.00000E+00
    0.62209E+06        -0.77641E+06         0.00000E+00
    0.00000E+00         0.00000E+00         0.00000E+00
 
    0.59615E+04         0.63292E+06         0.00000E+00
    0.63292E+06        -0.77050E+06         0.00000E+00
    0.00000E+00         0.00000E+00         0.00000E+00
 
    0.43576E+06         0.76796E+04         0.00000E+00
    0.76796E+04        -0.98661E+06         0.00000E+00
    0.00000E+00         0.00000E+00         0.00000E+00
 
    0.43114E+06         0.22863E+05         0.00000E+00
    0.22863E+05        -0.98646E+06         0.00000E+00
    0.00000E+00         0.00000E+00         0.00000E+00
 
    0.42633E+06         0.37982E+05         0.00000E+00
    0.37982E+05        -0.98615E+06         0.00000E+00
    0.00000E+00         0.00000E+00         0.00000E+00
 
    0.42132E+06         0.53035E+05         0.00000E+00
    0.53035E+05        -0.98570E+06         0.00000E+00
    0.00000E+00         0.00000E+00         0.00000E+00
 
    0.41613E+06         0.68022E+05         0.00000E+00
    0.68022E+05        -0.98509E+06         0.00000E+00
    0.00000E+00         0.00000E+00         0.00000E+00
 
    0.41076E+06         0.82942E+05         0.00000E+00
    0.82942E+05        -0.98433E+06         0.00000E+00
    0.00000E+00         0.00000E+00         0.00000E+00
 
    0.40519E+06         0.97795E+05         0.00000E+00
    0.97795E+05        -0.98343E+06         0.00000E+00
    0.00000E+00         0.00000E+00         0.00000E+00
 
    0.39944E+06         0.11258E+06         0.00000E+00
    0.11258E+06        -0.98238E+06         0.00000E+00
    0.00000E+00         0.00000E+00         0.00000E+00
 
    0.39350E+06         0.12729E+06         0.00000E+00
    0.12729E+06        -0.98118E+06         0.00000E+00
    0.00000E+00         0.00000E+00         0.00000E+00
 
    0.38738E+06         0.14194E+06         0.00000E+00
    0.14194E+06        -0.97983E+06         0.00000E+00
    0.00000E+00         0.00000E+00         0.00000E+00
 
    0.38107E+06         0.15652E+06         0.00000E+00
    0.15652E+06        -0.97834E+06         0.00000E+00
    0.00000E+00         0.00000E+00         0.00000E+00
 
    0.37459E+06         0.17102E+06         0.00000E+00
    0.17102E+06        -0.97670E+06         0.00000E+00
    0.00000E+00         0.00000E+00         0.00000E+00
 
    0.36792E+06         0.18546E+06         0.00000E+00
    0.18546E+06        -0.97492E+06         0.00000E+00
    0.00000E+00         0.00000E+00         0.00000E+00
 
    0.36107E+06         0.19982E+06         0.00000E+00
    0.19982E+06        -0.97300E+06         0.00000E+00
    0.00000E+00         0.00000E+00         0.00000E+00
 
    0.35404E+06         0.21411E+06         0.00000E+00
    0.21411E+06        -0.97093E+06         0.00000E+00
    0.00000E+00         0.00000E+00         0.00000E+00
 
    0.34683E+06         0.22833E+06         0.00000E+00
    0.22833E+06        -0.96873E+06         0.00000E+00
    0.00000E+00         0.00000E+00         0.00000E+00
 
    0.33944E+06         0.24247E+06         0.00000E+00
    0.24247E+06        -0.96638E+06         0.00000E+00
    0.00000E+00         0.00000E+00         0.00000E+00
 
    0.33188E+06         0.25654E+06         0.00000E+00
    0.25654E+06        -0.96390E+06         0.00000E+00
    0.00000E+00         0.00000E+00         0.00000E+00
 
    0.32415E+06         0.27053E+06         0.00000E+00
    0.27053E+06        -0.96128E+06         0.00000E+00
    0.00000E+00         0.00000E+00         0.00000E+00
 
    0.31624E+06         0.28445E+06         0.00000E+00
    0.28445E+06        -0.95853E+06         0.00000E+00
    0.00000E+00         0.00000E+00         0.00000E+00
 
    0.30816E+06         0.29829E+06         0.00000E+00
    0.29829E+06        -0.95564E+06         0.00000E+00
    0.00000E+00         0.00000E+00         0.00000E+00
 
    0.29990E+06         0.31205E+06         0.00000E+00
    0.31205E+06        -0.95261E+06         0.00000E+00
    0.00000E+00         0.00000E+00         0.00000E+00
 
    0.29148E+06         0.32574E+06         0.00000E+00
    0.32574E+06        -0.94946E+06         0.00000E+00
    0.00000E+00         0.00000E+00         0.00000E+00
 
    0.28290E+06         0.33935E+06         0.00000E+00
    0.33935E+06        -0.94617E+06         0.00000E+00
    0.00000E+00         0.00000E+00         0.00000E+00
 
    0.27414E+06         0.35288E+06         0.00000E+00
    0.35288E+06        -0.94276E+06         0.00000E+00
    0.00000E+00         0.00000E+00         0.00000E+00
 
    0.26522E+06         0.36633E+06         0.00000E+00
    0.36633E+06        -0.93922E+06         0.00000E+00
    0.00000E+00         0.00000E+00         0.00000E+00
 
    0.25614E+06         0.37970E+06         0.00000E+00
    0.37970E+06        -0.93555E+06         0.00000E+00
    0.00000E+00         0.00000E+00         0.00000E+00
 
    0.24689E+06         0.39298E+06         0.00000E+00
    0.39298E+06        -0.93176E+06         0.00000E+00
    0.00000E+00         0.00000E+00         0.00000E+00
 
    0.23749E+06         0.40619E+06         0.00000E+00
    0.40619E+06        -0.92784E+06         0.00000E+00
    0.00000E+00         0.00000E+00         0.00000E+00
 
    0.22793E+06         0.41931E+06         0.00000E+00
    0.41931E+06        -0.92380E+06         0.00000E+00
    0.00000E+00         0.00000E+00         0.00000E+00
 
    0.21821E+06         0.43235E+06         0.00000E+00
    0.43235E+06        -0.91964E+06         0.00000E+00
    0.00000E+00         0.00000E+00         0.00000E+00
 
    0.20834E+06         0.44531E+06         0.00000E+00
    0.44531E+06        -0.91536E+06         0.00000E+00
    0.00000E+00         0.00000E+00         0.00000E+00
 
    0.19831E+06         0.45818E+06         0.00000E+00
    0.45818E+06        -0.91097E+06         0.00000E+00
    0.00000E+00         0.00000E+00         0.00000E+00
 
    0.18813E+06         0.47097E+06         0.00000E+00
    0.47097E+06        -0.90646E+06         0.00000E+00
    0.00000E+00         0.00000E+00         0.00000E+00
 
    0.17781E+06         0.48367E+06         0.00000E+00
    0.48367E+06        -0.90183E+06         0.00000E+00
    0.00000E+00         0.00000E+00         0.00000E+00
 
    0.16733E+06         0.49628E+06         0.00000E+00
    0.49628E+06        -0.89709E+06         0.00000E+00
    0.00000E+00         0.00000E+00         0.00000E+00
 
    0.15671E+06         0.50881E+06         0.00000E+00
    0.50881E+06        -0.89224E+06         0.00000E+00
    0.00000E+00         0.00000E+00         0.00000E+00
 
    0.14594E+06         0.52124E+06         0.00000E+00
    0.52124E+06        -0.88728E+06         0.00000E+00
    0.00000E+00         0.00000E+00         0.00000E+00
 
    0.13504E+06         0.53359E+06         0.00000E+00
    0.53359E+06        -0.88221E+06         0.00000E+00
    0.00000E+00         0.00000E+00         0.00000E+00
 
    0.12399E+06         0.54584E+06         0.00000E+00
    0.54584E+06        -0.87704E+06         0.00000E+00
    0.00000E+00         0.00000E+00         0.00000E+00
 
    0.11280E+06         0.55801E+06         0.00000E+00
    0.55801E+06        -0.87176E+06         0.00000E+00
    0.00000E+00         0.00000E+00         0.00000E+00
 
    0.10148E+06         0.57008E+06         0.00000E+00
    0.57008E+06        -0.86638E+06         0.00000E+00
    0.00000E+00         0.00000E+00         0.00000E+00
 
    0.90020E+05         0.58206E+06         0.00000E+00
    0.58206E+06        -0.86089E+06         0.00000E+00
    0.00000E+00         0.00000E+00         0.00000E+00
 
    0.78429E+05         0.59395E+06         0.00000E+00
    0.59395E+06        -0.85531E+06         0.00000E+00
    0.00000E+00         0.00000E+00         0.00000E+00
 
    0.66707E+05         0.60574E+06         0.00000E+00
    0.60574E+06        -0.84963E+06         0.00000E+00
    0.00000E+00         0.00000E+00         0.00000E+00
 
    0.54856E+05         0.61743E+06         0.00000E+00
    0.61743E+06        -0.84385E+06         0.00000E+00
    0.00000E+00         0.00000E+00         0.00000E+00
 
    0.42878E+05         0.62903E+06         0.00000E+00
    0.62903E+06        -0.83798E+06         0.00000E+00
    0.00000E+00         0.00000E+00         0.00000E+00
 
    0.30775E+05         0.64053E+06         0.00000E+00
    0.64053E+06        -0.83201E+06         0.00000E+00
    0.00000E+00         0.00000E+00         0.00000E+00
 
    0.18550E+05         0.65194E+06         0.00000E+00
    0.65194E+06        -0.82596E+06         0.00000E+00
    0.00000E+00         0.00000E+00         0.00000E+00
 
    0.62032E+04         0.66324E+06         0.00000E+00
    0.66324E+06        -0.81981E+06         0.00000E+00
    0.00000E+00         0.00000E+00         0.00000E+00
 
    0.45629E+06         0.80451E+04         0.00000E+00
    0.80451E+04        -0.10440E+07         0.00000E+00
    0.00000E+00         0.00000E+00         0.00000E+00
 
    0.45135E+06         0.23957E+05         0.00000E+00
    0.23957E+05        -0.10438E+07         0.00000E+00
    0.00000E+00         0.00000E+00         0.00000E+00
 
    0.44620E+06         0.39802E+05         0.00000E+00
    0.39802E+05        -0.10435E+07         0.00000E+00
    0.00000E+00         0.00000E+00         0.00000E+00
 
    0.44087E+06         0.55580E+05         0.00000E+00
    0.55580E+05        -0.10430E+07         0.00000E+00
    0.00000E+00         0.00000E+00         0.00000E+00
 
    0.43534E+06         0.71290E+05         0.00000E+00
    0.71290E+05        -0.10424E+07         0.00000E+00
    0.00000E+00         0.00000E+00         0.00000E+00
 
    0.42962E+06         0.86931E+05         0.00000E+00
    0.86931E+05        -0.10416E+07         0.00000E+00
    0.00000E+00         0.00000E+00         0.00000E+00
 
    0.42372E+06         0.10250E+06         0.00000E+00
    0.10250E+06        -0.10407E+07         0.00000E+00
    0.00000E+00         0.00000E+00         0.00000E+00
 
    0.41762E+06         0.11800E+06         0.00000E+00
    0.11800E+06        -0.10396E+07         0.00000E+00
    0.00000E+00         0.00000E+00         0.00000E+00
 
    0.41133E+06         0.13343E+06         0.00000E+00
    0.13343E+06        -0.10384E+07         0.00000E+00
    0.00000E+00         0.00000E+00         0.00000E+00
 
    0.40486E+06         0.14879E+06         0.00000E+00
    0.14879E+06        -0.10370E+07         0.00000E+00
    0.00000E+00         0.00000E+00         0.00000E+00
 
    0.39819E+06         0.16407E+06         0.00000E+00
    0.16407E+06        -0.10354E+07         0.00000E+00
    0.00000E+00         0.00000E+00         0.00000E+00
 
    0.39134E+06         0.17929E+06         0.00000E+00
    0.17929E+06        -0.10337E+07         0.00000E+00
    0.00000E+00         0.00000E+00         0.00000E+00
 
    0.38431E+06         0.19442E+06         0.00000E+00
    0.19442E+06        -0.10319E+07         0.00000E+00
    0.00000E+00         0.00000E+00         0.00000E+00
 
    0.37709E+06         0.20948E+06         0.00000E+00
    0.20948E+06        -0.10299E+07         0.00000E+00
    0.00000E+00         0.00000E+00         0.00000E+00
 
    0.36969E+06         0.22447E+06         0.00000E+00
    0.22447E+06        -0.10278E+07         0.00000E+00
    0.00000E+00         0.00000E+00         0.00000E+00
 
    0.36211E+06         0.23938E+06         0.00000E+00
    0.23938E+06        -0.10255E+07         0.00000E+00
    0.00000E+00         0.00000E+00         0.00000E+00
 
    0.35435E+06         0.25421E+06         0.00000E+00
    0.25421E+06        -0.10231E+07         0.00000E+00
    0.00000E+00         0.00000E+00         0.00000E+00
 
    0.34641E+06         0.26896E+06         0.00000E+00
    0.26896E+06        -0.10205E+07         0.00000E+00
    0.00000E+00         0.00000E+00         0.00000E+00
 
    0.33829E+06         0.28363E+06         0.00000E+00
    0.28363E+06        -0.10178E+07         0.00000E+00
    0.00000E+00         0.00000E+00         0.00000E+00
 
    0.32999E+06         0.29823E+06         0.00000E+00
    0.29823E+06        -0.10149E+07         0.00000E+00
    0.00000E+00         0.00000E+00         0.00000E+00
 
    0.32152E+06         0.31274E+06         0.00000E+00
    0.31274E+06        -0.10120E+07         0.00000E+00
    0.00000E+00         0.00000E+00         0.00000E+00
 
    0.31287E+06         0.32717E+06         0.00000E+00
    0.32717E+06        -0.10088E+07         0.00000E+00
    0.00000E+00         0.00000E+00         0.00000E+00
 
    0.30405E+06         0.34152E+06         0.00000E+00
    0.34152E+06        -0.10056E+07         0.00000E+00
    0.00000E+00         0.00000E+00         0.00000E+00
 
    0.29506E+06         0.35578E+06         0.00000E+00
    0.35578E+06        -0.10022E+07         0.00000E+00
    0.00000E+00         0.00000E+00         0.00000E+00
 
    0.28590E+06         0.36996E+06         0.00000E+00
    0.36996E+06        -0.99864E+06         0.00000E+00
    0.00000E+00         0.00000E+00         0.00000E+00
 
    0.27657E+06         0.38406E+06         0.00000E+00
    0.38406E+06        -0.99497E+06         0.00000E+00
    0.00000E+00         0.00000E+00         0.00000E+00
 
    0.26708E+06         0.39807E+06         0.00000E+00
    0.39807E+06        -0.99118E+06         0.00000E+00
    0.00000E+00         0.00000E+00         0.00000E+00
 
    0.25742E+06         0.41200E+06         0.00000E+00
    0.41200E+06        -0.98725E+06         0.00000E+00
    0.00000E+00         0.00000E+00         0.00000E+00
 
    0.24759E+06         0.42584E+06         0.00000E+00
    0.42584E+06        -0.98320E+06         0.00000E+00
    0.00000E+00         0.00000E+00         0.00000E+00
 
    0.23760E+06         0.43959E+06         0.00000E+00
    0.43959E+06        -0.97901E+06         0.00000E+00
    0.00000E+00         0.00000E+00         0.00000E+00
 
    0.22746E+06         0.45325E+06         0.00000E+00
    0.45325E+06        -0.97470E+06         0.00000E+00
    0.00000E+00         0.00000E+00         0.00000E+00
 
    0.21715E+06         0.46682E+06         0.00000E+00
    0.46682E+06        -0.97027E+06         0.00000E+00
    0.00000E+00         0.00000E+00         0.00000E+00
 
    0.20669E+06         0.48030E+06         0.00000E+00
    0.48030E+06        -0.96572E+06         0.00000E+00
    0.00000E+00         0.00000E+00         0.00000E+00
 
    0.19607E+06         0.49369E+06         0.00000E+00
    0.49369E+06        -0.96104E+06         0.00000E+00
    0.00000E+00         0.00000E+00         0.00000E+00
 
    0.18529E+06         0.50699E+06         0.00000E+00
    0.50699E+06        -0.95624E+06         0.00000E+00
    0.00000E+00         0.00000E+00         0.00000E+00
 
    0.17437E+06         0.52020E+06         0.00000E+00
    0.52020E+06        -0.95133E+06         0.00000E+00
    0.00000E+00         0.00000E+00         0.00000E+00
 
    0.16329E+06         0.53331E+06         0.00000E+00
    0.53331E+06        -0.94630E+06         0.00000E+00
    0.00000E+00         0.00000E+00         0.00000E+00
 
    0.15207E+06         0.54633E+06         0.00000E+00
    0.54633E+06        -0.94115E+06         0.00000E+00
    0.00000E+00         0.00000E+00         0.00000E+00
 
    0.14070E+06         0.55925E+06         0.00000E+00
    0.55925E+06        -0.93589E+06         0.00000E+00
    0.00000E+00         0.00000E+00         0.00000E+00
 
    0.12918E+06         0.57207E+06         0.00000E+00
    0.57207E+06        -0.93052E+06         0.00000E+00
    0.00000E+00         0.00000E+00         0.00000E+00
 
    0.11752E+06         0.58480E+06         0.00000E+00
    0.58480E+06        -0.92504E+06         0.00000E+00
    0.00000E+00         0.00000E+00         0.00000E+00
 
    0.10572E+06         0.59743E+06         0.00000E+00
    0.59743E+06        -0.91944E+06         0.00000E+00
    0.00000E+00         0.00000E+00         0.00000E+00
 
    0.93782E+05         0.60996E+06         0.00000E+00
    0.60996E+06        -0.91375E+06         0.00000E+00
    0.00000E+00         0.00000E+00         0.00000E+00
 
    0.81705E+05         0.62239E+06         0.00000E+00
    0.62239E+06        -0.90794E+06         0.00000E+00
    0.00000E+00         0.00000E+00         0.00000E+00
 
    0.69492E+05         0.63471E+06         0.00000E+00
    0.63471E+06        -0.90204E+06         0.00000E+00
    0.00000E+00         0.00000E+00         0.00000E+00
 
    0.57145E+05         0.64694E+06         0.00000E+00
    0.64694E+06        -0.89603E+06         0.00000E+00
    0.00000E+00         0.00000E+00         0.00000E+00
 
    0.44667E+05         0.65906E+06         0.00000E+00
    0.65906E+06        -0.88992E+06         0.00000E+00
    0.00000E+00         0.00000E+00         0.00000E+00
 
    0.32059E+05         0.67108E+06         0.00000E+00
    0.67108E+06        -0.88371E+06         0.00000E+00
    0.00000E+00         0.00000E+00         0.00000E+00
 
    0.19324E+05         0.68300E+06         0.00000E+00
    0.68300E+06        -0.87740E+06         0.00000E+00
    0.00000E+00         0.00000E+00         0.00000E+00
 
    0.64620E+04         0.69480E+06         0.00000E+00
    0.69480E+06        -0.87100E+06         0.00000E+00
    0.00000E+00         0.00000E+00         0.00000E+00
 
    0.47797E+06         0.84236E+04         0.00000E+00
    0.84236E+04        -0.11039E+07         0.00000E+00
    0.00000E+00         0.00000E+00         0.00000E+00
 
    0.47268E+06         0.25088E+05         0.00000E+00
    0.25088E+05        -0.11037E+07         0.00000E+00
    0.00000E+00         0.00000E+00         0.00000E+00
 
    0.46720E+06         0.41685E+05         0.00000E+00
    0.41685E+05        -0.11034E+07         0.00000E+00
    0.00000E+00         0.00000E+00         0.00000E+00
 
    0.46153E+06         0.58213E+05         0.00000E+00
    0.58213E+05        -0.11029E+07         0.00000E+00
    0.00000E+00         0.00000E+00         0.00000E+00
 
    0.45566E+06         0.74671E+05         0.00000E+00
    0.74671E+05        -0.11023E+07         0.00000E+00
    0.00000E+00         0.00000E+00         0.00000E+00
 
    0.44959E+06         0.91058E+05         0.00000E+00
    0.91058E+05        -0.11015E+07         0.00000E+00
    0.00000E+00         0.00000E+00         0.00000E+00
 
    0.44332E+06         0.10737E+06         0.00000E+00
    0.10737E+06        -0.11005E+07         0.00000E+00
    0.00000E+00         0.00000E+00         0.00000E+00
 
    0.43687E+06         0.12362E+06         0.00000E+00
    0.12362E+06        -0.10994E+07         0.00000E+00
    0.00000E+00         0.00000E+00         0.00000E+00
 
    0.43022E+06         0.13978E+06         0.00000E+00
    0.13978E+06        -0.10981E+07         0.00000E+00
    0.00000E+00         0.00000E+00         0.00000E+00
 
    0.42338E+06         0.15588E+06         0.00000E+00
    0.15588E+06        -0.10966E+07         0.00000E+00
    0.00000E+00         0.00000E+00         0.00000E+00
 
    0.41634E+06         0.17189E+06         0.00000E+00
    0.17189E+06        -0.10950E+07         0.00000E+00
    0.00000E+00         0.00000E+00         0.00000E+00
 
    0.40912E+06         0.18784E+06         0.00000E+00
    0.18784E+06        -0.10933E+07         0.00000E+00
    0.00000E+00         0.00000E+00         0.00000E+00
 
    0.40171E+06         0.20370E+06         0.00000E+00
    0.20370E+06        -0.10914E+07         0.00000E+00
    0.00000E+00         0.00000E+00         0.00000E+00
 
    0.39410E+06         0.21948E+06         0.00000E+00
    0.21948E+06        -0.10893E+07         0.00000E+00
    0.00000E+00         0.00000E+00         0.00000E+00
 
    0.38632E+06         0.23519E+06         0.00000E+00
    0.23519E+06        -0.10871E+07         0.00000E+00
    0.00000E+00         0.00000E+00         0.00000E+00
 
    0.37834E+06         0.25081E+06         0.00000E+00
    0.25081E+06        -0.10848E+07         0.00000E+00
    0.00000E+00         0.00000E+00         0.00000E+00
 
    0.37018E+06         0.26636E+06         0.00000E+00
    0.26636E+06        -0.10823E+07         0.00000E+00
    0.00000E+00         0.00000E+00         0.00000E+00
 
    0.36184E+06         0.28182E+06         0.00000E+00
    0.28182E+06        -0.10796E+07         0.00000E+00
    0.00000E+00         0.00000E+00         0.00000E+00
 
    0.35332E+06         0.29720E+06         0.00000E+00
    0.29720E+06        -0.10768E+07         0.00000E+00
    0.00000E+00         0.00000E+00         0.00000E+00
 
    0.34461E+06         0.31249E+06         0.00000E+00
    0.31249E+06        -0.10738E+07         0.00000E+00
    0.00000E+00         0.00000E+00         0.00000E+00
 
    0.33573E+06         0.32770E+06         0.00000E+00
    0.32770E+06        -0.10707E+07         0.00000E+00
    0.00000E+00         0.00000E+00         0.00000E+00
 
    0.32666E+06         0.34282E+06         0.00000E+00
    0.34282E+06        -0.10675E+07         0.00000E+00
    0.00000E+00         0.00000E+00         0.00000E+00
 
    0.31742E+06         0.35786E+06         0.00000E+00
    0.35786E+06        -0.10641E+07         0.00000E+00
    0.00000E+00         0.00000E+00         0.00000E+00
 
    0.30801E+06         0.37281E+06         0.00000E+00
    0.37281E+06        -0.10606E+07         0.00000E+00
    0.00000E+00         0.00000E+00         0.00000E+00
 
    0.29841E+06         0.38767E+06         0.00000E+00
    0.38767E+06        -0.10569E+07         0.00000E+00
    0.00000E+00         0.00000E+00         0.00000E+00
 
    0.28865E+06         0.40244E+06         0.00000E+00
    0.40244E+06        -0.10531E+07         0.00000E+00
    0.00000E+00         0.00000E+00         0.00000E+00
 
    0.27872E+06         0.41712E+06         0.00000E+00
    0.41712E+06        -0.10492E+07         0.00000E+00
    0.00000E+00         0.00000E+00         0.00000E+00
 
    0.26861E+06         0.43171E+06         0.00000E+00
    0.43171E+06        -0.10451E+07         0.00000E+00
    0.00000E+00         0.00000E+00         0.00000E+00
 
    0.25834E+06         0.44621E+06         0.00000E+00
    0.44621E+06        -0.10409E+07         0.00000E+00
    0.00000E+00         0.00000E+00         0.00000E+00
 
    0.24790E+06         0.46061E+06         0.00000E+00
    0.46061E+06        -0.10366E+07         0.00000E+00
    0.00000E+00         0.00000E+00         0.00000E+00
 
    0.23730E+06         0.47492E+06         0.00000E+00
    0.47492E+06        -0.10321E+07         0.00000E+00
    0.00000E+00         0.00000E+00         0.00000E+00
 
    0.22653E+06         0.48914E+06         0.00000E+00
    0.48914E+06        -0.10275E+07         0.00000E+00
    0.00000E+00         0.00000E+00         0.00000E+00
 
    0.21560E+06         0.50326E+06         0.00000E+00
    0.50326E+06        -0.10228E+07         0.00000E+00
    0.00000E+00         0.00000E+00         0.00000E+00
 
    0.20451E+06         0.51728E+06         0.00000E+00
    0.51728E+06        -0.10179E+07         0.00000E+00
    0.00000E+00         0.00000E+00         0.00000E+00
 
    0.19327E+06         0.53120E+06         0.00000E+00
    0.53120E+06        -0.10129E+07         0.00000E+00
    0.00000E+00         0.00000E+00         0.00000E+00
 
    0.18186E+06         0.54503E+06         0.00000E+00
    0.54503E+06        -0.10078E+07         0.00000E+00
    0.00000E+00         0.00000E+00         0.00000E+00
 
    0.17030E+06         0.55876E+06         0.00000E+00
    0.55876E+06        -0.10026E+07         0.00000E+00
    0.00000E+00         0.00000E+00         0.00000E+00
 
    0.15859E+06         0.57238E+06         0.00000E+00
    0.57238E+06        -0.99727E+06         0.00000E+00
    0.00000E+00         0.00000E+00         0.00000E+00
 
    0.14672E+06         0.58591E+06         0.00000E+00
    0.58591E+06        -0.99180E+06         0.00000E+00
    0.00000E+00         0.00000E+00         0.00000E+00
 
    0.13471E+06         0.59933E+06         0.00000E+00
    0.59933E+06        -0.98622E+06         0.00000E+00
    0.00000E+00         0.00000E+00         0.00000E+00
 
    0.12255E+06         0.61265E+06         0.00000E+00
    0.61265E+06        -0.98052E+06         0.00000E+00
    0.00000E+00         0.00000E+00         0.00000E+00
 
    0.11024E+06         0.62586E+06         0.00000E+00
    0.62586E+06        -0.97470E+06         0.00000E+00
    0.00000E+00         0.00000E+00         0.00000E+00
 
    0.97788E+05         0.63897E+06         0.00000E+00
    0.63897E+06        -0.96878E+06         0.00000E+00
    0.00000E+00         0.00000E+00         0.00000E+00
 
    0.85193E+05         0.65197E+06         0.00000E+00
    0.65197E+06        -0.96274E+06         0.00000E+00
    0.00000E+00         0.00000E+00         0.00000E+00
 
    0.72457E+05         0.66487E+06         0.00000E+00
    0.66487E+06        -0.95659E+06         0.00000E+00
    0.00000E+00         0.00000E+00         0.00000E+00
 
    0.59583E+05         0.67765E+06         0.00000E+00
    0.67765E+06        -0.95033E+06         0.00000E+00
    0.00000E+00         0.00000E+00         0.00000E+00
 
    0.46572E+05         0.69033E+06         0.00000E+00
    0.69033E+06        -0.94397E+06         0.00000E+00
    0.00000E+00         0.00000E+00         0.00000E+00
 
    0.33426E+05         0.70290E+06         0.00000E+00
    0.70290E+06        -0.93750E+06         0.00000E+00
    0.00000E+00         0.00000E+00         0.00000E+00
 
    0.20147E+05         0.71535E+06         0.00000E+00
    0.71535E+06        -0.93093E+06         0.00000E+00
    0.00000E+00         0.00000E+00         0.00000E+00
 
    0.67374E+04         0.72770E+06         0.00000E+00
    0.72770E+06        -0.92426E+06         0.00000E+00
    0.00000E+00         0.00000E+00         0.00000E+00
 
    0.50076E+06         0.88163E+04         0.00000E+00
    0.88163E+04        -0.11665E+07         0.00000E+00
    0.00000E+00         0.00000E+00         0.00000E+00
 
    0.49514E+06         0.26262E+05         0.00000E+00
    0.26262E+05        -0.11664E+07         0.00000E+00
    0.00000E+00         0.00000E+00         0.00000E+00
 
    0.48931E+06         0.43638E+05         0.00000E+00
    0.43638E+05        -0.11660E+07         0.00000E+00
    0.00000E+00         0.00000E+00         0.00000E+00
 
    0.48328E+06         0.60944E+05         0.00000E+00
    0.60944E+05        -0.11655E+07         0.00000E+00
    0.00000E+00         0.00000E+00         0.00000E+00
 
    0.47705E+06         0.78177E+05         0.00000E+00
    0.78177E+05        -0.11649E+07         0.00000E+00
    0.00000E+00         0.00000E+00         0.00000E+00
 
    0.47063E+06         0.95337E+05         0.00000E+00
    0.95337E+05        -0.11640E+07         0.00000E+00
    0.00000E+00         0.00000E+00         0.00000E+00
 
    0.46400E+06         0.11242E+06         0.00000E+00
    0.11242E+06        -0.11630E+07         0.00000E+00
    0.00000E+00         0.00000E+00         0.00000E+00
 
    0.45717E+06         0.12943E+06         0.00000E+00
    0.12943E+06        -0.11618E+07         0.00000E+00
    0.00000E+00         0.00000E+00         0.00000E+00
 
    0.45014E+06         0.14637E+06         0.00000E+00
    0.14637E+06        -0.11605E+07         0.00000E+00
    0.00000E+00         0.00000E+00         0.00000E+00
 
    0.44292E+06         0.16322E+06         0.00000E+00
    0.16322E+06        -0.11590E+07         0.00000E+00
    0.00000E+00         0.00000E+00         0.00000E+00
 
    0.43550E+06         0.18000E+06         0.00000E+00
    0.18000E+06        -0.11574E+07         0.00000E+00
    0.00000E+00         0.00000E+00         0.00000E+00
 
    0.42788E+06         0.19670E+06         0.00000E+00
    0.19670E+06        -0.11555E+07         0.00000E+00
    0.00000E+00         0.00000E+00         0.00000E+00
 
    0.42007E+06         0.21332E+06         0.00000E+00
    0.21332E+06        -0.11536E+07         0.00000E+00
    0.00000E+00         0.00000E+00         0.00000E+00
 
    0.41207E+06         0.22985E+06         0.00000E+00
    0.22985E+06        -0.11514E+07         0.00000E+00
    0.00000E+00         0.00000E+00         0.00000E+00
 
    0.40388E+06         0.24631E+06         0.00000E+00
    0.24631E+06        -0.11491E+07         0.00000E+00
    0.00000E+00         0.00000E+00         0.00000E+00
 
    0.39549E+06         0.26267E+06         0.00000E+00
    0.26267E+06        -0.11467E+07         0.00000E+00
    0.00000E+00         0.00000E+00         0.00000E+00
 
    0.38692E+06         0.27896E+06         0.00000E+00
    0.27896E+06        -0.11441E+07         0.00000E+00
    0.00000E+00         0.00000E+00         0.00000E+00
 
    0.37816E+06         0.29515E+06         0.00000E+00
    0.29515E+06        -0.11413E+07         0.00000E+00
    0.00000E+00         0.00000E+00         0.00000E+00
 
    0.36921E+06         0.31126E+06         0.00000E+00
    0.31126E+06        -0.11384E+07         0.00000E+00
    0.00000E+00         0.00000E+00         0.00000E+00
 
    0.36007E+06         0.32729E+06         0.00000E+00
    0.32729E+06        -0.11354E+07         0.00000E+00
    0.00000E+00         0.00000E+00         0.00000E+00
 
    0.35076E+06         0.34322E+06         0.00000E+00
    0.34322E+06        -0.11321E+07         0.00000E+00
    0.00000E+00         0.00000E+00         0.00000E+00
 
    0.34125E+06         0.35906E+06         0.00000E+00
    0.35906E+06        -0.11288E+07         0.00000E+00
    0.00000E+00         0.00000E+00         0.00000E+00
 
    0.33157E+06         0.37482E+06         0.00000E+00
    0.37482E+06        -0.11253E+07         0.00000E+00
    0.00000E+00         0.00000E+00         0.00000E+00
 
    0.32170E+06         0.39048E+06         0.00000E+00
    0.39048E+06        -0.11216E+07         0.00000E+00
    0.00000E+00         0.00000E+00         0.00000E+00
 
    0.31166E+06         0.40604E+06         0.00000E+00
    0.40604E+06        -0.11178E+07         0.00000E+00
    0.00000E+00         0.00000E+00         0.00000E+00
 
    0.30144E+06         0.42151E+06         0.00000E+00
    0.42151E+06        -0.11139E+07         0.00000E+00
    0.00000E+00         0.00000E+00         0.00000E+00
 
    0.29104E+06         0.43689E+06         0.00000E+00
    0.43689E+06        -0.11098E+07         0.00000E+00
    0.00000E+00         0.00000E+00         0.00000E+00
 
    0.28047E+06         0.45217E+06         0.00000E+00
    0.45217E+06        -0.11056E+07         0.00000E+00
    0.00000E+00         0.00000E+00         0.00000E+00
 
    0.26973E+06         0.46736E+06         0.00000E+00
    0.46736E+06        -0.11012E+07         0.00000E+00
    0.00000E+00         0.00000E+00         0.00000E+00
 
    0.25881E+06         0.48245E+06         0.00000E+00
    0.48245E+06        -0.10967E+07         0.00000E+00
    0.00000E+00         0.00000E+00         0.00000E+00
 
    0.24772E+06         0.49743E+06         0.00000E+00
    0.49743E+06        -0.10920E+07         0.00000E+00
    0.00000E+00         0.00000E+00         0.00000E+00
 
    0.23647E+06         0.51232E+06         0.00000E+00
    0.51232E+06        -0.10873E+07         0.00000E+00
    0.00000E+00         0.00000E+00         0.00000E+00
 
    0.22505E+06         0.52711E+06         0.00000E+00
    0.52711E+06        -0.10823E+07         0.00000E+00
    0.00000E+00         0.00000E+00         0.00000E+00
 
    0.21346E+06         0.54179E+06         0.00000E+00
    0.54179E+06        -0.10773E+07         0.00000E+00
    0.00000E+00         0.00000E+00         0.00000E+00
 
    0.20171E+06         0.55637E+06         0.00000E+00
    0.55637E+06        -0.10721E+07         0.00000E+00
    0.00000E+00         0.00000E+00         0.00000E+00
 
    0.18980E+06         0.57085E+06         0.00000E+00
    0.57085E+06        -0.10668E+07         0.00000E+00
    0.00000E+00         0.00000E+00         0.00000E+00
 
    0.17773E+06         0.58522E+06         0.00000E+00
    0.58522E+06        -0.10614E+07         0.00000E+00
    0.00000E+00         0.00000E+00         0.00000E+00
 
    0.16550E+06         0.59948E+06         0.00000E+00
    0.59948E+06        -0.10558E+07         0.00000E+00
    0.00000E+00         0.00000E+00         0.00000E+00
 
    0.15311E+06         0.61364E+06         0.00000E+00
    0.61364E+06        -0.10501E+07         0.00000E+00
    0.00000E+00         0.00000E+00         0.00000E+00
 
    0.14057E+06         0.62769E+06         0.00000E+00
    0.62769E+06        -0.10443E+07         0.00000E+00
    0.00000E+00         0.00000E+00         0.00000E+00
 
    0.12787E+06         0.64163E+06         0.00000E+00
    0.64163E+06        -0.10384E+07         0.00000E+00
    0.00000E+00         0.00000E+00         0.00000E+00
 
    0.11503E+06         0.65546E+06         0.00000E+00
    0.65546E+06        -0.10323E+07         0.00000E+00
    0.00000E+00         0.00000E+00         0.00000E+00
 
    0.10203E+06         0.66918E+06         0.00000E+00
    0.66918E+06        -0.10262E+07         0.00000E+00
    0.00000E+00         0.00000E+00         0.00000E+00
 
    0.88889E+05         0.68278E+06         0.00000E+00
    0.68278E+06        -0.10199E+07         0.00000E+00
    0.00000E+00         0.00000E+00         0.00000E+00
 
    0.75600E+05         0.69628E+06         0.00000E+00
    0.69628E+06        -0.10135E+07         0.00000E+00
    0.00000E+00         0.00000E+00         0.00000E+00
 
    0.62166E+05         0.70965E+06         0.00000E+00
    0.70965E+06        -0.10069E+07         0.00000E+00
    0.00000E+00         0.00000E+00         0.00000E+00
 
    0.48591E+05         0.72292E+06         0.00000E+00
    0.72292E+06        -0.10003E+07         0.00000E+00
    0.00000E+00         0.00000E+00         0.00000E+00
 
    0.34875E+05         0.73606E+06         0.00000E+00
    0.73606E+06        -0.99357E+06         0.00000E+00
    0.00000E+00         0.00000E+00         0.00000E+00
 
    0.21020E+05         0.74909E+06         0.00000E+00
    0.74909E+06        -0.98672E+06         0.00000E+00
    0.00000E+00         0.00000E+00         0.00000E+00
 
    0.70293E+04         0.76200E+06         0.00000E+00
    0.76200E+06        -0.97976E+06         0.00000E+00
    0.00000E+00         0.00000E+00         0.00000E+00
 
    0.52466E+06         0.92246E+04         0.00000E+00
    0.92246E+04        -0.12321E+07         0.00000E+00
    0.00000E+00         0.00000E+00         0.00000E+00
 
    0.51869E+06         0.27482E+05         0.00000E+00
    0.27482E+05        -0.12319E+07         0.00000E+00
    0.00000E+00         0.00000E+00         0.00000E+00
 
    0.51251E+06         0.45668E+05         0.00000E+00
    0.45668E+05        -0.12315E+07         0.00000E+00
    0.00000E+00         0.00000E+00         0.00000E+00
 
    0.50612E+06         0.63781E+05         0.00000E+00
    0.63781E+05        -0.12310E+07         0.00000E+00
    0.00000E+00         0.00000E+00         0.00000E+00
 
    0.49952E+06         0.81819E+05         0.00000E+00
    0.81819E+05        -0.12303E+07         0.00000E+00
    0.00000E+00         0.00000E+00         0.00000E+00
 
    0.49272E+06         0.99782E+05         0.00000E+00
    0.99782E+05        -0.12294E+07         0.00000E+00
    0.00000E+00         0.00000E+00         0.00000E+00
 
    0.48571E+06         0.11767E+06         0.00000E+00
    0.11767E+06        -0.12284E+07         0.00000E+00
    0.00000E+00         0.00000E+00         0.00000E+00
 
    0.47850E+06         0.13548E+06         0.00000E+00
    0.13548E+06        -0.12272E+07         0.00000E+00
    0.00000E+00         0.00000E+00         0.00000E+00
 
    0.47108E+06         0.15321E+06         0.00000E+00
    0.15321E+06        -0.12258E+07         0.00000E+00
    0.00000E+00         0.00000E+00         0.00000E+00
 
    0.46347E+06         0.17086E+06         0.00000E+00
    0.17086E+06        -0.12242E+07         0.00000E+00
    0.00000E+00         0.00000E+00         0.00000E+00
 
    0.45564E+06         0.18842E+06         0.00000E+00
    0.18842E+06        -0.12225E+07         0.00000E+00
    0.00000E+00         0.00000E+00         0.00000E+00
 
    0.44762E+06         0.20591E+06         0.00000E+00
    0.20591E+06        -0.12206E+07         0.00000E+00
    0.00000E+00         0.00000E+00         0.00000E+00
 
    0.43940E+06         0.22331E+06         0.00000E+00
    0.22331E+06        -0.12186E+07         0.00000E+00
    0.00000E+00         0.00000E+00         0.00000E+00
 
    0.43098E+06         0.24062E+06         0.00000E+00
    0.24062E+06        -0.12164E+07         0.00000E+00
    0.00000E+00         0.00000E+00         0.00000E+00
 
    0.42237E+06         0.25785E+06         0.00000E+00
    0.25785E+06        -0.12140E+07         0.00000E+00
    0.00000E+00         0.00000E+00         0.00000E+00
 
    0.41355E+06         0.27499E+06         0.00000E+00
    0.27499E+06        -0.12114E+07         0.00000E+00
    0.00000E+00         0.00000E+00         0.00000E+00
 
    0.40455E+06         0.29204E+06         0.00000E+00
    0.29204E+06        -0.12087E+07         0.00000E+00
    0.00000E+00         0.00000E+00         0.00000E+00
 
    0.39534E+06         0.30901E+06         0.00000E+00
    0.30901E+06        -0.12059E+07         0.00000E+00
    0.00000E+00         0.00000E+00         0.00000E+00
 
    0.38595E+06         0.32588E+06         0.00000E+00
    0.32588E+06        -0.12029E+07         0.00000E+00
    0.00000E+00         0.00000E+00         0.00000E+00
 
    0.37637E+06         0.34266E+06         0.00000E+00
    0.34266E+06        -0.11997E+07         0.00000E+00
    0.00000E+00         0.00000E+00         0.00000E+00
 
    0.36659E+06         0.35934E+06         0.00000E+00
    0.35934E+06        -0.11963E+07         0.00000E+00
    0.00000E+00         0.00000E+00         0.00000E+00
 
    0.35663E+06         0.37594E+06         0.00000E+00
    0.37594E+06        -0.11928E+07         0.00000E+00
    0.00000E+00         0.00000E+00         0.00000E+00
 
    0.34648E+06         0.39243E+06         0.00000E+00
    0.39243E+06        -0.11892E+07         0.00000E+00
    0.00000E+00         0.00000E+00         0.00000E+00
 
    0.33614E+06         0.40883E+06         0.00000E+00
    0.40883E+06        -0.11854E+07         0.00000E+00
    0.00000E+00         0.00000E+00         0.00000E+00
 
    0.32562E+06         0.42514E+06         0.00000E+00
    0.42514E+06        -0.11814E+07         0.00000E+00
    0.00000E+00         0.00000E+00         0.00000E+00
 
    0.31492E+06         0.44134E+06         0.00000E+00
    0.44134E+06        -0.11773E+07         0.00000E+00
    0.00000E+00         0.00000E+00         0.00000E+00
 
    0.30404E+06         0.45744E+06         0.00000E+00
    0.45744E+06        -0.11731E+07         0.00000E+00
    0.00000E+00         0.00000E+00         0.00000E+00
 
    0.29298E+06         0.47345E+06         0.00000E+00
    0.47345E+06        -0.11687E+07         0.00000E+00
    0.00000E+00         0.00000E+00         0.00000E+00
 
    0.28173E+06         0.48935E+06         0.00000E+00
    0.48935E+06        -0.11642E+07         0.00000E+00
    0.00000E+00         0.00000E+00         0.00000E+00
 
    0.27031E+06         0.50515E+06         0.00000E+00
    0.50515E+06        -0.11595E+07         0.00000E+00
    0.00000E+00         0.00000E+00         0.00000E+00
 
    0.25872E+06         0.52084E+06         0.00000E+00
    0.52084E+06        -0.11546E+07         0.00000E+00
    0.00000E+00         0.00000E+00         0.00000E+00
 
    0.24695E+06         0.53643E+06         0.00000E+00
    0.53643E+06        -0.11497E+07         0.00000E+00
    0.00000E+00         0.00000E+00         0.00000E+00
 
    0.23501E+06         0.55191E+06         0.00000E+00
    0.55191E+06        -0.11446E+07         0.00000E+00
    0.00000E+00         0.00000E+00         0.00000E+00
 
    0.22290E+06         0.56729E+06         0.00000E+00
    0.56729E+06        -0.11393E+07         0.00000E+00
    0.00000E+00         0.00000E+00         0.00000E+00
 
    0.21062E+06         0.58256E+06         0.00000E+00
    0.58256E+06        -0.11339E+07         0.00000E+00
    0.00000E+00         0.00000E+00         0.00000E+00
 
    0.19818E+06         0.59771E+06         0.00000E+00
    0.59771E+06        -0.11284E+07         0.00000E+00
    0.00000E+00         0.00000E+00         0.00000E+00
 
    0.18557E+06         0.61276E+06         0.00000E+00
    0.61276E+06        -0.11227E+07         0.00000E+00
    0.00000E+00         0.00000E+00         0.00000E+00
 
    0.17279E+06         0.62770E+06         0.00000E+00
    0.62770E+06        -0.11169E+07         0.00000E+00
    0.00000E+00         0.00000E+00         0.00000E+00
 
    0.15985E+06         0.64252E+06         0.00000E+00
    0.64252E+06        -0.11110E+07         0.00000E+00
    0.00000E+00         0.00000E+00         0.00000E+00
 
    0.14675E+06         0.65723E+06         0.00000E+00
    0.65723E+06        -0.11050E+07         0.00000E+00
    0.00000E+00         0.00000E+00         0.00000E+00
 
    0.13350E+06         0.67182E+06         0.00000E+00
    0.67182E+06        -0.10988E+07         0.00000E+00
    0.00000E+00         0.00000E+00         0.00000E+00
 
    0.12008E+06         0.68629E+06         0.00000E+00
    0.68629E+06        -0.10925E+07         0.00000E+00
    0.00000E+00         0.00000E+00         0.00000E+00
 
    0.10651E+06         0.70065E+06         0.00000E+00
    0.70065E+06        -0.10861E+07         0.00000E+00
    0.00000E+00         0.00000E+00         0.00000E+00
 
    0.92791E+05         0.71489E+06         0.00000E+00
    0.71489E+06        -0.10795E+07         0.00000E+00
    0.00000E+00         0.00000E+00         0.00000E+00
 
    0.78916E+05         0.72902E+06         0.00000E+00
    0.72902E+06        -0.10728E+07         0.00000E+00
    0.00000E+00         0.00000E+00         0.00000E+00
 
    0.64893E+05         0.74302E+06         0.00000E+00
    0.74302E+06        -0.10660E+07         0.00000E+00
    0.00000E+00         0.00000E+00         0.00000E+00
 
    0.50721E+05         0.75689E+06         0.00000E+00
    0.75689E+06        -0.10591E+07         0.00000E+00
    0.00000E+00         0.00000E+00         0.00000E+00
 
    0.36403E+05         0.77065E+06         0.00000E+00
    0.77065E+06        -0.10521E+07         0.00000E+00
    0.00000E+00         0.00000E+00         0.00000E+00
 
    0.21941E+05         0.78428E+06         0.00000E+00
    0.78428E+06        -0.10449E+07         0.00000E+00
    0.00000E+00         0.00000E+00         0.00000E+00
 
    0.73374E+04         0.79779E+06         0.00000E+00
    0.79779E+06        -0.10377E+07         0.00000E+00
    0.00000E+00         0.00000E+00         0.00000E+00
 
    0.54967E+06         0.96494E+04         0.00000E+00
    0.96494E+04        -0.13006E+07         0.00000E+00
    0.00000E+00         0.00000E+00         0.00000E+00
 
    0.54334E+06         0.28751E+05         0.00000E+00
    0.28751E+05        -0.13004E+07         0.00000E+00
    0.00000E+00         0.00000E+00         0.00000E+00
 
    0.53679E+06         0.47779E+05         0.00000E+00
    0.47779E+05        -0.13001E+07         0.00000E+00
    0.00000E+00         0.00000E+00         0.00000E+00
 
    0.53003E+06         0.66731E+05         0.00000E+00
    0.66731E+05        -0.12995E+07         0.00000E+00
    0.00000E+00         0.00000E+00         0.00000E+00
 
    0.52306E+06         0.85607E+05         0.00000E+00
    0.85607E+05        -0.12988E+07         0.00000E+00
    0.00000E+00         0.00000E+00         0.00000E+00
 
    0.51587E+06         0.10440E+06         0.00000E+00
    0.10440E+06        -0.12979E+07         0.00000E+00
    0.00000E+00         0.00000E+00         0.00000E+00
 
    0.50847E+06         0.12312E+06         0.00000E+00
    0.12312E+06        -0.12968E+07         0.00000E+00
    0.00000E+00         0.00000E+00         0.00000E+00
 
    0.50086E+06         0.14176E+06         0.00000E+00
    0.14176E+06        -0.12955E+07         0.00000E+00
    0.00000E+00         0.00000E+00         0.00000E+00
 
    0.49304E+06         0.16032E+06         0.00000E+00
    0.16032E+06        -0.12941E+07         0.00000E+00
    0.00000E+00         0.00000E+00         0.00000E+00
 
    0.48501E+06         0.17879E+06         0.00000E+00
    0.17879E+06        -0.12925E+07         0.00000E+00
    0.00000E+00         0.00000E+00         0.00000E+00
 
    0.47677E+06         0.19718E+06         0.00000E+00
    0.19718E+06        -0.12907E+07         0.00000E+00
    0.00000E+00         0.00000E+00         0.00000E+00
 
    0.46833E+06         0.21548E+06         0.00000E+00
    0.21548E+06        -0.12887E+07         0.00000E+00
    0.00000E+00         0.00000E+00         0.00000E+00
 
    0.45968E+06         0.23369E+06         0.00000E+00
    0.23369E+06        -0.12866E+07         0.00000E+00
    0.00000E+00         0.00000E+00         0.00000E+00
 
    0.45082E+06         0.25182E+06         0.00000E+00
    0.25182E+06        -0.12843E+07         0.00000E+00
    0.00000E+00         0.00000E+00         0.00000E+00
 
    0.44176E+06         0.26985E+06         0.00000E+00
    0.26985E+06        -0.12818E+07         0.00000E+00
    0.00000E+00         0.00000E+00         0.00000E+00
 
    0.43250E+06         0.28780E+06         0.00000E+00
    0.28780E+06        -0.12792E+07         0.00000E+00
    0.00000E+00         0.00000E+00         0.00000E+00
 
    0.42304E+06         0.30565E+06         0.00000E+00
    0.30565E+06        -0.12764E+07         0.00000E+00
    0.00000E+00         0.00000E+00         0.00000E+00
 
    0.41339E+06         0.32341E+06         0.00000E+00
    0.32341E+06        -0.12734E+07         0.00000E+00
    0.00000E+00         0.00000E+00         0.00000E+00
 
    0.40353E+06         0.34107E+06         0.00000E+00
    0.34107E+06        -0.12702E+07         0.00000E+00
    0.00000E+00         0.00000E+00         0.00000E+00
 
    0.39347E+06         0.35864E+06         0.00000E+00
    0.35864E+06        -0.12669E+07         0.00000E+00
    0.00000E+00         0.00000E+00         0.00000E+00
 
    0.38322E+06         0.37611E+06         0.00000E+00
    0.37611E+06        -0.12635E+07         0.00000E+00
    0.00000E+00         0.00000E+00         0.00000E+00
 
    0.37278E+06         0.39348E+06         0.00000E+00
    0.39348E+06        -0.12598E+07         0.00000E+00
    0.00000E+00         0.00000E+00         0.00000E+00
 
    0.36214E+06         0.41076E+06         0.00000E+00
    0.41076E+06        -0.12560E+07         0.00000E+00
    0.00000E+00         0.00000E+00         0.00000E+00
 
    0.35131E+06         0.42793E+06         0.00000E+00
    0.42793E+06        -0.12521E+07         0.00000E+00
    0.00000E+00         0.00000E+00         0.00000E+00
 
    0.34030E+06         0.44500E+06         0.00000E+00
    0.44500E+06        -0.12480E+07         0.00000E+00
    0.00000E+00         0.00000E+00         0.00000E+00
 
    0.32909E+06         0.46196E+06         0.00000E+00
    0.46196E+06        -0.12437E+07         0.00000E+00
    0.00000E+00         0.00000E+00         0.00000E+00
 
    0.31770E+06         0.47883E+06         0.00000E+00
    0.47883E+06        -0.12393E+07         0.00000E+00
    0.00000E+00         0.00000E+00         0.00000E+00
 
    0.30612E+06         0.49558E+06         0.00000E+00
    0.49558E+06        -0.12347E+07         0.00000E+00
    0.00000E+00         0.00000E+00         0.00000E+00
 
    0.29435E+06         0.51223E+06         0.00000E+00
    0.51223E+06        -0.12300E+07         0.00000E+00
    0.00000E+00         0.00000E+00         0.00000E+00
 
    0.28241E+06         0.52877E+06         0.00000E+00
    0.52877E+06        -0.12251E+07         0.00000E+00
    0.00000E+00         0.00000E+00         0.00000E+00
 
    0.27028E+06         0.54521E+06         0.00000E+00
    0.54521E+06        -0.12201E+07         0.00000E+00
    0.00000E+00         0.00000E+00         0.00000E+00
 
    0.25797E+06         0.56153E+06         0.00000E+00
    0.56153E+06        -0.12149E+07         0.00000E+00
    0.00000E+00         0.00000E+00         0.00000E+00
 
    0.24549E+06         0.57774E+06         0.00000E+00
    0.57774E+06        -0.12096E+07         0.00000E+00
    0.00000E+00         0.00000E+00         0.00000E+00
 
    0.23283E+06         0.59384E+06         0.00000E+00
    0.59384E+06        -0.12041E+07         0.00000E+00
    0.00000E+00         0.00000E+00         0.00000E+00
 
    0.21999E+06         0.60983E+06         0.00000E+00
    0.60983E+06        -0.11985E+07         0.00000E+00
    0.00000E+00         0.00000E+00         0.00000E+00
 
    0.20699E+06         0.62570E+06         0.00000E+00
    0.62570E+06        -0.11928E+07         0.00000E+00
    0.00000E+00         0.00000E+00         0.00000E+00
 
    0.19381E+06         0.64145E+06         0.00000E+00
    0.64145E+06        -0.11869E+07         0.00000E+00
    0.00000E+00         0.00000E+00         0.00000E+00
 
    0.18046E+06         0.65709E+06         0.00000E+00
    0.65709E+06        -0.11809E+07         0.00000E+00
    0.00000E+00         0.00000E+00         0.00000E+00
 
    0.16694E+06         0.67260E+06         0.00000E+00
    0.67260E+06        -0.11747E+07         0.00000E+00
    0.00000E+00         0.00000E+00         0.00000E+00
 
    0.15326E+06         0.68800E+06         0.00000E+00
    0.68800E+06        -0.11684E+07         0.00000E+00
    0.00000E+00         0.00000E+00         0.00000E+00
 
    0.13941E+06         0.70328E+06         0.00000E+00
    0.70328E+06        -0.11619E+07         0.00000E+00
    0.00000E+00         0.00000E+00         0.00000E+00
 
    0.12540E+06         0.71844E+06         0.00000E+00
    0.71844E+06        -0.11554E+07         0.00000E+00
    0.00000E+00         0.00000E+00         0.00000E+00
 
    0.11122E+06         0.73347E+06         0.00000E+00
    0.73347E+06        -0.11487E+07         0.00000E+00
    0.00000E+00         0.00000E+00         0.00000E+00
 
    0.96894E+05         0.74838E+06         0.00000E+00
    0.74838E+06        -0.11418E+07         0.00000E+00
    0.00000E+00         0.00000E+00         0.00000E+00
 
    0.82405E+05         0.76316E+06         0.00000E+00
    0.76316E+06        -0.11349E+07         0.00000E+00
    0.00000E+00         0.00000E+00         0.00000E+00
 
    0.67760E+05         0.77782E+06         0.00000E+00
    0.77782E+06        -0.11278E+07         0.00000E+00
    0.00000E+00         0.00000E+00         0.00000E+00
 
    0.52962E+05         0.79235E+06         0.00000E+00
    0.79235E+06        -0.11206E+07         0.00000E+00
    0.00000E+00         0.00000E+00         0.00000E+00
 
    0.38011E+05         0.80674E+06         0.00000E+00
    0.80674E+06        -0.11132E+07         0.00000E+00
    0.00000E+00         0.00000E+00         0.00000E+00
 
    0.22910E+05         0.82101E+06         0.00000E+00
    0.82101E+06        -0.11058E+07         0.00000E+00
    0.00000E+00         0.00000E+00         0.00000E+00
 
    0.76614E+04         0.83515E+06         0.00000E+00
    0.83515E+06        -0.10982E+07         0.00000E+00
    0.00000E+00         0.00000E+00         0.00000E+00
 
    0.57579E+06         0.10092E+05         0.00000E+00
    0.10092E+05        -0.13724E+07         0.00000E+00
    0.00000E+00         0.00000E+00         0.00000E+00
 
    0.56909E+06         0.30072E+05         0.00000E+00
    0.30072E+05        -0.13722E+07         0.00000E+00
    0.00000E+00         0.00000E+00         0.00000E+00
 
    0.56216E+06         0.49976E+05         0.00000E+00
    0.49976E+05        -0.13718E+07         0.00000E+00
    0.00000E+00         0.00000E+00         0.00000E+00
 
    0.55502E+06         0.69802E+05         0.00000E+00
    0.69802E+05        -0.13713E+07         0.00000E+00
    0.00000E+00         0.00000E+00         0.00000E+00
 
    0.54765E+06         0.89549E+05         0.00000E+00
    0.89549E+05        -0.13705E+07         0.00000E+00
    0.00000E+00         0.00000E+00         0.00000E+00
 
    0.54006E+06         0.10922E+06         0.00000E+00
    0.10922E+06        -0.13696E+07         0.00000E+00
    0.00000E+00         0.00000E+00         0.00000E+00
 
    0.53226E+06         0.12880E+06         0.00000E+00
    0.12880E+06        -0.13684E+07         0.00000E+00
    0.00000E+00         0.00000E+00         0.00000E+00
 
    0.52423E+06         0.14830E+06         0.00000E+00
    0.14830E+06        -0.13671E+07         0.00000E+00
    0.00000E+00         0.00000E+00         0.00000E+00
 
    0.51599E+06         0.16772E+06         0.00000E+00
    0.16772E+06        -0.13656E+07         0.00000E+00
    0.00000E+00         0.00000E+00         0.00000E+00
 
    0.50754E+06         0.18704E+06         0.00000E+00
    0.18704E+06        -0.13639E+07         0.00000E+00
    0.00000E+00         0.00000E+00         0.00000E+00
 
    0.49887E+06         0.20629E+06         0.00000E+00
    0.20629E+06        -0.13621E+07         0.00000E+00
    0.00000E+00         0.00000E+00         0.00000E+00
 
    0.48998E+06         0.22544E+06         0.00000E+00
    0.22544E+06        -0.13600E+07         0.00000E+00
    0.00000E+00         0.00000E+00         0.00000E+00
 
    0.48089E+06         0.24450E+06         0.00000E+00
    0.24450E+06        -0.13578E+07         0.00000E+00
    0.00000E+00         0.00000E+00         0.00000E+00
 
    0.47158E+06         0.26347E+06         0.00000E+00
    0.26347E+06        -0.13554E+07         0.00000E+00
    0.00000E+00         0.00000E+00         0.00000E+00
 
    0.46206E+06         0.28234E+06         0.00000E+00
    0.28234E+06        -0.13528E+07         0.00000E+00
    0.00000E+00         0.00000E+00         0.00000E+00
 
    0.45234E+06         0.30112E+06         0.00000E+00
    0.30112E+06        -0.13501E+07         0.00000E+00
    0.00000E+00         0.00000E+00         0.00000E+00
 
    0.44241E+06         0.31981E+06         0.00000E+00
    0.31981E+06        -0.13472E+07         0.00000E+00
    0.00000E+00         0.00000E+00         0.00000E+00
 
    0.43227E+06         0.33840E+06         0.00000E+00
    0.33840E+06        -0.13441E+07         0.00000E+00
    0.00000E+00         0.00000E+00         0.00000E+00
 
    0.42193E+06         0.35688E+06         0.00000E+00
    0.35688E+06        -0.13408E+07         0.00000E+00
    0.00000E+00         0.00000E+00         0.00000E+00
 
    0.41139E+06         0.37527E+06         0.00000E+00
    0.37527E+06        -0.13373E+07         0.00000E+00
    0.00000E+00         0.00000E+00         0.00000E+00
 
    0.40064E+06         0.39356E+06         0.00000E+00
    0.39356E+06        -0.13337E+07         0.00000E+00
    0.00000E+00         0.00000E+00         0.00000E+00
 
    0.38969E+06         0.41175E+06         0.00000E+00
    0.41175E+06        -0.13300E+07         0.00000E+00
    0.00000E+00         0.00000E+00         0.00000E+00
 
    0.37855E+06         0.42983E+06         0.00000E+00
    0.42983E+06        -0.13260E+07         0.00000E+00
    0.00000E+00         0.00000E+00         0.00000E+00
 
    0.36721E+06         0.44780E+06         0.00000E+00
    0.44780E+06        -0.13219E+07         0.00000E+00
    0.00000E+00         0.00000E+00         0.00000E+00
 
    0.35567E+06         0.46567E+06         0.00000E+00
    0.46567E+06        -0.13176E+07         0.00000E+00
    0.00000E+00         0.00000E+00         0.00000E+00
 
    0.34393E+06         0.48343E+06         0.00000E+00
    0.48343E+06        -0.13132E+07         0.00000E+00
    0.00000E+00         0.00000E+00         0.00000E+00
 
    0.33200E+06         0.50109E+06         0.00000E+00
    0.50109E+06        -0.13086E+07         0.00000E+00
    0.00000E+00         0.00000E+00         0.00000E+00
 
    0.31989E+06         0.51863E+06         0.00000E+00
    0.51863E+06        -0.13038E+07         0.00000E+00
    0.00000E+00         0.00000E+00         0.00000E+00
 
    0.30758E+06         0.53606E+06         0.00000E+00
    0.53606E+06        -0.12989E+07         0.00000E+00
    0.00000E+00         0.00000E+00         0.00000E+00
 
    0.29508E+06         0.55338E+06         0.00000E+00
    0.55338E+06        -0.12938E+07         0.00000E+00
    0.00000E+00         0.00000E+00         0.00000E+00
 
    0.28239E+06         0.57058E+06         0.00000E+00
    0.57058E+06        -0.12886E+07         0.00000E+00
    0.00000E+00         0.00000E+00         0.00000E+00
 
    0.26952E+06         0.58767E+06         0.00000E+00
    0.58767E+06        -0.12832E+07         0.00000E+00
    0.00000E+00         0.00000E+00         0.00000E+00
 
    0.25647E+06         0.60465E+06         0.00000E+00
    0.60465E+06        -0.12777E+07         0.00000E+00
    0.00000E+00         0.00000E+00         0.00000E+00
 
    0.24323E+06         0.62150E+06         0.00000E+00
    0.62150E+06        -0.12720E+07         0.00000E+00
    0.00000E+00         0.00000E+00         0.00000E+00
 
    0.22982E+06         0.63824E+06         0.00000E+00
    0.63824E+06        -0.12661E+07         0.00000E+00
    0.00000E+00         0.00000E+00         0.00000E+00
 
    0.21622E+06         0.65485E+06         0.00000E+00
    0.65485E+06        -0.12602E+07         0.00000E+00
    0.00000E+00         0.00000E+00         0.00000E+00
 
    0.20244E+06         0.67135E+06         0.00000E+00
    0.67135E+06        -0.12540E+07         0.00000E+00
    0.00000E+00         0.00000E+00         0.00000E+00
 
    0.18849E+06         0.68772E+06         0.00000E+00
    0.68772E+06        -0.12477E+07         0.00000E+00
    0.00000E+00         0.00000E+00         0.00000E+00
 
    0.17437E+06         0.70397E+06         0.00000E+00
    0.70397E+06        -0.12413E+07         0.00000E+00
    0.00000E+00         0.00000E+00         0.00000E+00
 
    0.16007E+06         0.72009E+06         0.00000E+00
    0.72009E+06        -0.12347E+07         0.00000E+00
    0.00000E+00         0.00000E+00         0.00000E+00
 
    0.14561E+06         0.73609E+06         0.00000E+00
    0.73609E+06        -0.12280E+07         0.00000E+00
    0.00000E+00         0.00000E+00         0.00000E+00
 
    0.13097E+06         0.75196E+06         0.00000E+00
    0.75196E+06        -0.12212E+07         0.00000E+00
    0.00000E+00         0.00000E+00         0.00000E+00
 
    0.11617E+06         0.76770E+06         0.00000E+00
    0.76770E+06        -0.12142E+07         0.00000E+00
    0.00000E+00         0.00000E+00         0.00000E+00
 
    0.10120E+06         0.78331E+06         0.00000E+00
    0.78331E+06        -0.12070E+07         0.00000E+00
    0.00000E+00         0.00000E+00         0.00000E+00
 
    0.86062E+05         0.79879E+06         0.00000E+00
    0.79879E+06        -0.11998E+07         0.00000E+00
    0.00000E+00         0.00000E+00         0.00000E+00
 
    0.70767E+05         0.81413E+06         0.00000E+00
    0.81413E+06        -0.11924E+07         0.00000E+00
    0.00000E+00         0.00000E+00         0.00000E+00
 
    0.55311E+05         0.82934E+06         0.00000E+00
    0.82934E+06        -0.11849E+07         0.00000E+00
    0.00000E+00         0.00000E+00         0.00000E+00
 
    0.39697E+05         0.84442E+06         0.00000E+00
    0.84442E+06        -0.11772E+07         0.00000E+00
    0.00000E+00         0.00000E+00         0.00000E+00
 
    0.23926E+05         0.85936E+06         0.00000E+00
    0.85936E+06        -0.11694E+07         0.00000E+00
    0.00000E+00         0.00000E+00         0.00000E+00
 
    0.80011E+04         0.87416E+06         0.00000E+00
    0.87416E+06        -0.11615E+07         0.00000E+00
    0.00000E+00         0.00000E+00         0.00000E+00
 
    0.60301E+06         0.10553E+05         0.00000E+00
    0.10553E+05        -0.14475E+07         0.00000E+00
    0.00000E+00         0.00000E+00         0.00000E+00
 
    0.59593E+06         0.31448E+05         0.00000E+00
    0.31448E+05        -0.14473E+07         0.00000E+00
    0.00000E+00         0.00000E+00         0.00000E+00
 
    0.58862E+06         0.52265E+05         0.00000E+00
    0.52265E+05        -0.14469E+07         0.00000E+00
    0.00000E+00         0.00000E+00         0.00000E+00
 
    0.58107E+06         0.73001E+05         0.00000E+00
    0.73001E+05        -0.14463E+07         0.00000E+00
    0.00000E+00         0.00000E+00         0.00000E+00
 
    0.57330E+06         0.93655E+05         0.00000E+00
    0.93655E+05        -0.14456E+07         0.00000E+00
    0.00000E+00         0.00000E+00         0.00000E+00
 
    0.56530E+06         0.11422E+06         0.00000E+00
    0.11422E+06        -0.14446E+07         0.00000E+00
    0.00000E+00         0.00000E+00         0.00000E+00
 
    0.55707E+06         0.13471E+06         0.00000E+00
    0.13471E+06        -0.14434E+07         0.00000E+00
    0.00000E+00         0.00000E+00         0.00000E+00
 
    0.54862E+06         0.15511E+06         0.00000E+00
    0.15511E+06        -0.14420E+07         0.00000E+00
    0.00000E+00         0.00000E+00         0.00000E+00
 
    0.53995E+06         0.17542E+06         0.00000E+00
    0.17542E+06        -0.14405E+07         0.00000E+00
    0.00000E+00         0.00000E+00         0.00000E+00
 
    0.53105E+06         0.19564E+06         0.00000E+00
    0.19564E+06        -0.14387E+07         0.00000E+00
    0.00000E+00         0.00000E+00         0.00000E+00
 
    0.52193E+06         0.21577E+06         0.00000E+00
    0.21577E+06        -0.14368E+07         0.00000E+00
    0.00000E+00         0.00000E+00         0.00000E+00
 
    0.51259E+06         0.23581E+06         0.00000E+00
    0.23581E+06        -0.14347E+07         0.00000E+00
    0.00000E+00         0.00000E+00         0.00000E+00
 
    0.50303E+06         0.25575E+06         0.00000E+00
    0.25575E+06        -0.14324E+07         0.00000E+00
    0.00000E+00         0.00000E+00         0.00000E+00
 
    0.49325E+06         0.27560E+06         0.00000E+00
    0.27560E+06        -0.14299E+07         0.00000E+00
    0.00000E+00         0.00000E+00         0.00000E+00
 
    0.48326E+06         0.29535E+06         0.00000E+00
    0.29535E+06        -0.14272E+07         0.00000E+00
    0.00000E+00         0.00000E+00         0.00000E+00
 
    0.47305E+06         0.31500E+06         0.00000E+00
    0.31500E+06        -0.14243E+07         0.00000E+00
    0.00000E+00         0.00000E+00         0.00000E+00
 
    0.46263E+06         0.33455E+06         0.00000E+00
    0.33455E+06        -0.14213E+07         0.00000E+00
    0.00000E+00         0.00000E+00         0.00000E+00
 
    0.45200E+06         0.35400E+06         0.00000E+00
    0.35400E+06        -0.14181E+07         0.00000E+00
    0.00000E+00         0.00000E+00         0.00000E+00
 
    0.44115E+06         0.37335E+06         0.00000E+00
    0.37335E+06        -0.14147E+07         0.00000E+00
    0.00000E+00         0.00000E+00         0.00000E+00
 
    0.43010E+06         0.39259E+06         0.00000E+00
    0.39259E+06        -0.14111E+07         0.00000E+00
    0.00000E+00         0.00000E+00         0.00000E+00
 
    0.41883E+06         0.41173E+06         0.00000E+00
    0.41173E+06        -0.14073E+07         0.00000E+00
    0.00000E+00         0.00000E+00         0.00000E+00
 
    0.40736E+06         0.43076E+06         0.00000E+00
    0.43076E+06        -0.14034E+07         0.00000E+00
    0.00000E+00         0.00000E+00         0.00000E+00
 
    0.39569E+06         0.44968E+06         0.00000E+00
    0.44968E+06        -0.13993E+07         0.00000E+00
    0.00000E+00         0.00000E+00         0.00000E+00
 
    0.38381E+06         0.46850E+06         0.00000E+00
    0.46850E+06        -0.13950E+07         0.00000E+00
    0.00000E+00         0.00000E+00         0.00000E+00
 
    0.37173E+06         0.48720E+06         0.00000E+00
    0.48720E+06        -0.13905E+07         0.00000E+00
    0.00000E+00         0.00000E+00         0.00000E+00
 
    0.35944E+06         0.50579E+06         0.00000E+00
    0.50579E+06        -0.13859E+07         0.00000E+00
    0.00000E+00         0.00000E+00         0.00000E+00
 
    0.34696E+06         0.52427E+06         0.00000E+00
    0.52427E+06        -0.13811E+07         0.00000E+00
    0.00000E+00         0.00000E+00         0.00000E+00
 
    0.33428E+06         0.54263E+06         0.00000E+00
    0.54263E+06        -0.13762E+07         0.00000E+00
    0.00000E+00         0.00000E+00         0.00000E+00
 
    0.32140E+06         0.56088E+06         0.00000E+00
    0.56088E+06        -0.13711E+07         0.00000E+00
    0.00000E+00         0.00000E+00         0.00000E+00
 
    0.30832E+06         0.57901E+06         0.00000E+00
    0.57901E+06        -0.13658E+07         0.00000E+00
    0.00000E+00         0.00000E+00         0.00000E+00
 
    0.29506E+06         0.59702E+06         0.00000E+00
    0.59702E+06        -0.13603E+07         0.00000E+00
    0.00000E+00         0.00000E+00         0.00000E+00
 
    0.28160E+06         0.61491E+06         0.00000E+00
    0.61491E+06        -0.13547E+07         0.00000E+00
    0.00000E+00         0.00000E+00         0.00000E+00
 
    0.26795E+06         0.63268E+06         0.00000E+00
    0.63268E+06        -0.13489E+07         0.00000E+00
    0.00000E+00         0.00000E+00         0.00000E+00
 
    0.25411E+06         0.65033E+06         0.00000E+00
    0.65033E+06        -0.13430E+07         0.00000E+00
    0.00000E+00         0.00000E+00         0.00000E+00
 
    0.24008E+06         0.66785E+06         0.00000E+00
    0.66785E+06        -0.13369E+07         0.00000E+00
    0.00000E+00         0.00000E+00         0.00000E+00
 
    0.22587E+06         0.68524E+06         0.00000E+00
    0.68524E+06        -0.13307E+07         0.00000E+00
    0.00000E+00         0.00000E+00         0.00000E+00
 
    0.21148E+06         0.70252E+06         0.00000E+00
    0.70252E+06        -0.13243E+07         0.00000E+00
    0.00000E+00         0.00000E+00         0.00000E+00
 
    0.19690E+06         0.71966E+06         0.00000E+00
    0.71966E+06        -0.13177E+07         0.00000E+00
    0.00000E+00         0.00000E+00         0.00000E+00
 
    0.18214E+06         0.73667E+06         0.00000E+00
    0.73667E+06        -0.13110E+07         0.00000E+00
    0.00000E+00         0.00000E+00         0.00000E+00
 
    0.16720E+06         0.75355E+06         0.00000E+00
    0.75355E+06        -0.13042E+07         0.00000E+00
    0.00000E+00         0.00000E+00         0.00000E+00
 
    0.15209E+06         0.77030E+06         0.00000E+00
    0.77030E+06        -0.12972E+07         0.00000E+00
    0.00000E+00         0.00000E+00         0.00000E+00
 
    0.13680E+06         0.78692E+06         0.00000E+00
    0.78692E+06        -0.12900E+07         0.00000E+00
    0.00000E+00         0.00000E+00         0.00000E+00
 
    0.12133E+06         0.80340E+06         0.00000E+00
    0.80340E+06        -0.12828E+07         0.00000E+00
    0.00000E+00         0.00000E+00         0.00000E+00
 
    0.10569E+06         0.81975E+06         0.00000E+00
    0.81975E+06        -0.12753E+07         0.00000E+00
    0.00000E+00         0.00000E+00         0.00000E+00
 
    0.89887E+05         0.83596E+06         0.00000E+00
    0.83596E+06        -0.12677E+07         0.00000E+00
    0.00000E+00         0.00000E+00         0.00000E+00
 
    0.73911E+05         0.85203E+06         0.00000E+00
    0.85203E+06        -0.12600E+07         0.00000E+00
    0.00000E+00         0.00000E+00         0.00000E+00
 
    0.57768E+05         0.86796E+06         0.00000E+00
    0.86796E+06        -0.12522E+07         0.00000E+00
    0.00000E+00         0.00000E+00         0.00000E+00
 
    0.41460E+05         0.88375E+06         0.00000E+00
    0.88375E+06        -0.12442E+07         0.00000E+00
    0.00000E+00         0.00000E+00         0.00000E+00
 
    0.24989E+05         0.89940E+06         0.00000E+00
    0.89940E+06        -0.12360E+07         0.00000E+00
    0.00000E+00         0.00000E+00         0.00000E+00
 
    0.83564E+04         0.91490E+06         0.00000E+00
    0.91490E+06        -0.12278E+07         0.00000E+00
    0.00000E+00         0.00000E+00         0.00000E+00
 
    0.63136E+06         0.11033E+05         0.00000E+00
    0.11033E+05        -0.15262E+07         0.00000E+00
    0.00000E+00         0.00000E+00         0.00000E+00
 
    0.62388E+06         0.32882E+05         0.00000E+00
    0.32882E+05        -0.15260E+07         0.00000E+00
    0.00000E+00         0.00000E+00         0.00000E+00
 
    0.61616E+06         0.54649E+05         0.00000E+00
    0.54649E+05        -0.15256E+07         0.00000E+00
    0.00000E+00         0.00000E+00         0.00000E+00
 
    0.60820E+06         0.76332E+05         0.00000E+00
    0.76332E+05        -0.15250E+07         0.00000E+00
    0.00000E+00         0.00000E+00         0.00000E+00
 
    0.60001E+06         0.97931E+05         0.00000E+00
    0.97931E+05        -0.15242E+07         0.00000E+00
    0.00000E+00         0.00000E+00         0.00000E+00
 
    0.59158E+06         0.11944E+06         0.00000E+00
    0.11944E+06        -0.15232E+07         0.00000E+00
    0.00000E+00         0.00000E+00         0.00000E+00
 
    0.58292E+06         0.14087E+06         0.00000E+00
    0.14087E+06        -0.15219E+07         0.00000E+00
    0.00000E+00         0.00000E+00         0.00000E+00
 
    0.57402E+06         0.16220E+06         0.00000E+00
    0.16220E+06        -0.15205E+07         0.00000E+00
    0.00000E+00         0.00000E+00         0.00000E+00
 
    0.56490E+06         0.18344E+06         0.00000E+00
    0.18344E+06        -0.15189E+07         0.00000E+00
    0.00000E+00         0.00000E+00         0.00000E+00
 
    0.55554E+06         0.20459E+06         0.00000E+00
    0.20459E+06        -0.15171E+07         0.00000E+00
    0.00000E+00         0.00000E+00         0.00000E+00
 
    0.54595E+06         0.22565E+06         0.00000E+00
    0.22565E+06        -0.15151E+07         0.00000E+00
    0.00000E+00         0.00000E+00         0.00000E+00
 
    0.53614E+06         0.24660E+06         0.00000E+00
    0.24660E+06        -0.15128E+07         0.00000E+00
    0.00000E+00         0.00000E+00         0.00000E+00
 
    0.52610E+06         0.26746E+06         0.00000E+00
    0.26746E+06        -0.15104E+07         0.00000E+00
    0.00000E+00         0.00000E+00         0.00000E+00
 
    0.51584E+06         0.28823E+06         0.00000E+00
    0.28823E+06        -0.15078E+07         0.00000E+00
    0.00000E+00         0.00000E+00         0.00000E+00
 
    0.50535E+06         0.30889E+06         0.00000E+00
    0.30889E+06        -0.15051E+07         0.00000E+00
    0.00000E+00         0.00000E+00         0.00000E+00
 
    0.49464E+06         0.32944E+06         0.00000E+00
    0.32944E+06        -0.15021E+07         0.00000E+00
    0.00000E+00         0.00000E+00         0.00000E+00
 
    0.48371E+06         0.34990E+06         0.00000E+00
    0.34990E+06        -0.14989E+07         0.00000E+00
    0.00000E+00         0.00000E+00         0.00000E+00
 
    0.47256E+06         0.37025E+06         0.00000E+00
    0.37025E+06        -0.14956E+07         0.00000E+00
    0.00000E+00         0.00000E+00         0.00000E+00
 
    0.46119E+06         0.39049E+06         0.00000E+00
    0.39049E+06        -0.14920E+07         0.00000E+00
    0.00000E+00         0.00000E+00         0.00000E+00
 
    0.44960E+06         0.41063E+06         0.00000E+00
    0.41063E+06        -0.14883E+07         0.00000E+00
    0.00000E+00         0.00000E+00         0.00000E+00
 
    0.43780E+06         0.43065E+06         0.00000E+00
    0.43065E+06        -0.14844E+07         0.00000E+00
    0.00000E+00         0.00000E+00         0.00000E+00
 
    0.42578E+06         0.45057E+06         0.00000E+00
    0.45057E+06        -0.14803E+07         0.00000E+00
    0.00000E+00         0.00000E+00         0.00000E+00
 
    0.41356E+06         0.47037E+06         0.00000E+00
    0.47037E+06        -0.14760E+07         0.00000E+00
    0.00000E+00         0.00000E+00         0.00000E+00
 
    0.40112E+06         0.49006E+06         0.00000E+00
    0.49006E+06        -0.14716E+07         0.00000E+00
    0.00000E+00         0.00000E+00         0.00000E+00
 
    0.38847E+06         0.50963E+06         0.00000E+00
    0.50963E+06        -0.14669E+07         0.00000E+00
    0.00000E+00         0.00000E+00         0.00000E+00
 
    0.37561E+06         0.52908E+06         0.00000E+00
    0.52908E+06        -0.14621E+07         0.00000E+00
    0.00000E+00         0.00000E+00         0.00000E+00
 
    0.36255E+06         0.54842E+06         0.00000E+00
    0.54842E+06        -0.14571E+07         0.00000E+00
    0.00000E+00         0.00000E+00         0.00000E+00
 
    0.34928E+06         0.56764E+06         0.00000E+00
    0.56764E+06        -0.14520E+07         0.00000E+00
    0.00000E+00         0.00000E+00         0.00000E+00
 
    0.33581E+06         0.58674E+06         0.00000E+00
    0.58674E+06        -0.14466E+07         0.00000E+00
    0.00000E+00         0.00000E+00         0.00000E+00
 
    0.32214E+06         0.60572E+06         0.00000E+00
    0.60572E+06        -0.14411E+07         0.00000E+00
    0.00000E+00         0.00000E+00         0.00000E+00
 
    0.30826E+06         0.62457E+06         0.00000E+00
    0.62457E+06        -0.14355E+07         0.00000E+00
    0.00000E+00         0.00000E+00         0.00000E+00
 
    0.29419E+06         0.64330E+06         0.00000E+00
    0.64330E+06        -0.14296E+07         0.00000E+00
    0.00000E+00         0.00000E+00         0.00000E+00
 
    0.27992E+06         0.66190E+06         0.00000E+00
    0.66190E+06        -0.14236E+07         0.00000E+00
    0.00000E+00         0.00000E+00         0.00000E+00
 
    0.26545E+06         0.68037E+06         0.00000E+00
    0.68037E+06        -0.14174E+07         0.00000E+00
    0.00000E+00         0.00000E+00         0.00000E+00
 
    0.25079E+06         0.69872E+06         0.00000E+00
    0.69872E+06        -0.14111E+07         0.00000E+00
    0.00000E+00         0.00000E+00         0.00000E+00
 
    0.23594E+06         0.71693E+06         0.00000E+00
    0.71693E+06        -0.14046E+07         0.00000E+00
    0.00000E+00         0.00000E+00         0.00000E+00
 
    0.22090E+06         0.73501E+06         0.00000E+00
    0.73501E+06        -0.13979E+07         0.00000E+00
    0.00000E+00         0.00000E+00         0.00000E+00
 
    0.20566E+06         0.75296E+06         0.00000E+00
    0.75296E+06        -0.13911E+07         0.00000E+00
    0.00000E+00         0.00000E+00         0.00000E+00
 
    0.19024E+06         0.77077E+06         0.00000E+00
    0.77077E+06        -0.13841E+07         0.00000E+00
    0.00000E+00         0.00000E+00         0.00000E+00
 
    0.17464E+06         0.78845E+06         0.00000E+00
    0.78845E+06        -0.13770E+07         0.00000E+00
    0.00000E+00         0.00000E+00         0.00000E+00
 
    0.15885E+06         0.80599E+06         0.00000E+00
    0.80599E+06        -0.13697E+07         0.00000E+00
    0.00000E+00         0.00000E+00         0.00000E+00
 
    0.14287E+06         0.82339E+06         0.00000E+00
    0.82339E+06        -0.13622E+07         0.00000E+00
    0.00000E+00         0.00000E+00         0.00000E+00
 
    0.12672E+06         0.84066E+06         0.00000E+00
    0.84066E+06        -0.13546E+07         0.00000E+00
    0.00000E+00         0.00000E+00         0.00000E+00
 
    0.11039E+06         0.85778E+06         0.00000E+00
    0.85778E+06        -0.13468E+07         0.00000E+00
    0.00000E+00         0.00000E+00         0.00000E+00
 
    0.93877E+05         0.87475E+06         0.00000E+00
    0.87475E+06        -0.13389E+07         0.00000E+00
    0.00000E+00         0.00000E+00         0.00000E+00
 
    0.77191E+05         0.89159E+06         0.00000E+00
    0.89159E+06        -0.13309E+07         0.00000E+00
    0.00000E+00         0.00000E+00         0.00000E+00
 
    0.60331E+05         0.90827E+06         0.00000E+00
    0.90827E+06        -0.13227E+07         0.00000E+00
    0.00000E+00         0.00000E+00         0.00000E+00
 
    0.43300E+05         0.92481E+06         0.00000E+00
    0.92481E+06        -0.13143E+07         0.00000E+00
    0.00000E+00         0.00000E+00         0.00000E+00
 
    0.26098E+05         0.94121E+06         0.00000E+00
    0.94121E+06        -0.13059E+07         0.00000E+00
    0.00000E+00         0.00000E+00         0.00000E+00
 
    0.87271E+04         0.95745E+06         0.00000E+00
    0.95745E+06        -0.12972E+07         0.00000E+00
    0.00000E+00         0.00000E+00         0.00000E+00
 
    0.66083E+06         0.11534E+05         0.00000E+00
    0.11534E+05        -0.16087E+07         0.00000E+00
    0.00000E+00         0.00000E+00         0.00000E+00
 
    0.65294E+06         0.34376E+05         0.00000E+00
    0.34376E+05        -0.16085E+07         0.00000E+00
    0.00000E+00         0.00000E+00         0.00000E+00
 
    0.64480E+06         0.57133E+05         0.00000E+00
    0.57133E+05        -0.16080E+07         0.00000E+00
    0.00000E+00         0.00000E+00         0.00000E+00
 
    0.63641E+06         0.79803E+05         0.00000E+00
    0.79803E+05        -0.16074E+07         0.00000E+00
    0.00000E+00         0.00000E+00         0.00000E+00
 
    0.62778E+06         0.10239E+06         0.00000E+00
    0.10239E+06        -0.16065E+07         0.00000E+00
    0.00000E+00         0.00000E+00         0.00000E+00
 
    0.61891E+06         0.12488E+06         0.00000E+00
    0.12488E+06        -0.16055E+07         0.00000E+00
    0.00000E+00         0.00000E+00         0.00000E+00
 
    0.60980E+06         0.14728E+06         0.00000E+00
    0.14728E+06        -0.16042E+07         0.00000E+00
    0.00000E+00         0.00000E+00         0.00000E+00
 
    0.60044E+06         0.16959E+06         0.00000E+00
    0.16959E+06        -0.16027E+07         0.00000E+00
    0.00000E+00         0.00000E+00         0.00000E+00
 
    0.59085E+06         0.19180E+06         0.00000E+00
    0.19180E+06        -0.16010E+07         0.00000E+00
    0.00000E+00         0.00000E+00         0.00000E+00
 
    0.58101E+06         0.21391E+06         0.00000E+00
    0.21391E+06        -0.15991E+07         0.00000E+00
    0.00000E+00         0.00000E+00         0.00000E+00
 
    0.57094E+06         0.23593E+06         0.00000E+00
    0.23593E+06        -0.15971E+07         0.00000E+00
    0.00000E+00         0.00000E+00         0.00000E+00
 
    0.56064E+06         0.25785E+06         0.00000E+00
    0.25785E+06        -0.15948E+07         0.00000E+00
    0.00000E+00         0.00000E+00         0.00000E+00
 
    0.55010E+06         0.27967E+06         0.00000E+00
    0.27967E+06        -0.15923E+07         0.00000E+00
    0.00000E+00         0.00000E+00         0.00000E+00
 
    0.53933E+06         0.30138E+06         0.00000E+00
    0.30138E+06        -0.15896E+07         0.00000E+00
    0.00000E+00         0.00000E+00         0.00000E+00
 
    0.52832E+06         0.32299E+06         0.00000E+00
    0.32299E+06        -0.15866E+07         0.00000E+00
    0.00000E+00         0.00000E+00         0.00000E+00
 
    0.51709E+06         0.34449E+06         0.00000E+00
    0.34449E+06        -0.15835E+07         0.00000E+00
    0.00000E+00         0.00000E+00         0.00000E+00
 
    0.50563E+06         0.36589E+06         0.00000E+00
    0.36589E+06        -0.15803E+07         0.00000E+00
    0.00000E+00         0.00000E+00         0.00000E+00
 
    0.49394E+06         0.38717E+06         0.00000E+00
    0.38717E+06        -0.15768E+07         0.00000E+00
    0.00000E+00         0.00000E+00         0.00000E+00
 
    0.48203E+06         0.40835E+06         0.00000E+00
    0.40835E+06        -0.15731E+07         0.00000E+00
    0.00000E+00         0.00000E+00         0.00000E+00
 
    0.46989E+06         0.42941E+06         0.00000E+00
    0.42941E+06        -0.15692E+07         0.00000E+00
    0.00000E+00         0.00000E+00         0.00000E+00
 
    0.45753E+06         0.45036E+06         0.00000E+00
    0.45036E+06        -0.15651E+07         0.00000E+00
    0.00000E+00         0.00000E+00         0.00000E+00
 
    0.44495E+06         0.47119E+06         0.00000E+00
    0.47119E+06        -0.15609E+07         0.00000E+00
    0.00000E+00         0.00000E+00         0.00000E+00
 
    0.43215E+06         0.49191E+06         0.00000E+00
    0.49191E+06        -0.15564E+07         0.00000E+00
    0.00000E+00         0.00000E+00         0.00000E+00
 
    0.41913E+06         0.51251E+06         0.00000E+00
    0.51251E+06        -0.15518E+07         0.00000E+00
    0.00000E+00         0.00000E+00         0.00000E+00
 
    0.40589E+06         0.53299E+06         0.00000E+00
    0.53299E+06        -0.15470E+07         0.00000E+00
    0.00000E+00         0.00000E+00         0.00000E+00
 
    0.39244E+06         0.55335E+06         0.00000E+00
    0.55335E+06        -0.15420E+07         0.00000E+00
    0.00000E+00         0.00000E+00         0.00000E+00
 
    0.37877E+06         0.57359E+06         0.00000E+00
    0.57359E+06        -0.15368E+07         0.00000E+00
    0.00000E+00         0.00000E+00         0.00000E+00
 
    0.36490E+06         0.59370E+06         0.00000E+00
    0.59370E+06        -0.15314E+07         0.00000E+00
    0.00000E+00         0.00000E+00         0.00000E+00
 
    0.35081E+06         0.61369E+06         0.00000E+00
    0.61369E+06        -0.15258E+07         0.00000E+00
    0.00000E+00         0.00000E+00         0.00000E+00
 
    0.33651E+06         0.63355E+06         0.00000E+00
    0.63355E+06        -0.15201E+07         0.00000E+00
    0.00000E+00         0.00000E+00         0.00000E+00
 
    0.32201E+06         0.65328E+06         0.00000E+00
    0.65328E+06        -0.15142E+07         0.00000E+00
    0.00000E+00         0.00000E+00         0.00000E+00
 
    0.30729E+06         0.67288E+06         0.00000E+00
    0.67288E+06        -0.15081E+07         0.00000E+00
    0.00000E+00         0.00000E+00         0.00000E+00
 
    0.29238E+06         0.69235E+06         0.00000E+00
    0.69235E+06        -0.15019E+07         0.00000E+00
    0.00000E+00         0.00000E+00         0.00000E+00
 
    0.27726E+06         0.71169E+06         0.00000E+00
    0.71169E+06        -0.14954E+07         0.00000E+00
    0.00000E+00         0.00000E+00         0.00000E+00
 
    0.26194E+06         0.73089E+06         0.00000E+00
    0.73089E+06        -0.14888E+07         0.00000E+00
    0.00000E+00         0.00000E+00         0.00000E+00
 
    0.24642E+06         0.74996E+06         0.00000E+00
    0.74996E+06        -0.14820E+07         0.00000E+00
    0.00000E+00         0.00000E+00         0.00000E+00
 
    0.23070E+06         0.76889E+06         0.00000E+00
    0.76889E+06        -0.14751E+07         0.00000E+00
    0.00000E+00         0.00000E+00         0.00000E+00
 
    0.21479E+06         0.78769E+06         0.00000E+00
    0.78769E+06        -0.14680E+07         0.00000E+00
    0.00000E+00         0.00000E+00         0.00000E+00
 
    0.19868E+06         0.80634E+06         0.00000E+00
    0.80634E+06        -0.14607E+07         0.00000E+00
    0.00000E+00         0.00000E+00         0.00000E+00
 
    0.18238E+06         0.82485E+06         0.00000E+00
    0.82485E+06        -0.14532E+07         0.00000E+00
    0.00000E+00         0.00000E+00         0.00000E+00
 
    0.16588E+06         0.84322E+06         0.00000E+00
    0.84322E+06        -0.14456E+07         0.00000E+00
    0.00000E+00         0.00000E+00         0.00000E+00
 
    0.14920E+06         0.86144E+06         0.00000E+00
    0.86144E+06        -0.14379E+07         0.00000E+00
    0.00000E+00         0.00000E+00         0.00000E+00
 
    0.13233E+06         0.87952E+06         0.00000E+00
    0.87952E+06        -0.14299E+07         0.00000E+00
    0.00000E+00         0.00000E+00         0.00000E+00
 
    0.11527E+06         0.89745E+06         0.00000E+00
    0.89745E+06        -0.14218E+07         0.00000E+00
    0.00000E+00         0.00000E+00         0.00000E+00
 
    0.98031E+05         0.91524E+06         0.00000E+00
    0.91524E+06        -0.14136E+07         0.00000E+00
    0.00000E+00         0.00000E+00         0.00000E+00
 
    0.80606E+05         0.93287E+06         0.00000E+00
    0.93287E+06        -0.14052E+07         0.00000E+00
    0.00000E+00         0.00000E+00         0.00000E+00
 
    0.63000E+05         0.95035E+06         0.00000E+00
    0.95035E+06        -0.13966E+07         0.00000E+00
    0.00000E+00         0.00000E+00         0.00000E+00
 
    0.45215E+05         0.96768E+06         0.00000E+00
    0.96768E+06        -0.13879E+07         0.00000E+00
    0.00000E+00         0.00000E+00         0.00000E+00
 
    0.27252E+05         0.98486E+06         0.00000E+00
    0.98486E+06        -0.13791E+07         0.00000E+00
    0.00000E+00         0.00000E+00         0.00000E+00
 
    0.91130E+04         0.10019E+07         0.00000E+00
    0.10019E+07        -0.13701E+07         0.00000E+00
    0.00000E+00         0.00000E+00         0.00000E+00
 
    0.69143E+06         0.12056E+05         0.00000E+00
    0.12056E+05        -0.16951E+07         0.00000E+00
    0.00000E+00         0.00000E+00         0.00000E+00
 
    0.68311E+06         0.35932E+05         0.00000E+00
    0.35932E+05        -0.16949E+07         0.00000E+00
    0.00000E+00         0.00000E+00         0.00000E+00
 
    0.67454E+06         0.59720E+05         0.00000E+00
    0.59720E+05        -0.16944E+07         0.00000E+00
    0.00000E+00         0.00000E+00         0.00000E+00
 
    0.66571E+06         0.83419E+05         0.00000E+00
    0.83419E+05        -0.16937E+07         0.00000E+00
    0.00000E+00         0.00000E+00         0.00000E+00
 
    0.65663E+06         0.10703E+06         0.00000E+00
    0.10703E+06        -0.16929E+07         0.00000E+00
    0.00000E+00         0.00000E+00         0.00000E+00
 
    0.64729E+06         0.13054E+06         0.00000E+00
    0.13054E+06        -0.16917E+07         0.00000E+00
    0.00000E+00         0.00000E+00         0.00000E+00
 
    0.63771E+06         0.15396E+06         0.00000E+00
    0.15396E+06        -0.16904E+07         0.00000E+00
    0.00000E+00         0.00000E+00         0.00000E+00
 
    0.62787E+06         0.17728E+06         0.00000E+00
    0.17728E+06        -0.16889E+07         0.00000E+00
    0.00000E+00         0.00000E+00         0.00000E+00
 
    0.61779E+06         0.20050E+06         0.00000E+00
    0.20050E+06        -0.16871E+07         0.00000E+00
    0.00000E+00         0.00000E+00         0.00000E+00
 
    0.60747E+06         0.22362E+06         0.00000E+00
    0.22362E+06        -0.16852E+07         0.00000E+00
    0.00000E+00         0.00000E+00         0.00000E+00
 
    0.59689E+06         0.24664E+06         0.00000E+00
    0.24664E+06        -0.16830E+07         0.00000E+00
    0.00000E+00         0.00000E+00         0.00000E+00
 
    0.58608E+06         0.26956E+06         0.00000E+00
    0.26956E+06        -0.16806E+07         0.00000E+00
    0.00000E+00         0.00000E+00         0.00000E+00
 
    0.57502E+06         0.29237E+06         0.00000E+00
    0.29237E+06        -0.16780E+07         0.00000E+00
    0.00000E+00         0.00000E+00         0.00000E+00
 
    0.56372E+06         0.31508E+06         0.00000E+00
    0.31508E+06        -0.16752E+07         0.00000E+00
    0.00000E+00         0.00000E+00         0.00000E+00
 
    0.55219E+06         0.33767E+06         0.00000E+00
    0.33767E+06        -0.16722E+07         0.00000E+00
    0.00000E+00         0.00000E+00         0.00000E+00
 
    0.54041E+06         0.36016E+06         0.00000E+00
    0.36016E+06        -0.16689E+07         0.00000E+00
    0.00000E+00         0.00000E+00         0.00000E+00
 
    0.52840E+06         0.38254E+06         0.00000E+00
    0.38254E+06        -0.16655E+07         0.00000E+00
    0.00000E+00         0.00000E+00         0.00000E+00
 
    0.51615E+06         0.40480E+06         0.00000E+00
    0.40480E+06        -0.16619E+07         0.00000E+00
    0.00000E+00         0.00000E+00         0.00000E+00
 
    0.50368E+06         0.42694E+06         0.00000E+00
    0.42694E+06        -0.16580E+07         0.00000E+00
    0.00000E+00         0.00000E+00         0.00000E+00
 
    0.49097E+06         0.44897E+06         0.00000E+00
    0.44897E+06        -0.16540E+07         0.00000E+00
    0.00000E+00         0.00000E+00         0.00000E+00
 
    0.47802E+06         0.47089E+06         0.00000E+00
    0.47089E+06        -0.16498E+07         0.00000E+00
    0.00000E+00         0.00000E+00         0.00000E+00
 
    0.46485E+06         0.49268E+06         0.00000E+00
    0.49268E+06        -0.16453E+07         0.00000E+00
    0.00000E+00         0.00000E+00         0.00000E+00
 
    0.45146E+06         0.51435E+06         0.00000E+00
    0.51435E+06        -0.16407E+07         0.00000E+00
    0.00000E+00         0.00000E+00         0.00000E+00
 
    0.43784E+06         0.53590E+06         0.00000E+00
    0.53590E+06        -0.16359E+07         0.00000E+00
    0.00000E+00         0.00000E+00         0.00000E+00
 
    0.42399E+06         0.55733E+06         0.00000E+00
    0.55733E+06        -0.16309E+07         0.00000E+00
    0.00000E+00         0.00000E+00         0.00000E+00
 
    0.40992E+06         0.57863E+06         0.00000E+00
    0.57863E+06        -0.16257E+07         0.00000E+00
    0.00000E+00         0.00000E+00         0.00000E+00
 
    0.39563E+06         0.59980E+06         0.00000E+00
    0.59980E+06        -0.16202E+07         0.00000E+00
    0.00000E+00         0.00000E+00         0.00000E+00
 
    0.38112E+06         0.62085E+06         0.00000E+00
    0.62085E+06        -0.16147E+07         0.00000E+00
    0.00000E+00         0.00000E+00         0.00000E+00
 
    0.36639E+06         0.64176E+06         0.00000E+00
    0.64176E+06        -0.16089E+07         0.00000E+00
    0.00000E+00         0.00000E+00         0.00000E+00
 
    0.35144E+06         0.66254E+06         0.00000E+00
    0.66254E+06        -0.16029E+07         0.00000E+00
    0.00000E+00         0.00000E+00         0.00000E+00
 
    0.33628E+06         0.68319E+06         0.00000E+00
    0.68319E+06        -0.15968E+07         0.00000E+00
    0.00000E+00         0.00000E+00         0.00000E+00
 
    0.32091E+06         0.70371E+06         0.00000E+00
    0.70371E+06        -0.15904E+07         0.00000E+00
    0.00000E+00         0.00000E+00         0.00000E+00
 
    0.30532E+06         0.72409E+06         0.00000E+00
    0.72409E+06        -0.15839E+07         0.00000E+00
    0.00000E+00         0.00000E+00         0.00000E+00
 
    0.28952E+06         0.74433E+06         0.00000E+00
    0.74433E+06        -0.15772E+07         0.00000E+00
    0.00000E+00         0.00000E+00         0.00000E+00
 
    0.27352E+06         0.76443E+06         0.00000E+00
    0.76443E+06        -0.15703E+07         0.00000E+00
    0.00000E+00         0.00000E+00         0.00000E+00
 
    0.25731E+06         0.78440E+06         0.00000E+00
    0.78440E+06        -0.15633E+07         0.00000E+00
    0.00000E+00         0.00000E+00         0.00000E+00
 
    0.24089E+06         0.80422E+06         0.00000E+00
    0.80422E+06        -0.15560E+07         0.00000E+00
    0.00000E+00         0.00000E+00         0.00000E+00
 
    0.22427E+06         0.82389E+06         0.00000E+00
    0.82389E+06        -0.15486E+07         0.00000E+00
    0.00000E+00         0.00000E+00         0.00000E+00
 
    0.20744E+06         0.84342E+06         0.00000E+00
    0.84342E+06        -0.15410E+07         0.00000E+00
    0.00000E+00         0.00000E+00         0.00000E+00
 
    0.19042E+06         0.86281E+06         0.00000E+00
    0.86281E+06        -0.15333E+07         0.00000E+00
    0.00000E+00         0.00000E+00         0.00000E+00
 
    0.17319E+06         0.88204E+06         0.00000E+00
    0.88204E+06        -0.15253E+07         0.00000E+00
    0.00000E+00         0.00000E+00         0.00000E+00
 
    0.15577E+06         0.90113E+06         0.00000E+00
    0.90113E+06        -0.15172E+07         0.00000E+00
    0.00000E+00         0.00000E+00         0.00000E+00
 
    0.13816E+06         0.92007E+06         0.00000E+00
    0.92007E+06        -0.15089E+07         0.00000E+00
    0.00000E+00         0.00000E+00         0.00000E+00
 
    0.12035E+06         0.93885E+06         0.00000E+00
    0.93885E+06        -0.15005E+07         0.00000E+00
    0.00000E+00         0.00000E+00         0.00000E+00
 
    0.10235E+06         0.95748E+06         0.00000E+00
    0.95748E+06        -0.14919E+07         0.00000E+00
    0.00000E+00         0.00000E+00         0.00000E+00
 
    0.84153E+05         0.97595E+06         0.00000E+00
    0.97595E+06        -0.14831E+07         0.00000E+00
    0.00000E+00         0.00000E+00         0.00000E+00
 
    0.65772E+05         0.99427E+06         0.00000E+00
    0.99427E+06        -0.14742E+07         0.00000E+00
    0.00000E+00         0.00000E+00         0.00000E+00
 
    0.47204E+05         0.10124E+07         0.00000E+00
    0.10124E+07        -0.14651E+07         0.00000E+00
    0.00000E+00         0.00000E+00         0.00000E+00
 
    0.28451E+05         0.10304E+07         0.00000E+00
    0.10304E+07        -0.14559E+07         0.00000E+00
    0.00000E+00         0.00000E+00         0.00000E+00
 
    0.95140E+04         0.10483E+07         0.00000E+00
    0.10483E+07        -0.14465E+07         0.00000E+00
    0.00000E+00         0.00000E+00         0.00000E+00
 
    0.72318E+06         0.12599E+05         0.00000E+00
    0.12599E+05        -0.17856E+07         0.00000E+00
    0.00000E+00         0.00000E+00         0.00000E+00
 
    0.71442E+06         0.37553E+05         0.00000E+00
    0.37553E+05        -0.17854E+07         0.00000E+00
    0.00000E+00         0.00000E+00         0.00000E+00
 
    0.70539E+06         0.62415E+05         0.00000E+00
    0.62415E+05        -0.17849E+07         0.00000E+00
    0.00000E+00         0.00000E+00         0.00000E+00
 
    0.69610E+06         0.87183E+05         0.00000E+00
    0.87183E+05        -0.17842E+07         0.00000E+00
    0.00000E+00         0.00000E+00         0.00000E+00
 
    0.68654E+06         0.11186E+06         0.00000E+00
    0.11186E+06        -0.17833E+07         0.00000E+00
    0.00000E+00         0.00000E+00         0.00000E+00
 
    0.67673E+06         0.13643E+06         0.00000E+00
    0.13643E+06        -0.17821E+07         0.00000E+00
    0.00000E+00         0.00000E+00         0.00000E+00
 
    0.66666E+06         0.16091E+06         0.00000E+00
    0.16091E+06        -0.17808E+07         0.00000E+00
    0.00000E+00         0.00000E+00         0.00000E+00
 
    0.65633E+06         0.18529E+06         0.00000E+00
    0.18529E+06        -0.17792E+07         0.00000E+00
    0.00000E+00         0.00000E+00         0.00000E+00
 
    0.64574E+06         0.20956E+06         0.00000E+00
    0.20956E+06        -0.17773E+07         0.00000E+00
    0.00000E+00         0.00000E+00         0.00000E+00
 
    0.63490E+06         0.23373E+06         0.00000E+00
    0.23373E+06        -0.17753E+07         0.00000E+00
    0.00000E+00         0.00000E+00         0.00000E+00
 
    0.62381E+06         0.25780E+06         0.00000E+00
    0.25780E+06        -0.17730E+07         0.00000E+00
    0.00000E+00         0.00000E+00         0.00000E+00
 
    0.61246E+06         0.28175E+06         0.00000E+00
    0.28175E+06        -0.17705E+07         0.00000E+00
    0.00000E+00         0.00000E+00         0.00000E+00
 
    0.60086E+06         0.30560E+06         0.00000E+00
    0.30560E+06        -0.17678E+07         0.00000E+00
    0.00000E+00         0.00000E+00         0.00000E+00
 
    0.58902E+06         0.32934E+06         0.00000E+00
    0.32934E+06        -0.17649E+07         0.00000E+00
    0.00000E+00         0.00000E+00         0.00000E+00
 
    0.57693E+06         0.35296E+06         0.00000E+00
    0.35296E+06        -0.17618E+07         0.00000E+00
    0.00000E+00         0.00000E+00         0.00000E+00
 
    0.56459E+06         0.37648E+06         0.00000E+00
    0.37648E+06        -0.17584E+07         0.00000E+00
    0.00000E+00         0.00000E+00         0.00000E+00
 
    0.55201E+06         0.39987E+06         0.00000E+00
    0.39987E+06        -0.17549E+07         0.00000E+00
    0.00000E+00         0.00000E+00         0.00000E+00
 
    0.53919E+06         0.42315E+06         0.00000E+00
    0.42315E+06        -0.17511E+07         0.00000E+00
    0.00000E+00         0.00000E+00         0.00000E+00
 
    0.52612E+06         0.44631E+06         0.00000E+00
    0.44631E+06        -0.17471E+07         0.00000E+00
    0.00000E+00         0.00000E+00         0.00000E+00
 
    0.51282E+06         0.46935E+06         0.00000E+00
    0.46935E+06        -0.17429E+07         0.00000E+00
    0.00000E+00         0.00000E+00         0.00000E+00
 
    0.49927E+06         0.49226E+06         0.00000E+00
    0.49226E+06        -0.17385E+07         0.00000E+00
    0.00000E+00         0.00000E+00         0.00000E+00
 
    0.48549E+06         0.51505E+06         0.00000E+00
    0.51505E+06        -0.17339E+07         0.00000E+00
    0.00000E+00         0.00000E+00         0.00000E+00
 
    0.47148E+06         0.53772E+06         0.00000E+00
    0.53772E+06        -0.17291E+07         0.00000E+00
    0.00000E+00         0.00000E+00         0.00000E+00
 
    0.45723E+06         0.56026E+06         0.00000E+00
    0.56026E+06        -0.17240E+07         0.00000E+00
    0.00000E+00         0.00000E+00         0.00000E+00
 
    0.44275E+06         0.58267E+06         0.00000E+00
    0.58267E+06        -0.17188E+07         0.00000E+00
    0.00000E+00         0.00000E+00         0.00000E+00
 
    0.42804E+06         0.60496E+06         0.00000E+00
    0.60496E+06        -0.17134E+07         0.00000E+00
    0.00000E+00         0.00000E+00         0.00000E+00
 
    0.41310E+06         0.62711E+06         0.00000E+00
    0.62711E+06        -0.17078E+07         0.00000E+00
    0.00000E+00         0.00000E+00         0.00000E+00
 
    0.39793E+06         0.64912E+06         0.00000E+00
    0.64912E+06        -0.17020E+07         0.00000E+00
    0.00000E+00         0.00000E+00         0.00000E+00
 
    0.38254E+06         0.67101E+06         0.00000E+00
    0.67101E+06        -0.16959E+07         0.00000E+00
    0.00000E+00         0.00000E+00         0.00000E+00
 
    0.36692E+06         0.69275E+06         0.00000E+00
    0.69275E+06        -0.16897E+07         0.00000E+00
    0.00000E+00         0.00000E+00         0.00000E+00
 
    0.35108E+06         0.71436E+06         0.00000E+00
    0.71436E+06        -0.16833E+07         0.00000E+00
    0.00000E+00         0.00000E+00         0.00000E+00
 
    0.33502E+06         0.73583E+06         0.00000E+00
    0.73583E+06        -0.16767E+07         0.00000E+00
    0.00000E+00         0.00000E+00         0.00000E+00
 
    0.31874E+06         0.75716E+06         0.00000E+00
    0.75716E+06        -0.16699E+07         0.00000E+00
    0.00000E+00         0.00000E+00         0.00000E+00
 
    0.30224E+06         0.77835E+06         0.00000E+00
    0.77835E+06        -0.16630E+07         0.00000E+00
    0.00000E+00         0.00000E+00         0.00000E+00
 
    0.28552E+06         0.79939E+06         0.00000E+00
    0.79939E+06        -0.16558E+07         0.00000E+00
    0.00000E+00         0.00000E+00         0.00000E+00
 
    0.26859E+06         0.82028E+06         0.00000E+00
    0.82028E+06        -0.16484E+07         0.00000E+00
    0.00000E+00         0.00000E+00         0.00000E+00
 
    0.25145E+06         0.84103E+06         0.00000E+00
    0.84103E+06        -0.16409E+07         0.00000E+00
    0.00000E+00         0.00000E+00         0.00000E+00
 
    0.23409E+06         0.86163E+06         0.00000E+00
    0.86163E+06        -0.16332E+07         0.00000E+00
    0.00000E+00         0.00000E+00         0.00000E+00
 
    0.21653E+06         0.88208E+06         0.00000E+00
    0.88208E+06        -0.16253E+07         0.00000E+00
    0.00000E+00         0.00000E+00         0.00000E+00
 
    0.19876E+06         0.90238E+06         0.00000E+00
    0.90238E+06        -0.16172E+07         0.00000E+00
    0.00000E+00         0.00000E+00         0.00000E+00
 
    0.18077E+06         0.92253E+06         0.00000E+00
    0.92253E+06        -0.16089E+07         0.00000E+00
    0.00000E+00         0.00000E+00         0.00000E+00
 
    0.16259E+06         0.94252E+06         0.00000E+00
    0.94252E+06        -0.16005E+07         0.00000E+00
    0.00000E+00         0.00000E+00         0.00000E+00
 
    0.14420E+06         0.96235E+06         0.00000E+00
    0.96235E+06        -0.15919E+07         0.00000E+00
    0.00000E+00         0.00000E+00         0.00000E+00
 
    0.12561E+06         0.98203E+06         0.00000E+00
    0.98203E+06        -0.15831E+07         0.00000E+00
    0.00000E+00         0.00000E+00         0.00000E+00
 
    0.10682E+06         0.10015E+07         0.00000E+00
    0.10015E+07        -0.15741E+07         0.00000E+00
    0.00000E+00         0.00000E+00         0.00000E+00
 
    0.87832E+05         0.10209E+07         0.00000E+00
    0.10209E+07        -0.15650E+07         0.00000E+00
    0.00000E+00         0.00000E+00         0.00000E+00
 
    0.68647E+05         0.10401E+07         0.00000E+00
    0.10401E+07        -0.15556E+07         0.00000E+00
    0.00000E+00         0.00000E+00         0.00000E+00
 
    0.49267E+05         0.10591E+07         0.00000E+00
    0.10591E+07        -0.15462E+07         0.00000E+00
    0.00000E+00         0.00000E+00         0.00000E+00
 
    0.29694E+05         0.10780E+07         0.00000E+00
    0.10780E+07        -0.15365E+07         0.00000E+00
    0.00000E+00         0.00000E+00         0.00000E+00
 
    0.99298E+04         0.10967E+07         0.00000E+00
    0.10967E+07        -0.15267E+07         0.00000E+00
    0.00000E+00         0.00000E+00         0.00000E+00
 
    0.75608E+06         0.13165E+05         0.00000E+00
    0.13165E+05        -0.18805E+07         0.00000E+00
    0.00000E+00         0.00000E+00         0.00000E+00
 
    0.74685E+06         0.39240E+05         0.00000E+00
    0.39240E+05        -0.18803E+07         0.00000E+00
    0.00000E+00         0.00000E+00         0.00000E+00
 
    0.73735E+06         0.65220E+05         0.00000E+00
    0.65220E+05        -0.18798E+07         0.00000E+00
    0.00000E+00         0.00000E+00         0.00000E+00
 
    0.72758E+06         0.91103E+05         0.00000E+00
    0.91103E+05        -0.18791E+07         0.00000E+00
    0.00000E+00         0.00000E+00         0.00000E+00
 
    0.71754E+06         0.11689E+06         0.00000E+00
    0.11689E+06        -0.18781E+07         0.00000E+00
    0.00000E+00         0.00000E+00         0.00000E+00
 
    0.70722E+06         0.14257E+06         0.00000E+00
    0.14257E+06        -0.18769E+07         0.00000E+00
    0.00000E+00         0.00000E+00         0.00000E+00
 
    0.69664E+06         0.16815E+06         0.00000E+00
    0.16815E+06        -0.18755E+07         0.00000E+00
    0.00000E+00         0.00000E+00         0.00000E+00
 
    0.68580E+06         0.19362E+06         0.00000E+00
    0.19362E+06        -0.18738E+07         0.00000E+00
    0.00000E+00         0.00000E+00         0.00000E+00
 
    0.67469E+06         0.21899E+06         0.00000E+00
    0.21899E+06        -0.18719E+07         0.00000E+00
    0.00000E+00         0.00000E+00         0.00000E+00
 
    0.66331E+06         0.24425E+06         0.00000E+00
    0.24425E+06        -0.18698E+07         0.00000E+00
    0.00000E+00         0.00000E+00         0.00000E+00
 
    0.65168E+06         0.26941E+06         0.00000E+00
    0.26941E+06        -0.18674E+07         0.00000E+00
    0.00000E+00         0.00000E+00         0.00000E+00
 
    0.63978E+06         0.29445E+06         0.00000E+00
    0.29445E+06        -0.18648E+07         0.00000E+00
    0.00000E+00         0.00000E+00         0.00000E+00
 
    0.62763E+06         0.31937E+06         0.00000E+00
    0.31937E+06        -0.18620E+07         0.00000E+00
    0.00000E+00         0.00000E+00         0.00000E+00
 
    0.61522E+06         0.34418E+06         0.00000E+00
    0.34418E+06        -0.18590E+07         0.00000E+00
    0.00000E+00         0.00000E+00         0.00000E+00
 
    0.60255E+06         0.36888E+06         0.00000E+00
    0.36888E+06        -0.18557E+07         0.00000E+00
    0.00000E+00         0.00000E+00         0.00000E+00
 
    0.58963E+06         0.39346E+06         0.00000E+00
    0.39346E+06        -0.18522E+07         0.00000E+00
    0.00000E+00         0.00000E+00         0.00000E+00
 
    0.57646E+06         0.41791E+06         0.00000E+00
    0.41791E+06        -0.18485E+07         0.00000E+00
    0.00000E+00         0.00000E+00         0.00000E+00
 
    0.56303E+06         0.44225E+06         0.00000E+00
    0.44225E+06        -0.18446E+07         0.00000E+00
    0.00000E+00         0.00000E+00         0.00000E+00
 
    0.54936E+06         0.46646E+06         0.00000E+00
    0.46646E+06        -0.18405E+07         0.00000E+00
    0.00000E+00         0.00000E+00         0.00000E+00
 
    0.53544E+06         0.49055E+06         0.00000E+00
    0.49055E+06        -0.18361E+07         0.00000E+00
    0.00000E+00         0.00000E+00         0.00000E+00
 
    0.52127E+06         0.51451E+06         0.00000E+00
    0.51451E+06        -0.18315E+07         0.00000E+00
    0.00000E+00         0.00000E+00         0.00000E+00
 
    0.50686E+06         0.53835E+06         0.00000E+00
    0.53835E+06        -0.18267E+07         0.00000E+00
    0.00000E+00         0.00000E+00         0.00000E+00
 
    0.49221E+06         0.56205E+06         0.00000E+00
    0.56205E+06        -0.18217E+07         0.00000E+00
    0.00000E+00         0.00000E+00         0.00000E+00
 
    0.47731E+06         0.58562E+06         0.00000E+00
    0.58562E+06        -0.18165E+07         0.00000E+00
    0.00000E+00         0.00000E+00         0.00000E+00
 
    0.46217E+06         0.60906E+06         0.00000E+00
    0.60906E+06        -0.18111E+07         0.00000E+00
    0.00000E+00         0.00000E+00         0.00000E+00
 
    0.44680E+06         0.63237E+06         0.00000E+00
    0.63237E+06        -0.18054E+07         0.00000E+00
    0.00000E+00         0.00000E+00         0.00000E+00
 
    0.43119E+06         0.65554E+06         0.00000E+00
    0.65554E+06        -0.17996E+07         0.00000E+00
    0.00000E+00         0.00000E+00         0.00000E+00
 
    0.41534E+06         0.67857E+06         0.00000E+00
    0.67857E+06        -0.17935E+07         0.00000E+00
    0.00000E+00         0.00000E+00         0.00000E+00
 
    0.39926E+06         0.70146E+06         0.00000E+00
    0.70146E+06        -0.17873E+07         0.00000E+00
    0.00000E+00         0.00000E+00         0.00000E+00
 
    0.38295E+06         0.72422E+06         0.00000E+00
    0.72422E+06        -0.17808E+07         0.00000E+00
    0.00000E+00         0.00000E+00         0.00000E+00
 
    0.36640E+06         0.74682E+06         0.00000E+00
    0.74682E+06        -0.17741E+07         0.00000E+00
    0.00000E+00         0.00000E+00         0.00000E+00
 
    0.34963E+06         0.76929E+06         0.00000E+00
    0.76929E+06        -0.17673E+07         0.00000E+00
    0.00000E+00         0.00000E+00         0.00000E+00
 
    0.33263E+06         0.79161E+06         0.00000E+00
    0.79161E+06        -0.17602E+07         0.00000E+00
    0.00000E+00         0.00000E+00         0.00000E+00
 
    0.31540E+06         0.81378E+06         0.00000E+00
    0.81378E+06        -0.17529E+07         0.00000E+00
    0.00000E+00         0.00000E+00         0.00000E+00
 
    0.29795E+06         0.83580E+06         0.00000E+00
    0.83580E+06        -0.17455E+07         0.00000E+00
    0.00000E+00         0.00000E+00         0.00000E+00
 
    0.28028E+06         0.85768E+06         0.00000E+00
    0.85768E+06        -0.17378E+07         0.00000E+00
    0.00000E+00         0.00000E+00         0.00000E+00
 
    0.26238E+06         0.87940E+06         0.00000E+00
    0.87940E+06        -0.17300E+07         0.00000E+00
    0.00000E+00         0.00000E+00         0.00000E+00
 
    0.24427E+06         0.90096E+06         0.00000E+00
    0.90096E+06        -0.17219E+07         0.00000E+00
    0.00000E+00         0.00000E+00         0.00000E+00
 
    0.22593E+06         0.92238E+06         0.00000E+00
    0.92238E+06        -0.17137E+07         0.00000E+00
    0.00000E+00         0.00000E+00         0.00000E+00
 
    0.20739E+06         0.94363E+06         0.00000E+00
    0.94363E+06        -0.17053E+07         0.00000E+00
    0.00000E+00         0.00000E+00         0.00000E+00
 
    0.18862E+06         0.96473E+06         0.00000E+00
    0.96473E+06        -0.16967E+07         0.00000E+00
    0.00000E+00         0.00000E+00         0.00000E+00
 
    0.16964E+06         0.98566E+06         0.00000E+00
    0.98566E+06        -0.16879E+07         0.00000E+00
    0.00000E+00         0.00000E+00         0.00000E+00
 
    0.15046E+06         0.10064E+07         0.00000E+00
    0.10064E+07        -0.16789E+07         0.00000E+00
    0.00000E+00         0.00000E+00         0.00000E+00
 
    0.13106E+06         0.10270E+07         0.00000E+00
    0.10270E+07        -0.16697E+07         0.00000E+00
    0.00000E+00         0.00000E+00         0.00000E+00
 
    0.11145E+06         0.10475E+07         0.00000E+00
    0.10475E+07        -0.16604E+07         0.00000E+00
    0.00000E+00         0.00000E+00         0.00000E+00
 
    0.91640E+05         0.10678E+07         0.00000E+00
    0.10678E+07        -0.16508E+07         0.00000E+00
    0.00000E+00         0.00000E+00         0.00000E+00
 
    0.71623E+05         0.10879E+07         0.00000E+00
    0.10879E+07        -0.16411E+07         0.00000E+00
    0.00000E+00         0.00000E+00         0.00000E+00
 
    0.51403E+05         0.11078E+07         0.00000E+00
    0.11078E+07        -0.16312E+07         0.00000E+00
    0.00000E+00         0.00000E+00         0.00000E+00
 
    0.30981E+05         0.11276E+07         0.00000E+00
    0.11276E+07        -0.16212E+07         0.00000E+00
    0.00000E+00         0.00000E+00         0.00000E+00
 
    0.10360E+05         0.11472E+07         0.00000E+00
    0.11472E+07        -0.16109E+07         0.00000E+00
    0.00000E+00         0.00000E+00         0.00000E+00
 
    0.79013E+06         0.13754E+05         0.00000E+00
    0.13754E+05        -0.19800E+07         0.00000E+00
    0.00000E+00         0.00000E+00         0.00000E+00
 
    0.78042E+06         0.40996E+05         0.00000E+00
    0.40996E+05        -0.19797E+07         0.00000E+00
    0.00000E+00         0.00000E+00         0.00000E+00
 
    0.77043E+06         0.68139E+05         0.00000E+00
    0.68139E+05        -0.19792E+07         0.00000E+00
    0.00000E+00         0.00000E+00         0.00000E+00
 
    0.76016E+06         0.95180E+05         0.00000E+00
    0.95180E+05        -0.19785E+07         0.00000E+00
    0.00000E+00         0.00000E+00         0.00000E+00
 
    0.74960E+06         0.12212E+06         0.00000E+00
    0.12212E+06        -0.19775E+07         0.00000E+00
    0.00000E+00         0.00000E+00         0.00000E+00
 
    0.73877E+06         0.14895E+06         0.00000E+00
    0.14895E+06        -0.19762E+07         0.00000E+00
    0.00000E+00         0.00000E+00         0.00000E+00
 
    0.72767E+06         0.17568E+06         0.00000E+00
    0.17568E+06        -0.19748E+07         0.00000E+00
    0.00000E+00         0.00000E+00         0.00000E+00
 
    0.71628E+06         0.20230E+06         0.00000E+00
    0.20230E+06        -0.19730E+07         0.00000E+00
    0.00000E+00         0.00000E+00         0.00000E+00
 
    0.70463E+06         0.22880E+06         0.00000E+00
    0.22880E+06        -0.19711E+07         0.00000E+00
    0.00000E+00         0.00000E+00         0.00000E+00
 
    0.69270E+06         0.25520E+06         0.00000E+00
    0.25520E+06        -0.19688E+07         0.00000E+00
    0.00000E+00         0.00000E+00         0.00000E+00
 
    0.68050E+06         0.28148E+06         0.00000E+00
    0.28148E+06        -0.19664E+07         0.00000E+00
    0.00000E+00         0.00000E+00         0.00000E+00
 
    0.66804E+06         0.30765E+06         0.00000E+00
    0.30765E+06        -0.19637E+07         0.00000E+00
    0.00000E+00         0.00000E+00         0.00000E+00
 
    0.65530E+06         0.33370E+06         0.00000E+00
    0.33370E+06        -0.19608E+07         0.00000E+00
    0.00000E+00         0.00000E+00         0.00000E+00
 
    0.64231E+06         0.35963E+06         0.00000E+00
    0.35963E+06        -0.19576E+07         0.00000E+00
    0.00000E+00         0.00000E+00         0.00000E+00
 
    0.62904E+06         0.38544E+06         0.00000E+00
    0.38544E+06        -0.19542E+07         0.00000E+00
    0.00000E+00         0.00000E+00         0.00000E+00
 
    0.61552E+06         0.41113E+06         0.00000E+00
    0.41113E+06        -0.19506E+07         0.00000E+00
    0.00000E+00         0.00000E+00         0.00000E+00
 
    0.60173E+06         0.43669E+06         0.00000E+00
    0.43669E+06        -0.19468E+07         0.00000E+00
    0.00000E+00         0.00000E+00         0.00000E+00
 
    0.58769E+06         0.46213E+06         0.00000E+00
    0.46213E+06        -0.19427E+07         0.00000E+00
    0.00000E+00         0.00000E+00         0.00000E+00
 
    0.57339E+06         0.48744E+06         0.00000E+00
    0.48744E+06        -0.19384E+07         0.00000E+00
    0.00000E+00         0.00000E+00         0.00000E+00
 
    0.55883E+06         0.51262E+06         0.00000E+00
    0.51262E+06        -0.19338E+07         0.00000E+00
    0.00000E+00         0.00000E+00         0.00000E+00
 
    0.54401E+06         0.53767E+06         0.00000E+00
    0.53767E+06        -0.19291E+07         0.00000E+00
    0.00000E+00         0.00000E+00         0.00000E+00
 
    0.52895E+06         0.56259E+06         0.00000E+00
    0.56259E+06        -0.19241E+07         0.00000E+00
    0.00000E+00         0.00000E+00         0.00000E+00
 
    0.51363E+06         0.58737E+06         0.00000E+00
    0.58737E+06        -0.19189E+07         0.00000E+00
    0.00000E+00         0.00000E+00         0.00000E+00
 
    0.49807E+06         0.61202E+06         0.00000E+00
    0.61202E+06        -0.19135E+07         0.00000E+00
    0.00000E+00         0.00000E+00         0.00000E+00
 
    0.48225E+06         0.63653E+06         0.00000E+00
    0.63653E+06        -0.19078E+07         0.00000E+00
    0.00000E+00         0.00000E+00         0.00000E+00
 
    0.46619E+06         0.66090E+06         0.00000E+00
    0.66090E+06        -0.19020E+07         0.00000E+00
    0.00000E+00         0.00000E+00         0.00000E+00
 
    0.44988E+06         0.68513E+06         0.00000E+00
    0.68513E+06        -0.18959E+07         0.00000E+00
    0.00000E+00         0.00000E+00         0.00000E+00
 
    0.43333E+06         0.70922E+06         0.00000E+00
    0.70922E+06        -0.18896E+07         0.00000E+00
    0.00000E+00         0.00000E+00         0.00000E+00
 
    0.41654E+06         0.73317E+06         0.00000E+00
    0.73317E+06        -0.18831E+07         0.00000E+00
    0.00000E+00         0.00000E+00         0.00000E+00
 
    0.39951E+06         0.75697E+06         0.00000E+00
    0.75697E+06        -0.18764E+07         0.00000E+00
    0.00000E+00         0.00000E+00         0.00000E+00
 
    0.38224E+06         0.78062E+06         0.00000E+00
    0.78062E+06        -0.18694E+07         0.00000E+00
    0.00000E+00         0.00000E+00         0.00000E+00
 
    0.36473E+06         0.80413E+06         0.00000E+00
    0.80413E+06        -0.18623E+07         0.00000E+00
    0.00000E+00         0.00000E+00         0.00000E+00
 
    0.34698E+06         0.82748E+06         0.00000E+00
    0.82748E+06        -0.18549E+07         0.00000E+00
    0.00000E+00         0.00000E+00         0.00000E+00
 
    0.32900E+06         0.85068E+06         0.00000E+00
    0.85068E+06        -0.18474E+07         0.00000E+00
    0.00000E+00         0.00000E+00         0.00000E+00
 
    0.31079E+06         0.87373E+06         0.00000E+00
    0.87373E+06        -0.18396E+07         0.00000E+00
    0.00000E+00         0.00000E+00         0.00000E+00
 
    0.29235E+06         0.89662E+06         0.00000E+00
    0.89662E+06        -0.18316E+07         0.00000E+00
    0.00000E+00         0.00000E+00         0.00000E+00
 
    0.27368E+06         0.91936E+06         0.00000E+00
    0.91936E+06        -0.18235E+07         0.00000E+00
    0.00000E+00         0.00000E+00         0.00000E+00
 
    0.25478E+06         0.94194E+06         0.00000E+00
    0.94194E+06        -0.18151E+07         0.00000E+00
    0.00000E+00         0.00000E+00         0.00000E+00
 
    0.23565E+06         0.96435E+06         0.00000E+00
    0.96435E+06        -0.18065E+07         0.00000E+00
    0.00000E+00         0.00000E+00         0.00000E+00
 
    0.21630E+06         0.98661E+06         0.00000E+00
    0.98661E+06        -0.17978E+07         0.00000E+00
    0.00000E+00         0.00000E+00         0.00000E+00
 
    0.19673E+06         0.10087E+07         0.00000E+00
    0.10087E+07        -0.17888E+07         0.00000E+00
    0.00000E+00         0.00000E+00         0.00000E+00
 
    0.17694E+06         0.10306E+07         0.00000E+00
    0.10306E+07        -0.17796E+07         0.00000E+00
    0.00000E+00         0.00000E+00         0.00000E+00
 
    0.15692E+06         0.10524E+07         0.00000E+00
    0.10524E+07        -0.17703E+07         0.00000E+00
    0.00000E+00         0.00000E+00         0.00000E+00
 
    0.13669E+06         0.10740E+07         0.00000E+00
    0.10740E+07        -0.17607E+07         0.00000E+00
    0.00000E+00         0.00000E+00         0.00000E+00
 
    0.11624E+06         0.10954E+07         0.00000E+00
    0.10954E+07        -0.17510E+07         0.00000E+00
    0.00000E+00         0.00000E+00         0.00000E+00
 
    0.95576E+05         0.11166E+07         0.00000E+00
    0.11166E+07        -0.17411E+07         0.00000E+00
    0.00000E+00         0.00000E+00         0.00000E+00
 
    0.74699E+05         0.11377E+07         0.00000E+00
    0.11377E+07        -0.17309E+07         0.00000E+00
    0.00000E+00         0.00000E+00         0.00000E+00
 
    0.53610E+05         0.11586E+07         0.00000E+00
    0.11586E+07        -0.17206E+07         0.00000E+00
    0.00000E+00         0.00000E+00         0.00000E+00
 
    0.32312E+05         0.11793E+07         0.00000E+00
    0.11793E+07        -0.17101E+07         0.00000E+00
    0.00000E+00         0.00000E+00         0.00000E+00
 
    0.10805E+05         0.11999E+07         0.00000E+00
    0.11999E+07        -0.16995E+07         0.00000E+00
    0.00000E+00         0.00000E+00         0.00000E+00
 
    0.82534E+06         0.14367E+05         0.00000E+00
    0.14367E+05        -0.20843E+07         0.00000E+00
    0.00000E+00         0.00000E+00         0.00000E+00
 
    0.81513E+06         0.42822E+05         0.00000E+00
    0.42822E+05        -0.20840E+07         0.00000E+00
    0.00000E+00         0.00000E+00         0.00000E+00
 
    0.80462E+06         0.71174E+05         0.00000E+00
    0.71174E+05        -0.20835E+07         0.00000E+00
    0.00000E+00         0.00000E+00         0.00000E+00
 
    0.79383E+06         0.99421E+05         0.00000E+00
    0.99421E+05        -0.20827E+07         0.00000E+00
    0.00000E+00         0.00000E+00         0.00000E+00
 
    0.78275E+06         0.12756E+06         0.00000E+00
    0.12756E+06        -0.20817E+07         0.00000E+00
    0.00000E+00         0.00000E+00         0.00000E+00
 
    0.77138E+06         0.15559E+06         0.00000E+00
    0.15559E+06        -0.20804E+07         0.00000E+00
    0.00000E+00         0.00000E+00         0.00000E+00
 
    0.75972E+06         0.18351E+06         0.00000E+00
    0.18351E+06        -0.20788E+07         0.00000E+00
    0.00000E+00         0.00000E+00         0.00000E+00
 
    0.74778E+06         0.21132E+06         0.00000E+00
    0.21132E+06        -0.20770E+07         0.00000E+00
    0.00000E+00         0.00000E+00         0.00000E+00
 
    0.73556E+06         0.23901E+06         0.00000E+00
    0.23901E+06        -0.20750E+07         0.00000E+00
    0.00000E+00         0.00000E+00         0.00000E+00
 
    0.72306E+06         0.26658E+06         0.00000E+00
    0.26658E+06        -0.20727E+07         0.00000E+00
    0.00000E+00         0.00000E+00         0.00000E+00
 
    0.71028E+06         0.29404E+06         0.00000E+00
    0.29404E+06        -0.20702E+07         0.00000E+00
    0.00000E+00         0.00000E+00         0.00000E+00
 
    0.69722E+06         0.32138E+06         0.00000E+00
    0.32138E+06        -0.20674E+07         0.00000E+00
    0.00000E+00         0.00000E+00         0.00000E+00
 
    0.68389E+06         0.34860E+06         0.00000E+00
    0.34860E+06        -0.20643E+07         0.00000E+00
    0.00000E+00         0.00000E+00         0.00000E+00
 
    0.67028E+06         0.37569E+06         0.00000E+00
    0.37569E+06        -0.20611E+07         0.00000E+00
    0.00000E+00         0.00000E+00         0.00000E+00
 
    0.65640E+06         0.40266E+06         0.00000E+00
    0.40266E+06        -0.20575E+07         0.00000E+00
    0.00000E+00         0.00000E+00         0.00000E+00
 
    0.64225E+06         0.42950E+06         0.00000E+00
    0.42950E+06        -0.20538E+07         0.00000E+00
    0.00000E+00         0.00000E+00         0.00000E+00
 
    0.62783E+06         0.45621E+06         0.00000E+00
    0.45621E+06        -0.20498E+07         0.00000E+00
    0.00000E+00         0.00000E+00         0.00000E+00
 
    0.61314E+06         0.48280E+06         0.00000E+00
    0.48280E+06        -0.20455E+07         0.00000E+00
    0.00000E+00         0.00000E+00         0.00000E+00
 
    0.59819E+06         0.50925E+06         0.00000E+00
    0.50925E+06        -0.20411E+07         0.00000E+00
    0.00000E+00         0.00000E+00         0.00000E+00
 
    0.58297E+06         0.53557E+06         0.00000E+00
    0.53557E+06        -0.20364E+07         0.00000E+00
    0.00000E+00         0.00000E+00         0.00000E+00
 
    0.56749E+06         0.56175E+06         0.00000E+00
    0.56175E+06        -0.20314E+07         0.00000E+00
    0.00000E+00         0.00000E+00         0.00000E+00
 
    0.55175E+06         0.58780E+06         0.00000E+00
    0.58780E+06        -0.20262E+07         0.00000E+00
    0.00000E+00         0.00000E+00         0.00000E+00
 
    0.53574E+06         0.61371E+06         0.00000E+00
    0.61371E+06        -0.20208E+07         0.00000E+00
    0.00000E+00         0.00000E+00         0.00000E+00
 
    0.51948E+06         0.63947E+06         0.00000E+00
    0.63947E+06        -0.20152E+07         0.00000E+00
    0.00000E+00         0.00000E+00         0.00000E+00
 
    0.50297E+06         0.66510E+06         0.00000E+00
    0.66510E+06        -0.20093E+07         0.00000E+00
    0.00000E+00         0.00000E+00         0.00000E+00
 
    0.48620E+06         0.69058E+06         0.00000E+00
    0.69058E+06        -0.20032E+07         0.00000E+00
    0.00000E+00         0.00000E+00         0.00000E+00
 
    0.46917E+06         0.71592E+06         0.00000E+00
    0.71592E+06        -0.19969E+07         0.00000E+00
    0.00000E+00         0.00000E+00         0.00000E+00
 
    0.45190E+06         0.74111E+06         0.00000E+00
    0.74111E+06        -0.19904E+07         0.00000E+00
    0.00000E+00         0.00000E+00         0.00000E+00
 
    0.43437E+06         0.76616E+06         0.00000E+00
    0.76616E+06        -0.19836E+07         0.00000E+00
    0.00000E+00         0.00000E+00         0.00000E+00
 
    0.41659E+06         0.79105E+06         0.00000E+00
    0.79105E+06        -0.19766E+07         0.00000E+00
    0.00000E+00         0.00000E+00         0.00000E+00
 
    0.39857E+06         0.81579E+06         0.00000E+00
    0.81579E+06        -0.19694E+07         0.00000E+00
    0.00000E+00         0.00000E+00         0.00000E+00
 
    0.38030E+06         0.84038E+06         0.00000E+00
    0.84038E+06        -0.19620E+07         0.00000E+00
    0.00000E+00         0.00000E+00         0.00000E+00
 
    0.36179E+06         0.86482E+06         0.00000E+00
    0.86482E+06        -0.19544E+07         0.00000E+00
    0.00000E+00         0.00000E+00         0.00000E+00
 
    0.34304E+06         0.88909E+06         0.00000E+00
    0.88909E+06        -0.19465E+07         0.00000E+00
    0.00000E+00         0.00000E+00         0.00000E+00
 
    0.32404E+06         0.91321E+06         0.00000E+00
    0.91321E+06        -0.19384E+07         0.00000E+00
    0.00000E+00         0.00000E+00         0.00000E+00
 
    0.30481E+06         0.93717E+06         0.00000E+00
    0.93717E+06        -0.19301E+07         0.00000E+00
    0.00000E+00         0.00000E+00         0.00000E+00
 
    0.28533E+06         0.96097E+06         0.00000E+00
    0.96097E+06        -0.19216E+07         0.00000E+00
    0.00000E+00         0.00000E+00         0.00000E+00
 
    0.26562E+06         0.98460E+06         0.00000E+00
    0.98460E+06        -0.19129E+07         0.00000E+00
    0.00000E+00         0.00000E+00         0.00000E+00
 
    0.24568E+06         0.10081E+07         0.00000E+00
    0.10081E+07        -0.19040E+07         0.00000E+00
    0.00000E+00         0.00000E+00         0.00000E+00
 
    0.22550E+06         0.10314E+07         0.00000E+00
    0.10314E+07        -0.18949E+07         0.00000E+00
    0.00000E+00         0.00000E+00         0.00000E+00
 
    0.20510E+06         0.10545E+07         0.00000E+00
    0.10545E+07        -0.18855E+07         0.00000E+00
    0.00000E+00         0.00000E+00         0.00000E+00
 
    0.18446E+06         0.10775E+07         0.00000E+00
    0.10775E+07        -0.18760E+07         0.00000E+00
    0.00000E+00         0.00000E+00         0.00000E+00
 
    0.16359E+06         0.11003E+07         0.00000E+00
    0.11003E+07        -0.18663E+07         0.00000E+00
    0.00000E+00         0.00000E+00         0.00000E+00
 
    0.14250E+06         0.11229E+07         0.00000E+00
    0.11229E+07        -0.18563E+07         0.00000E+00
    0.00000E+00         0.00000E+00         0.00000E+00
 
    0.12118E+06         0.11453E+07         0.00000E+00
    0.11453E+07        -0.18462E+07         0.00000E+00
    0.00000E+00         0.00000E+00         0.00000E+00
 
    0.99636E+05         0.11676E+07         0.00000E+00
    0.11676E+07        -0.18358E+07         0.00000E+00
    0.00000E+00         0.00000E+00         0.00000E+00
 
    0.77872E+05         0.11897E+07         0.00000E+00
    0.11897E+07        -0.18253E+07         0.00000E+00
    0.00000E+00         0.00000E+00         0.00000E+00
 
    0.55887E+05         0.12116E+07         0.00000E+00
    0.12116E+07        -0.18146E+07         0.00000E+00
    0.00000E+00         0.00000E+00         0.00000E+00
 
    0.33684E+05         0.12333E+07         0.00000E+00
    0.12333E+07        -0.18036E+07         0.00000E+00
    0.00000E+00         0.00000E+00         0.00000E+00
 
    0.11264E+05         0.12548E+07         0.00000E+00
    0.12548E+07        -0.17925E+07         0.00000E+00
    0.00000E+00         0.00000E+00         0.00000E+00
 
    0.86170E+06         0.15003E+05         0.00000E+00
    0.15003E+05        -0.21936E+07         0.00000E+00
    0.00000E+00         0.00000E+00         0.00000E+00
 
    0.85096E+06         0.44720E+05         0.00000E+00
    0.44720E+05        -0.21933E+07         0.00000E+00
    0.00000E+00         0.00000E+00         0.00000E+00
 
    0.83993E+06         0.74329E+05         0.00000E+00
    0.74329E+05        -0.21928E+07         0.00000E+00
    0.00000E+00         0.00000E+00         0.00000E+00
 
    0.82859E+06         0.10383E+06         0.00000E+00
    0.10383E+06        -0.21920E+07         0.00000E+00
    0.00000E+00         0.00000E+00         0.00000E+00
 
    0.81696E+06         0.13321E+06         0.00000E+00
    0.13321E+06        -0.21909E+07         0.00000E+00
    0.00000E+00         0.00000E+00         0.00000E+00
 
    0.80503E+06         0.16249E+06         0.00000E+00
    0.16249E+06        -0.21895E+07         0.00000E+00
    0.00000E+00         0.00000E+00         0.00000E+00
 
    0.79280E+06         0.19165E+06         0.00000E+00
    0.19165E+06        -0.21879E+07         0.00000E+00
    0.00000E+00         0.00000E+00         0.00000E+00
 
    0.78028E+06         0.22069E+06         0.00000E+00
    0.22069E+06        -0.21861E+07         0.00000E+00
    0.00000E+00         0.00000E+00         0.00000E+00
 
    0.76747E+06         0.24961E+06         0.00000E+00
    0.24961E+06        -0.21840E+07         0.00000E+00
    0.00000E+00         0.00000E+00         0.00000E+00
 
    0.75438E+06         0.27841E+06         0.00000E+00
    0.27841E+06        -0.21816E+07         0.00000E+00
    0.00000E+00         0.00000E+00         0.00000E+00
 
    0.74099E+06         0.30709E+06         0.00000E+00
    0.30709E+06        -0.21789E+07         0.00000E+00
    0.00000E+00         0.00000E+00         0.00000E+00
 
    0.72732E+06         0.33565E+06         0.00000E+00
    0.33565E+06        -0.21760E+07         0.00000E+00
    0.00000E+00         0.00000E+00         0.00000E+00
 
    0.71336E+06         0.36408E+06         0.00000E+00
    0.36408E+06        -0.21729E+07         0.00000E+00
    0.00000E+00         0.00000E+00         0.00000E+00
 
    0.69912E+06         0.39238E+06         0.00000E+00
    0.39238E+06        -0.21695E+07         0.00000E+00
    0.00000E+00         0.00000E+00         0.00000E+00
 
    0.68460E+06         0.42055E+06         0.00000E+00
    0.42055E+06        -0.21659E+07         0.00000E+00
    0.00000E+00         0.00000E+00         0.00000E+00
 
    0.66981E+06         0.44859E+06         0.00000E+00
    0.44859E+06        -0.21619E+07         0.00000E+00
    0.00000E+00         0.00000E+00         0.00000E+00
 
    0.65473E+06         0.47650E+06         0.00000E+00
    0.47650E+06        -0.21578E+07         0.00000E+00
    0.00000E+00         0.00000E+00         0.00000E+00
 
    0.63938E+06         0.50428E+06         0.00000E+00
    0.50428E+06        -0.21534E+07         0.00000E+00
    0.00000E+00         0.00000E+00         0.00000E+00
 
    0.62375E+06         0.53192E+06         0.00000E+00
    0.53192E+06        -0.21488E+07         0.00000E+00
    0.00000E+00         0.00000E+00         0.00000E+00
 
    0.60785E+06         0.55942E+06         0.00000E+00
    0.55942E+06        -0.21439E+07         0.00000E+00
    0.00000E+00         0.00000E+00         0.00000E+00
 
    0.59168E+06         0.58678E+06         0.00000E+00
    0.58678E+06        -0.21387E+07         0.00000E+00
    0.00000E+00         0.00000E+00         0.00000E+00
 
    0.57524E+06         0.61400E+06         0.00000E+00
    0.61400E+06        -0.21334E+07         0.00000E+00
    0.00000E+00         0.00000E+00         0.00000E+00
 
    0.55853E+06         0.64108E+06         0.00000E+00
    0.64108E+06        -0.21278E+07         0.00000E+00
    0.00000E+00         0.00000E+00         0.00000E+00
 
    0.54155E+06         0.66802E+06         0.00000E+00
    0.66802E+06        -0.21219E+07         0.00000E+00
    0.00000E+00         0.00000E+00         0.00000E+00
 
    0.52431E+06         0.69481E+06         0.00000E+00
    0.69481E+06        -0.21158E+07         0.00000E+00
    0.00000E+00         0.00000E+00         0.00000E+00
 
    0.50681E+06         0.72145E+06         0.00000E+00
    0.72145E+06        -0.21095E+07         0.00000E+00
    0.00000E+00         0.00000E+00         0.00000E+00
 
    0.48905E+06         0.74794E+06         0.00000E+00
    0.74794E+06        -0.21029E+07         0.00000E+00
    0.00000E+00         0.00000E+00         0.00000E+00
 
    0.47102E+06         0.77428E+06         0.00000E+00
    0.77428E+06        -0.20961E+07         0.00000E+00
    0.00000E+00         0.00000E+00         0.00000E+00
 
    0.45274E+06         0.80047E+06         0.00000E+00
    0.80047E+06        -0.20891E+07         0.00000E+00
    0.00000E+00         0.00000E+00         0.00000E+00
 
    0.43420E+06         0.82650E+06         0.00000E+00
    0.82650E+06        -0.20819E+07         0.00000E+00
    0.00000E+00         0.00000E+00         0.00000E+00
 
    0.41540E+06         0.85238E+06         0.00000E+00
    0.85238E+06        -0.20744E+07         0.00000E+00
    0.00000E+00         0.00000E+00         0.00000E+00
 
    0.39635E+06         0.87810E+06         0.00000E+00
    0.87810E+06        -0.20667E+07         0.00000E+00
    0.00000E+00         0.00000E+00         0.00000E+00
 
    0.37704E+06         0.90366E+06         0.00000E+00
    0.90366E+06        -0.20587E+07         0.00000E+00
    0.00000E+00         0.00000E+00         0.00000E+00
 
    0.35749E+06         0.92905E+06         0.00000E+00
    0.92905E+06        -0.20505E+07         0.00000E+00
    0.00000E+00         0.00000E+00         0.00000E+00
 
    0.33769E+06         0.95429E+06         0.00000E+00
    0.95429E+06        -0.20422E+07         0.00000E+00
    0.00000E+00         0.00000E+00         0.00000E+00
 
    0.31763E+06         0.97936E+06         0.00000E+00
    0.97936E+06        -0.20335E+07         0.00000E+00
    0.00000E+00         0.00000E+00         0.00000E+00
 
    0.29734E+06         0.10043E+07         0.00000E+00
    0.10043E+07        -0.20247E+07         0.00000E+00
    0.00000E+00         0.00000E+00         0.00000E+00
 
    0.27679E+06         0.10290E+07         0.00000E+00
    0.10290E+07        -0.20156E+07         0.00000E+00
    0.00000E+00         0.00000E+00         0.00000E+00
 
    0.25601E+06         0.10536E+07         0.00000E+00
    0.10536E+07        -0.20064E+07         0.00000E+00
    0.00000E+00         0.00000E+00         0.00000E+00
 
    0.23498E+06         0.10780E+07         0.00000E+00
    0.10780E+07        -0.19969E+07         0.00000E+00
    0.00000E+00         0.00000E+00         0.00000E+00
 
    0.21371E+06         0.11022E+07         0.00000E+00
    0.11022E+07        -0.19872E+07         0.00000E+00
    0.00000E+00         0.00000E+00         0.00000E+00
 
    0.19220E+06         0.11262E+07         0.00000E+00
    0.11262E+07        -0.19772E+07         0.00000E+00
    0.00000E+00         0.00000E+00         0.00000E+00
 
    0.17046E+06         0.11501E+07         0.00000E+00
    0.11501E+07        -0.19671E+07         0.00000E+00
    0.00000E+00         0.00000E+00         0.00000E+00
 
    0.14848E+06         0.11738E+07         0.00000E+00
    0.11738E+07        -0.19568E+07         0.00000E+00
    0.00000E+00         0.00000E+00         0.00000E+00
 
    0.12626E+06         0.11973E+07         0.00000E+00
    0.11973E+07        -0.19462E+07         0.00000E+00
    0.00000E+00         0.00000E+00         0.00000E+00
 
    0.10382E+06         0.12206E+07         0.00000E+00
    0.12206E+07        -0.19354E+07         0.00000E+00
    0.00000E+00         0.00000E+00         0.00000E+00
 
    0.81140E+05         0.12438E+07         0.00000E+00
    0.12438E+07        -0.19245E+07         0.00000E+00
    0.00000E+00         0.00000E+00         0.00000E+00
 
    0.58233E+05         0.12667E+07         0.00000E+00
    0.12667E+07        -0.19133E+07         0.00000E+00
    0.00000E+00         0.00000E+00         0.00000E+00
 
    0.35098E+05         0.12895E+07         0.00000E+00
    0.12895E+07        -0.19019E+07         0.00000E+00
    0.00000E+00         0.00000E+00         0.00000E+00
 
    0.11737E+05         0.13121E+07         0.00000E+00
    0.13121E+07        -0.18903E+07         0.00000E+00
    0.00000E+00         0.00000E+00         0.00000E+00
 
    0.89921E+06         0.15665E+05         0.00000E+00
    0.15665E+05        -0.23082E+07         0.00000E+00
    0.00000E+00         0.00000E+00         0.00000E+00
 
    0.88792E+06         0.46691E+05         0.00000E+00
    0.46691E+05        -0.23079E+07         0.00000E+00
    0.00000E+00         0.00000E+00         0.00000E+00
 
    0.87633E+06         0.77605E+05         0.00000E+00
    0.77605E+05        -0.23073E+07         0.00000E+00
    0.00000E+00         0.00000E+00         0.00000E+00
 
    0.86443E+06         0.10840E+06         0.00000E+00
    0.10840E+06        -0.23065E+07         0.00000E+00
    0.00000E+00         0.00000E+00         0.00000E+00
 
    0.85222E+06         0.13909E+06         0.00000E+00
    0.13909E+06        -0.23054E+07         0.00000E+00
    0.00000E+00         0.00000E+00         0.00000E+00
 
    0.83971E+06         0.16965E+06         0.00000E+00
    0.16965E+06        -0.23040E+07         0.00000E+00
    0.00000E+00         0.00000E+00         0.00000E+00
 
    0.82689E+06         0.20010E+06         0.00000E+00
    0.20010E+06        -0.23023E+07         0.00000E+00
    0.00000E+00         0.00000E+00         0.00000E+00
 
    0.81377E+06         0.23042E+06         0.00000E+00
    0.23042E+06        -0.23004E+07         0.00000E+00
    0.00000E+00         0.00000E+00         0.00000E+00
 
    0.80035E+06         0.26062E+06         0.00000E+00
    0.26062E+06        -0.22982E+07         0.00000E+00
    0.00000E+00         0.00000E+00         0.00000E+00
 
    0.78664E+06         0.29070E+06         0.00000E+00
    0.29070E+06        -0.22958E+07         0.00000E+00
    0.00000E+00         0.00000E+00         0.00000E+00
 
    0.77262E+06         0.32064E+06         0.00000E+00
    0.32064E+06        -0.22930E+07         0.00000E+00
    0.00000E+00         0.00000E+00         0.00000E+00
 
    0.75832E+06         0.35046E+06         0.00000E+00
    0.35046E+06        -0.22900E+07         0.00000E+00
    0.00000E+00         0.00000E+00         0.00000E+00
 
    0.74372E+06         0.38015E+06         0.00000E+00
    0.38015E+06        -0.22868E+07         0.00000E+00
    0.00000E+00         0.00000E+00         0.00000E+00
 
    0.72882E+06         0.40971E+06         0.00000E+00
    0.40971E+06        -0.22832E+07         0.00000E+00
    0.00000E+00         0.00000E+00         0.00000E+00
 
    0.71364E+06         0.43914E+06         0.00000E+00
    0.43914E+06        -0.22794E+07         0.00000E+00
    0.00000E+00         0.00000E+00         0.00000E+00
 
    0.69817E+06         0.46843E+06         0.00000E+00
    0.46843E+06        -0.22754E+07         0.00000E+00
    0.00000E+00         0.00000E+00         0.00000E+00
 
    0.68242E+06         0.49758E+06         0.00000E+00
    0.49758E+06        -0.22711E+07         0.00000E+00
    0.00000E+00         0.00000E+00         0.00000E+00
 
    0.66638E+06         0.52659E+06         0.00000E+00
    0.52659E+06        -0.22665E+07         0.00000E+00
    0.00000E+00         0.00000E+00         0.00000E+00
 
    0.65006E+06         0.55547E+06         0.00000E+00
    0.55547E+06        -0.22617E+07         0.00000E+00
    0.00000E+00         0.00000E+00         0.00000E+00
 
    0.63345E+06         0.58420E+06         0.00000E+00
    0.58420E+06        -0.22567E+07         0.00000E+00
    0.00000E+00         0.00000E+00         0.00000E+00
 
    0.61657E+06         0.61279E+06         0.00000E+00
    0.61279E+06        -0.22513E+07         0.00000E+00
    0.00000E+00         0.00000E+00         0.00000E+00
 
    0.59941E+06         0.64123E+06         0.00000E+00
    0.64123E+06        -0.22458E+07         0.00000E+00
    0.00000E+00         0.00000E+00         0.00000E+00
 
    0.58197E+06         0.66953E+06         0.00000E+00
    0.66953E+06        -0.22399E+07         0.00000E+00
    0.00000E+00         0.00000E+00         0.00000E+00
 
    0.56426E+06         0.69767E+06         0.00000E+00
    0.69767E+06        -0.22339E+07         0.00000E+00
    0.00000E+00         0.00000E+00         0.00000E+00
 
    0.54627E+06         0.72567E+06         0.00000E+00
    0.72567E+06        -0.22276E+07         0.00000E+00
    0.00000E+00         0.00000E+00         0.00000E+00
 
    0.52802E+06         0.75352E+06         0.00000E+00
    0.75352E+06        -0.22210E+07         0.00000E+00
    0.00000E+00         0.00000E+00         0.00000E+00
 
    0.50949E+06         0.78121E+06         0.00000E+00
    0.78121E+06        -0.22142E+07         0.00000E+00
    0.00000E+00         0.00000E+00         0.00000E+00
 
    0.49069E+06         0.80874E+06         0.00000E+00
    0.80874E+06        -0.22071E+07         0.00000E+00
    0.00000E+00         0.00000E+00         0.00000E+00
 
    0.47163E+06         0.83612E+06         0.00000E+00
    0.83612E+06        -0.21998E+07         0.00000E+00
    0.00000E+00         0.00000E+00         0.00000E+00
 
    0.45230E+06         0.86334E+06         0.00000E+00
    0.86334E+06        -0.21923E+07         0.00000E+00
    0.00000E+00         0.00000E+00         0.00000E+00
 
    0.43270E+06         0.89040E+06         0.00000E+00
    0.89040E+06        -0.21845E+07         0.00000E+00
    0.00000E+00         0.00000E+00         0.00000E+00
 
    0.41285E+06         0.91730E+06         0.00000E+00
    0.91730E+06        -0.21765E+07         0.00000E+00
    0.00000E+00         0.00000E+00         0.00000E+00
 
    0.39273E+06         0.94404E+06         0.00000E+00
    0.94404E+06        -0.21683E+07         0.00000E+00
    0.00000E+00         0.00000E+00         0.00000E+00
 
    0.37235E+06         0.97061E+06         0.00000E+00
    0.97061E+06        -0.21598E+07         0.00000E+00
    0.00000E+00         0.00000E+00         0.00000E+00
 
    0.35172E+06         0.99701E+06         0.00000E+00
    0.99701E+06        -0.21511E+07         0.00000E+00
    0.00000E+00         0.00000E+00         0.00000E+00
 
    0.33083E+06         0.10232E+07         0.00000E+00
    0.10232E+07        -0.21421E+07         0.00000E+00
    0.00000E+00         0.00000E+00         0.00000E+00
 
    0.30968E+06         0.10493E+07         0.00000E+00
    0.10493E+07        -0.21329E+07         0.00000E+00
    0.00000E+00         0.00000E+00         0.00000E+00
 
    0.28828E+06         0.10752E+07         0.00000E+00
    0.10752E+07        -0.21235E+07         0.00000E+00
    0.00000E+00         0.00000E+00         0.00000E+00
 
    0.26662E+06         0.11009E+07         0.00000E+00
    0.11009E+07        -0.21139E+07         0.00000E+00
    0.00000E+00         0.00000E+00         0.00000E+00
 
    0.24472E+06         0.11264E+07         0.00000E+00
    0.11264E+07        -0.21040E+07         0.00000E+00
    0.00000E+00         0.00000E+00         0.00000E+00
 
    0.22257E+06         0.11518E+07         0.00000E+00
    0.11518E+07        -0.20939E+07         0.00000E+00
    0.00000E+00         0.00000E+00         0.00000E+00
 
    0.20017E+06         0.11770E+07         0.00000E+00
    0.11770E+07        -0.20836E+07         0.00000E+00
    0.00000E+00         0.00000E+00         0.00000E+00
 
    0.17752E+06         0.12020E+07         0.00000E+00
    0.12020E+07        -0.20731E+07         0.00000E+00
    0.00000E+00         0.00000E+00         0.00000E+00
 
    0.15463E+06         0.12268E+07         0.00000E+00
    0.12268E+07        -0.20623E+07         0.00000E+00
    0.00000E+00         0.00000E+00         0.00000E+00
 
    0.13149E+06         0.12514E+07         0.00000E+00
    0.12514E+07        -0.20513E+07         0.00000E+00
    0.00000E+00         0.00000E+00         0.00000E+00
 
    0.10812E+06         0.12759E+07         0.00000E+00
    0.12759E+07        -0.20401E+07         0.00000E+00
    0.00000E+00         0.00000E+00         0.00000E+00
 
    0.84500E+05         0.13001E+07         0.00000E+00
    0.13001E+07        -0.20287E+07         0.00000E+00
    0.00000E+00         0.00000E+00         0.00000E+00
 
    0.60644E+05         0.13242E+07         0.00000E+00
    0.13242E+07        -0.20171E+07         0.00000E+00
    0.00000E+00         0.00000E+00         0.00000E+00
 
    0.36551E+05         0.13480E+07         0.00000E+00
    0.13480E+07        -0.20052E+07         0.00000E+00
    0.00000E+00         0.00000E+00         0.00000E+00
 
    0.12223E+05         0.13717E+07         0.00000E+00
    0.13717E+07        -0.19931E+07         0.00000E+00
    0.00000E+00         0.00000E+00         0.00000E+00
 
    0.93785E+06         0.16351E+05         0.00000E+00
    0.16351E+05        -0.24283E+07         0.00000E+00
    0.00000E+00         0.00000E+00         0.00000E+00
 
    0.92600E+06         0.48736E+05         0.00000E+00
    0.48736E+05        -0.24281E+07         0.00000E+00
    0.00000E+00         0.00000E+00         0.00000E+00
 
    0.91382E+06         0.81004E+05         0.00000E+00
    0.81004E+05        -0.24275E+07         0.00000E+00
    0.00000E+00         0.00000E+00         0.00000E+00
 
    0.90133E+06         0.11315E+06         0.00000E+00
    0.11315E+06        -0.24266E+07         0.00000E+00
    0.00000E+00         0.00000E+00         0.00000E+00
 
    0.88853E+06         0.14518E+06         0.00000E+00
    0.14518E+06        -0.24255E+07         0.00000E+00
    0.00000E+00         0.00000E+00         0.00000E+00
 
    0.87541E+06         0.17708E+06         0.00000E+00
    0.17708E+06        -0.24240E+07         0.00000E+00
    0.00000E+00         0.00000E+00         0.00000E+00
 
    0.86197E+06         0.20887E+06         0.00000E+00
    0.20887E+06        -0.24223E+07         0.00000E+00
    0.00000E+00         0.00000E+00         0.00000E+00
 
    0.84823E+06         0.24052E+06         0.00000E+00
    0.24052E+06        -0.24203E+07         0.00000E+00
    0.00000E+00         0.00000E+00         0.00000E+00
 
    0.83418E+06         0.27205E+06         0.00000E+00
    0.27205E+06        -0.24180E+07         0.00000E+00
    0.00000E+00         0.00000E+00         0.00000E+00
 
    0.81982E+06         0.30344E+06         0.00000E+00
    0.30344E+06        -0.24155E+07         0.00000E+00
    0.00000E+00         0.00000E+00         0.00000E+00
 
    0.80516E+06         0.33471E+06         0.00000E+00
    0.33471E+06        -0.24126E+07         0.00000E+00
    0.00000E+00         0.00000E+00         0.00000E+00
 
    0.79019E+06         0.36584E+06         0.00000E+00
    0.36584E+06        -0.24095E+07         0.00000E+00
    0.00000E+00         0.00000E+00         0.00000E+00
 
    0.77493E+06         0.39684E+06         0.00000E+00
    0.39684E+06        -0.24062E+07         0.00000E+00
    0.00000E+00         0.00000E+00         0.00000E+00
 
    0.75936E+06         0.42770E+06         0.00000E+00
    0.42770E+06        -0.24025E+07         0.00000E+00
    0.00000E+00         0.00000E+00         0.00000E+00
 
    0.74350E+06         0.45843E+06         0.00000E+00
    0.45843E+06        -0.23986E+07         0.00000E+00
    0.00000E+00         0.00000E+00         0.00000E+00
 
    0.72733E+06         0.48901E+06         0.00000E+00
    0.48901E+06        -0.23944E+07         0.00000E+00
    0.00000E+00         0.00000E+00         0.00000E+00
 
    0.71088E+06         0.51945E+06         0.00000E+00
    0.51945E+06        -0.23899E+07         0.00000E+00
    0.00000E+00         0.00000E+00         0.00000E+00
 
    0.69413E+06         0.54975E+06         0.00000E+00
    0.54975E+06        -0.23852E+07         0.00000E+00
    0.00000E+00         0.00000E+00         0.00000E+00
 
    0.67709E+06         0.57991E+06         0.00000E+00
    0.57991E+06        -0.23802E+07         0.00000E+00
    0.00000E+00         0.00000E+00         0.00000E+00
 
    0.65976E+06         0.60992E+06         0.00000E+00
    0.60992E+06        -0.23750E+07         0.00000E+00
    0.00000E+00         0.00000E+00         0.00000E+00
 
    0.64214E+06         0.63978E+06         0.00000E+00
    0.63978E+06        -0.23695E+07         0.00000E+00
    0.00000E+00         0.00000E+00         0.00000E+00
 
    0.62424E+06         0.66949E+06         0.00000E+00
    0.66949E+06        -0.23637E+07         0.00000E+00
    0.00000E+00         0.00000E+00         0.00000E+00
 
    0.60605E+06         0.69906E+06         0.00000E+00
    0.69906E+06        -0.23576E+07         0.00000E+00
    0.00000E+00         0.00000E+00         0.00000E+00
 
    0.58758E+06         0.72847E+06         0.00000E+00
    0.72847E+06        -0.23514E+07         0.00000E+00
    0.00000E+00         0.00000E+00         0.00000E+00
 
    0.56882E+06         0.75772E+06         0.00000E+00
    0.75772E+06        -0.23448E+07         0.00000E+00
    0.00000E+00         0.00000E+00         0.00000E+00
 
    0.54979E+06         0.78682E+06         0.00000E+00
    0.78682E+06        -0.23380E+07         0.00000E+00
    0.00000E+00         0.00000E+00         0.00000E+00
 
    0.53048E+06         0.81576E+06         0.00000E+00
    0.81576E+06        -0.23309E+07         0.00000E+00
    0.00000E+00         0.00000E+00         0.00000E+00
 
    0.51089E+06         0.84454E+06         0.00000E+00
    0.84454E+06        -0.23236E+07         0.00000E+00
    0.00000E+00         0.00000E+00         0.00000E+00
 
    0.49102E+06         0.87316E+06         0.00000E+00
    0.87316E+06        -0.23161E+07         0.00000E+00
    0.00000E+00         0.00000E+00         0.00000E+00
 
    0.47088E+06         0.90162E+06         0.00000E+00
    0.90162E+06        -0.23083E+07         0.00000E+00
    0.00000E+00         0.00000E+00         0.00000E+00
 
    0.45047E+06         0.92991E+06         0.00000E+00
    0.92991E+06        -0.23002E+07         0.00000E+00
    0.00000E+00         0.00000E+00         0.00000E+00
 
    0.42978E+06         0.95804E+06         0.00000E+00
    0.95804E+06        -0.22919E+07         0.00000E+00
    0.00000E+00         0.00000E+00         0.00000E+00
 
    0.40883E+06         0.98599E+06         0.00000E+00
    0.98599E+06        -0.22833E+07         0.00000E+00
    0.00000E+00         0.00000E+00         0.00000E+00
 
    0.38761E+06         0.10138E+07         0.00000E+00
    0.10138E+07        -0.22745E+07         0.00000E+00
    0.00000E+00         0.00000E+00         0.00000E+00
 
    0.36612E+06         0.10414E+07         0.00000E+00
    0.10414E+07        -0.22655E+07         0.00000E+00
    0.00000E+00         0.00000E+00         0.00000E+00
 
    0.34436E+06         0.10688E+07         0.00000E+00
    0.10688E+07        -0.22562E+07         0.00000E+00
    0.00000E+00         0.00000E+00         0.00000E+00
 
    0.32234E+06         0.10961E+07         0.00000E+00
    0.10961E+07        -0.22466E+07         0.00000E+00
    0.00000E+00         0.00000E+00         0.00000E+00
 
    0.30006E+06         0.11232E+07         0.00000E+00
    0.11232E+07        -0.22369E+07         0.00000E+00
    0.00000E+00         0.00000E+00         0.00000E+00
 
    0.27752E+06         0.11501E+07         0.00000E+00
    0.11501E+07        -0.22269E+07         0.00000E+00
    0.00000E+00         0.00000E+00         0.00000E+00
 
    0.25472E+06         0.11768E+07         0.00000E+00
    0.11768E+07        -0.22166E+07         0.00000E+00
    0.00000E+00         0.00000E+00         0.00000E+00
 
    0.23166E+06         0.12034E+07         0.00000E+00
    0.12034E+07        -0.22061E+07         0.00000E+00
    0.00000E+00         0.00000E+00         0.00000E+00
 
    0.20834E+06         0.12298E+07         0.00000E+00
    0.12298E+07        -0.21954E+07         0.00000E+00
    0.00000E+00         0.00000E+00         0.00000E+00
 
    0.18477E+06         0.12559E+07         0.00000E+00
    0.12559E+07        -0.21844E+07         0.00000E+00
    0.00000E+00         0.00000E+00         0.00000E+00
 
    0.16094E+06         0.12819E+07         0.00000E+00
    0.12819E+07        -0.21733E+07         0.00000E+00
    0.00000E+00         0.00000E+00         0.00000E+00
 
    0.13686E+06         0.13077E+07         0.00000E+00
    0.13077E+07        -0.21618E+07         0.00000E+00
    0.00000E+00         0.00000E+00         0.00000E+00
 
    0.11253E+06         0.13333E+07         0.00000E+00
    0.13333E+07        -0.21502E+07         0.00000E+00
    0.00000E+00         0.00000E+00         0.00000E+00
 
    0.87948E+05         0.13588E+07         0.00000E+00
    0.13588E+07        -0.21383E+07         0.00000E+00
    0.00000E+00         0.00000E+00         0.00000E+00
 
    0.63119E+05         0.13840E+07         0.00000E+00
    0.13840E+07        -0.21262E+07         0.00000E+00
    0.00000E+00         0.00000E+00         0.00000E+00
 
    0.38043E+05         0.14090E+07         0.00000E+00
    0.14090E+07        -0.21139E+07         0.00000E+00
    0.00000E+00         0.00000E+00         0.00000E+00
 
    0.12722E+05         0.14338E+07         0.00000E+00
    0.14338E+07        -0.21013E+07         0.00000E+00
    0.00000E+00         0.00000E+00         0.00000E+00
 
    0.97760E+06         0.17062E+05         0.00000E+00
    0.17062E+05        -0.25543E+07         0.00000E+00
    0.00000E+00         0.00000E+00         0.00000E+00
 
    0.96516E+06         0.50856E+05         0.00000E+00
    0.50856E+05        -0.25540E+07         0.00000E+00
    0.00000E+00         0.00000E+00         0.00000E+00
 
    0.95238E+06         0.84528E+05         0.00000E+00
    0.84528E+05        -0.25534E+07         0.00000E+00
    0.00000E+00         0.00000E+00         0.00000E+00
 
    0.93928E+06         0.11808E+06         0.00000E+00
    0.11808E+06        -0.25525E+07         0.00000E+00
    0.00000E+00         0.00000E+00         0.00000E+00
 
    0.92585E+06         0.15150E+06         0.00000E+00
    0.15150E+06        -0.25513E+07         0.00000E+00
    0.00000E+00         0.00000E+00         0.00000E+00
 
    0.91210E+06         0.18479E+06         0.00000E+00
    0.18479E+06        -0.25498E+07         0.00000E+00
    0.00000E+00         0.00000E+00         0.00000E+00
 
    0.89803E+06         0.21796E+06         0.00000E+00
    0.21796E+06        -0.25481E+07         0.00000E+00
    0.00000E+00         0.00000E+00         0.00000E+00
 
    0.88364E+06         0.25099E+06         0.00000E+00
    0.25099E+06        -0.25460E+07         0.00000E+00
    0.00000E+00         0.00000E+00         0.00000E+00
 
    0.86893E+06         0.28389E+06         0.00000E+00
    0.28389E+06        -0.25437E+07         0.00000E+00
    0.00000E+00         0.00000E+00         0.00000E+00
 
    0.85391E+06         0.31666E+06         0.00000E+00
    0.31666E+06        -0.25410E+07         0.00000E+00
    0.00000E+00         0.00000E+00         0.00000E+00
 
    0.83857E+06         0.34929E+06         0.00000E+00
    0.34929E+06        -0.25381E+07         0.00000E+00
    0.00000E+00         0.00000E+00         0.00000E+00
 
    0.82292E+06         0.38178E+06         0.00000E+00
    0.38178E+06        -0.25349E+07         0.00000E+00
    0.00000E+00         0.00000E+00         0.00000E+00
 
    0.80697E+06         0.41414E+06         0.00000E+00
    0.41414E+06        -0.25314E+07         0.00000E+00
    0.00000E+00         0.00000E+00         0.00000E+00
 
    0.79070E+06         0.44635E+06         0.00000E+00
    0.44635E+06        -0.25276E+07         0.00000E+00
    0.00000E+00         0.00000E+00         0.00000E+00
 
    0.77413E+06         0.47843E+06         0.00000E+00
    0.47843E+06        -0.25235E+07         0.00000E+00
    0.00000E+00         0.00000E+00         0.00000E+00
 
    0.75725E+06         0.51035E+06         0.00000E+00
    0.51035E+06        -0.25192E+07         0.00000E+00
    0.00000E+00         0.00000E+00         0.00000E+00
 
    0.74008E+06         0.54214E+06         0.00000E+00
    0.54214E+06        -0.25146E+07         0.00000E+00
    0.00000E+00         0.00000E+00         0.00000E+00
 
    0.72260E+06         0.57377E+06         0.00000E+00
    0.57377E+06        -0.25097E+07         0.00000E+00
    0.00000E+00         0.00000E+00         0.00000E+00
 
    0.70482E+06         0.60526E+06         0.00000E+00
    0.60526E+06        -0.25045E+07         0.00000E+00
    0.00000E+00         0.00000E+00         0.00000E+00
 
    0.68674E+06         0.63660E+06         0.00000E+00
    0.63660E+06        -0.24991E+07         0.00000E+00
    0.00000E+00         0.00000E+00         0.00000E+00
 
    0.66837E+06         0.66778E+06         0.00000E+00
    0.66778E+06        -0.24934E+07         0.00000E+00
    0.00000E+00         0.00000E+00         0.00000E+00
 
    0.64970E+06         0.69882E+06         0.00000E+00
    0.69882E+06        -0.24874E+07         0.00000E+00
    0.00000E+00         0.00000E+00         0.00000E+00
 
    0.63074E+06         0.72969E+06         0.00000E+00
    0.72969E+06        -0.24812E+07         0.00000E+00
    0.00000E+00         0.00000E+00         0.00000E+00
 
    0.61148E+06         0.76041E+06         0.00000E+00
    0.76041E+06        -0.24746E+07         0.00000E+00
    0.00000E+00         0.00000E+00         0.00000E+00
 
    0.59194E+06         0.79097E+06         0.00000E+00
    0.79097E+06        -0.24679E+07         0.00000E+00
    0.00000E+00         0.00000E+00         0.00000E+00
 
    0.57211E+06         0.82137E+06         0.00000E+00
    0.82137E+06        -0.24608E+07         0.00000E+00
    0.00000E+00         0.00000E+00         0.00000E+00
 
    0.55199E+06         0.85161E+06         0.00000E+00
    0.85161E+06        -0.24535E+07         0.00000E+00
    0.00000E+00         0.00000E+00         0.00000E+00
 
    0.53159E+06         0.88169E+06         0.00000E+00
    0.88169E+06        -0.24459E+07         0.00000E+00
    0.00000E+00         0.00000E+00         0.00000E+00
 
    0.51090E+06         0.91160E+06         0.00000E+00
    0.91160E+06        -0.24381E+07         0.00000E+00
    0.00000E+00         0.00000E+00         0.00000E+00
 
    0.48992E+06         0.94134E+06         0.00000E+00
    0.94134E+06        -0.24300E+07         0.00000E+00
    0.00000E+00         0.00000E+00         0.00000E+00
 
    0.46867E+06         0.97092E+06         0.00000E+00
    0.97092E+06        -0.24216E+07         0.00000E+00
    0.00000E+00         0.00000E+00         0.00000E+00
 
    0.44714E+06         0.10003E+07         0.00000E+00
    0.10003E+07        -0.24130E+07         0.00000E+00
    0.00000E+00         0.00000E+00         0.00000E+00
 
    0.42533E+06         0.10296E+07         0.00000E+00
    0.10296E+07        -0.24041E+07         0.00000E+00
    0.00000E+00         0.00000E+00         0.00000E+00
 
    0.40324E+06         0.10586E+07         0.00000E+00
    0.10586E+07        -0.23950E+07         0.00000E+00
    0.00000E+00         0.00000E+00         0.00000E+00
 
    0.38087E+06         0.10875E+07         0.00000E+00
    0.10875E+07        -0.23856E+07         0.00000E+00
    0.00000E+00         0.00000E+00         0.00000E+00
 
    0.35823E+06         0.11162E+07         0.00000E+00
    0.11162E+07        -0.23760E+07         0.00000E+00
    0.00000E+00         0.00000E+00         0.00000E+00
 
    0.33532E+06         0.11447E+07         0.00000E+00
    0.11447E+07        -0.23661E+07         0.00000E+00
    0.00000E+00         0.00000E+00         0.00000E+00
 
    0.31214E+06         0.11731E+07         0.00000E+00
    0.11731E+07        -0.23559E+07         0.00000E+00
    0.00000E+00         0.00000E+00         0.00000E+00
 
    0.28868E+06         0.12012E+07         0.00000E+00
    0.12012E+07        -0.23455E+07         0.00000E+00
    0.00000E+00         0.00000E+00         0.00000E+00
 
    0.26496E+06         0.12292E+07         0.00000E+00
    0.12292E+07        -0.23349E+07         0.00000E+00
    0.00000E+00         0.00000E+00         0.00000E+00
 
    0.24097E+06         0.12570E+07         0.00000E+00
    0.12570E+07        -0.23240E+07         0.00000E+00
    0.00000E+00         0.00000E+00         0.00000E+00
 
    0.21671E+06         0.12846E+07         0.00000E+00
    0.12846E+07        -0.23129E+07         0.00000E+00
    0.00000E+00         0.00000E+00         0.00000E+00
 
    0.19219E+06         0.13120E+07         0.00000E+00
    0.13120E+07        -0.23015E+07         0.00000E+00
    0.00000E+00         0.00000E+00         0.00000E+00
 
    0.16740E+06         0.13392E+07         0.00000E+00
    0.13392E+07        -0.22899E+07         0.00000E+00
    0.00000E+00         0.00000E+00         0.00000E+00
 
    0.14236E+06         0.13663E+07         0.00000E+00
    0.13663E+07        -0.22780E+07         0.00000E+00
    0.00000E+00         0.00000E+00         0.00000E+00
 
    0.11705E+06         0.13931E+07         0.00000E+00
    0.13931E+07        -0.22659E+07         0.00000E+00
    0.00000E+00         0.00000E+00         0.00000E+00
 
    0.91480E+05         0.14197E+07         0.00000E+00
    0.14197E+07        -0.22536E+07         0.00000E+00
    0.00000E+00         0.00000E+00         0.00000E+00
 
    0.65654E+05         0.14462E+07         0.00000E+00
    0.14462E+07        -0.22410E+07         0.00000E+00
    0.00000E+00         0.00000E+00         0.00000E+00
 
    0.39571E+05         0.14724E+07         0.00000E+00
    0.14724E+07        -0.22282E+07         0.00000E+00
    0.00000E+00         0.00000E+00         0.00000E+00
 
    0.13233E+05         0.14984E+07         0.00000E+00
    0.14984E+07        -0.22151E+07         0.00000E+00
    0.00000E+00         0.00000E+00         0.00000E+00
 
    0.10184E+07         0.17799E+05         0.00000E+00
    0.17799E+05        -0.26864E+07         0.00000E+00
    0.00000E+00         0.00000E+00         0.00000E+00
 
    0.10054E+07         0.53053E+05         0.00000E+00
    0.53053E+05        -0.26861E+07         0.00000E+00
    0.00000E+00         0.00000E+00         0.00000E+00
 
    0.99197E+06         0.88178E+05         0.00000E+00
    0.88178E+05        -0.26855E+07         0.00000E+00
    0.00000E+00         0.00000E+00         0.00000E+00
 
    0.97823E+06         0.12317E+06         0.00000E+00
    0.12317E+06        -0.26845E+07         0.00000E+00
    0.00000E+00         0.00000E+00         0.00000E+00
 
    0.96415E+06         0.15804E+06         0.00000E+00
    0.15804E+06        -0.26833E+07         0.00000E+00
    0.00000E+00         0.00000E+00         0.00000E+00
 
    0.94975E+06         0.19277E+06         0.00000E+00
    0.19277E+06        -0.26818E+07         0.00000E+00
    0.00000E+00         0.00000E+00         0.00000E+00
 
    0.93501E+06         0.22737E+06         0.00000E+00
    0.22737E+06        -0.26799E+07         0.00000E+00
    0.00000E+00         0.00000E+00         0.00000E+00
 
    0.91995E+06         0.26184E+06         0.00000E+00
    0.26184E+06        -0.26778E+07         0.00000E+00
    0.00000E+00         0.00000E+00         0.00000E+00
 
    0.90456E+06         0.29616E+06         0.00000E+00
    0.29616E+06        -0.26754E+07         0.00000E+00
    0.00000E+00         0.00000E+00         0.00000E+00
 
    0.88885E+06         0.33035E+06         0.00000E+00
    0.33035E+06        -0.26726E+07         0.00000E+00
    0.00000E+00         0.00000E+00         0.00000E+00
 
    0.87282E+06         0.36440E+06         0.00000E+00
    0.36440E+06        -0.26696E+07         0.00000E+00
    0.00000E+00         0.00000E+00         0.00000E+00
 
    0.85647E+06         0.39830E+06         0.00000E+00
    0.39830E+06        -0.26663E+07         0.00000E+00
    0.00000E+00         0.00000E+00         0.00000E+00
 
    0.83980E+06         0.43206E+06         0.00000E+00
    0.43206E+06        -0.26627E+07         0.00000E+00
    0.00000E+00         0.00000E+00         0.00000E+00
 
    0.82281E+06         0.46568E+06         0.00000E+00
    0.46568E+06        -0.26588E+07         0.00000E+00
    0.00000E+00         0.00000E+00         0.00000E+00
 
    0.80551E+06         0.49915E+06         0.00000E+00
    0.49915E+06        -0.26546E+07         0.00000E+00
    0.00000E+00         0.00000E+00         0.00000E+00
 
    0.78790E+06         0.53247E+06         0.00000E+00
    0.53247E+06        -0.26501E+07         0.00000E+00
    0.00000E+00         0.00000E+00         0.00000E+00
 
    0.76998E+06         0.56564E+06         0.00000E+00
    0.56564E+06        -0.26453E+07         0.00000E+00
    0.00000E+00         0.00000E+00         0.00000E+00
 
    0.75175E+06         0.59866E+06         0.00000E+00
    0.59866E+06        -0.26403E+07         0.00000E+00
    0.00000E+00         0.00000E+00         0.00000E+00
 
    0.73321E+06         0.63153E+06         0.00000E+00
    0.63153E+06        -0.26349E+07         0.00000E+00
    0.00000E+00         0.00000E+00         0.00000E+00
 
    0.71436E+06         0.66425E+06         0.00000E+00
    0.66425E+06        -0.26293E+07         0.00000E+00
    0.00000E+00         0.00000E+00         0.00000E+00
 
    0.69521E+06         0.69680E+06         0.00000E+00
    0.69680E+06        -0.26234E+07         0.00000E+00
    0.00000E+00         0.00000E+00         0.00000E+00
 
    0.67576E+06         0.72921E+06         0.00000E+00
    0.72921E+06        -0.26172E+07         0.00000E+00
    0.00000E+00         0.00000E+00         0.00000E+00
 
    0.65600E+06         0.76145E+06         0.00000E+00
    0.76145E+06        -0.26107E+07         0.00000E+00
    0.00000E+00         0.00000E+00         0.00000E+00
 
    0.63595E+06         0.79353E+06         0.00000E+00
    0.79353E+06        -0.26040E+07         0.00000E+00
    0.00000E+00         0.00000E+00         0.00000E+00
 
    0.61559E+06         0.82545E+06         0.00000E+00
    0.82545E+06        -0.25970E+07         0.00000E+00
    0.00000E+00         0.00000E+00         0.00000E+00
 
    0.59494E+06         0.85720E+06         0.00000E+00
    0.85720E+06        -0.25897E+07         0.00000E+00
    0.00000E+00         0.00000E+00         0.00000E+00
 
    0.57400E+06         0.88879E+06         0.00000E+00
    0.88879E+06        -0.25821E+07         0.00000E+00
    0.00000E+00         0.00000E+00         0.00000E+00
 
    0.55276E+06         0.92021E+06         0.00000E+00
    0.92021E+06        -0.25743E+07         0.00000E+00
    0.00000E+00         0.00000E+00         0.00000E+00
 
    0.53122E+06         0.95146E+06         0.00000E+00
    0.95146E+06        -0.25662E+07         0.00000E+00
    0.00000E+00         0.00000E+00         0.00000E+00
 
    0.50940E+06         0.98255E+06         0.00000E+00
    0.98255E+06        -0.25578E+07         0.00000E+00
    0.00000E+00         0.00000E+00         0.00000E+00
 
    0.48729E+06         0.10135E+07         0.00000E+00
    0.10135E+07        -0.25491E+07         0.00000E+00
    0.00000E+00         0.00000E+00         0.00000E+00
 
    0.46488E+06         0.10442E+07         0.00000E+00
    0.10442E+07        -0.25402E+07         0.00000E+00
    0.00000E+00         0.00000E+00         0.00000E+00
 
    0.44219E+06         0.10748E+07         0.00000E+00
    0.10748E+07        -0.25310E+07         0.00000E+00
    0.00000E+00         0.00000E+00         0.00000E+00
 
    0.41922E+06         0.11051E+07         0.00000E+00
    0.11051E+07        -0.25215E+07         0.00000E+00
    0.00000E+00         0.00000E+00         0.00000E+00
 
    0.39596E+06         0.11353E+07         0.00000E+00
    0.11353E+07        -0.25118E+07         0.00000E+00
    0.00000E+00         0.00000E+00         0.00000E+00
 
    0.37241E+06         0.11654E+07         0.00000E+00
    0.11654E+07        -0.25018E+07         0.00000E+00
    0.00000E+00         0.00000E+00         0.00000E+00
 
    0.34859E+06         0.11952E+07         0.00000E+00
    0.11952E+07        -0.24916E+07         0.00000E+00
    0.00000E+00         0.00000E+00         0.00000E+00
 
    0.32448E+06         0.12249E+07         0.00000E+00
    0.12249E+07        -0.24810E+07         0.00000E+00
    0.00000E+00         0.00000E+00         0.00000E+00
 
    0.30009E+06         0.12543E+07         0.00000E+00
    0.12543E+07        -0.24703E+07         0.00000E+00
    0.00000E+00         0.00000E+00         0.00000E+00
 
    0.27543E+06         0.12836E+07         0.00000E+00
    0.12836E+07        -0.24592E+07         0.00000E+00
    0.00000E+00         0.00000E+00         0.00000E+00
 
    0.25049E+06         0.13127E+07         0.00000E+00
    0.13127E+07        -0.24479E+07         0.00000E+00
    0.00000E+00         0.00000E+00         0.00000E+00
 
    0.22527E+06         0.13416E+07         0.00000E+00
    0.13416E+07        -0.24364E+07         0.00000E+00
    0.00000E+00         0.00000E+00         0.00000E+00
 
    0.19978E+06         0.13703E+07         0.00000E+00
    0.13703E+07        -0.24246E+07         0.00000E+00
    0.00000E+00         0.00000E+00         0.00000E+00
 
    0.17401E+06         0.13988E+07         0.00000E+00
    0.13988E+07        -0.24125E+07         0.00000E+00
    0.00000E+00         0.00000E+00         0.00000E+00
 
    0.14798E+06         0.14271E+07         0.00000E+00
    0.14271E+07        -0.24002E+07         0.00000E+00
    0.00000E+00         0.00000E+00         0.00000E+00
 
    0.12167E+06         0.14552E+07         0.00000E+00
    0.14552E+07        -0.23876E+07         0.00000E+00
    0.00000E+00         0.00000E+00         0.00000E+00
 
    0.95091E+05         0.14831E+07         0.00000E+00
    0.14831E+07        -0.23748E+07         0.00000E+00
    0.00000E+00         0.00000E+00         0.00000E+00
 
    0.68246E+05         0.15108E+07         0.00000E+00
    0.15108E+07        -0.23617E+07         0.00000E+00
    0.00000E+00         0.00000E+00         0.00000E+00
 
    0.41133E+05         0.15383E+07         0.00000E+00
    0.15383E+07        -0.23484E+07         0.00000E+00
    0.00000E+00         0.00000E+00         0.00000E+00
 
    0.13755E+05         0.15656E+07         0.00000E+00
    0.15656E+07        -0.23348E+07         0.00000E+00
    0.00000E+00         0.00000E+00         0.00000E+00
 
    0.10603E+07         0.18562E+05         0.00000E+00
    0.18562E+05        -0.28249E+07         0.00000E+00
    0.00000E+00         0.00000E+00         0.00000E+00
 
    0.10466E+07         0.55325E+05         0.00000E+00
    0.55325E+05        -0.28245E+07         0.00000E+00
    0.00000E+00         0.00000E+00         0.00000E+00
 
    0.10325E+07         0.91955E+05         0.00000E+00
    0.91955E+05        -0.28239E+07         0.00000E+00
    0.00000E+00         0.00000E+00         0.00000E+00
 
    0.10181E+07         0.12845E+06         0.00000E+00
    0.12845E+06        -0.28230E+07         0.00000E+00
    0.00000E+00         0.00000E+00         0.00000E+00
 
    0.10034E+07         0.16481E+06         0.00000E+00
    0.16481E+06        -0.28217E+07         0.00000E+00
    0.00000E+00         0.00000E+00         0.00000E+00
 
    0.98831E+06         0.20103E+06         0.00000E+00
    0.20103E+06        -0.28201E+07         0.00000E+00
    0.00000E+00         0.00000E+00         0.00000E+00
 
    0.97289E+06         0.23712E+06         0.00000E+00
    0.23712E+06        -0.28182E+07         0.00000E+00
    0.00000E+00         0.00000E+00         0.00000E+00
 
    0.95713E+06         0.27306E+06         0.00000E+00
    0.27306E+06        -0.28160E+07         0.00000E+00
    0.00000E+00         0.00000E+00         0.00000E+00
 
    0.94104E+06         0.30886E+06         0.00000E+00
    0.30886E+06        -0.28135E+07         0.00000E+00
    0.00000E+00         0.00000E+00         0.00000E+00
 
    0.92462E+06         0.34452E+06         0.00000E+00
    0.34452E+06        -0.28107E+07         0.00000E+00
    0.00000E+00         0.00000E+00         0.00000E+00
 
    0.90786E+06         0.38003E+06         0.00000E+00
    0.38003E+06        -0.28075E+07         0.00000E+00
    0.00000E+00         0.00000E+00         0.00000E+00
 
    0.89079E+06         0.41539E+06         0.00000E+00
    0.41539E+06        -0.28041E+07         0.00000E+00
    0.00000E+00         0.00000E+00         0.00000E+00
 
    0.87338E+06         0.45061E+06         0.00000E+00
    0.45061E+06        -0.28004E+07         0.00000E+00
    0.00000E+00         0.00000E+00         0.00000E+00
 
    0.85565E+06         0.48568E+06         0.00000E+00
    0.48568E+06        -0.27963E+07         0.00000E+00
    0.00000E+00         0.00000E+00         0.00000E+00
 
    0.83760E+06         0.52060E+06         0.00000E+00
    0.52060E+06        -0.27920E+07         0.00000E+00
    0.00000E+00         0.00000E+00         0.00000E+00
 
    0.81923E+06         0.55536E+06         0.00000E+00
    0.55536E+06        -0.27874E+07         0.00000E+00
    0.00000E+00         0.00000E+00         0.00000E+00
 
    0.80054E+06         0.58998E+06         0.00000E+00
    0.58998E+06        -0.27825E+07         0.00000E+00
    0.00000E+00         0.00000E+00         0.00000E+00
 
    0.78154E+06         0.62443E+06         0.00000E+00
    0.62443E+06        -0.27772E+07         0.00000E+00
    0.00000E+00         0.00000E+00         0.00000E+00
 
    0.76221E+06         0.65873E+06         0.00000E+00
    0.65873E+06        -0.27717E+07         0.00000E+00
    0.00000E+00         0.00000E+00         0.00000E+00
 
    0.74258E+06         0.69287E+06         0.00000E+00
    0.69287E+06        -0.27659E+07         0.00000E+00
    0.00000E+00         0.00000E+00         0.00000E+00
 
    0.72263E+06         0.72686E+06         0.00000E+00
    0.72686E+06        -0.27598E+07         0.00000E+00
    0.00000E+00         0.00000E+00         0.00000E+00
 
    0.70237E+06         0.76068E+06         0.00000E+00
    0.76068E+06        -0.27534E+07         0.00000E+00
    0.00000E+00         0.00000E+00         0.00000E+00
 
    0.68180E+06         0.79433E+06         0.00000E+00
    0.79433E+06        -0.27467E+07         0.00000E+00
    0.00000E+00         0.00000E+00         0.00000E+00
 
    0.66093E+06         0.82783E+06         0.00000E+00
    0.82783E+06        -0.27398E+07         0.00000E+00
    0.00000E+00         0.00000E+00         0.00000E+00
 
    0.63974E+06         0.86115E+06         0.00000E+00
    0.86115E+06        -0.27325E+07         0.00000E+00
    0.00000E+00         0.00000E+00         0.00000E+00
 
    0.61825E+06         0.89431E+06         0.00000E+00
    0.89431E+06        -0.27250E+07         0.00000E+00
    0.00000E+00         0.00000E+00         0.00000E+00
 
    0.59646E+06         0.92730E+06         0.00000E+00
    0.92730E+06        -0.27171E+07         0.00000E+00
    0.00000E+00         0.00000E+00         0.00000E+00
 
    0.57437E+06         0.96012E+06         0.00000E+00
    0.96012E+06        -0.27090E+07         0.00000E+00
    0.00000E+00         0.00000E+00         0.00000E+00
 
    0.55197E+06         0.99277E+06         0.00000E+00
    0.99277E+06        -0.27006E+07         0.00000E+00
    0.00000E+00         0.00000E+00         0.00000E+00
 
    0.52928E+06         0.10252E+07         0.00000E+00
    0.10252E+07        -0.26919E+07         0.00000E+00
    0.00000E+00         0.00000E+00         0.00000E+00
 
    0.50628E+06         0.10575E+07         0.00000E+00
    0.10575E+07        -0.26830E+07         0.00000E+00
    0.00000E+00         0.00000E+00         0.00000E+00
 
    0.48299E+06         0.10897E+07         0.00000E+00
    0.10897E+07        -0.26737E+07         0.00000E+00
    0.00000E+00         0.00000E+00         0.00000E+00
 
    0.45940E+06         0.11216E+07         0.00000E+00
    0.11216E+07        -0.26642E+07         0.00000E+00
    0.00000E+00         0.00000E+00         0.00000E+00
 
    0.43552E+06         0.11534E+07         0.00000E+00
    0.11534E+07        -0.26544E+07         0.00000E+00
    0.00000E+00         0.00000E+00         0.00000E+00
 
    0.41135E+06         0.11849E+07         0.00000E+00
    0.11849E+07        -0.26444E+07         0.00000E+00
    0.00000E+00         0.00000E+00         0.00000E+00
 
    0.38688E+06         0.12163E+07         0.00000E+00
    0.12163E+07        -0.26340E+07         0.00000E+00
    0.00000E+00         0.00000E+00         0.00000E+00
 
    0.36212E+06         0.12475E+07         0.00000E+00
    0.12475E+07        -0.26234E+07         0.00000E+00
    0.00000E+00         0.00000E+00         0.00000E+00
 
    0.33707E+06         0.12786E+07         0.00000E+00
    0.12786E+07        -0.26125E+07         0.00000E+00
    0.00000E+00         0.00000E+00         0.00000E+00
 
    0.31173E+06         0.13094E+07         0.00000E+00
    0.13094E+07        -0.26013E+07         0.00000E+00
    0.00000E+00         0.00000E+00         0.00000E+00
 
    0.28611E+06         0.13400E+07         0.00000E+00
    0.13400E+07        -0.25899E+07         0.00000E+00
    0.00000E+00         0.00000E+00         0.00000E+00
 
    0.26020E+06         0.13705E+07         0.00000E+00
    0.13705E+07        -0.25782E+07         0.00000E+00
    0.00000E+00         0.00000E+00         0.00000E+00
 
    0.23400E+06         0.14007E+07         0.00000E+00
    0.14007E+07        -0.25662E+07         0.00000E+00
    0.00000E+00         0.00000E+00         0.00000E+00
 
    0.20752E+06         0.14307E+07         0.00000E+00
    0.14307E+07        -0.25540E+07         0.00000E+00
    0.00000E+00         0.00000E+00         0.00000E+00
 
    0.18075E+06         0.14606E+07         0.00000E+00
    0.14606E+07        -0.25414E+07         0.00000E+00
    0.00000E+00         0.00000E+00         0.00000E+00
 
    0.15371E+06         0.14902E+07         0.00000E+00
    0.14902E+07        -0.25287E+07         0.00000E+00
    0.00000E+00         0.00000E+00         0.00000E+00
 
    0.12638E+06         0.15197E+07         0.00000E+00
    0.15197E+07        -0.25156E+07         0.00000E+00
    0.00000E+00         0.00000E+00         0.00000E+00
 
    0.98775E+05         0.15489E+07         0.00000E+00
    0.15489E+07        -0.25023E+07         0.00000E+00
    0.00000E+00         0.00000E+00         0.00000E+00
 
    0.70889E+05         0.15779E+07         0.00000E+00
    0.15779E+07        -0.24887E+07         0.00000E+00
    0.00000E+00         0.00000E+00         0.00000E+00
 
    0.42727E+05         0.16068E+07         0.00000E+00
    0.16068E+07        -0.24749E+07         0.00000E+00
    0.00000E+00         0.00000E+00         0.00000E+00
 
    0.14288E+05         0.16354E+07         0.00000E+00
    0.16354E+07        -0.24608E+07         0.00000E+00
    0.00000E+00         0.00000E+00         0.00000E+00
 
    0.11032E+07         0.19350E+05         0.00000E+00
    0.19350E+05        -0.29700E+07         0.00000E+00
    0.00000E+00         0.00000E+00         0.00000E+00
 
    0.10888E+07         0.57674E+05         0.00000E+00
    0.57674E+05        -0.29697E+07         0.00000E+00
    0.00000E+00         0.00000E+00         0.00000E+00
 
    0.10741E+07         0.95859E+05         0.00000E+00
    0.95859E+05        -0.29690E+07         0.00000E+00
    0.00000E+00         0.00000E+00         0.00000E+00
 
    0.10590E+07         0.13390E+06         0.00000E+00
    0.13390E+06        -0.29681E+07         0.00000E+00
    0.00000E+00         0.00000E+00         0.00000E+00
 
    0.10435E+07         0.17181E+06         0.00000E+00
    0.17181E+06        -0.29667E+07         0.00000E+00
    0.00000E+00         0.00000E+00         0.00000E+00
 
    0.10277E+07         0.20957E+06         0.00000E+00
    0.20957E+06        -0.29651E+07         0.00000E+00
    0.00000E+00         0.00000E+00         0.00000E+00
 
    0.10116E+07         0.24719E+06         0.00000E+00
    0.24719E+06        -0.29632E+07         0.00000E+00
    0.00000E+00         0.00000E+00         0.00000E+00
 
    0.99512E+06         0.28466E+06         0.00000E+00
    0.28466E+06        -0.29609E+07         0.00000E+00
    0.00000E+00         0.00000E+00         0.00000E+00
 
    0.97830E+06         0.32198E+06         0.00000E+00
    0.32198E+06        -0.29583E+07         0.00000E+00
    0.00000E+00         0.00000E+00         0.00000E+00
 
    0.96115E+06         0.35916E+06         0.00000E+00
    0.35916E+06        -0.29554E+07         0.00000E+00
    0.00000E+00         0.00000E+00         0.00000E+00
 
    0.94365E+06         0.39619E+06         0.00000E+00
    0.39619E+06        -0.29522E+07         0.00000E+00
    0.00000E+00         0.00000E+00         0.00000E+00
 
    0.92582E+06         0.43307E+06         0.00000E+00
    0.43307E+06        -0.29486E+07         0.00000E+00
    0.00000E+00         0.00000E+00         0.00000E+00
 
    0.90766E+06         0.46979E+06         0.00000E+00
    0.46979E+06        -0.29448E+07         0.00000E+00
    0.00000E+00         0.00000E+00         0.00000E+00
 
    0.88917E+06         0.50636E+06         0.00000E+00
    0.50636E+06        -0.29406E+07         0.00000E+00
    0.00000E+00         0.00000E+00         0.00000E+00
 
    0.87034E+06         0.54278E+06         0.00000E+00
    0.54278E+06        -0.29362E+07         0.00000E+00
    0.00000E+00         0.00000E+00         0.00000E+00
 
    0.85119E+06         0.57904E+06         0.00000E+00
    0.57904E+06        -0.29314E+07         0.00000E+00
    0.00000E+00         0.00000E+00         0.00000E+00
 
    0.83172E+06         0.61514E+06         0.00000E+00
    0.61514E+06        -0.29263E+07         0.00000E+00
    0.00000E+00         0.00000E+00         0.00000E+00
 
    0.81192E+06         0.65108E+06         0.00000E+00
    0.65108E+06        -0.29209E+07         0.00000E+00
    0.00000E+00         0.00000E+00         0.00000E+00
 
    0.79179E+06         0.68686E+06         0.00000E+00
    0.68686E+06        -0.29152E+07         0.00000E+00
    0.00000E+00         0.00000E+00         0.00000E+00
 
    0.77135E+06         0.72248E+06         0.00000E+00
    0.72248E+06        -0.29092E+07         0.00000E+00
    0.00000E+00         0.00000E+00         0.00000E+00
 
    0.75058E+06         0.75794E+06         0.00000E+00
    0.75794E+06        -0.29029E+07         0.00000E+00
    0.00000E+00         0.00000E+00         0.00000E+00
 
    0.72950E+06         0.79323E+06         0.00000E+00
    0.79323E+06        -0.28963E+07         0.00000E+00
    0.00000E+00         0.00000E+00         0.00000E+00
 
    0.70809E+06         0.82836E+06         0.00000E+00
    0.82836E+06        -0.28894E+07         0.00000E+00
    0.00000E+00         0.00000E+00         0.00000E+00
 
    0.68638E+06         0.86332E+06         0.00000E+00
    0.86332E+06        -0.28822E+07         0.00000E+00
    0.00000E+00         0.00000E+00         0.00000E+00
 
    0.66434E+06         0.89811E+06         0.00000E+00
    0.89811E+06        -0.28747E+07         0.00000E+00
    0.00000E+00         0.00000E+00         0.00000E+00
 
    0.64200E+06         0.93272E+06         0.00000E+00
    0.93272E+06        -0.28669E+07         0.00000E+00
    0.00000E+00         0.00000E+00         0.00000E+00
 
    0.61934E+06         0.96717E+06         0.00000E+00
    0.96717E+06        -0.28588E+07         0.00000E+00
    0.00000E+00         0.00000E+00         0.00000E+00
 
    0.59638E+06         0.10014E+07         0.00000E+00
    0.10014E+07        -0.28505E+07         0.00000E+00
    0.00000E+00         0.00000E+00         0.00000E+00
 
    0.57310E+06         0.10355E+07         0.00000E+00
    0.10355E+07        -0.28418E+07         0.00000E+00
    0.00000E+00         0.00000E+00         0.00000E+00
 
    0.54951E+06         0.10695E+07         0.00000E+00
    0.10695E+07        -0.28328E+07         0.00000E+00
    0.00000E+00         0.00000E+00         0.00000E+00
 
    0.52562E+06         0.11032E+07         0.00000E+00
    0.11032E+07        -0.28236E+07         0.00000E+00
    0.00000E+00         0.00000E+00         0.00000E+00
 
    0.50143E+06         0.11368E+07         0.00000E+00
    0.11368E+07        -0.28140E+07         0.00000E+00
    0.00000E+00         0.00000E+00         0.00000E+00
 
    0.47692E+06         0.11701E+07         0.00000E+00
    0.11701E+07        -0.28042E+07         0.00000E+00
    0.00000E+00         0.00000E+00         0.00000E+00
 
    0.45212E+06         0.12033E+07         0.00000E+00
    0.12033E+07        -0.27940E+07         0.00000E+00
    0.00000E+00         0.00000E+00         0.00000E+00
 
    0.42701E+06         0.12363E+07         0.00000E+00
    0.12363E+07        -0.27836E+07         0.00000E+00
    0.00000E+00         0.00000E+00         0.00000E+00
 
    0.40160E+06         0.12691E+07         0.00000E+00
    0.12691E+07        -0.27729E+07         0.00000E+00
    0.00000E+00         0.00000E+00         0.00000E+00
 
    0.37589E+06         0.13018E+07         0.00000E+00
    0.13018E+07        -0.27619E+07         0.00000E+00
    0.00000E+00         0.00000E+00         0.00000E+00
 
    0.34989E+06         0.13342E+07         0.00000E+00
    0.13342E+07        -0.27506E+07         0.00000E+00
    0.00000E+00         0.00000E+00         0.00000E+00
 
    0.32358E+06         0.13665E+07         0.00000E+00
    0.13665E+07        -0.27391E+07         0.00000E+00
    0.00000E+00         0.00000E+00         0.00000E+00
 
    0.29698E+06         0.13985E+07         0.00000E+00
    0.13985E+07        -0.27272E+07         0.00000E+00
    0.00000E+00         0.00000E+00         0.00000E+00
 
    0.27008E+06         0.14304E+07         0.00000E+00
    0.14304E+07        -0.27151E+07         0.00000E+00
    0.00000E+00         0.00000E+00         0.00000E+00
 
    0.24288E+06         0.14620E+07         0.00000E+00
    0.14620E+07        -0.27027E+07         0.00000E+00
    0.00000E+00         0.00000E+00         0.00000E+00
 
    0.21540E+06         0.14935E+07         0.00000E+00
    0.14935E+07        -0.26900E+07         0.00000E+00
    0.00000E+00         0.00000E+00         0.00000E+00
 
    0.18761E+06         0.15247E+07         0.00000E+00
    0.15247E+07        -0.26770E+07         0.00000E+00
    0.00000E+00         0.00000E+00         0.00000E+00
 
    0.15954E+06         0.15558E+07         0.00000E+00
    0.15558E+07        -0.26638E+07         0.00000E+00
    0.00000E+00         0.00000E+00         0.00000E+00
 
    0.13118E+06         0.15866E+07         0.00000E+00
    0.15866E+07        -0.26503E+07         0.00000E+00
    0.00000E+00         0.00000E+00         0.00000E+00
 
    0.10252E+06         0.16172E+07         0.00000E+00
    0.16172E+07        -0.26365E+07         0.00000E+00
    0.00000E+00         0.00000E+00         0.00000E+00
 
    0.73580E+05         0.16476E+07         0.00000E+00
    0.16476E+07        -0.26224E+07         0.00000E+00
    0.00000E+00         0.00000E+00         0.00000E+00
 
    0.44349E+05         0.16778E+07         0.00000E+00
    0.16778E+07        -0.26080E+07         0.00000E+00
    0.00000E+00         0.00000E+00         0.00000E+00
 
    0.14831E+05         0.17078E+07         0.00000E+00
    0.17078E+07        -0.25934E+07         0.00000E+00
    0.00000E+00         0.00000E+00         0.00000E+00
 
    0.11470E+07         0.20164E+05         0.00000E+00
    0.20164E+05        -0.31222E+07         0.00000E+00
    0.00000E+00         0.00000E+00         0.00000E+00
 
    0.11319E+07         0.60099E+05         0.00000E+00
    0.60099E+05        -0.31219E+07         0.00000E+00
    0.00000E+00         0.00000E+00         0.00000E+00
 
    0.11165E+07         0.99890E+05         0.00000E+00
    0.99890E+05        -0.31212E+07         0.00000E+00
    0.00000E+00         0.00000E+00         0.00000E+00
 
    0.11007E+07         0.13953E+06         0.00000E+00
    0.13953E+06        -0.31202E+07         0.00000E+00
    0.00000E+00         0.00000E+00         0.00000E+00
 
    0.10845E+07         0.17903E+06         0.00000E+00
    0.17903E+06        -0.31188E+07         0.00000E+00
    0.00000E+00         0.00000E+00         0.00000E+00
 
    0.10680E+07         0.21838E+06         0.00000E+00
    0.21838E+06        -0.31171E+07         0.00000E+00
    0.00000E+00         0.00000E+00         0.00000E+00
 
    0.10511E+07         0.25759E+06         0.00000E+00
    0.25759E+06        -0.31151E+07         0.00000E+00
    0.00000E+00         0.00000E+00         0.00000E+00
 
    0.10339E+07         0.29664E+06         0.00000E+00
    0.29664E+06        -0.31128E+07         0.00000E+00
    0.00000E+00         0.00000E+00         0.00000E+00
 
    0.10163E+07         0.33554E+06         0.00000E+00
    0.33554E+06        -0.31101E+07         0.00000E+00
    0.00000E+00         0.00000E+00         0.00000E+00
 
    0.99838E+06         0.37428E+06         0.00000E+00
    0.37428E+06        -0.31071E+07         0.00000E+00
    0.00000E+00         0.00000E+00         0.00000E+00
 
    0.98012E+06         0.41288E+06         0.00000E+00
    0.41288E+06        -0.31038E+07         0.00000E+00
    0.00000E+00         0.00000E+00         0.00000E+00
 
    0.96151E+06         0.45132E+06         0.00000E+00
    0.45132E+06        -0.31002E+07         0.00000E+00
    0.00000E+00         0.00000E+00         0.00000E+00
 
    0.94257E+06         0.48960E+06         0.00000E+00
    0.48960E+06        -0.30962E+07         0.00000E+00
    0.00000E+00         0.00000E+00         0.00000E+00
 
    0.92329E+06         0.52772E+06         0.00000E+00
    0.52772E+06        -0.30919E+07         0.00000E+00
    0.00000E+00         0.00000E+00         0.00000E+00
 
    0.90368E+06         0.56569E+06         0.00000E+00
    0.56569E+06        -0.30873E+07         0.00000E+00
    0.00000E+00         0.00000E+00         0.00000E+00
 
    0.88372E+06         0.60349E+06         0.00000E+00
    0.60349E+06        -0.30824E+07         0.00000E+00
    0.00000E+00         0.00000E+00         0.00000E+00
 
    0.86344E+06         0.64113E+06         0.00000E+00
    0.64113E+06        -0.30772E+07         0.00000E+00
    0.00000E+00         0.00000E+00         0.00000E+00
 
    0.84282E+06         0.67861E+06         0.00000E+00
    0.67861E+06        -0.30716E+07         0.00000E+00
    0.00000E+00         0.00000E+00         0.00000E+00
 
    0.82188E+06         0.71593E+06         0.00000E+00
    0.71593E+06        -0.30657E+07         0.00000E+00
    0.00000E+00         0.00000E+00         0.00000E+00
 
    0.80060E+06         0.75308E+06         0.00000E+00
    0.75308E+06        -0.30596E+07         0.00000E+00
    0.00000E+00         0.00000E+00         0.00000E+00
 
    0.77900E+06         0.79007E+06         0.00000E+00
    0.79007E+06        -0.30531E+07         0.00000E+00
    0.00000E+00         0.00000E+00         0.00000E+00
 
    0.75707E+06         0.82688E+06         0.00000E+00
    0.82688E+06        -0.30463E+07         0.00000E+00
    0.00000E+00         0.00000E+00         0.00000E+00
 
    0.73482E+06         0.86353E+06         0.00000E+00
    0.86353E+06        -0.30391E+07         0.00000E+00
    0.00000E+00         0.00000E+00         0.00000E+00
 
    0.71224E+06         0.90000E+06         0.00000E+00
    0.90000E+06        -0.30317E+07         0.00000E+00
    0.00000E+00         0.00000E+00         0.00000E+00
 
    0.68935E+06         0.93631E+06         0.00000E+00
    0.93631E+06        -0.30240E+07         0.00000E+00
    0.00000E+00         0.00000E+00         0.00000E+00
 
    0.66613E+06         0.97244E+06         0.00000E+00
    0.97244E+06        -0.30159E+07         0.00000E+00
    0.00000E+00         0.00000E+00         0.00000E+00
 
    0.64259E+06         0.10084E+07         0.00000E+00
    0.10084E+07        -0.30076E+07         0.00000E+00
    0.00000E+00         0.00000E+00         0.00000E+00
 
    0.61873E+06         0.10442E+07         0.00000E+00
    0.10442E+07        -0.29989E+07         0.00000E+00
    0.00000E+00         0.00000E+00         0.00000E+00
 
    0.59456E+06         0.10798E+07         0.00000E+00
    0.10798E+07        -0.29900E+07         0.00000E+00
    0.00000E+00         0.00000E+00         0.00000E+00
 
    0.57007E+06         0.11152E+07         0.00000E+00
    0.11152E+07        -0.29807E+07         0.00000E+00
    0.00000E+00         0.00000E+00         0.00000E+00
 
    0.54526E+06         0.11504E+07         0.00000E+00
    0.11504E+07        -0.29712E+07         0.00000E+00
    0.00000E+00         0.00000E+00         0.00000E+00
 
    0.52015E+06         0.11855E+07         0.00000E+00
    0.11855E+07        -0.29613E+07         0.00000E+00
    0.00000E+00         0.00000E+00         0.00000E+00
 
    0.49471E+06         0.12203E+07         0.00000E+00
    0.12203E+07        -0.29511E+07         0.00000E+00
    0.00000E+00         0.00000E+00         0.00000E+00
 
    0.46897E+06         0.12550E+07         0.00000E+00
    0.12550E+07        -0.29407E+07         0.00000E+00
    0.00000E+00         0.00000E+00         0.00000E+00
 
    0.44292E+06         0.12895E+07         0.00000E+00
    0.12895E+07        -0.29299E+07         0.00000E+00
    0.00000E+00         0.00000E+00         0.00000E+00
 
    0.41655E+06         0.13238E+07         0.00000E+00
    0.13238E+07        -0.29188E+07         0.00000E+00
    0.00000E+00         0.00000E+00         0.00000E+00
 
    0.38988E+06         0.13579E+07         0.00000E+00
    0.13579E+07        -0.29075E+07         0.00000E+00
    0.00000E+00         0.00000E+00         0.00000E+00
 
    0.36289E+06         0.13918E+07         0.00000E+00
    0.13918E+07        -0.28958E+07         0.00000E+00
    0.00000E+00         0.00000E+00         0.00000E+00
 
    0.33560E+06         0.14256E+07         0.00000E+00
    0.14256E+07        -0.28839E+07         0.00000E+00
    0.00000E+00         0.00000E+00         0.00000E+00
 
    0.30801E+06         0.14591E+07         0.00000E+00
    0.14591E+07        -0.28716E+07         0.00000E+00
    0.00000E+00         0.00000E+00         0.00000E+00
 
    0.28011E+06         0.14924E+07         0.00000E+00
    0.14924E+07        -0.28591E+07         0.00000E+00
    0.00000E+00         0.00000E+00         0.00000E+00
 
    0.25190E+06         0.15255E+07         0.00000E+00
    0.15255E+07        -0.28462E+07         0.00000E+00
    0.00000E+00         0.00000E+00         0.00000E+00
 
    0.22339E+06         0.15585E+07         0.00000E+00
    0.15585E+07        -0.28331E+07         0.00000E+00
    0.00000E+00         0.00000E+00         0.00000E+00
 
    0.19458E+06         0.15912E+07         0.00000E+00
    0.15912E+07        -0.28197E+07         0.00000E+00
    0.00000E+00         0.00000E+00         0.00000E+00
 
    0.16546E+06         0.16237E+07         0.00000E+00
    0.16237E+07        -0.28059E+07         0.00000E+00
    0.00000E+00         0.00000E+00         0.00000E+00
 
    0.13604E+06         0.16560E+07         0.00000E+00
    0.16560E+07        -0.27919E+07         0.00000E+00
    0.00000E+00         0.00000E+00         0.00000E+00
 
    0.10633E+06         0.16880E+07         0.00000E+00
    0.16880E+07        -0.27776E+07         0.00000E+00
    0.00000E+00         0.00000E+00         0.00000E+00
 
    0.76311E+05         0.17199E+07         0.00000E+00
    0.17199E+07        -0.27630E+07         0.00000E+00
    0.00000E+00         0.00000E+00         0.00000E+00
 
    0.45995E+05         0.17516E+07         0.00000E+00
    0.17516E+07        -0.27481E+07         0.00000E+00
    0.00000E+00         0.00000E+00         0.00000E+00
 
    0.15381E+05         0.17830E+07         0.00000E+00
    0.17830E+07        -0.27330E+07         0.00000E+00
    0.00000E+00         0.00000E+00         0.00000E+00
 
    0.11917E+07         0.21002E+05         0.00000E+00
    0.21002E+05        -0.32817E+07         0.00000E+00
    0.00000E+00         0.00000E+00         0.00000E+00
 
    0.11759E+07         0.62599E+05         0.00000E+00
    0.62599E+05        -0.32814E+07         0.00000E+00
    0.00000E+00         0.00000E+00         0.00000E+00
 
    0.11597E+07         0.10405E+06         0.00000E+00
    0.10405E+06        -0.32807E+07         0.00000E+00
    0.00000E+00         0.00000E+00         0.00000E+00
 
    0.11431E+07         0.14534E+06         0.00000E+00
    0.14534E+06        -0.32796E+07         0.00000E+00
    0.00000E+00         0.00000E+00         0.00000E+00
 
    0.11262E+07         0.18648E+06         0.00000E+00
    0.18648E+06        -0.32782E+07         0.00000E+00
    0.00000E+00         0.00000E+00         0.00000E+00
 
    0.11089E+07         0.22747E+06         0.00000E+00
    0.22747E+06        -0.32765E+07         0.00000E+00
    0.00000E+00         0.00000E+00         0.00000E+00
 
    0.10913E+07         0.26831E+06         0.00000E+00
    0.26831E+06        -0.32744E+07         0.00000E+00
    0.00000E+00         0.00000E+00         0.00000E+00
 
    0.10733E+07         0.30899E+06         0.00000E+00
    0.30899E+06        -0.32720E+07         0.00000E+00
    0.00000E+00         0.00000E+00         0.00000E+00
 
    0.10549E+07         0.34952E+06         0.00000E+00
    0.34952E+06        -0.32693E+07         0.00000E+00
    0.00000E+00         0.00000E+00         0.00000E+00
 
    0.10362E+07         0.38988E+06         0.00000E+00
    0.38988E+06        -0.32662E+07         0.00000E+00
    0.00000E+00         0.00000E+00         0.00000E+00
 
    0.10172E+07         0.43009E+06         0.00000E+00
    0.43009E+06        -0.32628E+07         0.00000E+00
    0.00000E+00         0.00000E+00         0.00000E+00
 
    0.99778E+06         0.47014E+06         0.00000E+00
    0.47014E+06        -0.32591E+07         0.00000E+00
    0.00000E+00         0.00000E+00         0.00000E+00
 
    0.97804E+06         0.51003E+06         0.00000E+00
    0.51003E+06        -0.32550E+07         0.00000E+00
    0.00000E+00         0.00000E+00         0.00000E+00
 
    0.95795E+06         0.54976E+06         0.00000E+00
    0.54976E+06        -0.32506E+07         0.00000E+00
    0.00000E+00         0.00000E+00         0.00000E+00
 
    0.93752E+06         0.58932E+06         0.00000E+00
    0.58932E+06        -0.32458E+07         0.00000E+00
    0.00000E+00         0.00000E+00         0.00000E+00
 
    0.91675E+06         0.62872E+06         0.00000E+00
    0.62872E+06        -0.32408E+07         0.00000E+00
    0.00000E+00         0.00000E+00         0.00000E+00
 
    0.89564E+06         0.66796E+06         0.00000E+00
    0.66796E+06        -0.32354E+07         0.00000E+00
    0.00000E+00         0.00000E+00         0.00000E+00
 
    0.87419E+06         0.70703E+06         0.00000E+00
    0.70703E+06        -0.32297E+07         0.00000E+00
    0.00000E+00         0.00000E+00         0.00000E+00
 
    0.85240E+06         0.74593E+06         0.00000E+00
    0.74593E+06        -0.32236E+07         0.00000E+00
    0.00000E+00         0.00000E+00         0.00000E+00
 
    0.83028E+06         0.78466E+06         0.00000E+00
    0.78466E+06        -0.32173E+07         0.00000E+00
    0.00000E+00         0.00000E+00         0.00000E+00
 
    0.80782E+06         0.82323E+06         0.00000E+00
    0.82323E+06        -0.32106E+07         0.00000E+00
    0.00000E+00         0.00000E+00         0.00000E+00
 
    0.78504E+06         0.86162E+06         0.00000E+00
    0.86162E+06        -0.32036E+07         0.00000E+00
    0.00000E+00         0.00000E+00         0.00000E+00
 
    0.76192E+06         0.89984E+06         0.00000E+00
    0.89984E+06        -0.31962E+07         0.00000E+00
    0.00000E+00         0.00000E+00         0.00000E+00
 
    0.73847E+06         0.93788E+06         0.00000E+00
    0.93788E+06        -0.31886E+07         0.00000E+00
    0.00000E+00         0.00000E+00         0.00000E+00
 
    0.71469E+06         0.97575E+06         0.00000E+00
    0.97575E+06        -0.31806E+07         0.00000E+00
    0.00000E+00         0.00000E+00         0.00000E+00
 
    0.69058E+06         0.10134E+07         0.00000E+00
    0.10134E+07        -0.31723E+07         0.00000E+00
    0.00000E+00         0.00000E+00         0.00000E+00
 
    0.66614E+06         0.10510E+07         0.00000E+00
    0.10510E+07        -0.31637E+07         0.00000E+00
    0.00000E+00         0.00000E+00         0.00000E+00
 
    0.64138E+06         0.10883E+07         0.00000E+00
    0.10883E+07        -0.31548E+07         0.00000E+00
    0.00000E+00         0.00000E+00         0.00000E+00
 
    0.61630E+06         0.11255E+07         0.00000E+00
    0.11255E+07        -0.31456E+07         0.00000E+00
    0.00000E+00         0.00000E+00         0.00000E+00
 
    0.59089E+06         0.11624E+07         0.00000E+00
    0.11624E+07        -0.31360E+07         0.00000E+00
    0.00000E+00         0.00000E+00         0.00000E+00
 
    0.56516E+06         0.11992E+07         0.00000E+00
    0.11992E+07        -0.31262E+07         0.00000E+00
    0.00000E+00         0.00000E+00         0.00000E+00
 
    0.53910E+06         0.12358E+07         0.00000E+00
    0.12358E+07        -0.31160E+07         0.00000E+00
    0.00000E+00         0.00000E+00         0.00000E+00
 
    0.51273E+06         0.12722E+07         0.00000E+00
    0.12722E+07        -0.31055E+07         0.00000E+00
    0.00000E+00         0.00000E+00         0.00000E+00
 
    0.48603E+06         0.13085E+07         0.00000E+00
    0.13085E+07        -0.30947E+07         0.00000E+00
    0.00000E+00         0.00000E+00         0.00000E+00
 
    0.45902E+06         0.13445E+07         0.00000E+00
    0.13445E+07        -0.30836E+07         0.00000E+00
    0.00000E+00         0.00000E+00         0.00000E+00
 
    0.43168E+06         0.13804E+07         0.00000E+00
    0.13804E+07        -0.30722E+07         0.00000E+00
    0.00000E+00         0.00000E+00         0.00000E+00
 
    0.40403E+06         0.14160E+07         0.00000E+00
    0.14160E+07        -0.30604E+07         0.00000E+00
    0.00000E+00         0.00000E+00         0.00000E+00
 
    0.37606E+06         0.14515E+07         0.00000E+00
    0.14515E+07        -0.30484E+07         0.00000E+00
    0.00000E+00         0.00000E+00         0.00000E+00
 
    0.34778E+06         0.14867E+07         0.00000E+00
    0.14867E+07        -0.30360E+07         0.00000E+00
    0.00000E+00         0.00000E+00         0.00000E+00
 
    0.31917E+06         0.15218E+07         0.00000E+00
    0.15218E+07        -0.30234E+07         0.00000E+00
    0.00000E+00         0.00000E+00         0.00000E+00
 
    0.29026E+06         0.15566E+07         0.00000E+00
    0.15566E+07        -0.30104E+07         0.00000E+00
    0.00000E+00         0.00000E+00         0.00000E+00
 
    0.26103E+06         0.15913E+07         0.00000E+00
    0.15913E+07        -0.29971E+07         0.00000E+00
    0.00000E+00         0.00000E+00         0.00000E+00
 
    0.23148E+06         0.16257E+07         0.00000E+00
    0.16257E+07        -0.29835E+07         0.00000E+00
    0.00000E+00         0.00000E+00         0.00000E+00
 
    0.20162E+06         0.16600E+07         0.00000E+00
    0.16600E+07        -0.29696E+07         0.00000E+00
    0.00000E+00         0.00000E+00         0.00000E+00
 
    0.17145E+06         0.16940E+07         0.00000E+00
    0.16940E+07        -0.29554E+07         0.00000E+00
    0.00000E+00         0.00000E+00         0.00000E+00
 
    0.14097E+06         0.17278E+07         0.00000E+00
    0.17278E+07        -0.29409E+07         0.00000E+00
    0.00000E+00         0.00000E+00         0.00000E+00
 
    0.11018E+06         0.17614E+07         0.00000E+00
    0.17614E+07        -0.29261E+07         0.00000E+00
    0.00000E+00         0.00000E+00         0.00000E+00
 
    0.79075E+05         0.17948E+07         0.00000E+00
    0.17948E+07        -0.29110E+07         0.00000E+00
    0.00000E+00         0.00000E+00         0.00000E+00
 
    0.47662E+05         0.18280E+07         0.00000E+00
    0.18280E+07        -0.28956E+07         0.00000E+00
    0.00000E+00         0.00000E+00         0.00000E+00
 
    0.15939E+05         0.18609E+07         0.00000E+00
    0.18609E+07        -0.28799E+07         0.00000E+00
    0.00000E+00         0.00000E+00         0.00000E+00
 
    0.12372E+07         0.21866E+05         0.00000E+00
    0.21866E+05        -0.34489E+07         0.00000E+00
    0.00000E+00         0.00000E+00         0.00000E+00
 
    0.12206E+07         0.65173E+05         0.00000E+00
    0.65173E+05        -0.34485E+07         0.00000E+00
    0.00000E+00         0.00000E+00         0.00000E+00
 
    0.12036E+07         0.10832E+06         0.00000E+00
    0.10832E+06        -0.34478E+07         0.00000E+00
    0.00000E+00         0.00000E+00         0.00000E+00
 
    0.11863E+07         0.15132E+06         0.00000E+00
    0.15132E+06        -0.34468E+07         0.00000E+00
    0.00000E+00         0.00000E+00         0.00000E+00
 
    0.11686E+07         0.19416E+06         0.00000E+00
    0.19416E+06        -0.34453E+07         0.00000E+00
    0.00000E+00         0.00000E+00         0.00000E+00
 
    0.11505E+07         0.23683E+06         0.00000E+00
    0.23683E+06        -0.34436E+07         0.00000E+00
    0.00000E+00         0.00000E+00         0.00000E+00
 
    0.11321E+07         0.27935E+06         0.00000E+00
    0.27935E+06        -0.34414E+07         0.00000E+00
    0.00000E+00         0.00000E+00         0.00000E+00
 
    0.11133E+07         0.32171E+06         0.00000E+00
    0.32171E+06        -0.34390E+07         0.00000E+00
    0.00000E+00         0.00000E+00         0.00000E+00
 
    0.10941E+07         0.36391E+06         0.00000E+00
    0.36391E+06        -0.34362E+07         0.00000E+00
    0.00000E+00         0.00000E+00         0.00000E+00
 
    0.10746E+07         0.40595E+06         0.00000E+00
    0.40595E+06        -0.34330E+07         0.00000E+00
    0.00000E+00         0.00000E+00         0.00000E+00
 
    0.10548E+07         0.44782E+06         0.00000E+00
    0.44782E+06        -0.34295E+07         0.00000E+00
    0.00000E+00         0.00000E+00         0.00000E+00
 
    0.10345E+07         0.48953E+06         0.00000E+00
    0.48953E+06        -0.34256E+07         0.00000E+00
    0.00000E+00         0.00000E+00         0.00000E+00
 
    0.10140E+07         0.53108E+06         0.00000E+00
    0.53108E+06        -0.34215E+07         0.00000E+00
    0.00000E+00         0.00000E+00         0.00000E+00
 
    0.99306E+06         0.57246E+06         0.00000E+00
    0.57246E+06        -0.34169E+07         0.00000E+00
    0.00000E+00         0.00000E+00         0.00000E+00
 
    0.97179E+06         0.61367E+06         0.00000E+00
    0.61367E+06        -0.34121E+07         0.00000E+00
    0.00000E+00         0.00000E+00         0.00000E+00
 
    0.95018E+06         0.65472E+06         0.00000E+00
    0.65472E+06        -0.34069E+07         0.00000E+00
    0.00000E+00         0.00000E+00         0.00000E+00
 
    0.92823E+06         0.69560E+06         0.00000E+00
    0.69560E+06        -0.34013E+07         0.00000E+00
    0.00000E+00         0.00000E+00         0.00000E+00
 
    0.90592E+06         0.73631E+06         0.00000E+00
    0.73631E+06        -0.33955E+07         0.00000E+00
    0.00000E+00         0.00000E+00         0.00000E+00
 
    0.88328E+06         0.77685E+06         0.00000E+00
    0.77685E+06        -0.33892E+07         0.00000E+00
    0.00000E+00         0.00000E+00         0.00000E+00
 
    0.86030E+06         0.81722E+06         0.00000E+00
    0.81722E+06        -0.33827E+07         0.00000E+00
    0.00000E+00         0.00000E+00         0.00000E+00
 
    0.83697E+06         0.85741E+06         0.00000E+00
    0.85741E+06        -0.33758E+07         0.00000E+00
    0.00000E+00         0.00000E+00         0.00000E+00
 
    0.81331E+06         0.89743E+06         0.00000E+00
    0.89743E+06        -0.33686E+07         0.00000E+00
    0.00000E+00         0.00000E+00         0.00000E+00
 
    0.78930E+06         0.93728E+06         0.00000E+00
    0.93728E+06        -0.33611E+07         0.00000E+00
    0.00000E+00         0.00000E+00         0.00000E+00
 
    0.76497E+06         0.97695E+06         0.00000E+00
    0.97695E+06        -0.33532E+07         0.00000E+00
    0.00000E+00         0.00000E+00         0.00000E+00
 
    0.74029E+06         0.10164E+07         0.00000E+00
    0.10164E+07        -0.33450E+07         0.00000E+00
    0.00000E+00         0.00000E+00         0.00000E+00
 
    0.71528E+06         0.10558E+07         0.00000E+00
    0.10558E+07        -0.33365E+07         0.00000E+00
    0.00000E+00         0.00000E+00         0.00000E+00
 
    0.68994E+06         0.10949E+07         0.00000E+00
    0.10949E+07        -0.33276E+07         0.00000E+00
    0.00000E+00         0.00000E+00         0.00000E+00
 
    0.66426E+06         0.11338E+07         0.00000E+00
    0.11338E+07        -0.33184E+07         0.00000E+00
    0.00000E+00         0.00000E+00         0.00000E+00
 
    0.63825E+06         0.11726E+07         0.00000E+00
    0.11726E+07        -0.33089E+07         0.00000E+00
    0.00000E+00         0.00000E+00         0.00000E+00
 
    0.61191E+06         0.12112E+07         0.00000E+00
    0.12112E+07        -0.32991E+07         0.00000E+00
    0.00000E+00         0.00000E+00         0.00000E+00
 
    0.58524E+06         0.12496E+07         0.00000E+00
    0.12496E+07        -0.32889E+07         0.00000E+00
    0.00000E+00         0.00000E+00         0.00000E+00
 
    0.55824E+06         0.12878E+07         0.00000E+00
    0.12878E+07        -0.32784E+07         0.00000E+00
    0.00000E+00         0.00000E+00         0.00000E+00
 
    0.53091E+06         0.13258E+07         0.00000E+00
    0.13258E+07        -0.32676E+07         0.00000E+00
    0.00000E+00         0.00000E+00         0.00000E+00
 
    0.50325E+06         0.13637E+07         0.00000E+00
    0.13637E+07        -0.32565E+07         0.00000E+00
    0.00000E+00         0.00000E+00         0.00000E+00
 
    0.47527E+06         0.14013E+07         0.00000E+00
    0.14013E+07        -0.32450E+07         0.00000E+00
    0.00000E+00         0.00000E+00         0.00000E+00
 
    0.44695E+06         0.14388E+07         0.00000E+00
    0.14388E+07        -0.32333E+07         0.00000E+00
    0.00000E+00         0.00000E+00         0.00000E+00
 
    0.41832E+06         0.14760E+07         0.00000E+00
    0.14760E+07        -0.32211E+07         0.00000E+00
    0.00000E+00         0.00000E+00         0.00000E+00
 
    0.38935E+06         0.15131E+07         0.00000E+00
    0.15131E+07        -0.32087E+07         0.00000E+00
    0.00000E+00         0.00000E+00         0.00000E+00
 
    0.36006E+06         0.15499E+07         0.00000E+00
    0.15499E+07        -0.31960E+07         0.00000E+00
    0.00000E+00         0.00000E+00         0.00000E+00
 
    0.33044E+06         0.15866E+07         0.00000E+00
    0.15866E+07        -0.31829E+07         0.00000E+00
    0.00000E+00         0.00000E+00         0.00000E+00
 
    0.30050E+06         0.16230E+07         0.00000E+00
    0.16230E+07        -0.31695E+07         0.00000E+00
    0.00000E+00         0.00000E+00         0.00000E+00
 
    0.27024E+06         0.16593E+07         0.00000E+00
    0.16593E+07        -0.31558E+07         0.00000E+00
    0.00000E+00         0.00000E+00         0.00000E+00
 
    0.23965E+06         0.16953E+07         0.00000E+00
    0.16953E+07        -0.31418E+07         0.00000E+00
    0.00000E+00         0.00000E+00         0.00000E+00
 
    0.20874E+06         0.17312E+07         0.00000E+00
    0.17312E+07        -0.31274E+07         0.00000E+00
    0.00000E+00         0.00000E+00         0.00000E+00
 
    0.17750E+06         0.17668E+07         0.00000E+00
    0.17668E+07        -0.31127E+07         0.00000E+00
    0.00000E+00         0.00000E+00         0.00000E+00
 
    0.14594E+06         0.18022E+07         0.00000E+00
    0.18022E+07        -0.30977E+07         0.00000E+00
    0.00000E+00         0.00000E+00         0.00000E+00
 
    0.11407E+06         0.18374E+07         0.00000E+00
    0.18374E+07        -0.30824E+07         0.00000E+00
    0.00000E+00         0.00000E+00         0.00000E+00
 
    0.81865E+05         0.18723E+07         0.00000E+00
    0.18723E+07        -0.30668E+07         0.00000E+00
    0.00000E+00         0.00000E+00         0.00000E+00
 
    0.49343E+05         0.19071E+07         0.00000E+00
    0.19071E+07        -0.30509E+07         0.00000E+00
    0.00000E+00         0.00000E+00         0.00000E+00
 
    0.16501E+05         0.19416E+07         0.00000E+00
    0.19416E+07        -0.30346E+07         0.00000E+00
    0.00000E+00         0.00000E+00         0.00000E+00
 
    0.12833E+07         0.22754E+05         0.00000E+00
    0.22754E+05        -0.36241E+07         0.00000E+00
    0.00000E+00         0.00000E+00         0.00000E+00
 
    0.12659E+07         0.67820E+05         0.00000E+00
    0.67820E+05        -0.36237E+07         0.00000E+00
    0.00000E+00         0.00000E+00         0.00000E+00
 
    0.12481E+07         0.11272E+06         0.00000E+00
    0.11272E+06        -0.36230E+07         0.00000E+00
    0.00000E+00         0.00000E+00         0.00000E+00
 
    0.12300E+07         0.15747E+06         0.00000E+00
    0.15747E+06        -0.36219E+07         0.00000E+00
    0.00000E+00         0.00000E+00         0.00000E+00
 
    0.12115E+07         0.20204E+06         0.00000E+00
    0.20204E+06        -0.36205E+07         0.00000E+00
    0.00000E+00         0.00000E+00         0.00000E+00
 
    0.11926E+07         0.24646E+06         0.00000E+00
    0.24646E+06        -0.36187E+07         0.00000E+00
    0.00000E+00         0.00000E+00         0.00000E+00
 
    0.11733E+07         0.29071E+06         0.00000E+00
    0.29071E+06        -0.36165E+07         0.00000E+00
    0.00000E+00         0.00000E+00         0.00000E+00
 
    0.11537E+07         0.33480E+06         0.00000E+00
    0.33480E+06        -0.36139E+07         0.00000E+00
    0.00000E+00         0.00000E+00         0.00000E+00
 
    0.11338E+07         0.37872E+06         0.00000E+00
    0.37872E+06        -0.36111E+07         0.00000E+00
    0.00000E+00         0.00000E+00         0.00000E+00
 
    0.11134E+07         0.42247E+06         0.00000E+00
    0.42247E+06        -0.36078E+07         0.00000E+00
    0.00000E+00         0.00000E+00         0.00000E+00
 
    0.10927E+07         0.46606E+06         0.00000E+00
    0.46606E+06        -0.36042E+07         0.00000E+00
    0.00000E+00         0.00000E+00         0.00000E+00
 
    0.10717E+07         0.50948E+06         0.00000E+00
    0.50948E+06        -0.36003E+07         0.00000E+00
    0.00000E+00         0.00000E+00         0.00000E+00
 
    0.10503E+07         0.55274E+06         0.00000E+00
    0.55274E+06        -0.35960E+07         0.00000E+00
    0.00000E+00         0.00000E+00         0.00000E+00
 
    0.10285E+07         0.59582E+06         0.00000E+00
    0.59582E+06        -0.35914E+07         0.00000E+00
    0.00000E+00         0.00000E+00         0.00000E+00
 
    0.10064E+07         0.63873E+06         0.00000E+00
    0.63873E+06        -0.35864E+07         0.00000E+00
    0.00000E+00         0.00000E+00         0.00000E+00
 
    0.98392E+06         0.68148E+06         0.00000E+00
    0.68148E+06        -0.35810E+07         0.00000E+00
    0.00000E+00         0.00000E+00         0.00000E+00
 
    0.96110E+06         0.72405E+06         0.00000E+00
    0.72405E+06        -0.35753E+07         0.00000E+00
    0.00000E+00         0.00000E+00         0.00000E+00
 
    0.93794E+06         0.76645E+06         0.00000E+00
    0.76645E+06        -0.35693E+07         0.00000E+00
    0.00000E+00         0.00000E+00         0.00000E+00
 
    0.91442E+06         0.80868E+06         0.00000E+00
    0.80868E+06        -0.35629E+07         0.00000E+00
    0.00000E+00         0.00000E+00         0.00000E+00
 
    0.89056E+06         0.85073E+06         0.00000E+00
    0.85073E+06        -0.35562E+07         0.00000E+00
    0.00000E+00         0.00000E+00         0.00000E+00
 
    0.86635E+06         0.89261E+06         0.00000E+00
    0.89261E+06        -0.35492E+07         0.00000E+00
    0.00000E+00         0.00000E+00         0.00000E+00
 
    0.84180E+06         0.93432E+06         0.00000E+00
    0.93432E+06        -0.35418E+07         0.00000E+00
    0.00000E+00         0.00000E+00         0.00000E+00
 
    0.81690E+06         0.97584E+06         0.00000E+00
    0.97584E+06        -0.35340E+07         0.00000E+00
    0.00000E+00         0.00000E+00         0.00000E+00
 
    0.79166E+06         0.10172E+07         0.00000E+00
    0.10172E+07        -0.35259E+07         0.00000E+00
    0.00000E+00         0.00000E+00         0.00000E+00
 
    0.76608E+06         0.10584E+07         0.00000E+00
    0.10584E+07        -0.35175E+07         0.00000E+00
    0.00000E+00         0.00000E+00         0.00000E+00
 
    0.74016E+06         0.10993E+07         0.00000E+00
    0.10993E+07        -0.35087E+07         0.00000E+00
    0.00000E+00         0.00000E+00         0.00000E+00
 
    0.71389E+06         0.11402E+07         0.00000E+00
    0.11402E+07        -0.34996E+07         0.00000E+00
    0.00000E+00         0.00000E+00         0.00000E+00
 
    0.68729E+06         0.11808E+07         0.00000E+00
    0.11808E+07        -0.34902E+07         0.00000E+00
    0.00000E+00         0.00000E+00         0.00000E+00
 
    0.66035E+06         0.12212E+07         0.00000E+00
    0.12212E+07        -0.34804E+07         0.00000E+00
    0.00000E+00         0.00000E+00         0.00000E+00
 
    0.63307E+06         0.12615E+07         0.00000E+00
    0.12615E+07        -0.34703E+07         0.00000E+00
    0.00000E+00         0.00000E+00         0.00000E+00
 
    0.60545E+06         0.13015E+07         0.00000E+00
    0.13015E+07        -0.34598E+07         0.00000E+00
    0.00000E+00         0.00000E+00         0.00000E+00
 
    0.57750E+06         0.13414E+07         0.00000E+00
    0.13414E+07        -0.34490E+07         0.00000E+00
    0.00000E+00         0.00000E+00         0.00000E+00
 
    0.54920E+06         0.13811E+07         0.00000E+00
    0.13811E+07        -0.34379E+07         0.00000E+00
    0.00000E+00         0.00000E+00         0.00000E+00
 
    0.52058E+06         0.14206E+07         0.00000E+00
    0.14206E+07        -0.34264E+07         0.00000E+00
    0.00000E+00         0.00000E+00         0.00000E+00
 
    0.49161E+06         0.14599E+07         0.00000E+00
    0.14599E+07        -0.34146E+07         0.00000E+00
    0.00000E+00         0.00000E+00         0.00000E+00
 
    0.46231E+06         0.14990E+07         0.00000E+00
    0.14990E+07        -0.34025E+07         0.00000E+00
    0.00000E+00         0.00000E+00         0.00000E+00
 
    0.43268E+06         0.15380E+07         0.00000E+00
    0.15380E+07        -0.33900E+07         0.00000E+00
    0.00000E+00         0.00000E+00         0.00000E+00
 
    0.40271E+06         0.15767E+07         0.00000E+00
    0.15767E+07        -0.33772E+07         0.00000E+00
    0.00000E+00         0.00000E+00         0.00000E+00
 
    0.37241E+06         0.16152E+07         0.00000E+00
    0.16152E+07        -0.33641E+07         0.00000E+00
    0.00000E+00         0.00000E+00         0.00000E+00
 
    0.34177E+06         0.16535E+07         0.00000E+00
    0.16535E+07        -0.33506E+07         0.00000E+00
    0.00000E+00         0.00000E+00         0.00000E+00
 
    0.31080E+06         0.16916E+07         0.00000E+00
    0.16916E+07        -0.33368E+07         0.00000E+00
    0.00000E+00         0.00000E+00         0.00000E+00
 
    0.27949E+06         0.17295E+07         0.00000E+00
    0.17295E+07        -0.33226E+07         0.00000E+00
    0.00000E+00         0.00000E+00         0.00000E+00
 
    0.24786E+06         0.17672E+07         0.00000E+00
    0.17672E+07        -0.33082E+07         0.00000E+00
    0.00000E+00         0.00000E+00         0.00000E+00
 
    0.21588E+06         0.18047E+07         0.00000E+00
    0.18047E+07        -0.32933E+07         0.00000E+00
    0.00000E+00         0.00000E+00         0.00000E+00
 
    0.18358E+06         0.18420E+07         0.00000E+00
    0.18420E+07        -0.32782E+07         0.00000E+00
    0.00000E+00         0.00000E+00         0.00000E+00
 
    0.15094E+06         0.18791E+07         0.00000E+00
    0.18791E+07        -0.32627E+07         0.00000E+00
    0.00000E+00         0.00000E+00         0.00000E+00
 
    0.11797E+06         0.19159E+07         0.00000E+00
    0.19159E+07        -0.32469E+07         0.00000E+00
    0.00000E+00         0.00000E+00         0.00000E+00
 
    0.84670E+05         0.19525E+07         0.00000E+00
    0.19525E+07        -0.32307E+07         0.00000E+00
    0.00000E+00         0.00000E+00         0.00000E+00
 
    0.51034E+05         0.19889E+07         0.00000E+00
    0.19889E+07        -0.32143E+07         0.00000E+00
    0.00000E+00         0.00000E+00         0.00000E+00
 
    0.17067E+05         0.20251E+07         0.00000E+00
    0.20251E+07        -0.31974E+07         0.00000E+00
    0.00000E+00         0.00000E+00         0.00000E+00
 
    0.13299E+07         0.23665E+05         0.00000E+00
    0.23665E+05        -0.38077E+07         0.00000E+00
    0.00000E+00         0.00000E+00         0.00000E+00
 
    0.13117E+07         0.70537E+05         0.00000E+00
    0.70537E+05        -0.38074E+07         0.00000E+00
    0.00000E+00         0.00000E+00         0.00000E+00
 
    0.12931E+07         0.11724E+06         0.00000E+00
    0.11724E+06        -0.38066E+07         0.00000E+00
    0.00000E+00         0.00000E+00         0.00000E+00
 
    0.12741E+07         0.16378E+06         0.00000E+00
    0.16378E+06        -0.38055E+07         0.00000E+00
    0.00000E+00         0.00000E+00         0.00000E+00
 
    0.12548E+07         0.21014E+06         0.00000E+00
    0.21014E+06        -0.38040E+07         0.00000E+00
    0.00000E+00         0.00000E+00         0.00000E+00
 
    0.12351E+07         0.25634E+06         0.00000E+00
    0.25634E+06        -0.38021E+07         0.00000E+00
    0.00000E+00         0.00000E+00         0.00000E+00
 
    0.12150E+07         0.30237E+06         0.00000E+00
    0.30237E+06        -0.37999E+07         0.00000E+00
    0.00000E+00         0.00000E+00         0.00000E+00
 
    0.11945E+07         0.34823E+06         0.00000E+00
    0.34823E+06        -0.37973E+07         0.00000E+00
    0.00000E+00         0.00000E+00         0.00000E+00
 
    0.11737E+07         0.39392E+06         0.00000E+00
    0.39392E+06        -0.37944E+07         0.00000E+00
    0.00000E+00         0.00000E+00         0.00000E+00
 
    0.11525E+07         0.43945E+06         0.00000E+00
    0.43945E+06        -0.37911E+07         0.00000E+00
    0.00000E+00         0.00000E+00         0.00000E+00
 
    0.11310E+07         0.48480E+06         0.00000E+00
    0.48480E+06        -0.37874E+07         0.00000E+00
    0.00000E+00         0.00000E+00         0.00000E+00
 
    0.11091E+07         0.52998E+06         0.00000E+00
    0.52998E+06        -0.37834E+07         0.00000E+00
    0.00000E+00         0.00000E+00         0.00000E+00
 
    0.10868E+07         0.57498E+06         0.00000E+00
    0.57498E+06        -0.37790E+07         0.00000E+00
    0.00000E+00         0.00000E+00         0.00000E+00
 
    0.10642E+07         0.61982E+06         0.00000E+00
    0.61982E+06        -0.37742E+07         0.00000E+00
    0.00000E+00         0.00000E+00         0.00000E+00
 
    0.10412E+07         0.66448E+06         0.00000E+00
    0.66448E+06        -0.37691E+07         0.00000E+00
    0.00000E+00         0.00000E+00         0.00000E+00
 
    0.10179E+07         0.70898E+06         0.00000E+00
    0.70898E+06        -0.37636E+07         0.00000E+00
    0.00000E+00         0.00000E+00         0.00000E+00
 
    0.99416E+06         0.75329E+06         0.00000E+00
    0.75329E+06        -0.37578E+07         0.00000E+00
    0.00000E+00         0.00000E+00         0.00000E+00
 
    0.97011E+06         0.79743E+06         0.00000E+00
    0.79743E+06        -0.37516E+07         0.00000E+00
    0.00000E+00         0.00000E+00         0.00000E+00
 
    0.94571E+06         0.84140E+06         0.00000E+00
    0.84140E+06        -0.37451E+07         0.00000E+00
    0.00000E+00         0.00000E+00         0.00000E+00
 
    0.92096E+06         0.88519E+06         0.00000E+00
    0.88519E+06        -0.37382E+07         0.00000E+00
    0.00000E+00         0.00000E+00         0.00000E+00
 
    0.89585E+06         0.92881E+06         0.00000E+00
    0.92881E+06        -0.37310E+07         0.00000E+00
    0.00000E+00         0.00000E+00         0.00000E+00
 
    0.87040E+06         0.97225E+06         0.00000E+00
    0.97225E+06        -0.37234E+07         0.00000E+00
    0.00000E+00         0.00000E+00         0.00000E+00
 
    0.84460E+06         0.10155E+07         0.00000E+00
    0.10155E+07        -0.37154E+07         0.00000E+00
    0.00000E+00         0.00000E+00         0.00000E+00
 
    0.81845E+06         0.10586E+07         0.00000E+00
    0.10586E+07        -0.37071E+07         0.00000E+00
    0.00000E+00         0.00000E+00         0.00000E+00
 
    0.79195E+06         0.11015E+07         0.00000E+00
    0.11015E+07        -0.36985E+07         0.00000E+00
    0.00000E+00         0.00000E+00         0.00000E+00
 
    0.76511E+06         0.11442E+07         0.00000E+00
    0.11442E+07        -0.36895E+07         0.00000E+00
    0.00000E+00         0.00000E+00         0.00000E+00
 
    0.73792E+06         0.11867E+07         0.00000E+00
    0.11867E+07        -0.36802E+07         0.00000E+00
    0.00000E+00         0.00000E+00         0.00000E+00
 
    0.71038E+06         0.12291E+07         0.00000E+00
    0.12291E+07        -0.36705E+07         0.00000E+00
    0.00000E+00         0.00000E+00         0.00000E+00
 
    0.68250E+06         0.12713E+07         0.00000E+00
    0.12713E+07        -0.36604E+07         0.00000E+00
    0.00000E+00         0.00000E+00         0.00000E+00
 
    0.65428E+06         0.13132E+07         0.00000E+00
    0.13132E+07        -0.36500E+07         0.00000E+00
    0.00000E+00         0.00000E+00         0.00000E+00
 
    0.62571E+06         0.13550E+07         0.00000E+00
    0.13550E+07        -0.36393E+07         0.00000E+00
    0.00000E+00         0.00000E+00         0.00000E+00
 
    0.59679E+06         0.13966E+07         0.00000E+00
    0.13966E+07        -0.36282E+07         0.00000E+00
    0.00000E+00         0.00000E+00         0.00000E+00
 
    0.56754E+06         0.14381E+07         0.00000E+00
    0.14381E+07        -0.36168E+07         0.00000E+00
    0.00000E+00         0.00000E+00         0.00000E+00
 
    0.53793E+06         0.14793E+07         0.00000E+00
    0.14793E+07        -0.36050E+07         0.00000E+00
    0.00000E+00         0.00000E+00         0.00000E+00
 
    0.50799E+06         0.15203E+07         0.00000E+00
    0.15203E+07        -0.35928E+07         0.00000E+00
    0.00000E+00         0.00000E+00         0.00000E+00
 
    0.47770E+06         0.15612E+07         0.00000E+00
    0.15612E+07        -0.35803E+07         0.00000E+00
    0.00000E+00         0.00000E+00         0.00000E+00
 
    0.44707E+06         0.16018E+07         0.00000E+00
    0.16018E+07        -0.35675E+07         0.00000E+00
    0.00000E+00         0.00000E+00         0.00000E+00
 
    0.41610E+06         0.16422E+07         0.00000E+00
    0.16422E+07        -0.35543E+07         0.00000E+00
    0.00000E+00         0.00000E+00         0.00000E+00
 
    0.38478E+06         0.16825E+07         0.00000E+00
    0.16825E+07        -0.35408E+07         0.00000E+00
    0.00000E+00         0.00000E+00         0.00000E+00
 
    0.35312E+06         0.17225E+07         0.00000E+00
    0.17225E+07        -0.35269E+07         0.00000E+00
    0.00000E+00         0.00000E+00         0.00000E+00
 
    0.32111E+06         0.17624E+07         0.00000E+00
    0.17624E+07        -0.35127E+07         0.00000E+00
    0.00000E+00         0.00000E+00         0.00000E+00
 
    0.28877E+06         0.18020E+07         0.00000E+00
    0.18020E+07        -0.34981E+07         0.00000E+00
    0.00000E+00         0.00000E+00         0.00000E+00
 
    0.25608E+06         0.18414E+07         0.00000E+00
    0.18414E+07        -0.34832E+07         0.00000E+00
    0.00000E+00         0.00000E+00         0.00000E+00
 
    0.22304E+06         0.18806E+07         0.00000E+00
    0.18806E+07        -0.34679E+07         0.00000E+00
    0.00000E+00         0.00000E+00         0.00000E+00
 
    0.18967E+06         0.19197E+07         0.00000E+00
    0.19197E+07        -0.34523E+07         0.00000E+00
    0.00000E+00         0.00000E+00         0.00000E+00
 
    0.15595E+06         0.19584E+07         0.00000E+00
    0.19584E+07        -0.34363E+07         0.00000E+00
    0.00000E+00         0.00000E+00         0.00000E+00
 
    0.12189E+06         0.19970E+07         0.00000E+00
    0.19970E+07        -0.34200E+07         0.00000E+00
    0.00000E+00         0.00000E+00         0.00000E+00
 
    0.87479E+05         0.20354E+07         0.00000E+00
    0.20354E+07        -0.34033E+07         0.00000E+00
    0.00000E+00         0.00000E+00         0.00000E+00
 
    0.52728E+05         0.20735E+07         0.00000E+00
    0.20735E+07        -0.33863E+07         0.00000E+00
    0.00000E+00         0.00000E+00         0.00000E+00
 
    0.17633E+05         0.21114E+07         0.00000E+00
    0.21114E+07        -0.33689E+07         0.00000E+00
    0.00000E+00         0.00000E+00         0.00000E+00
 
    0.13769E+07         0.24599E+05         0.00000E+00
    0.24599E+05        -0.40001E+07         0.00000E+00
    0.00000E+00         0.00000E+00         0.00000E+00
 
    0.13578E+07         0.73321E+05         0.00000E+00
    0.73321E+05        -0.39997E+07         0.00000E+00
    0.00000E+00         0.00000E+00         0.00000E+00
 
    0.13384E+07         0.12187E+06         0.00000E+00
    0.12187E+06        -0.39990E+07         0.00000E+00
    0.00000E+00         0.00000E+00         0.00000E+00
 
    0.13186E+07         0.17024E+06         0.00000E+00
    0.17024E+06        -0.39978E+07         0.00000E+00
    0.00000E+00         0.00000E+00         0.00000E+00
 
    0.12984E+07         0.21845E+06         0.00000E+00
    0.21845E+06        -0.39963E+07         0.00000E+00
    0.00000E+00         0.00000E+00         0.00000E+00
 
    0.12778E+07         0.26647E+06         0.00000E+00
    0.26647E+06        -0.39944E+07         0.00000E+00
    0.00000E+00         0.00000E+00         0.00000E+00
 
    0.12568E+07         0.31433E+06         0.00000E+00
    0.31433E+06        -0.39922E+07         0.00000E+00
    0.00000E+00         0.00000E+00         0.00000E+00
 
    0.12355E+07         0.36201E+06         0.00000E+00
    0.36201E+06        -0.39895E+07         0.00000E+00
    0.00000E+00         0.00000E+00         0.00000E+00
 
    0.12138E+07         0.40952E+06         0.00000E+00
    0.40952E+06        -0.39865E+07         0.00000E+00
    0.00000E+00         0.00000E+00         0.00000E+00
 
    0.11918E+07         0.45685E+06         0.00000E+00
    0.45685E+06        -0.39831E+07         0.00000E+00
    0.00000E+00         0.00000E+00         0.00000E+00
 
    0.11694E+07         0.50401E+06         0.00000E+00
    0.50401E+06        -0.39794E+07         0.00000E+00
    0.00000E+00         0.00000E+00         0.00000E+00
 
    0.11466E+07         0.55099E+06         0.00000E+00
    0.55099E+06        -0.39752E+07         0.00000E+00
    0.00000E+00         0.00000E+00         0.00000E+00
 
    0.11234E+07         0.59781E+06         0.00000E+00
    0.59781E+06        -0.39707E+07         0.00000E+00
    0.00000E+00         0.00000E+00         0.00000E+00
 
    0.10999E+07         0.64444E+06         0.00000E+00
    0.64444E+06        -0.39659E+07         0.00000E+00
    0.00000E+00         0.00000E+00         0.00000E+00
 
    0.10761E+07         0.69090E+06         0.00000E+00
    0.69090E+06        -0.39607E+07         0.00000E+00
    0.00000E+00         0.00000E+00         0.00000E+00
 
    0.10518E+07         0.73719E+06         0.00000E+00
    0.73719E+06        -0.39551E+07         0.00000E+00
    0.00000E+00         0.00000E+00         0.00000E+00
 
    0.10273E+07         0.78330E+06         0.00000E+00
    0.78330E+06        -0.39491E+07         0.00000E+00
    0.00000E+00         0.00000E+00         0.00000E+00
 
    0.10023E+07         0.82923E+06         0.00000E+00
    0.82923E+06        -0.39428E+07         0.00000E+00
    0.00000E+00         0.00000E+00         0.00000E+00
 
    0.97702E+06         0.87499E+06         0.00000E+00
    0.87499E+06        -0.39361E+07         0.00000E+00
    0.00000E+00         0.00000E+00         0.00000E+00
 
    0.95137E+06         0.92057E+06         0.00000E+00
    0.92057E+06        -0.39291E+07         0.00000E+00
    0.00000E+00         0.00000E+00         0.00000E+00
 
    0.92536E+06         0.96597E+06         0.00000E+00
    0.96597E+06        -0.39217E+07         0.00000E+00
    0.00000E+00         0.00000E+00         0.00000E+00
 
    0.89900E+06         0.10112E+07         0.00000E+00
    0.10112E+07        -0.39139E+07         0.00000E+00
    0.00000E+00         0.00000E+00         0.00000E+00
 
    0.87229E+06         0.10562E+07         0.00000E+00
    0.10562E+07        -0.39058E+07         0.00000E+00
    0.00000E+00         0.00000E+00         0.00000E+00
 
    0.84522E+06         0.11011E+07         0.00000E+00
    0.11011E+07        -0.38973E+07         0.00000E+00
    0.00000E+00         0.00000E+00         0.00000E+00
 
    0.81780E+06         0.11458E+07         0.00000E+00
    0.11458E+07        -0.38884E+07         0.00000E+00
    0.00000E+00         0.00000E+00         0.00000E+00
 
    0.79004E+06         0.11903E+07         0.00000E+00
    0.11903E+07        -0.38792E+07         0.00000E+00
    0.00000E+00         0.00000E+00         0.00000E+00
 
    0.76191E+06         0.12346E+07         0.00000E+00
    0.12346E+07        -0.38696E+07         0.00000E+00
    0.00000E+00         0.00000E+00         0.00000E+00
 
    0.73344E+06         0.12787E+07         0.00000E+00
    0.12787E+07        -0.38597E+07         0.00000E+00
    0.00000E+00         0.00000E+00         0.00000E+00
 
    0.70462E+06         0.13227E+07         0.00000E+00
    0.13227E+07        -0.38494E+07         0.00000E+00
    0.00000E+00         0.00000E+00         0.00000E+00
 
    0.67545E+06         0.13665E+07         0.00000E+00
    0.13665E+07        -0.38387E+07         0.00000E+00
    0.00000E+00         0.00000E+00         0.00000E+00
 
    0.64592E+06         0.14100E+07         0.00000E+00
    0.14100E+07        -0.38277E+07         0.00000E+00
    0.00000E+00         0.00000E+00         0.00000E+00
 
    0.61605E+06         0.14534E+07         0.00000E+00
    0.14534E+07        -0.38163E+07         0.00000E+00
    0.00000E+00         0.00000E+00         0.00000E+00
 
    0.58582E+06         0.14966E+07         0.00000E+00
    0.14966E+07        -0.38046E+07         0.00000E+00
    0.00000E+00         0.00000E+00         0.00000E+00
 
    0.55525E+06         0.15397E+07         0.00000E+00
    0.15397E+07        -0.37925E+07         0.00000E+00
    0.00000E+00         0.00000E+00         0.00000E+00
 
    0.52432E+06         0.15825E+07         0.00000E+00
    0.15825E+07        -0.37800E+07         0.00000E+00
    0.00000E+00         0.00000E+00         0.00000E+00
 
    0.49305E+06         0.16251E+07         0.00000E+00
    0.16251E+07        -0.37672E+07         0.00000E+00
    0.00000E+00         0.00000E+00         0.00000E+00
 
    0.46142E+06         0.16675E+07         0.00000E+00
    0.16675E+07        -0.37540E+07         0.00000E+00
    0.00000E+00         0.00000E+00         0.00000E+00
 
    0.42944E+06         0.17098E+07         0.00000E+00
    0.17098E+07        -0.37404E+07         0.00000E+00
    0.00000E+00         0.00000E+00         0.00000E+00
 
    0.39711E+06         0.17518E+07         0.00000E+00
    0.17518E+07        -0.37265E+07         0.00000E+00
    0.00000E+00         0.00000E+00         0.00000E+00
 
    0.36443E+06         0.17936E+07         0.00000E+00
    0.17936E+07        -0.37122E+07         0.00000E+00
    0.00000E+00         0.00000E+00         0.00000E+00
 
    0.33140E+06         0.18353E+07         0.00000E+00
    0.18353E+07        -0.36976E+07         0.00000E+00
    0.00000E+00         0.00000E+00         0.00000E+00
 
    0.29801E+06         0.18767E+07         0.00000E+00
    0.18767E+07        -0.36826E+07         0.00000E+00
    0.00000E+00         0.00000E+00         0.00000E+00
 
    0.26428E+06         0.19179E+07         0.00000E+00
    0.19179E+07        -0.36672E+07         0.00000E+00
    0.00000E+00         0.00000E+00         0.00000E+00
 
    0.23018E+06         0.19589E+07         0.00000E+00
    0.19589E+07        -0.36515E+07         0.00000E+00
    0.00000E+00         0.00000E+00         0.00000E+00
 
    0.19574E+06         0.19998E+07         0.00000E+00
    0.19998E+07        -0.36354E+07         0.00000E+00
    0.00000E+00         0.00000E+00         0.00000E+00
 
    0.16094E+06         0.20403E+07         0.00000E+00
    0.20403E+07        -0.36189E+07         0.00000E+00
    0.00000E+00         0.00000E+00         0.00000E+00
 
    0.12579E+06         0.20807E+07         0.00000E+00
    0.20807E+07        -0.36021E+07         0.00000E+00
    0.00000E+00         0.00000E+00         0.00000E+00
 
    0.90280E+05         0.21209E+07         0.00000E+00
    0.21209E+07        -0.35849E+07         0.00000E+00
    0.00000E+00         0.00000E+00         0.00000E+00
 
    0.54417E+05         0.21608E+07         0.00000E+00
    0.21608E+07        -0.35674E+07         0.00000E+00
    0.00000E+00         0.00000E+00         0.00000E+00
 
    0.18198E+05         0.22005E+07         0.00000E+00
    0.22005E+07        -0.35495E+07         0.00000E+00
    0.00000E+00         0.00000E+00         0.00000E+00
 
    0.14241E+07         0.25554E+05         0.00000E+00
    0.25554E+05        -0.42017E+07         0.00000E+00
    0.00000E+00         0.00000E+00         0.00000E+00
 
    0.14042E+07         0.76169E+05         0.00000E+00
    0.76169E+05        -0.42013E+07         0.00000E+00
    0.00000E+00         0.00000E+00         0.00000E+00
 
    0.13838E+07         0.12660E+06         0.00000E+00
    0.12660E+06        -0.42005E+07         0.00000E+00
    0.00000E+00         0.00000E+00         0.00000E+00
 
    0.13631E+07         0.17686E+06         0.00000E+00
    0.17686E+06        -0.41994E+07         0.00000E+00
    0.00000E+00         0.00000E+00         0.00000E+00
 
    0.13421E+07         0.22694E+06         0.00000E+00
    0.22694E+06        -0.41978E+07         0.00000E+00
    0.00000E+00         0.00000E+00         0.00000E+00
 
    0.13206E+07         0.27684E+06         0.00000E+00
    0.27684E+06        -0.41959E+07         0.00000E+00
    0.00000E+00         0.00000E+00         0.00000E+00
 
    0.12988E+07         0.32656E+06         0.00000E+00
    0.32656E+06        -0.41936E+07         0.00000E+00
    0.00000E+00         0.00000E+00         0.00000E+00
 
    0.12766E+07         0.37611E+06         0.00000E+00
    0.37611E+06        -0.41909E+07         0.00000E+00
    0.00000E+00         0.00000E+00         0.00000E+00
 
    0.12540E+07         0.42548E+06         0.00000E+00
    0.42548E+06        -0.41878E+07         0.00000E+00
    0.00000E+00         0.00000E+00         0.00000E+00
 
    0.12310E+07         0.47467E+06         0.00000E+00
    0.47467E+06        -0.41843E+07         0.00000E+00
    0.00000E+00         0.00000E+00         0.00000E+00
 
    0.12077E+07         0.52368E+06         0.00000E+00
    0.52368E+06        -0.41805E+07         0.00000E+00
    0.00000E+00         0.00000E+00         0.00000E+00
 
    0.11841E+07         0.57251E+06         0.00000E+00
    0.57251E+06        -0.41763E+07         0.00000E+00
    0.00000E+00         0.00000E+00         0.00000E+00
 
    0.11600E+07         0.62117E+06         0.00000E+00
    0.62117E+06        -0.41717E+07         0.00000E+00
    0.00000E+00         0.00000E+00         0.00000E+00
 
    0.11356E+07         0.66966E+06         0.00000E+00
    0.66966E+06        -0.41668E+07         0.00000E+00
    0.00000E+00         0.00000E+00         0.00000E+00
 
    0.11109E+07         0.71796E+06         0.00000E+00
    0.71796E+06        -0.41614E+07         0.00000E+00
    0.00000E+00         0.00000E+00         0.00000E+00
 
    0.10857E+07         0.76609E+06         0.00000E+00
    0.76609E+06        -0.41557E+07         0.00000E+00
    0.00000E+00         0.00000E+00         0.00000E+00
 
    0.10603E+07         0.81404E+06         0.00000E+00
    0.81404E+06        -0.41497E+07         0.00000E+00
    0.00000E+00         0.00000E+00         0.00000E+00
 
    0.10344E+07         0.86181E+06         0.00000E+00
    0.86181E+06        -0.41432E+07         0.00000E+00
    0.00000E+00         0.00000E+00         0.00000E+00
 
    0.10082E+07         0.90941E+06         0.00000E+00
    0.90941E+06        -0.41364E+07         0.00000E+00
    0.00000E+00         0.00000E+00         0.00000E+00
 
    0.98165E+06         0.95683E+06         0.00000E+00
    0.95683E+06        -0.41292E+07         0.00000E+00
    0.00000E+00         0.00000E+00         0.00000E+00
 
    0.95474E+06         0.10041E+07         0.00000E+00
    0.10041E+07        -0.41216E+07         0.00000E+00
    0.00000E+00         0.00000E+00         0.00000E+00
 
    0.92746E+06         0.10511E+07         0.00000E+00
    0.10511E+07        -0.41137E+07         0.00000E+00
    0.00000E+00         0.00000E+00         0.00000E+00
 
    0.89984E+06         0.10980E+07         0.00000E+00
    0.10980E+07        -0.41054E+07         0.00000E+00
    0.00000E+00         0.00000E+00         0.00000E+00
 
    0.87185E+06         0.11447E+07         0.00000E+00
    0.11447E+07        -0.40967E+07         0.00000E+00
    0.00000E+00         0.00000E+00         0.00000E+00
 
    0.84351E+06         0.11912E+07         0.00000E+00
    0.11912E+07        -0.40876E+07         0.00000E+00
    0.00000E+00         0.00000E+00         0.00000E+00
 
    0.81481E+06         0.12376E+07         0.00000E+00
    0.12376E+07        -0.40782E+07         0.00000E+00
    0.00000E+00         0.00000E+00         0.00000E+00
 
    0.78576E+06         0.12837E+07         0.00000E+00
    0.12837E+07        -0.40684E+07         0.00000E+00
    0.00000E+00         0.00000E+00         0.00000E+00
 
    0.75636E+06         0.13297E+07         0.00000E+00
    0.13297E+07        -0.40582E+07         0.00000E+00
    0.00000E+00         0.00000E+00         0.00000E+00
 
    0.72659E+06         0.13755E+07         0.00000E+00
    0.13755E+07        -0.40477E+07         0.00000E+00
    0.00000E+00         0.00000E+00         0.00000E+00
 
    0.69647E+06         0.14211E+07         0.00000E+00
    0.14211E+07        -0.40368E+07         0.00000E+00
    0.00000E+00         0.00000E+00         0.00000E+00
 
    0.66600E+06         0.14665E+07         0.00000E+00
    0.14665E+07        -0.40255E+07         0.00000E+00
    0.00000E+00         0.00000E+00         0.00000E+00
 
    0.63517E+06         0.15118E+07         0.00000E+00
    0.15118E+07        -0.40138E+07         0.00000E+00
    0.00000E+00         0.00000E+00         0.00000E+00
 
    0.60398E+06         0.15568E+07         0.00000E+00
    0.15568E+07        -0.40018E+07         0.00000E+00
    0.00000E+00         0.00000E+00         0.00000E+00
 
    0.57244E+06         0.16017E+07         0.00000E+00
    0.16017E+07        -0.39894E+07         0.00000E+00
    0.00000E+00         0.00000E+00         0.00000E+00
 
    0.54054E+06         0.16464E+07         0.00000E+00
    0.16464E+07        -0.39766E+07         0.00000E+00
    0.00000E+00         0.00000E+00         0.00000E+00
 
    0.50828E+06         0.16908E+07         0.00000E+00
    0.16908E+07        -0.39634E+07         0.00000E+00
    0.00000E+00         0.00000E+00         0.00000E+00
 
    0.47566E+06         0.17351E+07         0.00000E+00
    0.17351E+07        -0.39499E+07         0.00000E+00
    0.00000E+00         0.00000E+00         0.00000E+00
 
    0.44269E+06         0.17792E+07         0.00000E+00
    0.17792E+07        -0.39360E+07         0.00000E+00
    0.00000E+00         0.00000E+00         0.00000E+00
 
    0.40935E+06         0.18231E+07         0.00000E+00
    0.18231E+07        -0.39217E+07         0.00000E+00
    0.00000E+00         0.00000E+00         0.00000E+00
 
    0.37566E+06         0.18668E+07         0.00000E+00
    0.18668E+07        -0.39071E+07         0.00000E+00
    0.00000E+00         0.00000E+00         0.00000E+00
 
    0.34160E+06         0.19103E+07         0.00000E+00
    0.19103E+07        -0.38920E+07         0.00000E+00
    0.00000E+00         0.00000E+00         0.00000E+00
 
    0.30719E+06         0.19536E+07         0.00000E+00
    0.19536E+07        -0.38766E+07         0.00000E+00
    0.00000E+00         0.00000E+00         0.00000E+00
 
    0.27241E+06         0.19967E+07         0.00000E+00
    0.19967E+07        -0.38608E+07         0.00000E+00
    0.00000E+00         0.00000E+00         0.00000E+00
 
    0.23727E+06         0.20396E+07         0.00000E+00
    0.20396E+07        -0.38446E+07         0.00000E+00
    0.00000E+00         0.00000E+00         0.00000E+00
 
    0.20176E+06         0.20823E+07         0.00000E+00
    0.20823E+07        -0.38281E+07         0.00000E+00
    0.00000E+00         0.00000E+00         0.00000E+00
 
    0.16589E+06         0.21247E+07         0.00000E+00
    0.21247E+07        -0.38111E+07         0.00000E+00
    0.00000E+00         0.00000E+00         0.00000E+00
 
    0.12966E+06         0.21670E+07         0.00000E+00
    0.21670E+07        -0.37938E+07         0.00000E+00
    0.00000E+00         0.00000E+00         0.00000E+00
 
    0.93060E+05         0.22090E+07         0.00000E+00
    0.22090E+07        -0.37761E+07         0.00000E+00
    0.00000E+00         0.00000E+00         0.00000E+00
 
    0.56093E+05         0.22508E+07         0.00000E+00
    0.22508E+07        -0.37580E+07         0.00000E+00
    0.00000E+00         0.00000E+00         0.00000E+00
 
    0.18759E+05         0.22924E+07         0.00000E+00
    0.22924E+07        -0.37396E+07         0.00000E+00
    0.00000E+00         0.00000E+00         0.00000E+00
 
    0.14714E+07         0.26529E+05         0.00000E+00
    0.26529E+05        -0.44128E+07         0.00000E+00
    0.00000E+00         0.00000E+00         0.00000E+00
 
    0.14505E+07         0.79077E+05         0.00000E+00
    0.79077E+05        -0.44124E+07         0.00000E+00
    0.00000E+00         0.00000E+00         0.00000E+00
 
    0.14293E+07         0.13144E+06         0.00000E+00
    0.13144E+06        -0.44116E+07         0.00000E+00
    0.00000E+00         0.00000E+00         0.00000E+00
 
    0.14076E+07         0.18362E+06         0.00000E+00
    0.18362E+06        -0.44104E+07         0.00000E+00
    0.00000E+00         0.00000E+00         0.00000E+00
 
    0.13856E+07         0.23562E+06         0.00000E+00
    0.23562E+06        -0.44089E+07         0.00000E+00
    0.00000E+00         0.00000E+00         0.00000E+00
 
    0.13633E+07         0.28743E+06         0.00000E+00
    0.28743E+06        -0.44069E+07         0.00000E+00
    0.00000E+00         0.00000E+00         0.00000E+00
 
    0.13405E+07         0.33906E+06         0.00000E+00
    0.33906E+06        -0.44046E+07         0.00000E+00
    0.00000E+00         0.00000E+00         0.00000E+00
 
    0.13174E+07         0.39051E+06         0.00000E+00
    0.39051E+06        -0.44018E+07         0.00000E+00
    0.00000E+00         0.00000E+00         0.00000E+00
 
    0.12939E+07         0.44178E+06         0.00000E+00
    0.44178E+06        -0.43987E+07         0.00000E+00
    0.00000E+00         0.00000E+00         0.00000E+00
 
    0.12701E+07         0.49287E+06         0.00000E+00
    0.49287E+06        -0.43952E+07         0.00000E+00
    0.00000E+00         0.00000E+00         0.00000E+00
 
    0.12459E+07         0.54378E+06         0.00000E+00
    0.54378E+06        -0.43913E+07         0.00000E+00
    0.00000E+00         0.00000E+00         0.00000E+00
 
    0.12213E+07         0.59451E+06         0.00000E+00
    0.59451E+06        -0.43870E+07         0.00000E+00
    0.00000E+00         0.00000E+00         0.00000E+00
 
    0.11964E+07         0.64506E+06         0.00000E+00
    0.64506E+06        -0.43824E+07         0.00000E+00
    0.00000E+00         0.00000E+00         0.00000E+00
 
    0.11711E+07         0.69543E+06         0.00000E+00
    0.69543E+06        -0.43773E+07         0.00000E+00
    0.00000E+00         0.00000E+00         0.00000E+00
 
    0.11454E+07         0.74563E+06         0.00000E+00
    0.74563E+06        -0.43719E+07         0.00000E+00
    0.00000E+00         0.00000E+00         0.00000E+00
 
    0.11194E+07         0.79564E+06         0.00000E+00
    0.79564E+06        -0.43661E+07         0.00000E+00
    0.00000E+00         0.00000E+00         0.00000E+00
 
    0.10930E+07         0.84548E+06         0.00000E+00
    0.84548E+06        -0.43599E+07         0.00000E+00
    0.00000E+00         0.00000E+00         0.00000E+00
 
    0.10662E+07         0.89514E+06         0.00000E+00
    0.89514E+06        -0.43533E+07         0.00000E+00
    0.00000E+00         0.00000E+00         0.00000E+00
 
    0.10391E+07         0.94462E+06         0.00000E+00
    0.94462E+06        -0.43464E+07         0.00000E+00
    0.00000E+00         0.00000E+00         0.00000E+00
 
    0.10117E+07         0.99393E+06         0.00000E+00
    0.99393E+06        -0.43390E+07         0.00000E+00
    0.00000E+00         0.00000E+00         0.00000E+00
 
    0.98382E+06         0.10431E+07         0.00000E+00
    0.10431E+07        -0.43313E+07         0.00000E+00
    0.00000E+00         0.00000E+00         0.00000E+00
 
    0.95564E+06         0.10920E+07         0.00000E+00
    0.10920E+07        -0.43232E+07         0.00000E+00
    0.00000E+00         0.00000E+00         0.00000E+00
 
    0.92709E+06         0.11408E+07         0.00000E+00
    0.11408E+07        -0.43147E+07         0.00000E+00
    0.00000E+00         0.00000E+00         0.00000E+00
 
    0.89819E+06         0.11894E+07         0.00000E+00
    0.11894E+07        -0.43059E+07         0.00000E+00
    0.00000E+00         0.00000E+00         0.00000E+00
 
    0.86893E+06         0.12378E+07         0.00000E+00
    0.12378E+07        -0.42966E+07         0.00000E+00
    0.00000E+00         0.00000E+00         0.00000E+00
 
    0.83931E+06         0.12860E+07         0.00000E+00
    0.12860E+07        -0.42870E+07         0.00000E+00
    0.00000E+00         0.00000E+00         0.00000E+00
 
    0.80933E+06         0.13341E+07         0.00000E+00
    0.13341E+07        -0.42770E+07         0.00000E+00
    0.00000E+00         0.00000E+00         0.00000E+00
 
    0.77899E+06         0.13819E+07         0.00000E+00
    0.13819E+07        -0.42666E+07         0.00000E+00
    0.00000E+00         0.00000E+00         0.00000E+00
 
    0.74830E+06         0.14296E+07         0.00000E+00
    0.14296E+07        -0.42558E+07         0.00000E+00
    0.00000E+00         0.00000E+00         0.00000E+00
 
    0.71724E+06         0.14771E+07         0.00000E+00
    0.14771E+07        -0.42447E+07         0.00000E+00
    0.00000E+00         0.00000E+00         0.00000E+00
 
    0.68582E+06         0.15245E+07         0.00000E+00
    0.15245E+07        -0.42331E+07         0.00000E+00
    0.00000E+00         0.00000E+00         0.00000E+00
 
    0.65404E+06         0.15716E+07         0.00000E+00
    0.15716E+07        -0.42212E+07         0.00000E+00
    0.00000E+00         0.00000E+00         0.00000E+00
 
    0.62190E+06         0.16186E+07         0.00000E+00
    0.16186E+07        -0.42089E+07         0.00000E+00
    0.00000E+00         0.00000E+00         0.00000E+00
 
    0.58940E+06         0.16653E+07         0.00000E+00
    0.16653E+07        -0.41962E+07         0.00000E+00
    0.00000E+00         0.00000E+00         0.00000E+00
 
    0.55653E+06         0.17119E+07         0.00000E+00
    0.17119E+07        -0.41831E+07         0.00000E+00
    0.00000E+00         0.00000E+00         0.00000E+00
 
    0.52330E+06         0.17583E+07         0.00000E+00
    0.17583E+07        -0.41696E+07         0.00000E+00
    0.00000E+00         0.00000E+00         0.00000E+00
 
    0.48971E+06         0.18045E+07         0.00000E+00
    0.18045E+07        -0.41558E+07         0.00000E+00
    0.00000E+00         0.00000E+00         0.00000E+00
 
    0.45575E+06         0.18505E+07         0.00000E+00
    0.18505E+07        -0.41415E+07         0.00000E+00
    0.00000E+00         0.00000E+00         0.00000E+00
 
    0.42142E+06         0.18963E+07         0.00000E+00
    0.18963E+07        -0.41269E+07         0.00000E+00
    0.00000E+00         0.00000E+00         0.00000E+00
 
    0.38673E+06         0.19420E+07         0.00000E+00
    0.19420E+07        -0.41118E+07         0.00000E+00
    0.00000E+00         0.00000E+00         0.00000E+00
 
    0.35166E+06         0.19874E+07         0.00000E+00
    0.19874E+07        -0.40964E+07         0.00000E+00
    0.00000E+00         0.00000E+00         0.00000E+00
 
    0.31623E+06         0.20326E+07         0.00000E+00
    0.20326E+07        -0.40806E+07         0.00000E+00
    0.00000E+00         0.00000E+00         0.00000E+00
 
    0.28043E+06         0.20777E+07         0.00000E+00
    0.20777E+07        -0.40644E+07         0.00000E+00
    0.00000E+00         0.00000E+00         0.00000E+00
 
    0.24425E+06         0.21225E+07         0.00000E+00
    0.21225E+07        -0.40477E+07         0.00000E+00
    0.00000E+00         0.00000E+00         0.00000E+00
 
    0.20770E+06         0.21671E+07         0.00000E+00
    0.21671E+07        -0.40307E+07         0.00000E+00
    0.00000E+00         0.00000E+00         0.00000E+00
 
    0.17078E+06         0.22115E+07         0.00000E+00
    0.22115E+07        -0.40133E+07         0.00000E+00
    0.00000E+00         0.00000E+00         0.00000E+00
 
    0.13348E+06         0.22558E+07         0.00000E+00
    0.22558E+07        -0.39955E+07         0.00000E+00
    0.00000E+00         0.00000E+00         0.00000E+00
 
    0.95801E+05         0.22998E+07         0.00000E+00
    0.22998E+07        -0.39773E+07         0.00000E+00
    0.00000E+00         0.00000E+00         0.00000E+00
 
    0.57746E+05         0.23435E+07         0.00000E+00
    0.23435E+07        -0.39587E+07         0.00000E+00
    0.00000E+00         0.00000E+00         0.00000E+00
 
    0.19312E+05         0.23871E+07         0.00000E+00
    0.23871E+07        -0.39397E+07         0.00000E+00
    0.00000E+00         0.00000E+00         0.00000E+00
 
    0.15184E+07         0.27522E+05         0.00000E+00
    0.27522E+05        -0.46339E+07         0.00000E+00
    0.00000E+00         0.00000E+00         0.00000E+00
 
    0.14966E+07         0.82040E+05         0.00000E+00
    0.82040E+05        -0.46335E+07         0.00000E+00
    0.00000E+00         0.00000E+00         0.00000E+00
 
    0.14744E+07         0.13637E+06         0.00000E+00
    0.13637E+06        -0.46327E+07         0.00000E+00
    0.00000E+00         0.00000E+00         0.00000E+00
 
    0.14518E+07         0.19051E+06         0.00000E+00
    0.19051E+06        -0.46315E+07         0.00000E+00
    0.00000E+00         0.00000E+00         0.00000E+00
 
    0.14289E+07         0.24446E+06         0.00000E+00
    0.24446E+06        -0.46299E+07         0.00000E+00
    0.00000E+00         0.00000E+00         0.00000E+00
 
    0.14056E+07         0.29822E+06         0.00000E+00
    0.29822E+06        -0.46280E+07         0.00000E+00
    0.00000E+00         0.00000E+00         0.00000E+00
 
    0.13820E+07         0.35180E+06         0.00000E+00
    0.35180E+06        -0.46256E+07         0.00000E+00
    0.00000E+00         0.00000E+00         0.00000E+00
 
    0.13579E+07         0.40519E+06         0.00000E+00
    0.40519E+06        -0.46228E+07         0.00000E+00
    0.00000E+00         0.00000E+00         0.00000E+00
 
    0.13335E+07         0.45840E+06         0.00000E+00
    0.45840E+06        -0.46196E+07         0.00000E+00
    0.00000E+00         0.00000E+00         0.00000E+00
 
    0.13088E+07         0.51143E+06         0.00000E+00
    0.51143E+06        -0.46161E+07         0.00000E+00
    0.00000E+00         0.00000E+00         0.00000E+00
 
    0.12836E+07         0.56428E+06         0.00000E+00
    0.56428E+06        -0.46121E+07         0.00000E+00
    0.00000E+00         0.00000E+00         0.00000E+00
 
    0.12581E+07         0.61694E+06         0.00000E+00
    0.61694E+06        -0.46078E+07         0.00000E+00
    0.00000E+00         0.00000E+00         0.00000E+00
 
    0.12323E+07         0.66942E+06         0.00000E+00
    0.66942E+06        -0.46030E+07         0.00000E+00
    0.00000E+00         0.00000E+00         0.00000E+00
 
    0.12061E+07         0.72173E+06         0.00000E+00
    0.72173E+06        -0.45979E+07         0.00000E+00
    0.00000E+00         0.00000E+00         0.00000E+00
 
    0.11795E+07         0.77385E+06         0.00000E+00
    0.77385E+06        -0.45924E+07         0.00000E+00
    0.00000E+00         0.00000E+00         0.00000E+00
 
    0.11525E+07         0.82580E+06         0.00000E+00
    0.82580E+06        -0.45865E+07         0.00000E+00
    0.00000E+00         0.00000E+00         0.00000E+00
 
    0.11252E+07         0.87757E+06         0.00000E+00
    0.87757E+06        -0.45802E+07         0.00000E+00
    0.00000E+00         0.00000E+00         0.00000E+00
 
    0.10976E+07         0.92916E+06         0.00000E+00
    0.92916E+06        -0.45735E+07         0.00000E+00
    0.00000E+00         0.00000E+00         0.00000E+00
 
    0.10696E+07         0.98058E+06         0.00000E+00
    0.98058E+06        -0.45665E+07         0.00000E+00
    0.00000E+00         0.00000E+00         0.00000E+00
 
    0.10412E+07         0.10318E+07         0.00000E+00
    0.10318E+07        -0.45590E+07         0.00000E+00
    0.00000E+00         0.00000E+00         0.00000E+00
 
    0.10124E+07         0.10829E+07         0.00000E+00
    0.10829E+07        -0.45511E+07         0.00000E+00
    0.00000E+00         0.00000E+00         0.00000E+00
 
    0.98335E+06         0.11338E+07         0.00000E+00
    0.11338E+07        -0.45429E+07         0.00000E+00
    0.00000E+00         0.00000E+00         0.00000E+00
 
    0.95390E+06         0.11845E+07         0.00000E+00
    0.11845E+07        -0.45343E+07         0.00000E+00
    0.00000E+00         0.00000E+00         0.00000E+00
 
    0.92408E+06         0.12350E+07         0.00000E+00
    0.12350E+07        -0.45253E+07         0.00000E+00
    0.00000E+00         0.00000E+00         0.00000E+00
 
    0.89391E+06         0.12853E+07         0.00000E+00
    0.12853E+07        -0.45158E+07         0.00000E+00
    0.00000E+00         0.00000E+00         0.00000E+00
 
    0.86337E+06         0.13355E+07         0.00000E+00
    0.13355E+07        -0.45060E+07         0.00000E+00
    0.00000E+00         0.00000E+00         0.00000E+00
 
    0.83248E+06         0.13855E+07         0.00000E+00
    0.13855E+07        -0.44958E+07         0.00000E+00
    0.00000E+00         0.00000E+00         0.00000E+00
 
    0.80122E+06         0.14353E+07         0.00000E+00
    0.14353E+07        -0.44852E+07         0.00000E+00
    0.00000E+00         0.00000E+00         0.00000E+00
 
    0.76960E+06         0.14850E+07         0.00000E+00
    0.14850E+07        -0.44742E+07         0.00000E+00
    0.00000E+00         0.00000E+00         0.00000E+00
 
    0.73761E+06         0.15345E+07         0.00000E+00
    0.15345E+07        -0.44629E+07         0.00000E+00
    0.00000E+00         0.00000E+00         0.00000E+00
 
    0.70527E+06         0.15837E+07         0.00000E+00
    0.15837E+07        -0.44511E+07         0.00000E+00
    0.00000E+00         0.00000E+00         0.00000E+00
 
    0.67255E+06         0.16328E+07         0.00000E+00
    0.16328E+07        -0.44389E+07         0.00000E+00
    0.00000E+00         0.00000E+00         0.00000E+00
 
    0.63947E+06         0.16818E+07         0.00000E+00
    0.16818E+07        -0.44263E+07         0.00000E+00
    0.00000E+00         0.00000E+00         0.00000E+00
 
    0.60603E+06         0.17305E+07         0.00000E+00
    0.17305E+07        -0.44133E+07         0.00000E+00
    0.00000E+00         0.00000E+00         0.00000E+00
 
    0.57221E+06         0.17791E+07         0.00000E+00
    0.17791E+07        -0.44000E+07         0.00000E+00
    0.00000E+00         0.00000E+00         0.00000E+00
 
    0.53803E+06         0.18274E+07         0.00000E+00
    0.18274E+07        -0.43862E+07         0.00000E+00
    0.00000E+00         0.00000E+00         0.00000E+00
 
    0.50347E+06         0.18756E+07         0.00000E+00
    0.18756E+07        -0.43720E+07         0.00000E+00
    0.00000E+00         0.00000E+00         0.00000E+00
 
    0.46855E+06         0.19236E+07         0.00000E+00
    0.19236E+07        -0.43574E+07         0.00000E+00
    0.00000E+00         0.00000E+00         0.00000E+00
 
    0.43325E+06         0.19714E+07         0.00000E+00
    0.19714E+07        -0.43424E+07         0.00000E+00
    0.00000E+00         0.00000E+00         0.00000E+00
 
    0.39757E+06         0.20191E+07         0.00000E+00
    0.20191E+07        -0.43270E+07         0.00000E+00
    0.00000E+00         0.00000E+00         0.00000E+00
 
    0.36152E+06         0.20665E+07         0.00000E+00
    0.20665E+07        -0.43112E+07         0.00000E+00
    0.00000E+00         0.00000E+00         0.00000E+00
 
    0.32509E+06         0.21137E+07         0.00000E+00
    0.21137E+07        -0.42950E+07         0.00000E+00
    0.00000E+00         0.00000E+00         0.00000E+00
 
    0.28828E+06         0.21608E+07         0.00000E+00
    0.21608E+07        -0.42784E+07         0.00000E+00
    0.00000E+00         0.00000E+00         0.00000E+00
 
    0.25109E+06         0.22076E+07         0.00000E+00
    0.22076E+07        -0.42614E+07         0.00000E+00
    0.00000E+00         0.00000E+00         0.00000E+00
 
    0.21352E+06         0.22543E+07         0.00000E+00
    0.22543E+07        -0.42439E+07         0.00000E+00
    0.00000E+00         0.00000E+00         0.00000E+00
 
    0.17556E+06         0.23007E+07         0.00000E+00
    0.23007E+07        -0.42261E+07         0.00000E+00
    0.00000E+00         0.00000E+00         0.00000E+00
 
    0.13722E+06         0.23470E+07         0.00000E+00
    0.23470E+07        -0.42078E+07         0.00000E+00
    0.00000E+00         0.00000E+00         0.00000E+00
 
    0.98487E+05         0.23930E+07         0.00000E+00
    0.23930E+07        -0.41891E+07         0.00000E+00
    0.00000E+00         0.00000E+00         0.00000E+00
 
    0.59366E+05         0.24389E+07         0.00000E+00
    0.24389E+07        -0.41700E+07         0.00000E+00
    0.00000E+00         0.00000E+00         0.00000E+00
 
    0.19854E+05         0.24845E+07         0.00000E+00
    0.24845E+07        -0.41505E+07         0.00000E+00
    0.00000E+00         0.00000E+00         0.00000E+00
 
    0.15649E+07         0.28531E+05         0.00000E+00
    0.28531E+05        -0.48655E+07         0.00000E+00
    0.00000E+00         0.00000E+00         0.00000E+00
 
    0.15421E+07         0.85051E+05         0.00000E+00
    0.85051E+05        -0.48651E+07         0.00000E+00
    0.00000E+00         0.00000E+00         0.00000E+00
 
    0.15190E+07         0.14138E+06         0.00000E+00
    0.14138E+06        -0.48643E+07         0.00000E+00
    0.00000E+00         0.00000E+00         0.00000E+00
 
    0.14955E+07         0.19751E+06         0.00000E+00
    0.19751E+06        -0.48630E+07         0.00000E+00
    0.00000E+00         0.00000E+00         0.00000E+00
 
    0.14716E+07         0.25345E+06         0.00000E+00
    0.25345E+06        -0.48614E+07         0.00000E+00
    0.00000E+00         0.00000E+00         0.00000E+00
 
    0.14474E+07         0.30919E+06         0.00000E+00
    0.30919E+06        -0.48594E+07         0.00000E+00
    0.00000E+00         0.00000E+00         0.00000E+00
 
    0.14228E+07         0.36475E+06         0.00000E+00
    0.36475E+06        -0.48570E+07         0.00000E+00
    0.00000E+00         0.00000E+00         0.00000E+00
 
    0.13978E+07         0.42013E+06         0.00000E+00
    0.42013E+06        -0.48542E+07         0.00000E+00
    0.00000E+00         0.00000E+00         0.00000E+00
 
    0.13725E+07         0.47531E+06         0.00000E+00
    0.47531E+06        -0.48510E+07         0.00000E+00
    0.00000E+00         0.00000E+00         0.00000E+00
 
    0.13468E+07         0.53032E+06         0.00000E+00
    0.53032E+06        -0.48474E+07         0.00000E+00
    0.00000E+00         0.00000E+00         0.00000E+00
 
    0.13207E+07         0.58513E+06         0.00000E+00
    0.58513E+06        -0.48434E+07         0.00000E+00
    0.00000E+00         0.00000E+00         0.00000E+00
 
    0.12943E+07         0.63977E+06         0.00000E+00
    0.63977E+06        -0.48390E+07         0.00000E+00
    0.00000E+00         0.00000E+00         0.00000E+00
 
    0.12675E+07         0.69423E+06         0.00000E+00
    0.69423E+06        -0.48342E+07         0.00000E+00
    0.00000E+00         0.00000E+00         0.00000E+00
 
    0.12404E+07         0.74850E+06         0.00000E+00
    0.74850E+06        -0.48290E+07         0.00000E+00
    0.00000E+00         0.00000E+00         0.00000E+00
 
    0.12129E+07         0.80260E+06         0.00000E+00
    0.80260E+06        -0.48234E+07         0.00000E+00
    0.00000E+00         0.00000E+00         0.00000E+00
 
    0.11850E+07         0.85652E+06         0.00000E+00
    0.85652E+06        -0.48174E+07         0.00000E+00
    0.00000E+00         0.00000E+00         0.00000E+00
 
    0.11568E+07         0.91026E+06         0.00000E+00
    0.91026E+06        -0.48111E+07         0.00000E+00
    0.00000E+00         0.00000E+00         0.00000E+00
 
    0.11283E+07         0.96382E+06         0.00000E+00
    0.96382E+06        -0.48043E+07         0.00000E+00
    0.00000E+00         0.00000E+00         0.00000E+00
 
    0.10993E+07         0.10172E+07         0.00000E+00
    0.10172E+07        -0.47971E+07         0.00000E+00
    0.00000E+00         0.00000E+00         0.00000E+00
 
    0.10701E+07         0.10704E+07         0.00000E+00
    0.10704E+07        -0.47895E+07         0.00000E+00
    0.00000E+00         0.00000E+00         0.00000E+00
 
    0.10404E+07         0.11235E+07         0.00000E+00
    0.11235E+07        -0.47816E+07         0.00000E+00
    0.00000E+00         0.00000E+00         0.00000E+00
 
    0.10104E+07         0.11763E+07         0.00000E+00
    0.11763E+07        -0.47732E+07         0.00000E+00
    0.00000E+00         0.00000E+00         0.00000E+00
 
    0.98006E+06         0.12290E+07         0.00000E+00
    0.12290E+07        -0.47644E+07         0.00000E+00
    0.00000E+00         0.00000E+00         0.00000E+00
 
    0.94934E+06         0.12815E+07         0.00000E+00
    0.12815E+07        -0.47553E+07         0.00000E+00
    0.00000E+00         0.00000E+00         0.00000E+00
 
    0.91827E+06         0.13339E+07         0.00000E+00
    0.13339E+07        -0.47457E+07         0.00000E+00
    0.00000E+00         0.00000E+00         0.00000E+00
 
    0.88683E+06         0.13861E+07         0.00000E+00
    0.13861E+07        -0.47357E+07         0.00000E+00
    0.00000E+00         0.00000E+00         0.00000E+00
 
    0.85503E+06         0.14381E+07         0.00000E+00
    0.14381E+07        -0.47254E+07         0.00000E+00
    0.00000E+00         0.00000E+00         0.00000E+00
 
    0.82287E+06         0.14899E+07         0.00000E+00
    0.14899E+07        -0.47146E+07         0.00000E+00
    0.00000E+00         0.00000E+00         0.00000E+00
 
    0.79034E+06         0.15415E+07         0.00000E+00
    0.15415E+07        -0.47034E+07         0.00000E+00
    0.00000E+00         0.00000E+00         0.00000E+00
 
    0.75745E+06         0.15930E+07         0.00000E+00
    0.15930E+07        -0.46918E+07         0.00000E+00
    0.00000E+00         0.00000E+00         0.00000E+00
 
    0.72419E+06         0.16443E+07         0.00000E+00
    0.16443E+07        -0.46798E+07         0.00000E+00
    0.00000E+00         0.00000E+00         0.00000E+00
 
    0.69056E+06         0.16954E+07         0.00000E+00
    0.16954E+07        -0.46674E+07         0.00000E+00
    0.00000E+00         0.00000E+00         0.00000E+00
 
    0.65657E+06         0.17464E+07         0.00000E+00
    0.17464E+07        -0.46546E+07         0.00000E+00
    0.00000E+00         0.00000E+00         0.00000E+00
 
    0.62220E+06         0.17972E+07         0.00000E+00
    0.17972E+07        -0.46413E+07         0.00000E+00
    0.00000E+00         0.00000E+00         0.00000E+00
 
    0.58746E+06         0.18478E+07         0.00000E+00
    0.18478E+07        -0.46277E+07         0.00000E+00
    0.00000E+00         0.00000E+00         0.00000E+00
 
    0.55235E+06         0.18982E+07         0.00000E+00
    0.18982E+07        -0.46136E+07         0.00000E+00
    0.00000E+00         0.00000E+00         0.00000E+00
 
    0.51686E+06         0.19484E+07         0.00000E+00
    0.19484E+07        -0.45992E+07         0.00000E+00
    0.00000E+00         0.00000E+00         0.00000E+00
 
    0.48099E+06         0.19985E+07         0.00000E+00
    0.19985E+07        -0.45843E+07         0.00000E+00
    0.00000E+00         0.00000E+00         0.00000E+00
 
    0.44474E+06         0.20483E+07         0.00000E+00
    0.20483E+07        -0.45690E+07         0.00000E+00
    0.00000E+00         0.00000E+00         0.00000E+00
 
    0.40811E+06         0.20980E+07         0.00000E+00
    0.20980E+07        -0.45532E+07         0.00000E+00
    0.00000E+00         0.00000E+00         0.00000E+00
 
    0.37110E+06         0.21475E+07         0.00000E+00
    0.21475E+07        -0.45371E+07         0.00000E+00
    0.00000E+00         0.00000E+00         0.00000E+00
 
    0.33370E+06         0.21969E+07         0.00000E+00
    0.21969E+07        -0.45205E+07         0.00000E+00
    0.00000E+00         0.00000E+00         0.00000E+00
 
    0.29591E+06         0.22460E+07         0.00000E+00
    0.22460E+07        -0.45035E+07         0.00000E+00
    0.00000E+00         0.00000E+00         0.00000E+00
 
    0.25774E+06         0.22949E+07         0.00000E+00
    0.22949E+07        -0.44860E+07         0.00000E+00
    0.00000E+00         0.00000E+00         0.00000E+00
 
    0.21917E+06         0.23437E+07         0.00000E+00
    0.23437E+07        -0.44682E+07         0.00000E+00
    0.00000E+00         0.00000E+00         0.00000E+00
 
    0.18021E+06         0.23923E+07         0.00000E+00
    0.23923E+07        -0.44499E+07         0.00000E+00
    0.00000E+00         0.00000E+00         0.00000E+00
 
    0.14085E+06         0.24406E+07         0.00000E+00
    0.24406E+07        -0.44311E+07         0.00000E+00
    0.00000E+00         0.00000E+00         0.00000E+00
 
    0.10110E+06         0.24888E+07         0.00000E+00
    0.24888E+07        -0.44120E+07         0.00000E+00
    0.00000E+00         0.00000E+00         0.00000E+00
 
    0.60940E+05         0.25367E+07         0.00000E+00
    0.25367E+07        -0.43924E+07         0.00000E+00
    0.00000E+00         0.00000E+00         0.00000E+00
 
    0.20381E+05         0.25845E+07         0.00000E+00
    0.25845E+07        -0.43723E+07         0.00000E+00
    0.00000E+00         0.00000E+00         0.00000E+00
 
    0.16107E+07         0.29554E+05         0.00000E+00
    0.29554E+05        -0.51079E+07         0.00000E+00
    0.00000E+00         0.00000E+00         0.00000E+00
 
    0.15869E+07         0.88104E+05         0.00000E+00
    0.88104E+05        -0.51075E+07         0.00000E+00
    0.00000E+00         0.00000E+00         0.00000E+00
 
    0.15628E+07         0.14645E+06         0.00000E+00
    0.14645E+06        -0.51066E+07         0.00000E+00
    0.00000E+00         0.00000E+00         0.00000E+00
 
    0.15383E+07         0.20461E+06         0.00000E+00
    0.20461E+06        -0.51054E+07         0.00000E+00
    0.00000E+00         0.00000E+00         0.00000E+00
 
    0.15135E+07         0.26256E+06         0.00000E+00
    0.26256E+06        -0.51038E+07         0.00000E+00
    0.00000E+00         0.00000E+00         0.00000E+00
 
    0.14883E+07         0.32033E+06         0.00000E+00
    0.32033E+06        -0.51018E+07         0.00000E+00
    0.00000E+00         0.00000E+00         0.00000E+00
 
    0.14627E+07         0.37790E+06         0.00000E+00
    0.37790E+06        -0.50993E+07         0.00000E+00
    0.00000E+00         0.00000E+00         0.00000E+00
 
    0.14368E+07         0.43528E+06         0.00000E+00
    0.43528E+06        -0.50965E+07         0.00000E+00
    0.00000E+00         0.00000E+00         0.00000E+00
 
    0.14105E+07         0.49248E+06         0.00000E+00
    0.49248E+06        -0.50933E+07         0.00000E+00
    0.00000E+00         0.00000E+00         0.00000E+00
 
    0.13839E+07         0.54949E+06         0.00000E+00
    0.54949E+06        -0.50896E+07         0.00000E+00
    0.00000E+00         0.00000E+00         0.00000E+00
 
    0.13569E+07         0.60631E+06         0.00000E+00
    0.60631E+06        -0.50856E+07         0.00000E+00
    0.00000E+00         0.00000E+00         0.00000E+00
 
    0.13295E+07         0.66296E+06         0.00000E+00
    0.66296E+06        -0.50812E+07         0.00000E+00
    0.00000E+00         0.00000E+00         0.00000E+00
 
    0.13018E+07         0.71942E+06         0.00000E+00
    0.71942E+06        -0.50763E+07         0.00000E+00
    0.00000E+00         0.00000E+00         0.00000E+00
 
    0.12738E+07         0.77570E+06         0.00000E+00
    0.77570E+06        -0.50711E+07         0.00000E+00
    0.00000E+00         0.00000E+00         0.00000E+00
 
    0.12454E+07         0.83180E+06         0.00000E+00
    0.83180E+06        -0.50654E+07         0.00000E+00
    0.00000E+00         0.00000E+00         0.00000E+00
 
    0.12166E+07         0.88773E+06         0.00000E+00
    0.88773E+06        -0.50594E+07         0.00000E+00
    0.00000E+00         0.00000E+00         0.00000E+00
 
    0.11875E+07         0.94348E+06         0.00000E+00
    0.94348E+06        -0.50529E+07         0.00000E+00
    0.00000E+00         0.00000E+00         0.00000E+00
 
    0.11580E+07         0.99906E+06         0.00000E+00
    0.99906E+06        -0.50461E+07         0.00000E+00
    0.00000E+00         0.00000E+00         0.00000E+00
 
    0.11282E+07         0.10545E+07         0.00000E+00
    0.10545E+07        -0.50388E+07         0.00000E+00
    0.00000E+00         0.00000E+00         0.00000E+00
 
    0.10980E+07         0.11097E+07         0.00000E+00
    0.11097E+07        -0.50311E+07         0.00000E+00
    0.00000E+00         0.00000E+00         0.00000E+00
 
    0.10675E+07         0.11648E+07         0.00000E+00
    0.11648E+07        -0.50231E+07         0.00000E+00
    0.00000E+00         0.00000E+00         0.00000E+00
 
    0.10366E+07         0.12197E+07         0.00000E+00
    0.12197E+07        -0.50146E+07         0.00000E+00
    0.00000E+00         0.00000E+00         0.00000E+00
 
    0.10054E+07         0.12744E+07         0.00000E+00
    0.12744E+07        -0.50057E+07         0.00000E+00
    0.00000E+00         0.00000E+00         0.00000E+00
 
    0.97377E+06         0.13289E+07         0.00000E+00
    0.13289E+07        -0.49964E+07         0.00000E+00
    0.00000E+00         0.00000E+00         0.00000E+00
 
    0.94182E+06         0.13833E+07         0.00000E+00
    0.13833E+07        -0.49867E+07         0.00000E+00
    0.00000E+00         0.00000E+00         0.00000E+00
 
    0.90950E+06         0.14375E+07         0.00000E+00
    0.14375E+07        -0.49766E+07         0.00000E+00
    0.00000E+00         0.00000E+00         0.00000E+00
 
    0.87681E+06         0.14916E+07         0.00000E+00
    0.14916E+07        -0.49661E+07         0.00000E+00
    0.00000E+00         0.00000E+00         0.00000E+00
 
    0.84377E+06         0.15454E+07         0.00000E+00
    0.15454E+07        -0.49551E+07         0.00000E+00
    0.00000E+00         0.00000E+00         0.00000E+00
 
    0.81036E+06         0.15992E+07         0.00000E+00
    0.15992E+07        -0.49438E+07         0.00000E+00
    0.00000E+00         0.00000E+00         0.00000E+00
 
    0.77658E+06         0.16527E+07         0.00000E+00
    0.16527E+07        -0.49320E+07         0.00000E+00
    0.00000E+00         0.00000E+00         0.00000E+00
 
    0.74244E+06         0.17061E+07         0.00000E+00
    0.17061E+07        -0.49198E+07         0.00000E+00
    0.00000E+00         0.00000E+00         0.00000E+00
 
    0.70793E+06         0.17593E+07         0.00000E+00
    0.17593E+07        -0.49072E+07         0.00000E+00
    0.00000E+00         0.00000E+00         0.00000E+00
 
    0.67304E+06         0.18123E+07         0.00000E+00
    0.18123E+07        -0.48941E+07         0.00000E+00
    0.00000E+00         0.00000E+00         0.00000E+00
 
    0.63778E+06         0.18652E+07         0.00000E+00
    0.18652E+07        -0.48807E+07         0.00000E+00
    0.00000E+00         0.00000E+00         0.00000E+00
 
    0.60215E+06         0.19179E+07         0.00000E+00
    0.19179E+07        -0.48668E+07         0.00000E+00
    0.00000E+00         0.00000E+00         0.00000E+00
 
    0.56613E+06         0.19704E+07         0.00000E+00
    0.19704E+07        -0.48525E+07         0.00000E+00
    0.00000E+00         0.00000E+00         0.00000E+00
 
    0.52974E+06         0.20227E+07         0.00000E+00
    0.20227E+07        -0.48377E+07         0.00000E+00
    0.00000E+00         0.00000E+00         0.00000E+00
 
    0.49296E+06         0.20749E+07         0.00000E+00
    0.20749E+07        -0.48225E+07         0.00000E+00
    0.00000E+00         0.00000E+00         0.00000E+00
 
    0.45580E+06         0.21269E+07         0.00000E+00
    0.21269E+07        -0.48069E+07         0.00000E+00
    0.00000E+00         0.00000E+00         0.00000E+00
 
    0.41825E+06         0.21788E+07         0.00000E+00
    0.21788E+07        -0.47909E+07         0.00000E+00
    0.00000E+00         0.00000E+00         0.00000E+00
 
    0.38031E+06         0.22304E+07         0.00000E+00
    0.22304E+07        -0.47744E+07         0.00000E+00
    0.00000E+00         0.00000E+00         0.00000E+00
 
    0.34198E+06         0.22819E+07         0.00000E+00
    0.22819E+07        -0.47575E+07         0.00000E+00
    0.00000E+00         0.00000E+00         0.00000E+00
 
    0.30326E+06         0.23332E+07         0.00000E+00
    0.23332E+07        -0.47401E+07         0.00000E+00
    0.00000E+00         0.00000E+00         0.00000E+00
 
    0.26413E+06         0.23843E+07         0.00000E+00
    0.23843E+07        -0.47223E+07         0.00000E+00
    0.00000E+00         0.00000E+00         0.00000E+00
 
    0.22461E+06         0.24352E+07         0.00000E+00
    0.24352E+07        -0.47040E+07         0.00000E+00
    0.00000E+00         0.00000E+00         0.00000E+00
 
    0.18468E+06         0.24860E+07         0.00000E+00
    0.24860E+07        -0.46853E+07         0.00000E+00
    0.00000E+00         0.00000E+00         0.00000E+00
 
    0.14435E+06         0.25365E+07         0.00000E+00
    0.25365E+07        -0.46661E+07         0.00000E+00
    0.00000E+00         0.00000E+00         0.00000E+00
 
    0.10361E+06         0.25869E+07         0.00000E+00
    0.25869E+07        -0.46465E+07         0.00000E+00
    0.00000E+00         0.00000E+00         0.00000E+00
 
    0.62456E+05         0.26371E+07         0.00000E+00
    0.26371E+07        -0.46265E+07         0.00000E+00
    0.00000E+00         0.00000E+00         0.00000E+00
 
    0.20888E+05         0.26871E+07         0.00000E+00
    0.26871E+07        -0.46059E+07         0.00000E+00
    0.00000E+00         0.00000E+00         0.00000E+00
 
    0.16554E+07         0.30588E+05         0.00000E+00
    0.30588E+05        -0.53616E+07         0.00000E+00
    0.00000E+00         0.00000E+00         0.00000E+00
 
    0.16306E+07         0.91191E+05         0.00000E+00
    0.91191E+05        -0.53611E+07         0.00000E+00
    0.00000E+00         0.00000E+00         0.00000E+00
 
    0.16055E+07         0.15159E+06         0.00000E+00
    0.15159E+06        -0.53603E+07         0.00000E+00
    0.00000E+00         0.00000E+00         0.00000E+00
 
    0.15800E+07         0.21179E+06         0.00000E+00
    0.21179E+06        -0.53591E+07         0.00000E+00
    0.00000E+00         0.00000E+00         0.00000E+00
 
    0.15542E+07         0.27179E+06         0.00000E+00
    0.27179E+06        -0.53575E+07         0.00000E+00
    0.00000E+00         0.00000E+00         0.00000E+00
 
    0.15280E+07         0.33159E+06         0.00000E+00
    0.33159E+06        -0.53554E+07         0.00000E+00
    0.00000E+00         0.00000E+00         0.00000E+00
 
    0.15014E+07         0.39120E+06         0.00000E+00
    0.39120E+06        -0.53530E+07         0.00000E+00
    0.00000E+00         0.00000E+00         0.00000E+00
 
    0.14746E+07         0.45062E+06         0.00000E+00
    0.45062E+06        -0.53501E+07         0.00000E+00
    0.00000E+00         0.00000E+00         0.00000E+00
 
    0.14473E+07         0.50985E+06         0.00000E+00
    0.50985E+06        -0.53469E+07         0.00000E+00
    0.00000E+00         0.00000E+00         0.00000E+00
 
    0.14197E+07         0.56890E+06         0.00000E+00
    0.56890E+06        -0.53432E+07         0.00000E+00
    0.00000E+00         0.00000E+00         0.00000E+00
 
    0.13918E+07         0.62776E+06         0.00000E+00
    0.62776E+06        -0.53392E+07         0.00000E+00
    0.00000E+00         0.00000E+00         0.00000E+00
 
    0.13635E+07         0.68644E+06         0.00000E+00
    0.68644E+06        -0.53347E+07         0.00000E+00
    0.00000E+00         0.00000E+00         0.00000E+00
 
    0.13349E+07         0.74494E+06         0.00000E+00
    0.74494E+06        -0.53298E+07         0.00000E+00
    0.00000E+00         0.00000E+00         0.00000E+00
 
    0.13060E+07         0.80326E+06         0.00000E+00
    0.80326E+06        -0.53245E+07         0.00000E+00
    0.00000E+00         0.00000E+00         0.00000E+00
 
    0.12766E+07         0.86140E+06         0.00000E+00
    0.86140E+06        -0.53189E+07         0.00000E+00
    0.00000E+00         0.00000E+00         0.00000E+00
 
    0.12470E+07         0.91937E+06         0.00000E+00
    0.91937E+06        -0.53128E+07         0.00000E+00
    0.00000E+00         0.00000E+00         0.00000E+00
 
    0.12170E+07         0.97717E+06         0.00000E+00
    0.97717E+06        -0.53063E+07         0.00000E+00
    0.00000E+00         0.00000E+00         0.00000E+00
 
    0.11866E+07         0.10348E+07         0.00000E+00
    0.10348E+07        -0.52993E+07         0.00000E+00
    0.00000E+00         0.00000E+00         0.00000E+00
 
    0.11559E+07         0.10923E+07         0.00000E+00
    0.10923E+07        -0.52920E+07         0.00000E+00
    0.00000E+00         0.00000E+00         0.00000E+00
 
    0.11249E+07         0.11495E+07         0.00000E+00
    0.11495E+07        -0.52843E+07         0.00000E+00
    0.00000E+00         0.00000E+00         0.00000E+00
 
    0.10935E+07         0.12067E+07         0.00000E+00
    0.12067E+07        -0.52761E+07         0.00000E+00
    0.00000E+00         0.00000E+00         0.00000E+00
 
    0.10617E+07         0.12636E+07         0.00000E+00
    0.12636E+07        -0.52676E+07         0.00000E+00
    0.00000E+00         0.00000E+00         0.00000E+00
 
    0.10296E+07         0.13204E+07         0.00000E+00
    0.13204E+07        -0.52586E+07         0.00000E+00
    0.00000E+00         0.00000E+00         0.00000E+00
 
    0.99715E+06         0.13770E+07         0.00000E+00
    0.13770E+07        -0.52492E+07         0.00000E+00
    0.00000E+00         0.00000E+00         0.00000E+00
 
    0.96433E+06         0.14335E+07         0.00000E+00
    0.14335E+07        -0.52394E+07         0.00000E+00
    0.00000E+00         0.00000E+00         0.00000E+00
 
    0.93116E+06         0.14898E+07         0.00000E+00
    0.14898E+07        -0.52291E+07         0.00000E+00
    0.00000E+00         0.00000E+00         0.00000E+00
 
    0.89762E+06         0.15460E+07         0.00000E+00
    0.15460E+07        -0.52185E+07         0.00000E+00
    0.00000E+00         0.00000E+00         0.00000E+00
 
    0.86372E+06         0.16019E+07         0.00000E+00
    0.16019E+07        -0.52074E+07         0.00000E+00
    0.00000E+00         0.00000E+00         0.00000E+00
 
    0.82946E+06         0.16578E+07         0.00000E+00
    0.16578E+07        -0.51959E+07         0.00000E+00
    0.00000E+00         0.00000E+00         0.00000E+00
 
    0.79483E+06         0.17134E+07         0.00000E+00
    0.17134E+07        -0.51839E+07         0.00000E+00
    0.00000E+00         0.00000E+00         0.00000E+00
 
    0.75984E+06         0.17689E+07         0.00000E+00
    0.17689E+07        -0.51716E+07         0.00000E+00
    0.00000E+00         0.00000E+00         0.00000E+00
 
    0.72447E+06         0.18243E+07         0.00000E+00
    0.18243E+07        -0.51588E+07         0.00000E+00
    0.00000E+00         0.00000E+00         0.00000E+00
 
    0.68873E+06         0.18794E+07         0.00000E+00
    0.18794E+07        -0.51455E+07         0.00000E+00
    0.00000E+00         0.00000E+00         0.00000E+00
 
    0.65262E+06         0.19344E+07         0.00000E+00
    0.19344E+07        -0.51319E+07         0.00000E+00
    0.00000E+00         0.00000E+00         0.00000E+00
 
    0.61613E+06         0.19893E+07         0.00000E+00
    0.19893E+07        -0.51178E+07         0.00000E+00
    0.00000E+00         0.00000E+00         0.00000E+00
 
    0.57926E+06         0.20440E+07         0.00000E+00
    0.20440E+07        -0.51032E+07         0.00000E+00
    0.00000E+00         0.00000E+00         0.00000E+00
 
    0.54200E+06         0.20985E+07         0.00000E+00
    0.20985E+07        -0.50882E+07         0.00000E+00
    0.00000E+00         0.00000E+00         0.00000E+00
 
    0.50436E+06         0.21529E+07         0.00000E+00
    0.21529E+07        -0.50728E+07         0.00000E+00
    0.00000E+00         0.00000E+00         0.00000E+00
 
    0.46632E+06         0.22071E+07         0.00000E+00
    0.22071E+07        -0.50569E+07         0.00000E+00
    0.00000E+00         0.00000E+00         0.00000E+00
 
    0.42790E+06         0.22611E+07         0.00000E+00
    0.22611E+07        -0.50406E+07         0.00000E+00
    0.00000E+00         0.00000E+00         0.00000E+00
 
    0.38908E+06         0.23150E+07         0.00000E+00
    0.23150E+07        -0.50238E+07         0.00000E+00
    0.00000E+00         0.00000E+00         0.00000E+00
 
    0.34986E+06         0.23687E+07         0.00000E+00
    0.23687E+07        -0.50065E+07         0.00000E+00
    0.00000E+00         0.00000E+00         0.00000E+00
 
    0.31024E+06         0.24222E+07         0.00000E+00
    0.24222E+07        -0.49888E+07         0.00000E+00
    0.00000E+00         0.00000E+00         0.00000E+00
 
    0.27022E+06         0.24756E+07         0.00000E+00
    0.24756E+07        -0.49707E+07         0.00000E+00
    0.00000E+00         0.00000E+00         0.00000E+00
 
    0.22978E+06         0.25288E+07         0.00000E+00
    0.25288E+07        -0.49520E+07         0.00000E+00
    0.00000E+00         0.00000E+00         0.00000E+00
 
    0.18894E+06         0.25818E+07         0.00000E+00
    0.25818E+07        -0.49329E+07         0.00000E+00
    0.00000E+00         0.00000E+00         0.00000E+00
 
    0.14768E+06         0.26347E+07         0.00000E+00
    0.26347E+07        -0.49134E+07         0.00000E+00
    0.00000E+00         0.00000E+00         0.00000E+00
 
    0.10600E+06         0.26873E+07         0.00000E+00
    0.26873E+07        -0.48933E+07         0.00000E+00
    0.00000E+00         0.00000E+00         0.00000E+00
 
    0.63897E+05         0.27398E+07         0.00000E+00
    0.27398E+07        -0.48728E+07         0.00000E+00
    0.00000E+00         0.00000E+00         0.00000E+00
 
    0.21370E+05         0.27921E+07         0.00000E+00
    0.27921E+07        -0.48518E+07         0.00000E+00
    0.00000E+00         0.00000E+00         0.00000E+00
 
    0.16987E+07         0.31629E+05         0.00000E+00
    0.31629E+05        -0.56270E+07         0.00000E+00
    0.00000E+00         0.00000E+00         0.00000E+00
 
    0.16729E+07         0.94304E+05         0.00000E+00
    0.94304E+05        -0.56266E+07         0.00000E+00
    0.00000E+00         0.00000E+00         0.00000E+00
 
    0.16467E+07         0.15677E+06         0.00000E+00
    0.15677E+06        -0.56258E+07         0.00000E+00
    0.00000E+00         0.00000E+00         0.00000E+00
 
    0.16202E+07         0.21903E+06         0.00000E+00
    0.21903E+06        -0.56246E+07         0.00000E+00
    0.00000E+00         0.00000E+00         0.00000E+00
 
    0.15934E+07         0.28110E+06         0.00000E+00
    0.28110E+06        -0.56229E+07         0.00000E+00
    0.00000E+00         0.00000E+00         0.00000E+00
 
    0.15662E+07         0.34296E+06         0.00000E+00
    0.34296E+06        -0.56209E+07         0.00000E+00
    0.00000E+00         0.00000E+00         0.00000E+00
 
    0.15387E+07         0.40463E+06         0.00000E+00
    0.40463E+06        -0.56184E+07         0.00000E+00
    0.00000E+00         0.00000E+00         0.00000E+00
 
    0.15108E+07         0.46611E+06         0.00000E+00
    0.46611E+06        -0.56156E+07         0.00000E+00
    0.00000E+00         0.00000E+00         0.00000E+00
 
    0.14826E+07         0.52739E+06         0.00000E+00
    0.52739E+06        -0.56123E+07         0.00000E+00
    0.00000E+00         0.00000E+00         0.00000E+00
 
    0.14541E+07         0.58850E+06         0.00000E+00
    0.58850E+06        -0.56087E+07         0.00000E+00
    0.00000E+00         0.00000E+00         0.00000E+00
 
    0.14252E+07         0.64942E+06         0.00000E+00
    0.64942E+06        -0.56046E+07         0.00000E+00
    0.00000E+00         0.00000E+00         0.00000E+00
 
    0.13960E+07         0.71016E+06         0.00000E+00
    0.71016E+06        -0.56001E+07         0.00000E+00
    0.00000E+00         0.00000E+00         0.00000E+00
 
    0.13665E+07         0.77072E+06         0.00000E+00
    0.77072E+06        -0.55952E+07         0.00000E+00
    0.00000E+00         0.00000E+00         0.00000E+00
 
    0.13366E+07         0.83110E+06         0.00000E+00
    0.83110E+06        -0.55899E+07         0.00000E+00
    0.00000E+00         0.00000E+00         0.00000E+00
 
    0.13064E+07         0.89132E+06         0.00000E+00
    0.89132E+06        -0.55842E+07         0.00000E+00
    0.00000E+00         0.00000E+00         0.00000E+00
 
    0.12759E+07         0.95136E+06         0.00000E+00
    0.95136E+06        -0.55781E+07         0.00000E+00
    0.00000E+00         0.00000E+00         0.00000E+00
 
    0.12450E+07         0.10112E+07         0.00000E+00
    0.10112E+07        -0.55715E+07         0.00000E+00
    0.00000E+00         0.00000E+00         0.00000E+00
 
    0.12138E+07         0.10709E+07         0.00000E+00
    0.10709E+07        -0.55646E+07         0.00000E+00
    0.00000E+00         0.00000E+00         0.00000E+00
 
    0.11822E+07         0.11305E+07         0.00000E+00
    0.11305E+07        -0.55572E+07         0.00000E+00
    0.00000E+00         0.00000E+00         0.00000E+00
 
    0.11503E+07         0.11899E+07         0.00000E+00
    0.11899E+07        -0.55494E+07         0.00000E+00
    0.00000E+00         0.00000E+00         0.00000E+00
 
    0.11181E+07         0.12491E+07         0.00000E+00
    0.12491E+07        -0.55412E+07         0.00000E+00
    0.00000E+00         0.00000E+00         0.00000E+00
 
    0.10855E+07         0.13081E+07         0.00000E+00
    0.13081E+07        -0.55326E+07         0.00000E+00
    0.00000E+00         0.00000E+00         0.00000E+00
 
    0.10525E+07         0.13670E+07         0.00000E+00
    0.13670E+07        -0.55235E+07         0.00000E+00
    0.00000E+00         0.00000E+00         0.00000E+00
 
    0.10192E+07         0.14258E+07         0.00000E+00
    0.14258E+07        -0.55141E+07         0.00000E+00
    0.00000E+00         0.00000E+00         0.00000E+00
 
    0.98558E+06         0.14844E+07         0.00000E+00
    0.14844E+07        -0.55042E+07         0.00000E+00
    0.00000E+00         0.00000E+00         0.00000E+00
 
    0.95158E+06         0.15428E+07         0.00000E+00
    0.15428E+07        -0.54938E+07         0.00000E+00
    0.00000E+00         0.00000E+00         0.00000E+00
 
    0.91723E+06         0.16011E+07         0.00000E+00
    0.16011E+07        -0.54831E+07         0.00000E+00
    0.00000E+00         0.00000E+00         0.00000E+00
 
    0.88251E+06         0.16592E+07         0.00000E+00
    0.16592E+07        -0.54719E+07         0.00000E+00
    0.00000E+00         0.00000E+00         0.00000E+00
 
    0.84744E+06         0.17172E+07         0.00000E+00
    0.17172E+07        -0.54602E+07         0.00000E+00
    0.00000E+00         0.00000E+00         0.00000E+00
 
    0.81200E+06         0.17750E+07         0.00000E+00
    0.17750E+07        -0.54482E+07         0.00000E+00
    0.00000E+00         0.00000E+00         0.00000E+00
 
    0.77620E+06         0.18327E+07         0.00000E+00
    0.18327E+07        -0.54357E+07         0.00000E+00
    0.00000E+00         0.00000E+00         0.00000E+00
 
    0.74002E+06         0.18902E+07         0.00000E+00
    0.18902E+07        -0.54227E+07         0.00000E+00
    0.00000E+00         0.00000E+00         0.00000E+00
 
    0.70348E+06         0.19476E+07         0.00000E+00
    0.19476E+07        -0.54093E+07         0.00000E+00
    0.00000E+00         0.00000E+00         0.00000E+00
 
    0.66655E+06         0.20048E+07         0.00000E+00
    0.20048E+07        -0.53955E+07         0.00000E+00
    0.00000E+00         0.00000E+00         0.00000E+00
 
    0.62925E+06         0.20619E+07         0.00000E+00
    0.20619E+07        -0.53812E+07         0.00000E+00
    0.00000E+00         0.00000E+00         0.00000E+00
 
    0.59157E+06         0.21188E+07         0.00000E+00
    0.21188E+07        -0.53664E+07         0.00000E+00
    0.00000E+00         0.00000E+00         0.00000E+00
 
    0.55350E+06         0.21756E+07         0.00000E+00
    0.21756E+07        -0.53512E+07         0.00000E+00
    0.00000E+00         0.00000E+00         0.00000E+00
 
    0.51504E+06         0.22322E+07         0.00000E+00
    0.22322E+07        -0.53356E+07         0.00000E+00
    0.00000E+00         0.00000E+00         0.00000E+00
 
    0.47619E+06         0.22887E+07         0.00000E+00
    0.22887E+07        -0.53194E+07         0.00000E+00
    0.00000E+00         0.00000E+00         0.00000E+00
 
    0.43694E+06         0.23450E+07         0.00000E+00
    0.23450E+07        -0.53029E+07         0.00000E+00
    0.00000E+00         0.00000E+00         0.00000E+00
 
    0.39730E+06         0.24012E+07         0.00000E+00
    0.24012E+07        -0.52858E+07         0.00000E+00
    0.00000E+00         0.00000E+00         0.00000E+00
 
    0.35725E+06         0.24572E+07         0.00000E+00
    0.24572E+07        -0.52683E+07         0.00000E+00
    0.00000E+00         0.00000E+00         0.00000E+00
 
    0.31679E+06         0.25130E+07         0.00000E+00
    0.25130E+07        -0.52502E+07         0.00000E+00
    0.00000E+00         0.00000E+00         0.00000E+00
 
    0.27592E+06         0.25687E+07         0.00000E+00
    0.25687E+07        -0.52318E+07         0.00000E+00
    0.00000E+00         0.00000E+00         0.00000E+00
 
    0.23463E+06         0.26242E+07         0.00000E+00
    0.26242E+07        -0.52128E+07         0.00000E+00
    0.00000E+00         0.00000E+00         0.00000E+00
 
    0.19293E+06         0.26796E+07         0.00000E+00
    0.26796E+07        -0.51933E+07         0.00000E+00
    0.00000E+00         0.00000E+00         0.00000E+00
 
    0.15080E+06         0.27348E+07         0.00000E+00
    0.27348E+07        -0.51734E+07         0.00000E+00
    0.00000E+00         0.00000E+00         0.00000E+00
 
    0.10824E+06         0.27898E+07         0.00000E+00
    0.27898E+07        -0.51530E+07         0.00000E+00
    0.00000E+00         0.00000E+00         0.00000E+00
 
    0.65249E+05         0.28447E+07         0.00000E+00
    0.28447E+07        -0.51320E+07         0.00000E+00
    0.00000E+00         0.00000E+00         0.00000E+00
 
    0.21823E+05         0.28994E+07         0.00000E+00
    0.28994E+07        -0.51106E+07         0.00000E+00
    0.00000E+00         0.00000E+00         0.00000E+00
 
    0.17401E+07         0.32676E+05         0.00000E+00
    0.32676E+05        -0.59047E+07         0.00000E+00
    0.00000E+00         0.00000E+00         0.00000E+00
 
    0.17132E+07         0.97432E+05         0.00000E+00
    0.97432E+05        -0.59043E+07         0.00000E+00
    0.00000E+00         0.00000E+00         0.00000E+00
 
    0.16860E+07         0.16198E+06         0.00000E+00
    0.16198E+06        -0.59035E+07         0.00000E+00
    0.00000E+00         0.00000E+00         0.00000E+00
 
    0.16585E+07         0.22632E+06         0.00000E+00
    0.22632E+06        -0.59023E+07         0.00000E+00
    0.00000E+00         0.00000E+00         0.00000E+00
 
    0.16306E+07         0.29045E+06         0.00000E+00
    0.29045E+06        -0.59006E+07         0.00000E+00
    0.00000E+00         0.00000E+00         0.00000E+00
 
    0.16025E+07         0.35439E+06         0.00000E+00
    0.35439E+06        -0.58986E+07         0.00000E+00
    0.00000E+00         0.00000E+00         0.00000E+00
 
    0.15740E+07         0.41813E+06         0.00000E+00
    0.41813E+06        -0.58962E+07         0.00000E+00
    0.00000E+00         0.00000E+00         0.00000E+00
 
    0.15452E+07         0.48168E+06         0.00000E+00
    0.48168E+06        -0.58933E+07         0.00000E+00
    0.00000E+00         0.00000E+00         0.00000E+00
 
    0.15160E+07         0.54504E+06         0.00000E+00
    0.54504E+06        -0.58900E+07         0.00000E+00
    0.00000E+00         0.00000E+00         0.00000E+00
 
    0.14865E+07         0.60822E+06         0.00000E+00
    0.60822E+06        -0.58864E+07         0.00000E+00
    0.00000E+00         0.00000E+00         0.00000E+00
 
    0.14568E+07         0.67122E+06         0.00000E+00
    0.67122E+06        -0.58823E+07         0.00000E+00
    0.00000E+00         0.00000E+00         0.00000E+00
 
    0.14266E+07         0.73404E+06         0.00000E+00
    0.73404E+06        -0.58778E+07         0.00000E+00
    0.00000E+00         0.00000E+00         0.00000E+00
 
    0.13962E+07         0.79668E+06         0.00000E+00
    0.79668E+06        -0.58729E+07         0.00000E+00
    0.00000E+00         0.00000E+00         0.00000E+00
 
    0.13655E+07         0.85916E+06         0.00000E+00
    0.85916E+06        -0.58676E+07         0.00000E+00
    0.00000E+00         0.00000E+00         0.00000E+00
 
    0.13344E+07         0.92146E+06         0.00000E+00
    0.92146E+06        -0.58619E+07         0.00000E+00
    0.00000E+00         0.00000E+00         0.00000E+00
 
    0.13030E+07         0.98360E+06         0.00000E+00
    0.98360E+06        -0.58558E+07         0.00000E+00
    0.00000E+00         0.00000E+00         0.00000E+00
 
    0.12712E+07         0.10456E+07         0.00000E+00
    0.10456E+07        -0.58492E+07         0.00000E+00
    0.00000E+00         0.00000E+00         0.00000E+00
 
    0.12392E+07         0.11074E+07         0.00000E+00
    0.11074E+07        -0.58423E+07         0.00000E+00
    0.00000E+00         0.00000E+00         0.00000E+00
 
    0.12068E+07         0.11690E+07         0.00000E+00
    0.11690E+07        -0.58349E+07         0.00000E+00
    0.00000E+00         0.00000E+00         0.00000E+00
 
    0.11740E+07         0.12306E+07         0.00000E+00
    0.12306E+07        -0.58271E+07         0.00000E+00
    0.00000E+00         0.00000E+00         0.00000E+00
 
    0.11410E+07         0.12919E+07         0.00000E+00
    0.12919E+07        -0.58188E+07         0.00000E+00
    0.00000E+00         0.00000E+00         0.00000E+00
 
    0.11076E+07         0.13531E+07         0.00000E+00
    0.13531E+07        -0.58102E+07         0.00000E+00
    0.00000E+00         0.00000E+00         0.00000E+00
 
    0.10738E+07         0.14141E+07         0.00000E+00
    0.14141E+07        -0.58011E+07         0.00000E+00
    0.00000E+00         0.00000E+00         0.00000E+00
 
    0.10397E+07         0.14750E+07         0.00000E+00
    0.14750E+07        -0.57915E+07         0.00000E+00
    0.00000E+00         0.00000E+00         0.00000E+00
 
    0.10053E+07         0.15358E+07         0.00000E+00
    0.15358E+07        -0.57816E+07         0.00000E+00
    0.00000E+00         0.00000E+00         0.00000E+00
 
    0.97052E+06         0.15964E+07         0.00000E+00
    0.15964E+07        -0.57712E+07         0.00000E+00
    0.00000E+00         0.00000E+00         0.00000E+00
 
    0.93539E+06         0.16569E+07         0.00000E+00
    0.16569E+07        -0.57604E+07         0.00000E+00
    0.00000E+00         0.00000E+00         0.00000E+00
 
    0.89990E+06         0.17172E+07         0.00000E+00
    0.17172E+07        -0.57491E+07         0.00000E+00
    0.00000E+00         0.00000E+00         0.00000E+00
 
    0.86406E+06         0.17774E+07         0.00000E+00
    0.17774E+07        -0.57374E+07         0.00000E+00
    0.00000E+00         0.00000E+00         0.00000E+00
 
    0.82786E+06         0.18374E+07         0.00000E+00
    0.18374E+07        -0.57252E+07         0.00000E+00
    0.00000E+00         0.00000E+00         0.00000E+00
 
    0.79130E+06         0.18973E+07         0.00000E+00
    0.18973E+07        -0.57126E+07         0.00000E+00
    0.00000E+00         0.00000E+00         0.00000E+00
 
    0.75437E+06         0.19571E+07         0.00000E+00
    0.19571E+07        -0.56995E+07         0.00000E+00
    0.00000E+00         0.00000E+00         0.00000E+00
 
    0.71707E+06         0.20167E+07         0.00000E+00
    0.20167E+07        -0.56860E+07         0.00000E+00
    0.00000E+00         0.00000E+00         0.00000E+00
 
    0.67940E+06         0.20762E+07         0.00000E+00
    0.20762E+07        -0.56720E+07         0.00000E+00
    0.00000E+00         0.00000E+00         0.00000E+00
 
    0.64134E+06         0.21355E+07         0.00000E+00
    0.21355E+07        -0.56576E+07         0.00000E+00
    0.00000E+00         0.00000E+00         0.00000E+00
 
    0.60291E+06         0.21948E+07         0.00000E+00
    0.21948E+07        -0.56427E+07         0.00000E+00
    0.00000E+00         0.00000E+00         0.00000E+00
 
    0.56409E+06         0.22538E+07         0.00000E+00
    0.22538E+07        -0.56273E+07         0.00000E+00
    0.00000E+00         0.00000E+00         0.00000E+00
 
    0.52487E+06         0.23128E+07         0.00000E+00
    0.23128E+07        -0.56114E+07         0.00000E+00
    0.00000E+00         0.00000E+00         0.00000E+00
 
    0.48527E+06         0.23716E+07         0.00000E+00
    0.23716E+07        -0.55951E+07         0.00000E+00
    0.00000E+00         0.00000E+00         0.00000E+00
 
    0.44526E+06         0.24302E+07         0.00000E+00
    0.24302E+07        -0.55783E+07         0.00000E+00
    0.00000E+00         0.00000E+00         0.00000E+00
 
    0.40485E+06         0.24887E+07         0.00000E+00
    0.24887E+07        -0.55610E+07         0.00000E+00
    0.00000E+00         0.00000E+00         0.00000E+00
 
    0.36404E+06         0.25471E+07         0.00000E+00
    0.25471E+07        -0.55432E+07         0.00000E+00
    0.00000E+00         0.00000E+00         0.00000E+00
 
    0.32281E+06         0.26053E+07         0.00000E+00
    0.26053E+07        -0.55249E+07         0.00000E+00
    0.00000E+00         0.00000E+00         0.00000E+00
 
    0.28116E+06         0.26634E+07         0.00000E+00
    0.26634E+07        -0.55062E+07         0.00000E+00
    0.00000E+00         0.00000E+00         0.00000E+00
 
    0.23909E+06         0.27214E+07         0.00000E+00
    0.27214E+07        -0.54869E+07         0.00000E+00
    0.00000E+00         0.00000E+00         0.00000E+00
 
    0.19659E+06         0.27792E+07         0.00000E+00
    0.27792E+07        -0.54671E+07         0.00000E+00
    0.00000E+00         0.00000E+00         0.00000E+00
 
    0.15366E+06         0.28368E+07         0.00000E+00
    0.28368E+07        -0.54469E+07         0.00000E+00
    0.00000E+00         0.00000E+00         0.00000E+00
 
    0.11030E+06         0.28943E+07         0.00000E+00
    0.28943E+07        -0.54261E+07         0.00000E+00
    0.00000E+00         0.00000E+00         0.00000E+00
 
    0.66492E+05         0.29517E+07         0.00000E+00
    0.29517E+07        -0.54048E+07         0.00000E+00
    0.00000E+00         0.00000E+00         0.00000E+00
 
    0.22239E+05         0.30089E+07         0.00000E+00
    0.30089E+07        -0.53829E+07         0.00000E+00
    0.00000E+00         0.00000E+00         0.00000E+00
 
    0.17793E+07         0.33722E+05         0.00000E+00
    0.33722E+05        -0.61951E+07         0.00000E+00
    0.00000E+00         0.00000E+00         0.00000E+00
 
    0.17513E+07         0.10056E+06         0.00000E+00
    0.10056E+06        -0.61947E+07         0.00000E+00
    0.00000E+00         0.00000E+00         0.00000E+00
 
    0.17231E+07         0.16719E+06         0.00000E+00
    0.16719E+06        -0.61939E+07         0.00000E+00
    0.00000E+00         0.00000E+00         0.00000E+00
 
    0.16945E+07         0.23361E+06         0.00000E+00
    0.23361E+06        -0.61927E+07         0.00000E+00
    0.00000E+00         0.00000E+00         0.00000E+00
 
    0.16656E+07         0.29983E+06         0.00000E+00
    0.29983E+06        -0.61911E+07         0.00000E+00
    0.00000E+00         0.00000E+00         0.00000E+00
 
    0.16365E+07         0.36584E+06         0.00000E+00
    0.36584E+06        -0.61890E+07         0.00000E+00
    0.00000E+00         0.00000E+00         0.00000E+00
 
    0.16070E+07         0.43167E+06         0.00000E+00
    0.43167E+06        -0.61866E+07         0.00000E+00
    0.00000E+00         0.00000E+00         0.00000E+00
 
    0.15772E+07         0.49730E+06         0.00000E+00
    0.49730E+06        -0.61838E+07         0.00000E+00
    0.00000E+00         0.00000E+00         0.00000E+00
 
    0.15471E+07         0.56275E+06         0.00000E+00
    0.56275E+06        -0.61805E+07         0.00000E+00
    0.00000E+00         0.00000E+00         0.00000E+00
 
    0.15167E+07         0.62801E+06         0.00000E+00
    0.62801E+06        -0.61769E+07         0.00000E+00
    0.00000E+00         0.00000E+00         0.00000E+00
 
    0.14860E+07         0.69310E+06         0.00000E+00
    0.69310E+06        -0.61728E+07         0.00000E+00
    0.00000E+00         0.00000E+00         0.00000E+00
 
    0.14550E+07         0.75801E+06         0.00000E+00
    0.75801E+06        -0.61684E+07         0.00000E+00
    0.00000E+00         0.00000E+00         0.00000E+00
 
    0.14237E+07         0.82275E+06         0.00000E+00
    0.82275E+06        -0.61635E+07         0.00000E+00
    0.00000E+00         0.00000E+00         0.00000E+00
 
    0.13921E+07         0.88733E+06         0.00000E+00
    0.88733E+06        -0.61582E+07         0.00000E+00
    0.00000E+00         0.00000E+00         0.00000E+00
 
    0.13601E+07         0.95174E+06         0.00000E+00
    0.95174E+06        -0.61525E+07         0.00000E+00
    0.00000E+00         0.00000E+00         0.00000E+00
 
    0.13279E+07         0.10160E+07         0.00000E+00
    0.10160E+07        -0.61464E+07         0.00000E+00
    0.00000E+00         0.00000E+00         0.00000E+00
 
    0.12953E+07         0.10801E+07         0.00000E+00
    0.10801E+07        -0.61398E+07         0.00000E+00
    0.00000E+00         0.00000E+00         0.00000E+00
 
    0.12624E+07         0.11440E+07         0.00000E+00
    0.11440E+07        -0.61329E+07         0.00000E+00
    0.00000E+00         0.00000E+00         0.00000E+00
 
    0.12292E+07         0.12078E+07         0.00000E+00
    0.12078E+07        -0.61255E+07         0.00000E+00
    0.00000E+00         0.00000E+00         0.00000E+00
 
    0.11957E+07         0.12715E+07         0.00000E+00
    0.12715E+07        -0.61177E+07         0.00000E+00
    0.00000E+00         0.00000E+00         0.00000E+00
 
    0.11619E+07         0.13350E+07         0.00000E+00
    0.13350E+07        -0.61095E+07         0.00000E+00
    0.00000E+00         0.00000E+00         0.00000E+00
 
    0.11277E+07         0.13983E+07         0.00000E+00
    0.13983E+07        -0.61008E+07         0.00000E+00
    0.00000E+00         0.00000E+00         0.00000E+00
 
    0.10932E+07         0.14616E+07         0.00000E+00
    0.14616E+07        -0.60917E+07         0.00000E+00
    0.00000E+00         0.00000E+00         0.00000E+00
 
    0.10584E+07         0.15246E+07         0.00000E+00
    0.15246E+07        -0.60822E+07         0.00000E+00
    0.00000E+00         0.00000E+00         0.00000E+00
 
    0.10232E+07         0.15876E+07         0.00000E+00
    0.15876E+07        -0.60722E+07         0.00000E+00
    0.00000E+00         0.00000E+00         0.00000E+00
 
    0.98768E+06         0.16504E+07         0.00000E+00
    0.16504E+07        -0.60618E+07         0.00000E+00
    0.00000E+00         0.00000E+00         0.00000E+00
 
    0.95183E+06         0.17131E+07         0.00000E+00
    0.17131E+07        -0.60509E+07         0.00000E+00
    0.00000E+00         0.00000E+00         0.00000E+00
 
    0.91563E+06         0.17756E+07         0.00000E+00
    0.17756E+07        -0.60396E+07         0.00000E+00
    0.00000E+00         0.00000E+00         0.00000E+00
 
    0.87908E+06         0.18381E+07         0.00000E+00
    0.18381E+07        -0.60278E+07         0.00000E+00
    0.00000E+00         0.00000E+00         0.00000E+00
 
    0.84218E+06         0.19004E+07         0.00000E+00
    0.19004E+07        -0.60156E+07         0.00000E+00
    0.00000E+00         0.00000E+00         0.00000E+00
 
    0.80492E+06         0.19625E+07         0.00000E+00
    0.19625E+07        -0.60029E+07         0.00000E+00
    0.00000E+00         0.00000E+00         0.00000E+00
 
    0.76730E+06         0.20246E+07         0.00000E+00
    0.20246E+07        -0.59898E+07         0.00000E+00
    0.00000E+00         0.00000E+00         0.00000E+00
 
    0.72931E+06         0.20865E+07         0.00000E+00
    0.20865E+07        -0.59762E+07         0.00000E+00
    0.00000E+00         0.00000E+00         0.00000E+00
 
    0.69095E+06         0.21483E+07         0.00000E+00
    0.21483E+07        -0.59621E+07         0.00000E+00
    0.00000E+00         0.00000E+00         0.00000E+00
 
    0.65221E+06         0.22100E+07         0.00000E+00
    0.22100E+07        -0.59475E+07         0.00000E+00
    0.00000E+00         0.00000E+00         0.00000E+00
 
    0.61310E+06         0.22716E+07         0.00000E+00
    0.22716E+07        -0.59325E+07         0.00000E+00
    0.00000E+00         0.00000E+00         0.00000E+00
 
    0.57359E+06         0.23330E+07         0.00000E+00
    0.23330E+07        -0.59170E+07         0.00000E+00
    0.00000E+00         0.00000E+00         0.00000E+00
 
    0.53370E+06         0.23943E+07         0.00000E+00
    0.23943E+07        -0.59010E+07         0.00000E+00
    0.00000E+00         0.00000E+00         0.00000E+00
 
    0.49341E+06         0.24555E+07         0.00000E+00
    0.24555E+07        -0.58845E+07         0.00000E+00
    0.00000E+00         0.00000E+00         0.00000E+00
 
    0.45272E+06         0.25166E+07         0.00000E+00
    0.25166E+07        -0.58675E+07         0.00000E+00
    0.00000E+00         0.00000E+00         0.00000E+00
 
    0.41163E+06         0.25775E+07         0.00000E+00
    0.25775E+07        -0.58500E+07         0.00000E+00
    0.00000E+00         0.00000E+00         0.00000E+00
 
    0.37012E+06         0.26383E+07         0.00000E+00
    0.26383E+07        -0.58320E+07         0.00000E+00
    0.00000E+00         0.00000E+00         0.00000E+00
 
    0.32820E+06         0.26990E+07         0.00000E+00
    0.26990E+07        -0.58135E+07         0.00000E+00
    0.00000E+00         0.00000E+00         0.00000E+00
 
    0.28586E+06         0.27596E+07         0.00000E+00
    0.27596E+07        -0.57945E+07         0.00000E+00
    0.00000E+00         0.00000E+00         0.00000E+00
 
    0.24308E+06         0.28200E+07         0.00000E+00
    0.28200E+07        -0.57750E+07         0.00000E+00
    0.00000E+00         0.00000E+00         0.00000E+00
 
    0.19988E+06         0.28803E+07         0.00000E+00
    0.28803E+07        -0.57550E+07         0.00000E+00
    0.00000E+00         0.00000E+00         0.00000E+00
 
    0.15624E+06         0.29405E+07         0.00000E+00
    0.29405E+07        -0.57344E+07         0.00000E+00
    0.00000E+00         0.00000E+00         0.00000E+00
 
    0.11215E+06         0.30006E+07         0.00000E+00
    0.30006E+07        -0.57133E+07         0.00000E+00
    0.00000E+00         0.00000E+00         0.00000E+00
 
    0.67608E+05         0.30605E+07         0.00000E+00
    0.30605E+07        -0.56916E+07         0.00000E+00
    0.00000E+00         0.00000E+00         0.00000E+00
 
    0.22613E+05         0.31203E+07         0.00000E+00
    0.31203E+07        -0.56695E+07         0.00000E+00
    0.00000E+00         0.00000E+00         0.00000E+00
 
    0.18157E+07         0.34766E+05         0.00000E+00
    0.34766E+05        -0.64987E+07         0.00000E+00
    0.00000E+00         0.00000E+00         0.00000E+00
 
    0.17866E+07         0.10369E+06         0.00000E+00
    0.10369E+06        -0.64983E+07         0.00000E+00
    0.00000E+00         0.00000E+00         0.00000E+00
 
    0.17573E+07         0.17239E+06         0.00000E+00
    0.17239E+06        -0.64975E+07         0.00000E+00
    0.00000E+00         0.00000E+00         0.00000E+00
 
    0.17277E+07         0.24089E+06         0.00000E+00
    0.24089E+06        -0.64963E+07         0.00000E+00
    0.00000E+00         0.00000E+00         0.00000E+00
 
    0.16978E+07         0.30918E+06         0.00000E+00
    0.30918E+06        -0.64947E+07         0.00000E+00
    0.00000E+00         0.00000E+00         0.00000E+00
 
    0.16677E+07         0.37728E+06         0.00000E+00
    0.37728E+06        -0.64927E+07         0.00000E+00
    0.00000E+00         0.00000E+00         0.00000E+00
 
    0.16372E+07         0.44518E+06         0.00000E+00
    0.44518E+06        -0.64903E+07         0.00000E+00
    0.00000E+00         0.00000E+00         0.00000E+00
 
    0.16065E+07         0.51290E+06         0.00000E+00
    0.51290E+06        -0.64875E+07         0.00000E+00
    0.00000E+00         0.00000E+00         0.00000E+00
 
    0.15754E+07         0.58043E+06         0.00000E+00
    0.58043E+06        -0.64843E+07         0.00000E+00
    0.00000E+00         0.00000E+00         0.00000E+00
 
    0.15441E+07         0.64778E+06         0.00000E+00
    0.64778E+06        -0.64807E+07         0.00000E+00
    0.00000E+00         0.00000E+00         0.00000E+00
 
    0.15125E+07         0.71496E+06         0.00000E+00
    0.71496E+06        -0.64766E+07         0.00000E+00
    0.00000E+00         0.00000E+00         0.00000E+00
 
    0.14806E+07         0.78198E+06         0.00000E+00
    0.78198E+06        -0.64722E+07         0.00000E+00
    0.00000E+00         0.00000E+00         0.00000E+00
 
    0.14485E+07         0.84882E+06         0.00000E+00
    0.84882E+06        -0.64674E+07         0.00000E+00
    0.00000E+00         0.00000E+00         0.00000E+00
 
    0.14160E+07         0.91551E+06         0.00000E+00
    0.91551E+06        -0.64621E+07         0.00000E+00
    0.00000E+00         0.00000E+00         0.00000E+00
 
    0.13832E+07         0.98204E+06         0.00000E+00
    0.98204E+06        -0.64565E+07         0.00000E+00
    0.00000E+00         0.00000E+00         0.00000E+00
 
    0.13502E+07         0.10484E+07         0.00000E+00
    0.10484E+07        -0.64504E+07         0.00000E+00
    0.00000E+00         0.00000E+00         0.00000E+00
 
    0.13168E+07         0.11147E+07         0.00000E+00
    0.11147E+07        -0.64439E+07         0.00000E+00
    0.00000E+00         0.00000E+00         0.00000E+00
 
    0.12832E+07         0.11807E+07         0.00000E+00
    0.11807E+07        -0.64370E+07         0.00000E+00
    0.00000E+00         0.00000E+00         0.00000E+00
 
    0.12492E+07         0.12467E+07         0.00000E+00
    0.12467E+07        -0.64296E+07         0.00000E+00
    0.00000E+00         0.00000E+00         0.00000E+00
 
    0.12150E+07         0.13125E+07         0.00000E+00
    0.13125E+07        -0.64219E+07         0.00000E+00
    0.00000E+00         0.00000E+00         0.00000E+00
 
    0.11804E+07         0.13782E+07         0.00000E+00
    0.13782E+07        -0.64137E+07         0.00000E+00
    0.00000E+00         0.00000E+00         0.00000E+00
 
    0.11455E+07         0.14437E+07         0.00000E+00
    0.14437E+07        -0.64050E+07         0.00000E+00
    0.00000E+00         0.00000E+00         0.00000E+00
 
    0.11103E+07         0.15092E+07         0.00000E+00
    0.15092E+07        -0.63960E+07         0.00000E+00
    0.00000E+00         0.00000E+00         0.00000E+00
 
    0.10748E+07         0.15744E+07         0.00000E+00
    0.15744E+07        -0.63864E+07         0.00000E+00
    0.00000E+00         0.00000E+00         0.00000E+00
 
    0.10389E+07         0.16396E+07         0.00000E+00
    0.16396E+07        -0.63765E+07         0.00000E+00
    0.00000E+00         0.00000E+00         0.00000E+00
 
    0.10028E+07         0.17047E+07         0.00000E+00
    0.17047E+07        -0.63661E+07         0.00000E+00
    0.00000E+00         0.00000E+00         0.00000E+00
 
    0.96625E+06         0.17696E+07         0.00000E+00
    0.17696E+07        -0.63552E+07         0.00000E+00
    0.00000E+00         0.00000E+00         0.00000E+00
 
    0.92941E+06         0.18344E+07         0.00000E+00
    0.18344E+07        -0.63439E+07         0.00000E+00
    0.00000E+00         0.00000E+00         0.00000E+00
 
    0.89222E+06         0.18991E+07         0.00000E+00
    0.18991E+07        -0.63321E+07         0.00000E+00
    0.00000E+00         0.00000E+00         0.00000E+00
 
    0.85469E+06         0.19637E+07         0.00000E+00
    0.19637E+07        -0.63199E+07         0.00000E+00
    0.00000E+00         0.00000E+00         0.00000E+00
 
    0.81680E+06         0.20282E+07         0.00000E+00
    0.20282E+07        -0.63072E+07         0.00000E+00
    0.00000E+00         0.00000E+00         0.00000E+00
 
    0.77856E+06         0.20926E+07         0.00000E+00
    0.20926E+07        -0.62940E+07         0.00000E+00
    0.00000E+00         0.00000E+00         0.00000E+00
 
    0.73996E+06         0.21569E+07         0.00000E+00
    0.21569E+07        -0.62804E+07         0.00000E+00
    0.00000E+00         0.00000E+00         0.00000E+00
 
    0.70099E+06         0.22210E+07         0.00000E+00
    0.22210E+07        -0.62662E+07         0.00000E+00
    0.00000E+00         0.00000E+00         0.00000E+00
 
    0.66165E+06         0.22851E+07         0.00000E+00
    0.22851E+07        -0.62516E+07         0.00000E+00
    0.00000E+00         0.00000E+00         0.00000E+00
 
    0.62194E+06         0.23490E+07         0.00000E+00
    0.23490E+07        -0.62365E+07         0.00000E+00
    0.00000E+00         0.00000E+00         0.00000E+00
 
    0.58184E+06         0.24129E+07         0.00000E+00
    0.24129E+07        -0.62209E+07         0.00000E+00
    0.00000E+00         0.00000E+00         0.00000E+00
 
    0.54135E+06         0.24766E+07         0.00000E+00
    0.24766E+07        -0.62048E+07         0.00000E+00
    0.00000E+00         0.00000E+00         0.00000E+00
 
    0.50047E+06         0.25403E+07         0.00000E+00
    0.25403E+07        -0.61882E+07         0.00000E+00
    0.00000E+00         0.00000E+00         0.00000E+00
 
    0.45918E+06         0.26038E+07         0.00000E+00
    0.26038E+07        -0.61711E+07         0.00000E+00
    0.00000E+00         0.00000E+00         0.00000E+00
 
    0.41749E+06         0.26673E+07         0.00000E+00
    0.26673E+07        -0.61535E+07         0.00000E+00
    0.00000E+00         0.00000E+00         0.00000E+00
 
    0.37539E+06         0.27306E+07         0.00000E+00
    0.27306E+07        -0.61353E+07         0.00000E+00
    0.00000E+00         0.00000E+00         0.00000E+00
 
    0.33287E+06         0.27938E+07         0.00000E+00
    0.27938E+07        -0.61167E+07         0.00000E+00
    0.00000E+00         0.00000E+00         0.00000E+00
 
    0.28992E+06         0.28570E+07         0.00000E+00
    0.28570E+07        -0.60975E+07         0.00000E+00
    0.00000E+00         0.00000E+00         0.00000E+00
 
    0.24654E+06         0.29200E+07         0.00000E+00
    0.29200E+07        -0.60777E+07         0.00000E+00
    0.00000E+00         0.00000E+00         0.00000E+00
 
    0.20272E+06         0.29829E+07         0.00000E+00
    0.29829E+07        -0.60575E+07         0.00000E+00
    0.00000E+00         0.00000E+00         0.00000E+00
 
    0.15846E+06         0.30457E+07         0.00000E+00
    0.30457E+07        -0.60366E+07         0.00000E+00
    0.00000E+00         0.00000E+00         0.00000E+00
 
    0.11375E+06         0.31084E+07         0.00000E+00
    0.31084E+07        -0.60153E+07         0.00000E+00
    0.00000E+00         0.00000E+00         0.00000E+00
 
    0.68574E+05         0.31709E+07         0.00000E+00
    0.31709E+07        -0.59933E+07         0.00000E+00
    0.00000E+00         0.00000E+00         0.00000E+00
 
    0.22936E+05         0.32334E+07         0.00000E+00
    0.32334E+07        -0.59709E+07         0.00000E+00
    0.00000E+00         0.00000E+00         0.00000E+00
 
    0.18488E+07         0.35801E+05         0.00000E+00
    0.35801E+05        -0.68159E+07         0.00000E+00
    0.00000E+00         0.00000E+00         0.00000E+00
 
    0.18187E+07         0.10679E+06         0.00000E+00
    0.10679E+06        -0.68155E+07         0.00000E+00
    0.00000E+00         0.00000E+00         0.00000E+00
 
    0.17883E+07         0.17756E+06         0.00000E+00
    0.17756E+06        -0.68147E+07         0.00000E+00
    0.00000E+00         0.00000E+00         0.00000E+00
 
    0.17576E+07         0.24812E+06         0.00000E+00
    0.24812E+06        -0.68135E+07         0.00000E+00
    0.00000E+00         0.00000E+00         0.00000E+00
 
    0.17267E+07         0.31848E+06         0.00000E+00
    0.31848E+06        -0.68120E+07         0.00000E+00
    0.00000E+00         0.00000E+00         0.00000E+00
 
    0.16956E+07         0.38865E+06         0.00000E+00
    0.38865E+06        -0.68100E+07         0.00000E+00
    0.00000E+00         0.00000E+00         0.00000E+00
 
    0.16641E+07         0.45862E+06         0.00000E+00
    0.45862E+06        -0.68077E+07         0.00000E+00
    0.00000E+00         0.00000E+00         0.00000E+00
 
    0.16325E+07         0.52841E+06         0.00000E+00
    0.52841E+06        -0.68049E+07         0.00000E+00
    0.00000E+00         0.00000E+00         0.00000E+00
 
    0.16005E+07         0.59802E+06         0.00000E+00
    0.59802E+06        -0.68017E+07         0.00000E+00
    0.00000E+00         0.00000E+00         0.00000E+00
 
    0.15683E+07         0.66746E+06         0.00000E+00
    0.66746E+06        -0.67982E+07         0.00000E+00
    0.00000E+00         0.00000E+00         0.00000E+00
 
    0.15359E+07         0.73673E+06         0.00000E+00
    0.73673E+06        -0.67942E+07         0.00000E+00
    0.00000E+00         0.00000E+00         0.00000E+00
 
    0.15031E+07         0.80584E+06         0.00000E+00
    0.80584E+06        -0.67899E+07         0.00000E+00
    0.00000E+00         0.00000E+00         0.00000E+00
 
    0.14701E+07         0.87479E+06         0.00000E+00
    0.87479E+06        -0.67851E+07         0.00000E+00
    0.00000E+00         0.00000E+00         0.00000E+00
 
    0.14369E+07         0.94359E+06         0.00000E+00
    0.94359E+06        -0.67799E+07         0.00000E+00
    0.00000E+00         0.00000E+00         0.00000E+00
 
    0.14033E+07         0.10122E+07         0.00000E+00
    0.10122E+07        -0.67743E+07         0.00000E+00
    0.00000E+00         0.00000E+00         0.00000E+00
 
    0.13695E+07         0.10808E+07         0.00000E+00
    0.10808E+07        -0.67683E+07         0.00000E+00
    0.00000E+00         0.00000E+00         0.00000E+00
 
    0.13354E+07         0.11491E+07         0.00000E+00
    0.11491E+07        -0.67619E+07         0.00000E+00
    0.00000E+00         0.00000E+00         0.00000E+00
 
    0.13010E+07         0.12174E+07         0.00000E+00
    0.12174E+07        -0.67551E+07         0.00000E+00
    0.00000E+00         0.00000E+00         0.00000E+00
 
    0.12664E+07         0.12855E+07         0.00000E+00
    0.12855E+07        -0.67478E+07         0.00000E+00
    0.00000E+00         0.00000E+00         0.00000E+00
 
    0.12314E+07         0.13535E+07         0.00000E+00
    0.13535E+07        -0.67401E+07         0.00000E+00
    0.00000E+00         0.00000E+00         0.00000E+00
 
    0.11962E+07         0.14213E+07         0.00000E+00
    0.14213E+07        -0.67319E+07         0.00000E+00
    0.00000E+00         0.00000E+00         0.00000E+00
 
    0.11607E+07         0.14891E+07         0.00000E+00
    0.14891E+07        -0.67234E+07         0.00000E+00
    0.00000E+00         0.00000E+00         0.00000E+00
 
    0.11248E+07         0.15567E+07         0.00000E+00
    0.15567E+07        -0.67144E+07         0.00000E+00
    0.00000E+00         0.00000E+00         0.00000E+00
 
    0.10887E+07         0.16243E+07         0.00000E+00
    0.16243E+07        -0.67049E+07         0.00000E+00
    0.00000E+00         0.00000E+00         0.00000E+00
 
    0.10522E+07         0.16917E+07         0.00000E+00
    0.16917E+07        -0.66950E+07         0.00000E+00
    0.00000E+00         0.00000E+00         0.00000E+00
 
    0.10154E+07         0.17590E+07         0.00000E+00
    0.17590E+07        -0.66847E+07         0.00000E+00
    0.00000E+00         0.00000E+00         0.00000E+00
 
    0.97834E+06         0.18262E+07         0.00000E+00
    0.18262E+07        -0.66739E+07         0.00000E+00
    0.00000E+00         0.00000E+00         0.00000E+00
 
    0.94093E+06         0.18933E+07         0.00000E+00
    0.18933E+07        -0.66626E+07         0.00000E+00
    0.00000E+00         0.00000E+00         0.00000E+00
 
    0.90318E+06         0.19603E+07         0.00000E+00
    0.19603E+07        -0.66509E+07         0.00000E+00
    0.00000E+00         0.00000E+00         0.00000E+00
 
    0.86510E+06         0.20273E+07         0.00000E+00
    0.20273E+07        -0.66387E+07         0.00000E+00
    0.00000E+00         0.00000E+00         0.00000E+00
 
    0.82667E+06         0.20941E+07         0.00000E+00
    0.20941E+07        -0.66260E+07         0.00000E+00
    0.00000E+00         0.00000E+00         0.00000E+00
 
    0.78790E+06         0.21609E+07         0.00000E+00
    0.21609E+07        -0.66128E+07         0.00000E+00
    0.00000E+00         0.00000E+00         0.00000E+00
 
    0.74878E+06         0.22275E+07         0.00000E+00
    0.22275E+07        -0.65992E+07         0.00000E+00
    0.00000E+00         0.00000E+00         0.00000E+00
 
    0.70929E+06         0.22941E+07         0.00000E+00
    0.22941E+07        -0.65851E+07         0.00000E+00
    0.00000E+00         0.00000E+00         0.00000E+00
 
    0.66944E+06         0.23606E+07         0.00000E+00
    0.23606E+07        -0.65704E+07         0.00000E+00
    0.00000E+00         0.00000E+00         0.00000E+00
 
    0.62922E+06         0.24270E+07         0.00000E+00
    0.24270E+07        -0.65553E+07         0.00000E+00
    0.00000E+00         0.00000E+00         0.00000E+00
 
    0.58862E+06         0.24933E+07         0.00000E+00
    0.24933E+07        -0.65397E+07         0.00000E+00
    0.00000E+00         0.00000E+00         0.00000E+00
 
    0.54763E+06         0.25595E+07         0.00000E+00
    0.25595E+07        -0.65235E+07         0.00000E+00
    0.00000E+00         0.00000E+00         0.00000E+00
 
    0.50626E+06         0.26257E+07         0.00000E+00
    0.26257E+07        -0.65069E+07         0.00000E+00
    0.00000E+00         0.00000E+00         0.00000E+00
 
    0.46448E+06         0.26918E+07         0.00000E+00
    0.26918E+07        -0.64897E+07         0.00000E+00
    0.00000E+00         0.00000E+00         0.00000E+00
 
    0.42230E+06         0.27578E+07         0.00000E+00
    0.27578E+07        -0.64720E+07         0.00000E+00
    0.00000E+00         0.00000E+00         0.00000E+00
 
    0.37970E+06         0.28237E+07         0.00000E+00
    0.28237E+07        -0.64537E+07         0.00000E+00
    0.00000E+00         0.00000E+00         0.00000E+00
 
    0.33669E+06         0.28895E+07         0.00000E+00
    0.28895E+07        -0.64349E+07         0.00000E+00
    0.00000E+00         0.00000E+00         0.00000E+00
 
    0.29325E+06         0.29552E+07         0.00000E+00
    0.29552E+07        -0.64156E+07         0.00000E+00
    0.00000E+00         0.00000E+00         0.00000E+00
 
    0.24937E+06         0.30209E+07         0.00000E+00
    0.30209E+07        -0.63957E+07         0.00000E+00
    0.00000E+00         0.00000E+00         0.00000E+00
 
    0.20505E+06         0.30865E+07         0.00000E+00
    0.30865E+07        -0.63753E+07         0.00000E+00
    0.00000E+00         0.00000E+00         0.00000E+00
 
    0.16028E+06         0.31520E+07         0.00000E+00
    0.31520E+07        -0.63543E+07         0.00000E+00
    0.00000E+00         0.00000E+00         0.00000E+00
 
    0.11506E+06         0.32174E+07         0.00000E+00
    0.32174E+07        -0.63327E+07         0.00000E+00
    0.00000E+00         0.00000E+00         0.00000E+00
 
    0.69367E+05         0.32827E+07         0.00000E+00
    0.32827E+07        -0.63106E+07         0.00000E+00
    0.00000E+00         0.00000E+00         0.00000E+00
 
    0.23202E+05         0.33479E+07         0.00000E+00
    0.33479E+07        -0.62878E+07         0.00000E+00
    0.00000E+00         0.00000E+00         0.00000E+00
 
    0.18781E+07         0.36822E+05         0.00000E+00
    0.36822E+05        -0.71473E+07         0.00000E+00
    0.00000E+00         0.00000E+00         0.00000E+00
 
    0.18468E+07         0.10985E+06         0.00000E+00
    0.10985E+06        -0.71469E+07         0.00000E+00
    0.00000E+00         0.00000E+00         0.00000E+00
 
    0.18154E+07         0.18266E+06         0.00000E+00
    0.18266E+06        -0.71461E+07         0.00000E+00
    0.00000E+00         0.00000E+00         0.00000E+00
 
    0.17837E+07         0.25527E+06         0.00000E+00
    0.25527E+06        -0.71450E+07         0.00000E+00
    0.00000E+00         0.00000E+00         0.00000E+00
 
    0.17518E+07         0.32767E+06         0.00000E+00
    0.32767E+06        -0.71434E+07         0.00000E+00
    0.00000E+00         0.00000E+00         0.00000E+00
 
    0.17196E+07         0.39988E+06         0.00000E+00
    0.39988E+06        -0.71415E+07         0.00000E+00
    0.00000E+00         0.00000E+00         0.00000E+00
 
    0.16873E+07         0.47191E+06         0.00000E+00
    0.47191E+06        -0.71392E+07         0.00000E+00
    0.00000E+00         0.00000E+00         0.00000E+00
 
    0.16547E+07         0.54376E+06         0.00000E+00
    0.54376E+06        -0.71365E+07         0.00000E+00
    0.00000E+00         0.00000E+00         0.00000E+00
 
    0.16219E+07         0.61543E+06         0.00000E+00
    0.61543E+06        -0.71334E+07         0.00000E+00
    0.00000E+00         0.00000E+00         0.00000E+00
 
    0.15888E+07         0.68694E+06         0.00000E+00
    0.68694E+06        -0.71300E+07         0.00000E+00
    0.00000E+00         0.00000E+00         0.00000E+00
 
    0.15555E+07         0.75829E+06         0.00000E+00
    0.75829E+06        -0.71261E+07         0.00000E+00
    0.00000E+00         0.00000E+00         0.00000E+00
 
    0.15220E+07         0.82949E+06         0.00000E+00
    0.82949E+06        -0.71218E+07         0.00000E+00
    0.00000E+00         0.00000E+00         0.00000E+00
 
    0.14882E+07         0.90054E+06         0.00000E+00
    0.90054E+06        -0.71171E+07         0.00000E+00
    0.00000E+00         0.00000E+00         0.00000E+00
 
    0.14542E+07         0.97144E+06         0.00000E+00
    0.97144E+06        -0.71120E+07         0.00000E+00
    0.00000E+00         0.00000E+00         0.00000E+00
 
    0.14199E+07         0.10422E+07         0.00000E+00
    0.10422E+07        -0.71066E+07         0.00000E+00
    0.00000E+00         0.00000E+00         0.00000E+00
 
    0.13854E+07         0.11129E+07         0.00000E+00
    0.11129E+07        -0.71006E+07         0.00000E+00
    0.00000E+00         0.00000E+00         0.00000E+00
 
    0.13506E+07         0.11834E+07         0.00000E+00
    0.11834E+07        -0.70943E+07         0.00000E+00
    0.00000E+00         0.00000E+00         0.00000E+00
 
    0.13155E+07         0.12538E+07         0.00000E+00
    0.12538E+07        -0.70876E+07         0.00000E+00
    0.00000E+00         0.00000E+00         0.00000E+00
 
    0.12802E+07         0.13240E+07         0.00000E+00
    0.13240E+07        -0.70804E+07         0.00000E+00
    0.00000E+00         0.00000E+00         0.00000E+00
 
    0.12447E+07         0.13942E+07         0.00000E+00
    0.13942E+07        -0.70728E+07         0.00000E+00
    0.00000E+00         0.00000E+00         0.00000E+00
 
    0.12088E+07         0.14643E+07         0.00000E+00
    0.14643E+07        -0.70648E+07         0.00000E+00
    0.00000E+00         0.00000E+00         0.00000E+00
 
    0.11727E+07         0.15342E+07         0.00000E+00
    0.15342E+07        -0.70564E+07         0.00000E+00
    0.00000E+00         0.00000E+00         0.00000E+00
 
    0.11363E+07         0.16041E+07         0.00000E+00
    0.16041E+07        -0.70475E+07         0.00000E+00
    0.00000E+00         0.00000E+00         0.00000E+00
 
    0.10996E+07         0.16739E+07         0.00000E+00
    0.16739E+07        -0.70381E+07         0.00000E+00
    0.00000E+00         0.00000E+00         0.00000E+00
 
    0.10626E+07         0.17435E+07         0.00000E+00
    0.17435E+07        -0.70283E+07         0.00000E+00
    0.00000E+00         0.00000E+00         0.00000E+00
 
    0.10253E+07         0.18131E+07         0.00000E+00
    0.18131E+07        -0.70181E+07         0.00000E+00
    0.00000E+00         0.00000E+00         0.00000E+00
 
    0.98774E+06         0.18827E+07         0.00000E+00
    0.18827E+07        -0.70074E+07         0.00000E+00
    0.00000E+00         0.00000E+00         0.00000E+00
 
    0.94984E+06         0.19521E+07         0.00000E+00
    0.19521E+07        -0.69962E+07         0.00000E+00
    0.00000E+00         0.00000E+00         0.00000E+00
 
    0.91163E+06         0.20214E+07         0.00000E+00
    0.20214E+07        -0.69846E+07         0.00000E+00
    0.00000E+00         0.00000E+00         0.00000E+00
 
    0.87309E+06         0.20907E+07         0.00000E+00
    0.20907E+07        -0.69724E+07         0.00000E+00
    0.00000E+00         0.00000E+00         0.00000E+00
 
    0.83422E+06         0.21600E+07         0.00000E+00
    0.21600E+07        -0.69598E+07         0.00000E+00
    0.00000E+00         0.00000E+00         0.00000E+00
 
    0.79502E+06         0.22291E+07         0.00000E+00
    0.22291E+07        -0.69468E+07         0.00000E+00
    0.00000E+00         0.00000E+00         0.00000E+00
 
    0.75548E+06         0.22982E+07         0.00000E+00
    0.22982E+07        -0.69332E+07         0.00000E+00
    0.00000E+00         0.00000E+00         0.00000E+00
 
    0.71558E+06         0.23672E+07         0.00000E+00
    0.23672E+07        -0.69191E+07         0.00000E+00
    0.00000E+00         0.00000E+00         0.00000E+00
 
    0.67533E+06         0.24362E+07         0.00000E+00
    0.24362E+07        -0.69045E+07         0.00000E+00
    0.00000E+00         0.00000E+00         0.00000E+00
 
    0.63471E+06         0.25051E+07         0.00000E+00
    0.25051E+07        -0.68894E+07         0.00000E+00
    0.00000E+00         0.00000E+00         0.00000E+00
 
    0.59372E+06         0.25739E+07         0.00000E+00
    0.25739E+07        -0.68738E+07         0.00000E+00
    0.00000E+00         0.00000E+00         0.00000E+00
 
    0.55235E+06         0.26427E+07         0.00000E+00
    0.26427E+07        -0.68577E+07         0.00000E+00
    0.00000E+00         0.00000E+00         0.00000E+00
 
    0.51060E+06         0.27114E+07         0.00000E+00
    0.27114E+07        -0.68411E+07         0.00000E+00
    0.00000E+00         0.00000E+00         0.00000E+00
 
    0.46845E+06         0.27801E+07         0.00000E+00
    0.27801E+07        -0.68239E+07         0.00000E+00
    0.00000E+00         0.00000E+00         0.00000E+00
 
    0.42590E+06         0.28487E+07         0.00000E+00
    0.28487E+07        -0.68061E+07         0.00000E+00
    0.00000E+00         0.00000E+00         0.00000E+00
 
    0.38293E+06         0.29172E+07         0.00000E+00
    0.29172E+07        -0.67879E+07         0.00000E+00
    0.00000E+00         0.00000E+00         0.00000E+00
 
    0.33955E+06         0.29857E+07         0.00000E+00
    0.29857E+07        -0.67690E+07         0.00000E+00
    0.00000E+00         0.00000E+00         0.00000E+00
 
    0.29574E+06         0.30542E+07         0.00000E+00
    0.30542E+07        -0.67496E+07         0.00000E+00
    0.00000E+00         0.00000E+00         0.00000E+00
 
    0.25149E+06         0.31226E+07         0.00000E+00
    0.31226E+07        -0.67297E+07         0.00000E+00
    0.00000E+00         0.00000E+00         0.00000E+00
 
    0.20679E+06         0.31909E+07         0.00000E+00
    0.31909E+07        -0.67091E+07         0.00000E+00
    0.00000E+00         0.00000E+00         0.00000E+00
 
    0.16165E+06         0.32592E+07         0.00000E+00
    0.32592E+07        -0.66880E+07         0.00000E+00
    0.00000E+00         0.00000E+00         0.00000E+00
 
    0.11604E+06         0.33274E+07         0.00000E+00
    0.33274E+07        -0.66663E+07         0.00000E+00
    0.00000E+00         0.00000E+00         0.00000E+00
 
    0.69960E+05         0.33955E+07         0.00000E+00
    0.33955E+07        -0.66440E+07         0.00000E+00
    0.00000E+00         0.00000E+00         0.00000E+00
 
    0.23401E+05         0.34636E+07         0.00000E+00
    0.34636E+07        -0.66211E+07         0.00000E+00
    0.00000E+00         0.00000E+00         0.00000E+00
 
    0.19028E+07         0.37824E+05         0.00000E+00
    0.37824E+05        -0.74932E+07         0.00000E+00
    0.00000E+00         0.00000E+00         0.00000E+00
 
    0.18705E+07         0.11286E+06         0.00000E+00
    0.11286E+06        -0.74929E+07         0.00000E+00
    0.00000E+00         0.00000E+00         0.00000E+00
 
    0.18380E+07         0.18767E+06         0.00000E+00
    0.18767E+06        -0.74921E+07         0.00000E+00
    0.00000E+00         0.00000E+00         0.00000E+00
 
    0.18053E+07         0.26229E+06         0.00000E+00
    0.26229E+06        -0.74910E+07         0.00000E+00
    0.00000E+00         0.00000E+00         0.00000E+00
 
    0.17724E+07         0.33671E+06         0.00000E+00
    0.33671E+06        -0.74895E+07         0.00000E+00
    0.00000E+00         0.00000E+00         0.00000E+00
 
    0.17393E+07         0.41094E+06         0.00000E+00
    0.41094E+06        -0.74877E+07         0.00000E+00
    0.00000E+00         0.00000E+00         0.00000E+00
 
    0.17060E+07         0.48499E+06         0.00000E+00
    0.48499E+06        -0.74854E+07         0.00000E+00
    0.00000E+00         0.00000E+00         0.00000E+00
 
    0.16725E+07         0.55886E+06         0.00000E+00
    0.55886E+06        -0.74828E+07         0.00000E+00
    0.00000E+00         0.00000E+00         0.00000E+00
 
    0.16388E+07         0.63258E+06         0.00000E+00
    0.63258E+06        -0.74798E+07         0.00000E+00
    0.00000E+00         0.00000E+00         0.00000E+00
 
    0.16050E+07         0.70613E+06         0.00000E+00
    0.70613E+06        -0.74765E+07         0.00000E+00
    0.00000E+00         0.00000E+00         0.00000E+00
 
    0.15709E+07         0.77953E+06         0.00000E+00
    0.77953E+06        -0.74727E+07         0.00000E+00
    0.00000E+00         0.00000E+00         0.00000E+00
 
    0.15366E+07         0.85280E+06         0.00000E+00
    0.85280E+06        -0.74685E+07         0.00000E+00
    0.00000E+00         0.00000E+00         0.00000E+00
 
    0.15020E+07         0.92592E+06         0.00000E+00
    0.92592E+06        -0.74640E+07         0.00000E+00
    0.00000E+00         0.00000E+00         0.00000E+00
 
    0.14673E+07         0.99891E+06         0.00000E+00
    0.99891E+06        -0.74590E+07         0.00000E+00
    0.00000E+00         0.00000E+00         0.00000E+00
 
    0.14324E+07         0.10718E+07         0.00000E+00
    0.10718E+07        -0.74537E+07         0.00000E+00
    0.00000E+00         0.00000E+00         0.00000E+00
 
    0.13972E+07         0.11445E+07         0.00000E+00
    0.11445E+07        -0.74479E+07         0.00000E+00
    0.00000E+00         0.00000E+00         0.00000E+00
 
    0.13618E+07         0.12172E+07         0.00000E+00
    0.12172E+07        -0.74417E+07         0.00000E+00
    0.00000E+00         0.00000E+00         0.00000E+00
 
    0.13262E+07         0.12897E+07         0.00000E+00
    0.12897E+07        -0.74351E+07         0.00000E+00
    0.00000E+00         0.00000E+00         0.00000E+00
 
    0.12903E+07         0.13622E+07         0.00000E+00
    0.13622E+07        -0.74281E+07         0.00000E+00
    0.00000E+00         0.00000E+00         0.00000E+00
 
    0.12542E+07         0.14345E+07         0.00000E+00
    0.14345E+07        -0.74207E+07         0.00000E+00
    0.00000E+00         0.00000E+00         0.00000E+00
 
    0.12178E+07         0.15068E+07         0.00000E+00
    0.15068E+07        -0.74128E+07         0.00000E+00
    0.00000E+00         0.00000E+00         0.00000E+00
 
    0.11812E+07         0.15789E+07         0.00000E+00
    0.15789E+07        -0.74045E+07         0.00000E+00
    0.00000E+00         0.00000E+00         0.00000E+00
 
    0.11443E+07         0.16510E+07         0.00000E+00
    0.16510E+07        -0.73958E+07         0.00000E+00
    0.00000E+00         0.00000E+00         0.00000E+00
 
    0.11072E+07         0.17230E+07         0.00000E+00
    0.17230E+07        -0.73866E+07         0.00000E+00
    0.00000E+00         0.00000E+00         0.00000E+00
 
    0.10697E+07         0.17950E+07         0.00000E+00
    0.17950E+07        -0.73769E+07         0.00000E+00
    0.00000E+00         0.00000E+00         0.00000E+00
 
    0.10321E+07         0.18669E+07         0.00000E+00
    0.18669E+07        -0.73669E+07         0.00000E+00
    0.00000E+00         0.00000E+00         0.00000E+00
 
    0.99407E+06         0.19387E+07         0.00000E+00
    0.19387E+07        -0.73563E+07         0.00000E+00
    0.00000E+00         0.00000E+00         0.00000E+00
 
    0.95579E+06         0.20105E+07         0.00000E+00
    0.20105E+07        -0.73453E+07         0.00000E+00
    0.00000E+00         0.00000E+00         0.00000E+00
 
    0.91722E+06         0.20822E+07         0.00000E+00
    0.20822E+07        -0.73338E+07         0.00000E+00
    0.00000E+00         0.00000E+00         0.00000E+00
 
    0.87833E+06         0.21539E+07         0.00000E+00
    0.21539E+07        -0.73218E+07         0.00000E+00
    0.00000E+00         0.00000E+00         0.00000E+00
 
    0.83914E+06         0.22255E+07         0.00000E+00
    0.22255E+07        -0.73094E+07         0.00000E+00
    0.00000E+00         0.00000E+00         0.00000E+00
 
    0.79962E+06         0.22971E+07         0.00000E+00
    0.22971E+07        -0.72964E+07         0.00000E+00
    0.00000E+00         0.00000E+00         0.00000E+00
 
    0.75977E+06         0.23686E+07         0.00000E+00
    0.23686E+07        -0.72830E+07         0.00000E+00
    0.00000E+00         0.00000E+00         0.00000E+00
 
    0.71958E+06         0.24401E+07         0.00000E+00
    0.24401E+07        -0.72690E+07         0.00000E+00
    0.00000E+00         0.00000E+00         0.00000E+00
 
    0.67905E+06         0.25116E+07         0.00000E+00
    0.25116E+07        -0.72545E+07         0.00000E+00
    0.00000E+00         0.00000E+00         0.00000E+00
 
    0.63816E+06         0.25830E+07         0.00000E+00
    0.25830E+07        -0.72396E+07         0.00000E+00
    0.00000E+00         0.00000E+00         0.00000E+00
 
    0.59691E+06         0.26544E+07         0.00000E+00
    0.26544E+07        -0.72241E+07         0.00000E+00
    0.00000E+00         0.00000E+00         0.00000E+00
 
    0.55529E+06         0.27258E+07         0.00000E+00
    0.27258E+07        -0.72080E+07         0.00000E+00
    0.00000E+00         0.00000E+00         0.00000E+00
 
    0.51329E+06         0.27971E+07         0.00000E+00
    0.27971E+07        -0.71914E+07         0.00000E+00
    0.00000E+00         0.00000E+00         0.00000E+00
 
    0.47090E+06         0.28684E+07         0.00000E+00
    0.28684E+07        -0.71743E+07         0.00000E+00
    0.00000E+00         0.00000E+00         0.00000E+00
 
    0.42811E+06         0.29397E+07         0.00000E+00
    0.29397E+07        -0.71566E+07         0.00000E+00
    0.00000E+00         0.00000E+00         0.00000E+00
 
    0.38491E+06         0.30109E+07         0.00000E+00
    0.30109E+07        -0.71384E+07         0.00000E+00
    0.00000E+00         0.00000E+00         0.00000E+00
 
    0.34130E+06         0.30822E+07         0.00000E+00
    0.30822E+07        -0.71196E+07         0.00000E+00
    0.00000E+00         0.00000E+00         0.00000E+00
 
    0.29726E+06         0.31534E+07         0.00000E+00
    0.31534E+07        -0.71002E+07         0.00000E+00
    0.00000E+00         0.00000E+00         0.00000E+00
 
    0.25279E+06         0.32246E+07         0.00000E+00
    0.32246E+07        -0.70802E+07         0.00000E+00
    0.00000E+00         0.00000E+00         0.00000E+00
 
    0.20786E+06         0.32957E+07         0.00000E+00
    0.32957E+07        -0.70596E+07         0.00000E+00
    0.00000E+00         0.00000E+00         0.00000E+00
 
    0.16249E+06         0.33668E+07         0.00000E+00
    0.33668E+07        -0.70385E+07         0.00000E+00
    0.00000E+00         0.00000E+00         0.00000E+00
 
    0.11665E+06         0.34379E+07         0.00000E+00
    0.34379E+07        -0.70167E+07         0.00000E+00
    0.00000E+00         0.00000E+00         0.00000E+00
 
    0.70328E+05         0.35090E+07         0.00000E+00
    0.35090E+07        -0.69943E+07         0.00000E+00
    0.00000E+00         0.00000E+00         0.00000E+00
 
    0.23524E+05         0.35800E+07         0.00000E+00
    0.35800E+07        -0.69713E+07         0.00000E+00
    0.00000E+00         0.00000E+00         0.00000E+00
 
    0.19224E+07         0.38799E+05         0.00000E+00
    0.38799E+05        -0.78543E+07         0.00000E+00
    0.00000E+00         0.00000E+00         0.00000E+00
 
    0.18890E+07         0.11579E+06         0.00000E+00
    0.11579E+06        -0.78539E+07         0.00000E+00
    0.00000E+00         0.00000E+00         0.00000E+00
 
    0.18554E+07         0.19256E+06         0.00000E+00
    0.19256E+06        -0.78532E+07         0.00000E+00
    0.00000E+00         0.00000E+00         0.00000E+00
 
    0.18217E+07         0.26914E+06         0.00000E+00
    0.26914E+06        -0.78522E+07         0.00000E+00
    0.00000E+00         0.00000E+00         0.00000E+00
 
    0.17879E+07         0.34553E+06         0.00000E+00
    0.34553E+06        -0.78508E+07         0.00000E+00
    0.00000E+00         0.00000E+00         0.00000E+00
 
    0.17538E+07         0.42173E+06         0.00000E+00
    0.42173E+06        -0.78490E+07         0.00000E+00
    0.00000E+00         0.00000E+00         0.00000E+00
 
    0.17197E+07         0.49776E+06         0.00000E+00
    0.49776E+06        -0.78468E+07         0.00000E+00
    0.00000E+00         0.00000E+00         0.00000E+00
 
    0.16853E+07         0.57363E+06         0.00000E+00
    0.57363E+06        -0.78443E+07         0.00000E+00
    0.00000E+00         0.00000E+00         0.00000E+00
 
    0.16508E+07         0.64934E+06         0.00000E+00
    0.64934E+06        -0.78414E+07         0.00000E+00
    0.00000E+00         0.00000E+00         0.00000E+00
 
    0.16162E+07         0.72491E+06         0.00000E+00
    0.72491E+06        -0.78382E+07         0.00000E+00
    0.00000E+00         0.00000E+00         0.00000E+00
 
    0.15814E+07         0.80033E+06         0.00000E+00
    0.80033E+06        -0.78345E+07         0.00000E+00
    0.00000E+00         0.00000E+00         0.00000E+00
 
    0.15463E+07         0.87562E+06         0.00000E+00
    0.87562E+06        -0.78305E+07         0.00000E+00
    0.00000E+00         0.00000E+00         0.00000E+00
 
    0.15112E+07         0.95079E+06         0.00000E+00
    0.95079E+06        -0.78261E+07         0.00000E+00
    0.00000E+00         0.00000E+00         0.00000E+00
 
    0.14758E+07         0.10258E+07         0.00000E+00
    0.10258E+07        -0.78213E+07         0.00000E+00
    0.00000E+00         0.00000E+00         0.00000E+00
 
    0.14402E+07         0.11008E+07         0.00000E+00
    0.11008E+07        -0.78161E+07         0.00000E+00
    0.00000E+00         0.00000E+00         0.00000E+00
 
    0.14045E+07         0.11756E+07         0.00000E+00
    0.11756E+07        -0.78105E+07         0.00000E+00
    0.00000E+00         0.00000E+00         0.00000E+00
 
    0.13686E+07         0.12504E+07         0.00000E+00
    0.12504E+07        -0.78045E+07         0.00000E+00
    0.00000E+00         0.00000E+00         0.00000E+00
 
    0.13324E+07         0.13250E+07         0.00000E+00
    0.13250E+07        -0.77981E+07         0.00000E+00
    0.00000E+00         0.00000E+00         0.00000E+00
 
    0.12960E+07         0.13996E+07         0.00000E+00
    0.13996E+07        -0.77913E+07         0.00000E+00
    0.00000E+00         0.00000E+00         0.00000E+00
 
    0.12595E+07         0.14741E+07         0.00000E+00
    0.14741E+07        -0.77841E+07         0.00000E+00
    0.00000E+00         0.00000E+00         0.00000E+00
 
    0.12227E+07         0.15486E+07         0.00000E+00
    0.15486E+07        -0.77764E+07         0.00000E+00
    0.00000E+00         0.00000E+00         0.00000E+00
 
    0.11857E+07         0.16229E+07         0.00000E+00
    0.16229E+07        -0.77683E+07         0.00000E+00
    0.00000E+00         0.00000E+00         0.00000E+00
 
    0.11484E+07         0.16973E+07         0.00000E+00
    0.16973E+07        -0.77598E+07         0.00000E+00
    0.00000E+00         0.00000E+00         0.00000E+00
 
    0.11109E+07         0.17715E+07         0.00000E+00
    0.17715E+07        -0.77508E+07         0.00000E+00
    0.00000E+00         0.00000E+00         0.00000E+00
 
    0.10732E+07         0.18458E+07         0.00000E+00
    0.18458E+07        -0.77414E+07         0.00000E+00
    0.00000E+00         0.00000E+00         0.00000E+00
 
    0.10352E+07         0.19199E+07         0.00000E+00
    0.19199E+07        -0.77315E+07         0.00000E+00
    0.00000E+00         0.00000E+00         0.00000E+00
 
    0.99691E+06         0.19941E+07         0.00000E+00
    0.19941E+07        -0.77212E+07         0.00000E+00
    0.00000E+00         0.00000E+00         0.00000E+00
 
    0.95837E+06         0.20682E+07         0.00000E+00
    0.20682E+07        -0.77104E+07         0.00000E+00
    0.00000E+00         0.00000E+00         0.00000E+00
 
    0.91956E+06         0.21423E+07         0.00000E+00
    0.21423E+07        -0.76991E+07         0.00000E+00
    0.00000E+00         0.00000E+00         0.00000E+00
 
    0.88046E+06         0.22163E+07         0.00000E+00
    0.22163E+07        -0.76874E+07         0.00000E+00
    0.00000E+00         0.00000E+00         0.00000E+00
 
    0.84106E+06         0.22904E+07         0.00000E+00
    0.22904E+07        -0.76751E+07         0.00000E+00
    0.00000E+00         0.00000E+00         0.00000E+00
 
    0.80135E+06         0.23644E+07         0.00000E+00
    0.23644E+07        -0.76624E+07         0.00000E+00
    0.00000E+00         0.00000E+00         0.00000E+00
 
    0.76133E+06         0.24384E+07         0.00000E+00
    0.24384E+07        -0.76491E+07         0.00000E+00
    0.00000E+00         0.00000E+00         0.00000E+00
 
    0.72099E+06         0.25124E+07         0.00000E+00
    0.25124E+07        -0.76354E+07         0.00000E+00
    0.00000E+00         0.00000E+00         0.00000E+00
 
    0.68032E+06         0.25864E+07         0.00000E+00
    0.25864E+07        -0.76211E+07         0.00000E+00
    0.00000E+00         0.00000E+00         0.00000E+00
 
    0.63930E+06         0.26604E+07         0.00000E+00
    0.26604E+07        -0.76063E+07         0.00000E+00
    0.00000E+00         0.00000E+00         0.00000E+00
 
    0.59794E+06         0.27344E+07         0.00000E+00
    0.27344E+07        -0.75909E+07         0.00000E+00
    0.00000E+00         0.00000E+00         0.00000E+00
 
    0.55621E+06         0.28084E+07         0.00000E+00
    0.28084E+07        -0.75751E+07         0.00000E+00
    0.00000E+00         0.00000E+00         0.00000E+00
 
    0.51411E+06         0.28824E+07         0.00000E+00
    0.28824E+07        -0.75586E+07         0.00000E+00
    0.00000E+00         0.00000E+00         0.00000E+00
 
    0.47163E+06         0.29564E+07         0.00000E+00
    0.29564E+07        -0.75416E+07         0.00000E+00
    0.00000E+00         0.00000E+00         0.00000E+00
 
    0.42876E+06         0.30304E+07         0.00000E+00
    0.30304E+07        -0.75241E+07         0.00000E+00
    0.00000E+00         0.00000E+00         0.00000E+00
 
    0.38549E+06         0.31044E+07         0.00000E+00
    0.31044E+07        -0.75060E+07         0.00000E+00
    0.00000E+00         0.00000E+00         0.00000E+00
 
    0.34181E+06         0.31785E+07         0.00000E+00
    0.31785E+07        -0.74873E+07         0.00000E+00
    0.00000E+00         0.00000E+00         0.00000E+00
 
    0.29770E+06         0.32525E+07         0.00000E+00
    0.32525E+07        -0.74680E+07         0.00000E+00
    0.00000E+00         0.00000E+00         0.00000E+00
 
    0.25316E+06         0.33265E+07         0.00000E+00
    0.33265E+07        -0.74481E+07         0.00000E+00
    0.00000E+00         0.00000E+00         0.00000E+00
 
    0.20817E+06         0.34006E+07         0.00000E+00
    0.34006E+07        -0.74275E+07         0.00000E+00
    0.00000E+00         0.00000E+00         0.00000E+00
 
    0.16273E+06         0.34746E+07         0.00000E+00
    0.34746E+07        -0.74064E+07         0.00000E+00
    0.00000E+00         0.00000E+00         0.00000E+00
 
    0.11682E+06         0.35487E+07         0.00000E+00
    0.35487E+07        -0.73847E+07         0.00000E+00
    0.00000E+00         0.00000E+00         0.00000E+00
 
    0.70438E+05         0.36228E+07         0.00000E+00
    0.36228E+07        -0.73623E+07         0.00000E+00
    0.00000E+00         0.00000E+00         0.00000E+00
 
    0.23562E+05         0.36969E+07         0.00000E+00
    0.36969E+07        -0.73393E+07         0.00000E+00
    0.00000E+00         0.00000E+00         0.00000E+00
 
    0.19360E+07         0.39742E+05         0.00000E+00
    0.39742E+05        -0.82309E+07         0.00000E+00
    0.00000E+00         0.00000E+00         0.00000E+00
 
    0.19015E+07         0.11862E+06         0.00000E+00
    0.11862E+06        -0.82306E+07         0.00000E+00
    0.00000E+00         0.00000E+00         0.00000E+00
 
    0.18670E+07         0.19730E+06         0.00000E+00
    0.19730E+06        -0.82299E+07         0.00000E+00
    0.00000E+00         0.00000E+00         0.00000E+00
 
    0.18323E+07         0.27578E+06         0.00000E+00
    0.27578E+06        -0.82289E+07         0.00000E+00
    0.00000E+00         0.00000E+00         0.00000E+00
 
    0.17975E+07         0.35408E+06         0.00000E+00
    0.35408E+06        -0.82276E+07         0.00000E+00
    0.00000E+00         0.00000E+00         0.00000E+00
 
    0.17626E+07         0.43220E+06         0.00000E+00
    0.43220E+06        -0.82259E+07         0.00000E+00
    0.00000E+00         0.00000E+00         0.00000E+00
 
    0.17276E+07         0.51016E+06         0.00000E+00
    0.51016E+06        -0.82238E+07         0.00000E+00
    0.00000E+00         0.00000E+00         0.00000E+00
 
    0.16925E+07         0.58796E+06         0.00000E+00
    0.58796E+06        -0.82214E+07         0.00000E+00
    0.00000E+00         0.00000E+00         0.00000E+00
 
    0.16572E+07         0.66562E+06         0.00000E+00
    0.66562E+06        -0.82187E+07         0.00000E+00
    0.00000E+00         0.00000E+00         0.00000E+00
 
    0.16218E+07         0.74314E+06         0.00000E+00
    0.74314E+06        -0.82156E+07         0.00000E+00
    0.00000E+00         0.00000E+00         0.00000E+00
 
    0.15863E+07         0.82054E+06         0.00000E+00
    0.82054E+06        -0.82121E+07         0.00000E+00
    0.00000E+00         0.00000E+00         0.00000E+00
 
    0.15507E+07         0.89782E+06         0.00000E+00
    0.89782E+06        -0.82082E+07         0.00000E+00
    0.00000E+00         0.00000E+00         0.00000E+00
 
    0.15149E+07         0.97500E+06         0.00000E+00
    0.97500E+06        -0.82040E+07         0.00000E+00
    0.00000E+00         0.00000E+00         0.00000E+00
 
    0.14790E+07         0.10521E+07         0.00000E+00
    0.10521E+07        -0.81994E+07         0.00000E+00
    0.00000E+00         0.00000E+00         0.00000E+00
 
    0.14429E+07         0.11290E+07         0.00000E+00
    0.11290E+07        -0.81944E+07         0.00000E+00
    0.00000E+00         0.00000E+00         0.00000E+00
 
    0.14066E+07         0.12059E+07         0.00000E+00
    0.12059E+07        -0.81891E+07         0.00000E+00
    0.00000E+00         0.00000E+00         0.00000E+00
 
    0.13702E+07         0.12828E+07         0.00000E+00
    0.12828E+07        -0.81833E+07         0.00000E+00
    0.00000E+00         0.00000E+00         0.00000E+00
 
    0.13337E+07         0.13595E+07         0.00000E+00
    0.13595E+07        -0.81771E+07         0.00000E+00
    0.00000E+00         0.00000E+00         0.00000E+00
 
    0.12969E+07         0.14362E+07         0.00000E+00
    0.14362E+07        -0.81706E+07         0.00000E+00
    0.00000E+00         0.00000E+00         0.00000E+00
 
    0.12600E+07         0.15129E+07         0.00000E+00
    0.15129E+07        -0.81636E+07         0.00000E+00
    0.00000E+00         0.00000E+00         0.00000E+00
 
    0.12229E+07         0.15895E+07         0.00000E+00
    0.15895E+07        -0.81562E+07         0.00000E+00
    0.00000E+00         0.00000E+00         0.00000E+00
 
    0.11856E+07         0.16660E+07         0.00000E+00
    0.16660E+07        -0.81484E+07         0.00000E+00
    0.00000E+00         0.00000E+00         0.00000E+00
 
    0.11481E+07         0.17425E+07         0.00000E+00
    0.17425E+07        -0.81401E+07         0.00000E+00
    0.00000E+00         0.00000E+00         0.00000E+00
 
    0.11104E+07         0.18190E+07         0.00000E+00
    0.18190E+07        -0.81314E+07         0.00000E+00
    0.00000E+00         0.00000E+00         0.00000E+00
 
    0.10724E+07         0.18955E+07         0.00000E+00
    0.18955E+07        -0.81223E+07         0.00000E+00
    0.00000E+00         0.00000E+00         0.00000E+00
 
    0.10342E+07         0.19720E+07         0.00000E+00
    0.19720E+07        -0.81127E+07         0.00000E+00
    0.00000E+00         0.00000E+00         0.00000E+00
 
    0.99582E+06         0.20484E+07         0.00000E+00
    0.20484E+07        -0.81026E+07         0.00000E+00
    0.00000E+00         0.00000E+00         0.00000E+00
 
    0.95716E+06         0.21249E+07         0.00000E+00
    0.21249E+07        -0.80921E+07         0.00000E+00
    0.00000E+00         0.00000E+00         0.00000E+00
 
    0.91824E+06         0.22014E+07         0.00000E+00
    0.22014E+07        -0.80811E+07         0.00000E+00
    0.00000E+00         0.00000E+00         0.00000E+00
 
    0.87906E+06         0.22778E+07         0.00000E+00
    0.22778E+07        -0.80696E+07         0.00000E+00
    0.00000E+00         0.00000E+00         0.00000E+00
 
    0.83960E+06         0.23543E+07         0.00000E+00
    0.23543E+07        -0.80577E+07         0.00000E+00
    0.00000E+00         0.00000E+00         0.00000E+00
 
    0.79986E+06         0.24308E+07         0.00000E+00
    0.24308E+07        -0.80452E+07         0.00000E+00
    0.00000E+00         0.00000E+00         0.00000E+00
 
    0.75982E+06         0.25073E+07         0.00000E+00
    0.25073E+07        -0.80322E+07         0.00000E+00
    0.00000E+00         0.00000E+00         0.00000E+00
 
    0.71948E+06         0.25838E+07         0.00000E+00
    0.25838E+07        -0.80188E+07         0.00000E+00
    0.00000E+00         0.00000E+00         0.00000E+00
 
    0.67883E+06         0.26604E+07         0.00000E+00
    0.26604E+07        -0.80047E+07         0.00000E+00
    0.00000E+00         0.00000E+00         0.00000E+00
 
    0.63784E+06         0.27370E+07         0.00000E+00
    0.27370E+07        -0.79902E+07         0.00000E+00
    0.00000E+00         0.00000E+00         0.00000E+00
 
    0.59652E+06         0.28136E+07         0.00000E+00
    0.28136E+07        -0.79751E+07         0.00000E+00
    0.00000E+00         0.00000E+00         0.00000E+00
 
    0.55486E+06         0.28903E+07         0.00000E+00
    0.28903E+07        -0.79595E+07         0.00000E+00
    0.00000E+00         0.00000E+00         0.00000E+00
 
    0.51283E+06         0.29670E+07         0.00000E+00
    0.29670E+07        -0.79433E+07         0.00000E+00
    0.00000E+00         0.00000E+00         0.00000E+00
 
    0.47043E+06         0.30437E+07         0.00000E+00
    0.30437E+07        -0.79265E+07         0.00000E+00
    0.00000E+00         0.00000E+00         0.00000E+00
 
    0.42766E+06         0.31205E+07         0.00000E+00
    0.31205E+07        -0.79092E+07         0.00000E+00
    0.00000E+00         0.00000E+00         0.00000E+00
 
    0.38449E+06         0.31973E+07         0.00000E+00
    0.31973E+07        -0.78913E+07         0.00000E+00
    0.00000E+00         0.00000E+00         0.00000E+00
 
    0.34091E+06         0.32742E+07         0.00000E+00
    0.32742E+07        -0.78728E+07         0.00000E+00
    0.00000E+00         0.00000E+00         0.00000E+00
 
    0.29691E+06         0.33511E+07         0.00000E+00
    0.33511E+07        -0.78536E+07         0.00000E+00
    0.00000E+00         0.00000E+00         0.00000E+00
 
    0.25249E+06         0.34281E+07         0.00000E+00
    0.34281E+07        -0.78339E+07         0.00000E+00
    0.00000E+00         0.00000E+00         0.00000E+00
 
    0.20763E+06         0.35051E+07         0.00000E+00
    0.35051E+07        -0.78136E+07         0.00000E+00
    0.00000E+00         0.00000E+00         0.00000E+00
 
    0.16231E+06         0.35821E+07         0.00000E+00
    0.35821E+07        -0.77926E+07         0.00000E+00
    0.00000E+00         0.00000E+00         0.00000E+00
 
    0.11652E+06         0.36592E+07         0.00000E+00
    0.36592E+07        -0.77709E+07         0.00000E+00
    0.00000E+00         0.00000E+00         0.00000E+00
 
    0.70259E+05         0.37364E+07         0.00000E+00
    0.37364E+07        -0.77486E+07         0.00000E+00
    0.00000E+00         0.00000E+00         0.00000E+00
 
    0.23503E+05         0.38136E+07         0.00000E+00
    0.38136E+07        -0.77257E+07         0.00000E+00
    0.00000E+00         0.00000E+00         0.00000E+00
 
    0.19429E+07         0.40643E+05         0.00000E+00
    0.40643E+05        -0.86235E+07         0.00000E+00
    0.00000E+00         0.00000E+00         0.00000E+00
 
    0.19074E+07         0.12134E+06         0.00000E+00
    0.12134E+06        -0.86232E+07         0.00000E+00
    0.00000E+00         0.00000E+00         0.00000E+00
 
    0.18719E+07         0.20183E+06         0.00000E+00
    0.20183E+06        -0.86226E+07         0.00000E+00
    0.00000E+00         0.00000E+00         0.00000E+00
 
    0.18362E+07         0.28214E+06         0.00000E+00
    0.28214E+06        -0.86216E+07         0.00000E+00
    0.00000E+00         0.00000E+00         0.00000E+00
 
    0.18006E+07         0.36228E+06         0.00000E+00
    0.36228E+06        -0.86204E+07         0.00000E+00
    0.00000E+00         0.00000E+00         0.00000E+00
 
    0.17648E+07         0.44225E+06         0.00000E+00
    0.44225E+06        -0.86188E+07         0.00000E+00
    0.00000E+00         0.00000E+00         0.00000E+00
 
    0.17290E+07         0.52206E+06         0.00000E+00
    0.52206E+06        -0.86169E+07         0.00000E+00
    0.00000E+00         0.00000E+00         0.00000E+00
 
    0.16931E+07         0.60174E+06         0.00000E+00
    0.60174E+06        -0.86146E+07         0.00000E+00
    0.00000E+00         0.00000E+00         0.00000E+00
 
    0.16572E+07         0.68128E+06         0.00000E+00
    0.68128E+06        -0.86120E+07         0.00000E+00
    0.00000E+00         0.00000E+00         0.00000E+00
 
    0.16211E+07         0.76070E+06         0.00000E+00
    0.76070E+06        -0.86091E+07         0.00000E+00
    0.00000E+00         0.00000E+00         0.00000E+00
 
    0.15850E+07         0.84001E+06         0.00000E+00
    0.84001E+06        -0.86058E+07         0.00000E+00
    0.00000E+00         0.00000E+00         0.00000E+00
 
    0.15488E+07         0.91922E+06         0.00000E+00
    0.91922E+06        -0.86022E+07         0.00000E+00
    0.00000E+00         0.00000E+00         0.00000E+00
 
    0.15125E+07         0.99834E+06         0.00000E+00
    0.99834E+06        -0.85982E+07         0.00000E+00
    0.00000E+00         0.00000E+00         0.00000E+00
 
    0.14761E+07         0.10774E+07         0.00000E+00
    0.10774E+07        -0.85938E+07         0.00000E+00
    0.00000E+00         0.00000E+00         0.00000E+00
 
    0.14396E+07         0.11563E+07         0.00000E+00
    0.11563E+07        -0.85891E+07         0.00000E+00
    0.00000E+00         0.00000E+00         0.00000E+00
 
    0.14030E+07         0.12352E+07         0.00000E+00
    0.12352E+07        -0.85840E+07         0.00000E+00
    0.00000E+00         0.00000E+00         0.00000E+00
 
    0.13662E+07         0.13141E+07         0.00000E+00
    0.13141E+07        -0.85785E+07         0.00000E+00
    0.00000E+00         0.00000E+00         0.00000E+00
 
    0.13294E+07         0.13929E+07         0.00000E+00
    0.13929E+07        -0.85726E+07         0.00000E+00
    0.00000E+00         0.00000E+00         0.00000E+00
 
    0.12924E+07         0.14717E+07         0.00000E+00
    0.14717E+07        -0.85664E+07         0.00000E+00
    0.00000E+00         0.00000E+00         0.00000E+00
 
    0.12552E+07         0.15504E+07         0.00000E+00
    0.15504E+07        -0.85597E+07         0.00000E+00
    0.00000E+00         0.00000E+00         0.00000E+00
 
    0.12179E+07         0.16291E+07         0.00000E+00
    0.16291E+07        -0.85526E+07         0.00000E+00
    0.00000E+00         0.00000E+00         0.00000E+00
 
    0.11804E+07         0.17078E+07         0.00000E+00
    0.17078E+07        -0.85451E+07         0.00000E+00
    0.00000E+00         0.00000E+00         0.00000E+00
 
    0.11428E+07         0.17866E+07         0.00000E+00
    0.17866E+07        -0.85372E+07         0.00000E+00
    0.00000E+00         0.00000E+00         0.00000E+00
 
    0.11050E+07         0.18653E+07         0.00000E+00
    0.18653E+07        -0.85289E+07         0.00000E+00
    0.00000E+00         0.00000E+00         0.00000E+00
 
    0.10669E+07         0.19440E+07         0.00000E+00
    0.19440E+07        -0.85201E+07         0.00000E+00
    0.00000E+00         0.00000E+00         0.00000E+00
 
    0.10287E+07         0.20227E+07         0.00000E+00
    0.20227E+07        -0.85108E+07         0.00000E+00
    0.00000E+00         0.00000E+00         0.00000E+00
 
    0.99032E+06         0.21015E+07         0.00000E+00
    0.21015E+07        -0.85011E+07         0.00000E+00
    0.00000E+00         0.00000E+00         0.00000E+00
 
    0.95169E+06         0.21802E+07         0.00000E+00
    0.21802E+07        -0.84910E+07         0.00000E+00
    0.00000E+00         0.00000E+00         0.00000E+00
 
    0.91282E+06         0.22591E+07         0.00000E+00
    0.22591E+07        -0.84803E+07         0.00000E+00
    0.00000E+00         0.00000E+00         0.00000E+00
 
    0.87372E+06         0.23379E+07         0.00000E+00
    0.23379E+07        -0.84692E+07         0.00000E+00
    0.00000E+00         0.00000E+00         0.00000E+00
 
    0.83437E+06         0.24168E+07         0.00000E+00
    0.24168E+07        -0.84576E+07         0.00000E+00
    0.00000E+00         0.00000E+00         0.00000E+00
 
    0.79476E+06         0.24958E+07         0.00000E+00
    0.24958E+07        -0.84455E+07         0.00000E+00
    0.00000E+00         0.00000E+00         0.00000E+00
 
    0.75487E+06         0.25748E+07         0.00000E+00
    0.25748E+07        -0.84329E+07         0.00000E+00
    0.00000E+00         0.00000E+00         0.00000E+00
 
    0.71470E+06         0.26539E+07         0.00000E+00
    0.26539E+07        -0.84198E+07         0.00000E+00
    0.00000E+00         0.00000E+00         0.00000E+00
 
    0.67424E+06         0.27330E+07         0.00000E+00
    0.27330E+07        -0.84061E+07         0.00000E+00
    0.00000E+00         0.00000E+00         0.00000E+00
 
    0.63347E+06         0.28122E+07         0.00000E+00
    0.28122E+07        -0.83919E+07         0.00000E+00
    0.00000E+00         0.00000E+00         0.00000E+00
 
    0.59238E+06         0.28915E+07         0.00000E+00
    0.28915E+07        -0.83772E+07         0.00000E+00
    0.00000E+00         0.00000E+00         0.00000E+00
 
    0.55096E+06         0.29708E+07         0.00000E+00
    0.29708E+07        -0.83619E+07         0.00000E+00
    0.00000E+00         0.00000E+00         0.00000E+00
 
    0.50919E+06         0.30503E+07         0.00000E+00
    0.30503E+07        -0.83460E+07         0.00000E+00
    0.00000E+00         0.00000E+00         0.00000E+00
 
    0.46707E+06         0.31298E+07         0.00000E+00
    0.31298E+07        -0.83296E+07         0.00000E+00
    0.00000E+00         0.00000E+00         0.00000E+00
 
    0.42458E+06         0.32094E+07         0.00000E+00
    0.32094E+07        -0.83126E+07         0.00000E+00
    0.00000E+00         0.00000E+00         0.00000E+00
 
    0.38171E+06         0.32890E+07         0.00000E+00
    0.32890E+07        -0.82950E+07         0.00000E+00
    0.00000E+00         0.00000E+00         0.00000E+00
 
    0.33844E+06         0.33688E+07         0.00000E+00
    0.33688E+07        -0.82768E+07         0.00000E+00
    0.00000E+00         0.00000E+00         0.00000E+00
 
    0.29476E+06         0.34487E+07         0.00000E+00
    0.34487E+07        -0.82579E+07         0.00000E+00
    0.00000E+00         0.00000E+00         0.00000E+00
 
    0.25066E+06         0.35286E+07         0.00000E+00
    0.35286E+07        -0.82385E+07         0.00000E+00
    0.00000E+00         0.00000E+00         0.00000E+00
 
    0.20612E+06         0.36086E+07         0.00000E+00
    0.36086E+07        -0.82184E+07         0.00000E+00
    0.00000E+00         0.00000E+00         0.00000E+00
 
    0.16114E+06         0.36888E+07         0.00000E+00
    0.36888E+07        -0.81976E+07         0.00000E+00
    0.00000E+00         0.00000E+00         0.00000E+00
 
    0.11569E+06         0.37690E+07         0.00000E+00
    0.37690E+07        -0.81762E+07         0.00000E+00
    0.00000E+00         0.00000E+00         0.00000E+00
 
    0.69756E+05         0.38493E+07         0.00000E+00
    0.38493E+07        -0.81541E+07         0.00000E+00
    0.00000E+00         0.00000E+00         0.00000E+00
 
    0.23335E+05         0.39297E+07         0.00000E+00
    0.39297E+07        -0.81314E+07         0.00000E+00
    0.00000E+00         0.00000E+00         0.00000E+00
 
    0.19423E+07         0.41494E+05         0.00000E+00
    0.41494E+05        -0.90325E+07         0.00000E+00
    0.00000E+00         0.00000E+00         0.00000E+00
 
    0.19057E+07         0.12391E+06         0.00000E+00
    0.12391E+06        -0.90323E+07         0.00000E+00
    0.00000E+00         0.00000E+00         0.00000E+00
 
    0.18692E+07         0.20613E+06         0.00000E+00
    0.20613E+06        -0.90317E+07         0.00000E+00
    0.00000E+00         0.00000E+00         0.00000E+00
 
    0.18327E+07         0.28818E+06         0.00000E+00
    0.28818E+06        -0.90308E+07         0.00000E+00
    0.00000E+00         0.00000E+00         0.00000E+00
 
    0.17962E+07         0.37006E+06         0.00000E+00
    0.37006E+06        -0.90297E+07         0.00000E+00
    0.00000E+00         0.00000E+00         0.00000E+00
 
    0.17596E+07         0.45179E+06         0.00000E+00
    0.45179E+06        -0.90282E+07         0.00000E+00
    0.00000E+00         0.00000E+00         0.00000E+00
 
    0.17231E+07         0.53337E+06         0.00000E+00
    0.53337E+06        -0.90264E+07         0.00000E+00
    0.00000E+00         0.00000E+00         0.00000E+00
 
    0.16866E+07         0.61483E+06         0.00000E+00
    0.61483E+06        -0.90243E+07         0.00000E+00
    0.00000E+00         0.00000E+00         0.00000E+00
 
    0.16500E+07         0.69618E+06         0.00000E+00
    0.69618E+06        -0.90219E+07         0.00000E+00
    0.00000E+00         0.00000E+00         0.00000E+00
 
    0.16134E+07         0.77741E+06         0.00000E+00
    0.77741E+06        -0.90192E+07         0.00000E+00
    0.00000E+00         0.00000E+00         0.00000E+00
 
    0.15767E+07         0.85856E+06         0.00000E+00
    0.85856E+06        -0.90162E+07         0.00000E+00
    0.00000E+00         0.00000E+00         0.00000E+00
 
    0.15401E+07         0.93962E+06         0.00000E+00
    0.93962E+06        -0.90128E+07         0.00000E+00
    0.00000E+00         0.00000E+00         0.00000E+00
 
    0.15034E+07         0.10206E+07         0.00000E+00
    0.10206E+07        -0.90090E+07         0.00000E+00
    0.00000E+00         0.00000E+00         0.00000E+00
 
    0.14666E+07         0.11016E+07         0.00000E+00
    0.11016E+07        -0.90050E+07         0.00000E+00
    0.00000E+00         0.00000E+00         0.00000E+00
 
    0.14297E+07         0.11824E+07         0.00000E+00
    0.11824E+07        -0.90006E+07         0.00000E+00
    0.00000E+00         0.00000E+00         0.00000E+00
 
    0.13928E+07         0.12633E+07         0.00000E+00
    0.12633E+07        -0.89958E+07         0.00000E+00
    0.00000E+00         0.00000E+00         0.00000E+00
 
    0.13559E+07         0.13441E+07         0.00000E+00
    0.13441E+07        -0.89906E+07         0.00000E+00
    0.00000E+00         0.00000E+00         0.00000E+00
 
    0.13188E+07         0.14249E+07         0.00000E+00
    0.14249E+07        -0.89851E+07         0.00000E+00
    0.00000E+00         0.00000E+00         0.00000E+00
 
    0.12817E+07         0.15057E+07         0.00000E+00
    0.15057E+07        -0.89792E+07         0.00000E+00
    0.00000E+00         0.00000E+00         0.00000E+00
 
    0.12444E+07         0.15865E+07         0.00000E+00
    0.15865E+07        -0.89729E+07         0.00000E+00
    0.00000E+00         0.00000E+00         0.00000E+00
 
    0.12070E+07         0.16673E+07         0.00000E+00
    0.16673E+07        -0.89662E+07         0.00000E+00
    0.00000E+00         0.00000E+00         0.00000E+00
 
    0.11695E+07         0.17481E+07         0.00000E+00
    0.17481E+07        -0.89591E+07         0.00000E+00
    0.00000E+00         0.00000E+00         0.00000E+00
 
    0.11319E+07         0.18289E+07         0.00000E+00
    0.18289E+07        -0.89516E+07         0.00000E+00
    0.00000E+00         0.00000E+00         0.00000E+00
 
    0.10941E+07         0.19098E+07         0.00000E+00
    0.19098E+07        -0.89436E+07         0.00000E+00
    0.00000E+00         0.00000E+00         0.00000E+00
 
    0.10562E+07         0.19907E+07         0.00000E+00
    0.19907E+07        -0.89353E+07         0.00000E+00
    0.00000E+00         0.00000E+00         0.00000E+00
 
    0.10182E+07         0.20717E+07         0.00000E+00
    0.20717E+07        -0.89265E+07         0.00000E+00
    0.00000E+00         0.00000E+00         0.00000E+00
 
    0.97990E+06         0.21527E+07         0.00000E+00
    0.21527E+07        -0.89172E+07         0.00000E+00
    0.00000E+00         0.00000E+00         0.00000E+00
 
    0.94146E+06         0.22338E+07         0.00000E+00
    0.22338E+07        -0.89075E+07         0.00000E+00
    0.00000E+00         0.00000E+00         0.00000E+00
 
    0.90283E+06         0.23150E+07         0.00000E+00
    0.23150E+07        -0.88973E+07         0.00000E+00
    0.00000E+00         0.00000E+00         0.00000E+00
 
    0.86399E+06         0.23962E+07         0.00000E+00
    0.23962E+07        -0.88866E+07         0.00000E+00
    0.00000E+00         0.00000E+00         0.00000E+00
 
    0.82492E+06         0.24776E+07         0.00000E+00
    0.24776E+07        -0.88755E+07         0.00000E+00
    0.00000E+00         0.00000E+00         0.00000E+00
 
    0.78562E+06         0.25590E+07         0.00000E+00
    0.25590E+07        -0.88639E+07         0.00000E+00
    0.00000E+00         0.00000E+00         0.00000E+00
 
    0.74608E+06         0.26405E+07         0.00000E+00
    0.26405E+07        -0.88517E+07         0.00000E+00
    0.00000E+00         0.00000E+00         0.00000E+00
 
    0.70628E+06         0.27221E+07         0.00000E+00
    0.27221E+07        -0.88390E+07         0.00000E+00
    0.00000E+00         0.00000E+00         0.00000E+00
 
    0.66621E+06         0.28038E+07         0.00000E+00
    0.28038E+07        -0.88258E+07         0.00000E+00
    0.00000E+00         0.00000E+00         0.00000E+00
 
    0.62585E+06         0.28856E+07         0.00000E+00
    0.28856E+07        -0.88121E+07         0.00000E+00
    0.00000E+00         0.00000E+00         0.00000E+00
 
    0.58519E+06         0.29676E+07         0.00000E+00
    0.29676E+07        -0.87978E+07         0.00000E+00
    0.00000E+00         0.00000E+00         0.00000E+00
 
    0.54423E+06         0.30496E+07         0.00000E+00
    0.30496E+07        -0.87830E+07         0.00000E+00
    0.00000E+00         0.00000E+00         0.00000E+00
 
    0.50293E+06         0.31318E+07         0.00000E+00
    0.31318E+07        -0.87675E+07         0.00000E+00
    0.00000E+00         0.00000E+00         0.00000E+00
 
    0.46130E+06         0.32141E+07         0.00000E+00
    0.32141E+07        -0.87515E+07         0.00000E+00
    0.00000E+00         0.00000E+00         0.00000E+00
 
    0.41931E+06         0.32966E+07         0.00000E+00
    0.32966E+07        -0.87349E+07         0.00000E+00
    0.00000E+00         0.00000E+00         0.00000E+00
 
    0.37696E+06         0.33791E+07         0.00000E+00
    0.33791E+07        -0.87177E+07         0.00000E+00
    0.00000E+00         0.00000E+00         0.00000E+00
 
    0.33422E+06         0.34618E+07         0.00000E+00
    0.34618E+07        -0.86999E+07         0.00000E+00
    0.00000E+00         0.00000E+00         0.00000E+00
 
    0.29108E+06         0.35447E+07         0.00000E+00
    0.35447E+07        -0.86815E+07         0.00000E+00
    0.00000E+00         0.00000E+00         0.00000E+00
 
    0.24753E+06         0.36277E+07         0.00000E+00
    0.36277E+07        -0.86624E+07         0.00000E+00
    0.00000E+00         0.00000E+00         0.00000E+00
 
    0.20355E+06         0.37108E+07         0.00000E+00
    0.37108E+07        -0.86427E+07         0.00000E+00
    0.00000E+00         0.00000E+00         0.00000E+00
 
    0.15913E+06         0.37940E+07         0.00000E+00
    0.37940E+07        -0.86223E+07         0.00000E+00
    0.00000E+00         0.00000E+00         0.00000E+00
 
    0.11425E+06         0.38774E+07         0.00000E+00
    0.38774E+07        -0.86012E+07         0.00000E+00
    0.00000E+00         0.00000E+00         0.00000E+00
 
    0.68893E+05         0.39610E+07         0.00000E+00
    0.39610E+07        -0.85795E+07         0.00000E+00
    0.00000E+00         0.00000E+00         0.00000E+00
 
    0.23047E+05         0.40446E+07         0.00000E+00
    0.40446E+07        -0.85570E+07         0.00000E+00
    0.00000E+00         0.00000E+00         0.00000E+00
 
    0.19331E+07         0.42287E+05         0.00000E+00
    0.42287E+05        -0.94584E+07         0.00000E+00
    0.00000E+00         0.00000E+00         0.00000E+00
 
    0.18956E+07         0.12631E+06         0.00000E+00
    0.12631E+06        -0.94582E+07         0.00000E+00
    0.00000E+00         0.00000E+00         0.00000E+00
 
    0.18581E+07         0.21015E+06         0.00000E+00
    0.21015E+06        -0.94576E+07         0.00000E+00
    0.00000E+00         0.00000E+00         0.00000E+00
 
    0.18208E+07         0.29382E+06         0.00000E+00
    0.29382E+06        -0.94569E+07         0.00000E+00
    0.00000E+00         0.00000E+00         0.00000E+00
 
    0.17835E+07         0.37733E+06         0.00000E+00
    0.37733E+06        -0.94558E+07         0.00000E+00
    0.00000E+00         0.00000E+00         0.00000E+00
 
    0.17462E+07         0.46071E+06         0.00000E+00
    0.46071E+06        -0.94545E+07         0.00000E+00
    0.00000E+00         0.00000E+00         0.00000E+00
 
    0.17090E+07         0.54397E+06         0.00000E+00
    0.54397E+06        -0.94529E+07         0.00000E+00
    0.00000E+00         0.00000E+00         0.00000E+00
 
    0.16719E+07         0.62711E+06         0.00000E+00
    0.62711E+06        -0.94510E+07         0.00000E+00
    0.00000E+00         0.00000E+00         0.00000E+00
 
    0.16348E+07         0.71016E+06         0.00000E+00
    0.71016E+06        -0.94488E+07         0.00000E+00
    0.00000E+00         0.00000E+00         0.00000E+00
 
    0.15977E+07         0.79312E+06         0.00000E+00
    0.79312E+06        -0.94463E+07         0.00000E+00
    0.00000E+00         0.00000E+00         0.00000E+00
 
    0.15606E+07         0.87600E+06         0.00000E+00
    0.87600E+06        -0.94436E+07         0.00000E+00
    0.00000E+00         0.00000E+00         0.00000E+00
 
    0.15236E+07         0.95883E+06         0.00000E+00
    0.95883E+06        -0.94405E+07         0.00000E+00
    0.00000E+00         0.00000E+00         0.00000E+00
 
    0.14866E+07         0.10416E+07         0.00000E+00
    0.10416E+07        -0.94371E+07         0.00000E+00
    0.00000E+00         0.00000E+00         0.00000E+00
 
    0.14495E+07         0.11244E+07         0.00000E+00
    0.11244E+07        -0.94333E+07         0.00000E+00
    0.00000E+00         0.00000E+00         0.00000E+00
 
    0.14125E+07         0.12071E+07         0.00000E+00
    0.12071E+07        -0.94292E+07         0.00000E+00
    0.00000E+00         0.00000E+00         0.00000E+00
 
    0.13755E+07         0.12898E+07         0.00000E+00
    0.12898E+07        -0.94248E+07         0.00000E+00
    0.00000E+00         0.00000E+00         0.00000E+00
 
    0.13384E+07         0.13725E+07         0.00000E+00
    0.13725E+07        -0.94201E+07         0.00000E+00
    0.00000E+00         0.00000E+00         0.00000E+00
 
    0.13013E+07         0.14552E+07         0.00000E+00
    0.14552E+07        -0.94150E+07         0.00000E+00
    0.00000E+00         0.00000E+00         0.00000E+00
 
    0.12641E+07         0.15380E+07         0.00000E+00
    0.15380E+07        -0.94095E+07         0.00000E+00
    0.00000E+00         0.00000E+00         0.00000E+00
 
    0.12269E+07         0.16207E+07         0.00000E+00
    0.16207E+07        -0.94036E+07         0.00000E+00
    0.00000E+00         0.00000E+00         0.00000E+00
 
    0.11896E+07         0.17036E+07         0.00000E+00
    0.17036E+07        -0.93974E+07         0.00000E+00
    0.00000E+00         0.00000E+00         0.00000E+00
 
    0.11523E+07         0.17864E+07         0.00000E+00
    0.17864E+07        -0.93908E+07         0.00000E+00
    0.00000E+00         0.00000E+00         0.00000E+00
 
    0.11149E+07         0.18694E+07         0.00000E+00
    0.18694E+07        -0.93837E+07         0.00000E+00
    0.00000E+00         0.00000E+00         0.00000E+00
 
    0.10773E+07         0.19524E+07         0.00000E+00
    0.19524E+07        -0.93763E+07         0.00000E+00
    0.00000E+00         0.00000E+00         0.00000E+00
 
    0.10397E+07         0.20354E+07         0.00000E+00
    0.20354E+07        -0.93684E+07         0.00000E+00
    0.00000E+00         0.00000E+00         0.00000E+00
 
    0.10019E+07         0.21186E+07         0.00000E+00
    0.21186E+07        -0.93601E+07         0.00000E+00
    0.00000E+00         0.00000E+00         0.00000E+00
 
    0.96401E+06         0.22019E+07         0.00000E+00
    0.22019E+07        -0.93514E+07         0.00000E+00
    0.00000E+00         0.00000E+00         0.00000E+00
 
    0.92596E+06         0.22852E+07         0.00000E+00
    0.22852E+07        -0.93422E+07         0.00000E+00
    0.00000E+00         0.00000E+00         0.00000E+00
 
    0.88775E+06         0.23687E+07         0.00000E+00
    0.23687E+07        -0.93326E+07         0.00000E+00
    0.00000E+00         0.00000E+00         0.00000E+00
 
    0.84936E+06         0.24523E+07         0.00000E+00
    0.24523E+07        -0.93225E+07         0.00000E+00
    0.00000E+00         0.00000E+00         0.00000E+00
 
    0.81079E+06         0.25360E+07         0.00000E+00
    0.25360E+07        -0.93119E+07         0.00000E+00
    0.00000E+00         0.00000E+00         0.00000E+00
 
    0.77202E+06         0.26199E+07         0.00000E+00
    0.26199E+07        -0.93008E+07         0.00000E+00
    0.00000E+00         0.00000E+00         0.00000E+00
 
    0.73303E+06         0.27039E+07         0.00000E+00
    0.27039E+07        -0.92892E+07         0.00000E+00
    0.00000E+00         0.00000E+00         0.00000E+00
 
    0.69381E+06         0.27880E+07         0.00000E+00
    0.27880E+07        -0.92771E+07         0.00000E+00
    0.00000E+00         0.00000E+00         0.00000E+00
 
    0.65435E+06         0.28723E+07         0.00000E+00
    0.28723E+07        -0.92644E+07         0.00000E+00
    0.00000E+00         0.00000E+00         0.00000E+00
 
    0.61463E+06         0.29568E+07         0.00000E+00
    0.29568E+07        -0.92513E+07         0.00000E+00
    0.00000E+00         0.00000E+00         0.00000E+00
 
    0.57463E+06         0.30414E+07         0.00000E+00
    0.30414E+07        -0.92375E+07         0.00000E+00
    0.00000E+00         0.00000E+00         0.00000E+00
 
    0.53435E+06         0.31262E+07         0.00000E+00
    0.31262E+07        -0.92233E+07         0.00000E+00
    0.00000E+00         0.00000E+00         0.00000E+00
 
    0.49376E+06         0.32111E+07         0.00000E+00
    0.32111E+07        -0.92084E+07         0.00000E+00
    0.00000E+00         0.00000E+00         0.00000E+00
 
    0.45285E+06         0.32962E+07         0.00000E+00
    0.32962E+07        -0.91929E+07         0.00000E+00
    0.00000E+00         0.00000E+00         0.00000E+00
 
    0.41161E+06         0.33815E+07         0.00000E+00
    0.33815E+07        -0.91769E+07         0.00000E+00
    0.00000E+00         0.00000E+00         0.00000E+00
 
    0.37002E+06         0.34670E+07         0.00000E+00
    0.34670E+07        -0.91602E+07         0.00000E+00
    0.00000E+00         0.00000E+00         0.00000E+00
 
    0.32805E+06         0.35527E+07         0.00000E+00
    0.35527E+07        -0.91429E+07         0.00000E+00
    0.00000E+00         0.00000E+00         0.00000E+00
 
    0.28571E+06         0.36385E+07         0.00000E+00
    0.36385E+07        -0.91250E+07         0.00000E+00
    0.00000E+00         0.00000E+00         0.00000E+00
 
    0.24296E+06         0.37246E+07         0.00000E+00
    0.37246E+07        -0.91065E+07         0.00000E+00
    0.00000E+00         0.00000E+00         0.00000E+00
 
    0.19980E+06         0.38108E+07         0.00000E+00
    0.38108E+07        -0.90872E+07         0.00000E+00
    0.00000E+00         0.00000E+00         0.00000E+00
 
    0.15620E+06         0.38973E+07         0.00000E+00
    0.38973E+07        -0.90673E+07         0.00000E+00
    0.00000E+00         0.00000E+00         0.00000E+00
 
    0.11215E+06         0.39839E+07         0.00000E+00
    0.39839E+07        -0.90467E+07         0.00000E+00
    0.00000E+00         0.00000E+00         0.00000E+00
 
    0.67630E+05         0.40707E+07         0.00000E+00
    0.40707E+07        -0.90254E+07         0.00000E+00
    0.00000E+00         0.00000E+00         0.00000E+00
 
    0.22626E+05         0.41578E+07         0.00000E+00
    0.41578E+07        -0.90034E+07         0.00000E+00
    0.00000E+00         0.00000E+00         0.00000E+00
 
    0.19143E+07         0.43009E+05         0.00000E+00
    0.43009E+05        -0.99015E+07         0.00000E+00
    0.00000E+00         0.00000E+00         0.00000E+00
 
    0.18759E+07         0.12850E+06         0.00000E+00
    0.12850E+06        -0.99013E+07         0.00000E+00
    0.00000E+00         0.00000E+00         0.00000E+00
 
    0.18376E+07         0.21382E+06         0.00000E+00
    0.21382E+06        -0.99008E+07         0.00000E+00
    0.00000E+00         0.00000E+00         0.00000E+00
 
    0.17995E+07         0.29898E+06         0.00000E+00
    0.29898E+06        -0.99001E+07         0.00000E+00
    0.00000E+00         0.00000E+00         0.00000E+00
 
    0.17614E+07         0.38401E+06         0.00000E+00
    0.38401E+06        -0.98992E+07         0.00000E+00
    0.00000E+00         0.00000E+00         0.00000E+00
 
    0.17236E+07         0.46892E+06         0.00000E+00
    0.46892E+06        -0.98981E+07         0.00000E+00
    0.00000E+00         0.00000E+00         0.00000E+00
 
    0.16858E+07         0.55371E+06         0.00000E+00
    0.55371E+06        -0.98967E+07         0.00000E+00
    0.00000E+00         0.00000E+00         0.00000E+00
 
    0.16481E+07         0.63842E+06         0.00000E+00
    0.63842E+06        -0.98950E+07         0.00000E+00
    0.00000E+00         0.00000E+00         0.00000E+00
 
    0.16106E+07         0.72305E+06         0.00000E+00
    0.72305E+06        -0.98931E+07         0.00000E+00
    0.00000E+00         0.00000E+00         0.00000E+00
 
    0.15731E+07         0.80761E+06         0.00000E+00
    0.80761E+06        -0.98909E+07         0.00000E+00
    0.00000E+00         0.00000E+00         0.00000E+00
 
    0.15358E+07         0.89213E+06         0.00000E+00
    0.89213E+06        -0.98884E+07         0.00000E+00
    0.00000E+00         0.00000E+00         0.00000E+00
 
    0.14985E+07         0.97661E+06         0.00000E+00
    0.97661E+06        -0.98857E+07         0.00000E+00
    0.00000E+00         0.00000E+00         0.00000E+00
 
    0.14613E+07         0.10611E+07         0.00000E+00
    0.10611E+07        -0.98826E+07         0.00000E+00
    0.00000E+00         0.00000E+00         0.00000E+00
 
    0.14241E+07         0.11455E+07         0.00000E+00
    0.11455E+07        -0.98793E+07         0.00000E+00
    0.00000E+00         0.00000E+00         0.00000E+00
 
    0.13871E+07         0.12300E+07         0.00000E+00
    0.12300E+07        -0.98756E+07         0.00000E+00
    0.00000E+00         0.00000E+00         0.00000E+00
 
    0.13500E+07         0.13145E+07         0.00000E+00
    0.13145E+07        -0.98716E+07         0.00000E+00
    0.00000E+00         0.00000E+00         0.00000E+00
 
    0.13130E+07         0.13990E+07         0.00000E+00
    0.13990E+07        -0.98673E+07         0.00000E+00
    0.00000E+00         0.00000E+00         0.00000E+00
 
    0.12760E+07         0.14835E+07         0.00000E+00
    0.14835E+07        -0.98627E+07         0.00000E+00
    0.00000E+00         0.00000E+00         0.00000E+00
 
    0.12390E+07         0.15681E+07         0.00000E+00
    0.15681E+07        -0.98577E+07         0.00000E+00
    0.00000E+00         0.00000E+00         0.00000E+00
 
    0.12020E+07         0.16528E+07         0.00000E+00
    0.16528E+07        -0.98524E+07         0.00000E+00
    0.00000E+00         0.00000E+00         0.00000E+00
 
    0.11650E+07         0.17376E+07         0.00000E+00
    0.17376E+07        -0.98467E+07         0.00000E+00
    0.00000E+00         0.00000E+00         0.00000E+00
 
    0.11280E+07         0.18224E+07         0.00000E+00
    0.18224E+07        -0.98406E+07         0.00000E+00
    0.00000E+00         0.00000E+00         0.00000E+00
 
    0.10909E+07         0.19074E+07         0.00000E+00
    0.19074E+07        -0.98341E+07         0.00000E+00
    0.00000E+00         0.00000E+00         0.00000E+00
 
    0.10538E+07         0.19924E+07         0.00000E+00
    0.19924E+07        -0.98273E+07         0.00000E+00
    0.00000E+00         0.00000E+00         0.00000E+00
 
    0.10167E+07         0.20776E+07         0.00000E+00
    0.20776E+07        -0.98200E+07         0.00000E+00
    0.00000E+00         0.00000E+00         0.00000E+00
 
    0.97941E+06         0.21629E+07         0.00000E+00
    0.21629E+07        -0.98123E+07         0.00000E+00
    0.00000E+00         0.00000E+00         0.00000E+00
 
    0.94206E+06         0.22483E+07         0.00000E+00
    0.22483E+07        -0.98042E+07         0.00000E+00
    0.00000E+00         0.00000E+00         0.00000E+00
 
    0.90461E+06         0.23339E+07         0.00000E+00
    0.23339E+07        -0.97957E+07         0.00000E+00
    0.00000E+00         0.00000E+00         0.00000E+00
 
    0.86704E+06         0.24197E+07         0.00000E+00
    0.24197E+07        -0.97867E+07         0.00000E+00
    0.00000E+00         0.00000E+00         0.00000E+00
 
    0.82934E+06         0.25056E+07         0.00000E+00
    0.25056E+07        -0.97772E+07         0.00000E+00
    0.00000E+00         0.00000E+00         0.00000E+00
 
    0.79148E+06         0.25917E+07         0.00000E+00
    0.25917E+07        -0.97673E+07         0.00000E+00
    0.00000E+00         0.00000E+00         0.00000E+00
 
    0.75346E+06         0.26779E+07         0.00000E+00
    0.26779E+07        -0.97569E+07         0.00000E+00
    0.00000E+00         0.00000E+00         0.00000E+00
 
    0.71526E+06         0.27644E+07         0.00000E+00
    0.27644E+07        -0.97460E+07         0.00000E+00
    0.00000E+00         0.00000E+00         0.00000E+00
 
    0.67687E+06         0.28511E+07         0.00000E+00
    0.28511E+07        -0.97345E+07         0.00000E+00
    0.00000E+00         0.00000E+00         0.00000E+00
 
    0.63826E+06         0.29379E+07         0.00000E+00
    0.29379E+07        -0.97226E+07         0.00000E+00
    0.00000E+00         0.00000E+00         0.00000E+00
 
    0.59942E+06         0.30250E+07         0.00000E+00
    0.30250E+07        -0.97101E+07         0.00000E+00
    0.00000E+00         0.00000E+00         0.00000E+00
 
    0.56034E+06         0.31122E+07         0.00000E+00
    0.31122E+07        -0.96970E+07         0.00000E+00
    0.00000E+00         0.00000E+00         0.00000E+00
 
    0.52100E+06         0.31997E+07         0.00000E+00
    0.31997E+07        -0.96834E+07         0.00000E+00
    0.00000E+00         0.00000E+00         0.00000E+00
 
    0.48138E+06         0.32875E+07         0.00000E+00
    0.32875E+07        -0.96692E+07         0.00000E+00
    0.00000E+00         0.00000E+00         0.00000E+00
 
    0.44146E+06         0.33754E+07         0.00000E+00
    0.33754E+07        -0.96545E+07         0.00000E+00
    0.00000E+00         0.00000E+00         0.00000E+00
 
    0.40123E+06         0.34636E+07         0.00000E+00
    0.34636E+07        -0.96391E+07         0.00000E+00
    0.00000E+00         0.00000E+00         0.00000E+00
 
    0.36066E+06         0.35520E+07         0.00000E+00
    0.35520E+07        -0.96231E+07         0.00000E+00
    0.00000E+00         0.00000E+00         0.00000E+00
 
    0.31975E+06         0.36407E+07         0.00000E+00
    0.36407E+07        -0.96065E+07         0.00000E+00
    0.00000E+00         0.00000E+00         0.00000E+00
 
    0.27847E+06         0.37296E+07         0.00000E+00
    0.37296E+07        -0.95892E+07         0.00000E+00
    0.00000E+00         0.00000E+00         0.00000E+00
 
    0.23681E+06         0.38188E+07         0.00000E+00
    0.38188E+07        -0.95713E+07         0.00000E+00
    0.00000E+00         0.00000E+00         0.00000E+00
 
    0.19474E+06         0.39082E+07         0.00000E+00
    0.39082E+07        -0.95527E+07         0.00000E+00
    0.00000E+00         0.00000E+00         0.00000E+00
 
    0.15225E+06         0.39978E+07         0.00000E+00
    0.39978E+07        -0.95334E+07         0.00000E+00
    0.00000E+00         0.00000E+00         0.00000E+00
 
    0.10932E+06         0.40878E+07         0.00000E+00
    0.40878E+07        -0.95134E+07         0.00000E+00
    0.00000E+00         0.00000E+00         0.00000E+00
 
    0.65927E+05         0.41779E+07         0.00000E+00
    0.41779E+07        -0.94927E+07         0.00000E+00
    0.00000E+00         0.00000E+00         0.00000E+00
 
    0.22057E+05         0.42684E+07         0.00000E+00
    0.42684E+07        -0.94713E+07         0.00000E+00
    0.00000E+00         0.00000E+00         0.00000E+00
 
    0.18849E+07         0.43648E+05         0.00000E+00
    0.43648E+05        -0.10362E+08         0.00000E+00
    0.00000E+00         0.00000E+00         0.00000E+00
 
    0.18456E+07         0.13045E+06         0.00000E+00
    0.13045E+06        -0.10362E+08         0.00000E+00
    0.00000E+00         0.00000E+00         0.00000E+00
 
    0.18066E+07         0.21709E+06         0.00000E+00
    0.21709E+06        -0.10362E+08         0.00000E+00
    0.00000E+00         0.00000E+00         0.00000E+00
 
    0.17677E+07         0.30360E+06         0.00000E+00
    0.30360E+06        -0.10361E+08         0.00000E+00
    0.00000E+00         0.00000E+00         0.00000E+00
 
    0.17291E+07         0.38998E+06         0.00000E+00
    0.38998E+06        -0.10360E+08         0.00000E+00
    0.00000E+00         0.00000E+00         0.00000E+00
 
    0.16907E+07         0.47627E+06         0.00000E+00
    0.47627E+06        -0.10359E+08         0.00000E+00
    0.00000E+00         0.00000E+00         0.00000E+00
 
    0.16524E+07         0.56246E+06         0.00000E+00
    0.56246E+06        -0.10358E+08         0.00000E+00
    0.00000E+00         0.00000E+00         0.00000E+00
 
    0.16144E+07         0.64858E+06         0.00000E+00
    0.64858E+06        -0.10357E+08         0.00000E+00
    0.00000E+00         0.00000E+00         0.00000E+00
 
    0.15765E+07         0.73465E+06         0.00000E+00
    0.73465E+06        -0.10355E+08         0.00000E+00
    0.00000E+00         0.00000E+00         0.00000E+00
 
    0.15388E+07         0.82069E+06         0.00000E+00
    0.82069E+06        -0.10353E+08         0.00000E+00
    0.00000E+00         0.00000E+00         0.00000E+00
 
    0.15013E+07         0.90670E+06         0.00000E+00
    0.90670E+06        -0.10351E+08         0.00000E+00
    0.00000E+00         0.00000E+00         0.00000E+00
 
    0.14639E+07         0.99270E+06         0.00000E+00
    0.99270E+06        -0.10349E+08         0.00000E+00
    0.00000E+00         0.00000E+00         0.00000E+00
 
    0.14266E+07         0.10787E+07         0.00000E+00
    0.10787E+07        -0.10346E+08         0.00000E+00
    0.00000E+00         0.00000E+00         0.00000E+00
 
    0.13895E+07         0.11648E+07         0.00000E+00
    0.11648E+07        -0.10343E+08         0.00000E+00
    0.00000E+00         0.00000E+00         0.00000E+00
 
    0.13525E+07         0.12508E+07         0.00000E+00
    0.12508E+07        -0.10340E+08         0.00000E+00
    0.00000E+00         0.00000E+00         0.00000E+00
 
    0.13156E+07         0.13370E+07         0.00000E+00
    0.13370E+07        -0.10337E+08         0.00000E+00
    0.00000E+00         0.00000E+00         0.00000E+00
 
    0.12789E+07         0.14232E+07         0.00000E+00
    0.14232E+07        -0.10333E+08         0.00000E+00
    0.00000E+00         0.00000E+00         0.00000E+00
 
    0.12422E+07         0.15094E+07         0.00000E+00
    0.15094E+07        -0.10329E+08         0.00000E+00
    0.00000E+00         0.00000E+00         0.00000E+00
 
    0.12055E+07         0.15958E+07         0.00000E+00
    0.15958E+07        -0.10324E+08         0.00000E+00
    0.00000E+00         0.00000E+00         0.00000E+00
 
    0.11690E+07         0.16823E+07         0.00000E+00
    0.16823E+07        -0.10320E+08         0.00000E+00
    0.00000E+00         0.00000E+00         0.00000E+00
 
    0.11324E+07         0.17689E+07         0.00000E+00
    0.17689E+07        -0.10314E+08         0.00000E+00
    0.00000E+00         0.00000E+00         0.00000E+00
 
    0.10959E+07         0.18556E+07         0.00000E+00
    0.18556E+07        -0.10309E+08         0.00000E+00
    0.00000E+00         0.00000E+00         0.00000E+00
 
    0.10595E+07         0.19425E+07         0.00000E+00
    0.19425E+07        -0.10303E+08         0.00000E+00
    0.00000E+00         0.00000E+00         0.00000E+00
 
    0.10230E+07         0.20295E+07         0.00000E+00
    0.20295E+07        -0.10297E+08         0.00000E+00
    0.00000E+00         0.00000E+00         0.00000E+00
 
    0.98650E+06         0.21167E+07         0.00000E+00
    0.21167E+07        -0.10291E+08         0.00000E+00
    0.00000E+00         0.00000E+00         0.00000E+00
 
    0.94999E+06         0.22041E+07         0.00000E+00
    0.22041E+07        -0.10284E+08         0.00000E+00
    0.00000E+00         0.00000E+00         0.00000E+00
 
    0.91343E+06         0.22916E+07         0.00000E+00
    0.22916E+07        -0.10276E+08         0.00000E+00
    0.00000E+00         0.00000E+00         0.00000E+00
 
    0.87682E+06         0.23794E+07         0.00000E+00
    0.23794E+07        -0.10268E+08         0.00000E+00
    0.00000E+00         0.00000E+00         0.00000E+00
 
    0.84014E+06         0.24674E+07         0.00000E+00
    0.24674E+07        -0.10260E+08         0.00000E+00
    0.00000E+00         0.00000E+00         0.00000E+00
 
    0.80336E+06         0.25555E+07         0.00000E+00
    0.25555E+07        -0.10251E+08         0.00000E+00
    0.00000E+00         0.00000E+00         0.00000E+00
 
    0.76648E+06         0.26439E+07         0.00000E+00
    0.26439E+07        -0.10242E+08         0.00000E+00
    0.00000E+00         0.00000E+00         0.00000E+00
 
    0.72947E+06         0.27326E+07         0.00000E+00
    0.27326E+07        -0.10233E+08         0.00000E+00
    0.00000E+00         0.00000E+00         0.00000E+00
 
    0.69232E+06         0.28215E+07         0.00000E+00
    0.28215E+07        -0.10223E+08         0.00000E+00
    0.00000E+00         0.00000E+00         0.00000E+00
 
    0.65501E+06         0.29106E+07         0.00000E+00
    0.29106E+07        -0.10212E+08         0.00000E+00
    0.00000E+00         0.00000E+00         0.00000E+00
 
    0.61753E+06         0.30000E+07         0.00000E+00
    0.30000E+07        -0.10201E+08         0.00000E+00
    0.00000E+00         0.00000E+00         0.00000E+00
 
    0.57985E+06         0.30896E+07         0.00000E+00
    0.30896E+07        -0.10189E+08         0.00000E+00
    0.00000E+00         0.00000E+00         0.00000E+00
 
    0.54196E+06         0.31796E+07         0.00000E+00
    0.31796E+07        -0.10177E+08         0.00000E+00
    0.00000E+00         0.00000E+00         0.00000E+00
 
    0.50383E+06         0.32698E+07         0.00000E+00
    0.32698E+07        -0.10164E+08         0.00000E+00
    0.00000E+00         0.00000E+00         0.00000E+00
 
    0.46546E+06         0.33602E+07         0.00000E+00
    0.33602E+07        -0.10151E+08         0.00000E+00
    0.00000E+00         0.00000E+00         0.00000E+00
 
    0.42682E+06         0.34510E+07         0.00000E+00
    0.34510E+07        -0.10137E+08         0.00000E+00
    0.00000E+00         0.00000E+00         0.00000E+00
 
    0.38789E+06         0.35421E+07         0.00000E+00
    0.35421E+07        -0.10122E+08         0.00000E+00
    0.00000E+00         0.00000E+00         0.00000E+00
 
    0.34866E+06         0.36335E+07         0.00000E+00
    0.36335E+07        -0.10107E+08         0.00000E+00
    0.00000E+00         0.00000E+00         0.00000E+00
 
    0.30909E+06         0.37251E+07         0.00000E+00
    0.37251E+07        -0.10091E+08         0.00000E+00
    0.00000E+00         0.00000E+00         0.00000E+00
 
    0.26918E+06         0.38171E+07         0.00000E+00
    0.38171E+07        -0.10075E+08         0.00000E+00
    0.00000E+00         0.00000E+00         0.00000E+00
 
    0.22891E+06         0.39094E+07         0.00000E+00
    0.39094E+07        -0.10058E+08         0.00000E+00
    0.00000E+00         0.00000E+00         0.00000E+00
 
    0.18825E+06         0.40020E+07         0.00000E+00
    0.40020E+07        -0.10040E+08         0.00000E+00
    0.00000E+00         0.00000E+00         0.00000E+00
 
    0.14718E+06         0.40950E+07         0.00000E+00
    0.40950E+07        -0.10021E+08         0.00000E+00
    0.00000E+00         0.00000E+00         0.00000E+00
 
    0.10568E+06         0.41882E+07         0.00000E+00
    0.41882E+07        -0.10002E+08         0.00000E+00
    0.00000E+00         0.00000E+00         0.00000E+00
 
    0.63740E+05         0.42818E+07         0.00000E+00
    0.42818E+07        -0.99821E+07         0.00000E+00
    0.00000E+00         0.00000E+00         0.00000E+00
 
    0.21326E+05         0.43757E+07         0.00000E+00
    0.43757E+07        -0.99615E+07         0.00000E+00
    0.00000E+00         0.00000E+00         0.00000E+00
 
    0.18438E+07         0.44193E+05         0.00000E+00
    0.44193E+05        -0.10841E+08         0.00000E+00
    0.00000E+00         0.00000E+00         0.00000E+00
 
    0.18037E+07         0.13212E+06         0.00000E+00
    0.13212E+06        -0.10840E+08         0.00000E+00
    0.00000E+00         0.00000E+00         0.00000E+00
 
    0.17639E+07         0.21991E+06         0.00000E+00
    0.21991E+06        -0.10840E+08         0.00000E+00
    0.00000E+00         0.00000E+00         0.00000E+00
 
    0.17244E+07         0.30757E+06         0.00000E+00
    0.30757E+06        -0.10840E+08         0.00000E+00
    0.00000E+00         0.00000E+00         0.00000E+00
 
    0.16853E+07         0.39514E+06         0.00000E+00
    0.39514E+06        -0.10839E+08         0.00000E+00
    0.00000E+00         0.00000E+00         0.00000E+00
 
    0.16464E+07         0.48262E+06         0.00000E+00
    0.48262E+06        -0.10838E+08         0.00000E+00
    0.00000E+00         0.00000E+00         0.00000E+00
 
    0.16078E+07         0.57004E+06         0.00000E+00
    0.57004E+06        -0.10838E+08         0.00000E+00
    0.00000E+00         0.00000E+00         0.00000E+00
 
    0.15695E+07         0.65741E+06         0.00000E+00
    0.65741E+06        -0.10836E+08         0.00000E+00
    0.00000E+00         0.00000E+00         0.00000E+00
 
    0.15314E+07         0.74476E+06         0.00000E+00
    0.74476E+06        -0.10835E+08         0.00000E+00
    0.00000E+00         0.00000E+00         0.00000E+00
 
    0.14936E+07         0.83210E+06         0.00000E+00
    0.83210E+06        -0.10834E+08         0.00000E+00
    0.00000E+00         0.00000E+00         0.00000E+00
 
    0.14561E+07         0.91945E+06         0.00000E+00
    0.91945E+06        -0.10832E+08         0.00000E+00
    0.00000E+00         0.00000E+00         0.00000E+00
 
    0.14187E+07         0.10068E+07         0.00000E+00
    0.10068E+07        -0.10830E+08         0.00000E+00
    0.00000E+00         0.00000E+00         0.00000E+00
 
    0.13816E+07         0.10942E+07         0.00000E+00
    0.10942E+07        -0.10828E+08         0.00000E+00
    0.00000E+00         0.00000E+00         0.00000E+00
 
    0.13447E+07         0.11817E+07         0.00000E+00
    0.11817E+07        -0.10825E+08         0.00000E+00
    0.00000E+00         0.00000E+00         0.00000E+00
 
    0.13080E+07         0.12693E+07         0.00000E+00
    0.12693E+07        -0.10823E+08         0.00000E+00
    0.00000E+00         0.00000E+00         0.00000E+00
 
    0.12715E+07         0.13569E+07         0.00000E+00
    0.13569E+07        -0.10820E+08         0.00000E+00
    0.00000E+00         0.00000E+00         0.00000E+00
 
    0.12351E+07         0.14447E+07         0.00000E+00
    0.14447E+07        -0.10817E+08         0.00000E+00
    0.00000E+00         0.00000E+00         0.00000E+00
 
    0.11989E+07         0.15325E+07         0.00000E+00
    0.15325E+07        -0.10813E+08         0.00000E+00
    0.00000E+00         0.00000E+00         0.00000E+00
 
    0.11628E+07         0.16206E+07         0.00000E+00
    0.16206E+07        -0.10810E+08         0.00000E+00
    0.00000E+00         0.00000E+00         0.00000E+00
 
    0.11269E+07         0.17087E+07         0.00000E+00
    0.17087E+07        -0.10806E+08         0.00000E+00
    0.00000E+00         0.00000E+00         0.00000E+00
 
    0.10910E+07         0.17970E+07         0.00000E+00
    0.17970E+07        -0.10801E+08         0.00000E+00
    0.00000E+00         0.00000E+00         0.00000E+00
 
    0.10553E+07         0.18855E+07         0.00000E+00
    0.18855E+07        -0.10797E+08         0.00000E+00
    0.00000E+00         0.00000E+00         0.00000E+00
 
    0.10196E+07         0.19742E+07         0.00000E+00
    0.19742E+07        -0.10791E+08         0.00000E+00
    0.00000E+00         0.00000E+00         0.00000E+00
 
    0.98405E+06         0.20631E+07         0.00000E+00
    0.20631E+07        -0.10786E+08         0.00000E+00
    0.00000E+00         0.00000E+00         0.00000E+00
 
    0.94850E+06         0.21523E+07         0.00000E+00
    0.21523E+07        -0.10780E+08         0.00000E+00
    0.00000E+00         0.00000E+00         0.00000E+00
 
    0.91298E+06         0.22416E+07         0.00000E+00
    0.22416E+07        -0.10774E+08         0.00000E+00
    0.00000E+00         0.00000E+00         0.00000E+00
 
    0.87747E+06         0.23312E+07         0.00000E+00
    0.23312E+07        -0.10768E+08         0.00000E+00
    0.00000E+00         0.00000E+00         0.00000E+00
 
    0.84196E+06         0.24210E+07         0.00000E+00
    0.24210E+07        -0.10761E+08         0.00000E+00
    0.00000E+00         0.00000E+00         0.00000E+00
 
    0.80643E+06         0.25111E+07         0.00000E+00
    0.25111E+07        -0.10753E+08         0.00000E+00
    0.00000E+00         0.00000E+00         0.00000E+00
 
    0.77085E+06         0.26015E+07         0.00000E+00
    0.26015E+07        -0.10746E+08         0.00000E+00
    0.00000E+00         0.00000E+00         0.00000E+00
 
    0.73521E+06         0.26922E+07         0.00000E+00
    0.26922E+07        -0.10737E+08         0.00000E+00
    0.00000E+00         0.00000E+00         0.00000E+00
 
    0.69950E+06         0.27831E+07         0.00000E+00
    0.27831E+07        -0.10729E+08         0.00000E+00
    0.00000E+00         0.00000E+00         0.00000E+00
 
    0.66369E+06         0.28744E+07         0.00000E+00
    0.28744E+07        -0.10719E+08         0.00000E+00
    0.00000E+00         0.00000E+00         0.00000E+00
 
    0.62776E+06         0.29660E+07         0.00000E+00
    0.29660E+07        -0.10710E+08         0.00000E+00
    0.00000E+00         0.00000E+00         0.00000E+00
 
    0.59170E+06         0.30578E+07         0.00000E+00
    0.30578E+07        -0.10700E+08         0.00000E+00
    0.00000E+00         0.00000E+00         0.00000E+00
 
    0.55548E+06         0.31500E+07         0.00000E+00
    0.31500E+07        -0.10689E+08         0.00000E+00
    0.00000E+00         0.00000E+00         0.00000E+00
 
    0.51908E+06         0.32426E+07         0.00000E+00
    0.32426E+07        -0.10678E+08         0.00000E+00
    0.00000E+00         0.00000E+00         0.00000E+00
 
    0.48249E+06         0.33355E+07         0.00000E+00
    0.33355E+07        -0.10666E+08         0.00000E+00
    0.00000E+00         0.00000E+00         0.00000E+00
 
    0.44568E+06         0.34287E+07         0.00000E+00
    0.34287E+07        -0.10653E+08         0.00000E+00
    0.00000E+00         0.00000E+00         0.00000E+00
 
    0.40864E+06         0.35223E+07         0.00000E+00
    0.35223E+07        -0.10640E+08         0.00000E+00
    0.00000E+00         0.00000E+00         0.00000E+00
 
    0.37133E+06         0.36163E+07         0.00000E+00
    0.36163E+07        -0.10627E+08         0.00000E+00
    0.00000E+00         0.00000E+00         0.00000E+00
 
    0.33375E+06         0.37106E+07         0.00000E+00
    0.37106E+07        -0.10613E+08         0.00000E+00
    0.00000E+00         0.00000E+00         0.00000E+00
 
    0.29587E+06         0.38053E+07         0.00000E+00
    0.38053E+07        -0.10598E+08         0.00000E+00
    0.00000E+00         0.00000E+00         0.00000E+00
 
    0.25766E+06         0.39003E+07         0.00000E+00
    0.39003E+07        -0.10582E+08         0.00000E+00
    0.00000E+00         0.00000E+00         0.00000E+00
 
    0.21911E+06         0.39958E+07         0.00000E+00
    0.39958E+07        -0.10566E+08         0.00000E+00
    0.00000E+00         0.00000E+00         0.00000E+00
 
    0.18019E+06         0.40916E+07         0.00000E+00
    0.40916E+07        -0.10549E+08         0.00000E+00
    0.00000E+00         0.00000E+00         0.00000E+00
 
    0.14089E+06         0.41879E+07         0.00000E+00
    0.41879E+07        -0.10532E+08         0.00000E+00
    0.00000E+00         0.00000E+00         0.00000E+00
 
    0.10117E+06         0.42845E+07         0.00000E+00
    0.42845E+07        -0.10513E+08         0.00000E+00
    0.00000E+00         0.00000E+00         0.00000E+00
 
    0.61024E+05         0.43815E+07         0.00000E+00
    0.43815E+07        -0.10494E+08         0.00000E+00
    0.00000E+00         0.00000E+00         0.00000E+00
 
    0.20419E+05         0.44789E+07         0.00000E+00
    0.44789E+07        -0.10475E+08         0.00000E+00
    0.00000E+00         0.00000E+00         0.00000E+00
 
    0.17895E+07         0.44627E+05         0.00000E+00
    0.44627E+05        -0.11337E+08         0.00000E+00
    0.00000E+00         0.00000E+00         0.00000E+00
 
    0.17487E+07         0.13347E+06         0.00000E+00
    0.13347E+06        -0.11337E+08         0.00000E+00
    0.00000E+00         0.00000E+00         0.00000E+00
 
    0.17083E+07         0.22218E+06         0.00000E+00
    0.22218E+06        -0.11337E+08         0.00000E+00
    0.00000E+00         0.00000E+00         0.00000E+00
 
    0.16684E+07         0.31080E+06         0.00000E+00
    0.31080E+06        -0.11337E+08         0.00000E+00
    0.00000E+00         0.00000E+00         0.00000E+00
 
    0.16288E+07         0.39934E+06         0.00000E+00
    0.39934E+06        -0.11336E+08         0.00000E+00
    0.00000E+00         0.00000E+00         0.00000E+00
 
    0.15896E+07         0.48782E+06         0.00000E+00
    0.48782E+06        -0.11336E+08         0.00000E+00
    0.00000E+00         0.00000E+00         0.00000E+00
 
    0.15508E+07         0.57627E+06         0.00000E+00
    0.57627E+06        -0.11335E+08         0.00000E+00
    0.00000E+00         0.00000E+00         0.00000E+00
 
    0.15123E+07         0.66470E+06         0.00000E+00
    0.66470E+06        -0.11334E+08         0.00000E+00
    0.00000E+00         0.00000E+00         0.00000E+00
 
    0.14742E+07         0.75313E+06         0.00000E+00
    0.75313E+06        -0.11334E+08         0.00000E+00
    0.00000E+00         0.00000E+00         0.00000E+00
 
    0.14365E+07         0.84159E+06         0.00000E+00
    0.84159E+06        -0.11332E+08         0.00000E+00
    0.00000E+00         0.00000E+00         0.00000E+00
 
    0.13990E+07         0.93009E+06         0.00000E+00
    0.93009E+06        -0.11331E+08         0.00000E+00
    0.00000E+00         0.00000E+00         0.00000E+00
 
    0.13619E+07         0.10187E+07         0.00000E+00
    0.10187E+07        -0.11330E+08         0.00000E+00
    0.00000E+00         0.00000E+00         0.00000E+00
 
    0.13251E+07         0.11073E+07         0.00000E+00
    0.11073E+07        -0.11328E+08         0.00000E+00
    0.00000E+00         0.00000E+00         0.00000E+00
 
    0.12886E+07         0.11961E+07         0.00000E+00
    0.11961E+07        -0.11326E+08         0.00000E+00
    0.00000E+00         0.00000E+00         0.00000E+00
 
    0.12524E+07         0.12849E+07         0.00000E+00
    0.12849E+07        -0.11324E+08         0.00000E+00
    0.00000E+00         0.00000E+00         0.00000E+00
 
    0.12164E+07         0.13739E+07         0.00000E+00
    0.13739E+07        -0.11322E+08         0.00000E+00
    0.00000E+00         0.00000E+00         0.00000E+00
 
    0.11807E+07         0.14631E+07         0.00000E+00
    0.14631E+07        -0.11320E+08         0.00000E+00
    0.00000E+00         0.00000E+00         0.00000E+00
 
    0.11452E+07         0.15524E+07         0.00000E+00
    0.15524E+07        -0.11317E+08         0.00000E+00
    0.00000E+00         0.00000E+00         0.00000E+00
 
    0.11099E+07         0.16419E+07         0.00000E+00
    0.16419E+07        -0.11314E+08         0.00000E+00
    0.00000E+00         0.00000E+00         0.00000E+00
 
    0.10749E+07         0.17316E+07         0.00000E+00
    0.17316E+07        -0.11311E+08         0.00000E+00
    0.00000E+00         0.00000E+00         0.00000E+00
 
    0.10400E+07         0.18215E+07         0.00000E+00
    0.18215E+07        -0.11307E+08         0.00000E+00
    0.00000E+00         0.00000E+00         0.00000E+00
 
    0.10053E+07         0.19117E+07         0.00000E+00
    0.19117E+07        -0.11303E+08         0.00000E+00
    0.00000E+00         0.00000E+00         0.00000E+00
 
    0.97068E+06         0.20021E+07         0.00000E+00
    0.20021E+07        -0.11299E+08         0.00000E+00
    0.00000E+00         0.00000E+00         0.00000E+00
 
    0.93623E+06         0.20927E+07         0.00000E+00
    0.20927E+07        -0.11295E+08         0.00000E+00
    0.00000E+00         0.00000E+00         0.00000E+00
 
    0.90190E+06         0.21837E+07         0.00000E+00
    0.21837E+07        -0.11290E+08         0.00000E+00
    0.00000E+00         0.00000E+00         0.00000E+00
 
    0.86765E+06         0.22749E+07         0.00000E+00
    0.22749E+07        -0.11285E+08         0.00000E+00
    0.00000E+00         0.00000E+00         0.00000E+00
 
    0.83348E+06         0.23664E+07         0.00000E+00
    0.23664E+07        -0.11279E+08         0.00000E+00
    0.00000E+00         0.00000E+00         0.00000E+00
 
    0.79936E+06         0.24582E+07         0.00000E+00
    0.24582E+07        -0.11273E+08         0.00000E+00
    0.00000E+00         0.00000E+00         0.00000E+00
 
    0.76527E+06         0.25504E+07         0.00000E+00
    0.25504E+07        -0.11267E+08         0.00000E+00
    0.00000E+00         0.00000E+00         0.00000E+00
 
    0.73120E+06         0.26429E+07         0.00000E+00
    0.26429E+07        -0.11260E+08         0.00000E+00
    0.00000E+00         0.00000E+00         0.00000E+00
 
    0.69712E+06         0.27357E+07         0.00000E+00
    0.27357E+07        -0.11253E+08         0.00000E+00
    0.00000E+00         0.00000E+00         0.00000E+00
 
    0.66301E+06         0.28289E+07         0.00000E+00
    0.28289E+07        -0.11245E+08         0.00000E+00
    0.00000E+00         0.00000E+00         0.00000E+00
 
    0.62886E+06         0.29225E+07         0.00000E+00
    0.29225E+07        -0.11237E+08         0.00000E+00
    0.00000E+00         0.00000E+00         0.00000E+00
 
    0.59463E+06         0.30164E+07         0.00000E+00
    0.30164E+07        -0.11229E+08         0.00000E+00
    0.00000E+00         0.00000E+00         0.00000E+00
 
    0.56032E+06         0.31107E+07         0.00000E+00
    0.31107E+07        -0.11219E+08         0.00000E+00
    0.00000E+00         0.00000E+00         0.00000E+00
 
    0.52589E+06         0.32055E+07         0.00000E+00
    0.32055E+07        -0.11210E+08         0.00000E+00
    0.00000E+00         0.00000E+00         0.00000E+00
 
    0.49132E+06         0.33006E+07         0.00000E+00
    0.33006E+07        -0.11200E+08         0.00000E+00
    0.00000E+00         0.00000E+00         0.00000E+00
 
    0.45660E+06         0.33961E+07         0.00000E+00
    0.33961E+07        -0.11189E+08         0.00000E+00
    0.00000E+00         0.00000E+00         0.00000E+00
 
    0.42170E+06         0.34921E+07         0.00000E+00
    0.34921E+07        -0.11178E+08         0.00000E+00
    0.00000E+00         0.00000E+00         0.00000E+00
 
    0.38659E+06         0.35885E+07         0.00000E+00
    0.35885E+07        -0.11166E+08         0.00000E+00
    0.00000E+00         0.00000E+00         0.00000E+00
 
    0.35127E+06         0.36853E+07         0.00000E+00
    0.36853E+07        -0.11153E+08         0.00000E+00
    0.00000E+00         0.00000E+00         0.00000E+00
 
    0.31569E+06         0.37825E+07         0.00000E+00
    0.37825E+07        -0.11140E+08         0.00000E+00
    0.00000E+00         0.00000E+00         0.00000E+00
 
    0.27984E+06         0.38802E+07         0.00000E+00
    0.38802E+07        -0.11127E+08         0.00000E+00
    0.00000E+00         0.00000E+00         0.00000E+00
 
    0.24370E+06         0.39784E+07         0.00000E+00
    0.39784E+07        -0.11112E+08         0.00000E+00
    0.00000E+00         0.00000E+00         0.00000E+00
 
    0.20724E+06         0.40770E+07         0.00000E+00
    0.40770E+07        -0.11097E+08         0.00000E+00
    0.00000E+00         0.00000E+00         0.00000E+00
 
    0.17044E+06         0.41761E+07         0.00000E+00
    0.41761E+07        -0.11082E+08         0.00000E+00
    0.00000E+00         0.00000E+00         0.00000E+00
 
    0.13327E+06         0.42756E+07         0.00000E+00
    0.42756E+07        -0.11065E+08         0.00000E+00
    0.00000E+00         0.00000E+00         0.00000E+00
 
    0.95708E+05         0.43756E+07         0.00000E+00
    0.43756E+07        -0.11048E+08         0.00000E+00
    0.00000E+00         0.00000E+00         0.00000E+00
 
    0.57734E+05         0.44761E+07         0.00000E+00
    0.44761E+07        -0.11030E+08         0.00000E+00
    0.00000E+00         0.00000E+00         0.00000E+00
 
    0.19320E+05         0.45770E+07         0.00000E+00
    0.45770E+07        -0.11012E+08         0.00000E+00
    0.00000E+00         0.00000E+00         0.00000E+00
 
    0.17208E+07         0.44933E+05         0.00000E+00
    0.44933E+05        -0.11852E+08         0.00000E+00
    0.00000E+00         0.00000E+00         0.00000E+00
 
    0.16794E+07         0.13444E+06         0.00000E+00
    0.13444E+06        -0.11852E+08         0.00000E+00
    0.00000E+00         0.00000E+00         0.00000E+00
 
    0.16385E+07         0.22384E+06         0.00000E+00
    0.22384E+06        -0.11852E+08         0.00000E+00
    0.00000E+00         0.00000E+00         0.00000E+00
 
    0.15982E+07         0.31317E+06         0.00000E+00
    0.31317E+06        -0.11852E+08         0.00000E+00
    0.00000E+00         0.00000E+00         0.00000E+00
 
    0.15583E+07         0.40244E+06         0.00000E+00
    0.40244E+06        -0.11852E+08         0.00000E+00
    0.00000E+00         0.00000E+00         0.00000E+00
 
    0.15189E+07         0.49169E+06         0.00000E+00
    0.49169E+06        -0.11852E+08         0.00000E+00
    0.00000E+00         0.00000E+00         0.00000E+00
 
    0.14800E+07         0.58093E+06         0.00000E+00
    0.58093E+06        -0.11851E+08         0.00000E+00
    0.00000E+00         0.00000E+00         0.00000E+00
 
    0.14416E+07         0.67019E+06         0.00000E+00
    0.67019E+06        -0.11851E+08         0.00000E+00
    0.00000E+00         0.00000E+00         0.00000E+00
 
    0.14036E+07         0.75950E+06         0.00000E+00
    0.75950E+06        -0.11850E+08         0.00000E+00
    0.00000E+00         0.00000E+00         0.00000E+00
 
    0.13661E+07         0.84886E+06         0.00000E+00
    0.84886E+06        -0.11850E+08         0.00000E+00
    0.00000E+00         0.00000E+00         0.00000E+00
 
    0.13290E+07         0.93830E+06         0.00000E+00
    0.93830E+06        -0.11849E+08         0.00000E+00
    0.00000E+00         0.00000E+00         0.00000E+00
 
    0.12924E+07         0.10279E+07         0.00000E+00
    0.10279E+07        -0.11848E+08         0.00000E+00
    0.00000E+00         0.00000E+00         0.00000E+00
 
    0.12561E+07         0.11175E+07         0.00000E+00
    0.11175E+07        -0.11847E+08         0.00000E+00
    0.00000E+00         0.00000E+00         0.00000E+00
 
    0.12202E+07         0.12073E+07         0.00000E+00
    0.12073E+07        -0.11846E+08         0.00000E+00
    0.00000E+00         0.00000E+00         0.00000E+00
 
    0.11847E+07         0.12973E+07         0.00000E+00
    0.12973E+07        -0.11845E+08         0.00000E+00
    0.00000E+00         0.00000E+00         0.00000E+00
 
    0.11495E+07         0.13875E+07         0.00000E+00
    0.13875E+07        -0.11843E+08         0.00000E+00
    0.00000E+00         0.00000E+00         0.00000E+00
 
    0.11147E+07         0.14779E+07         0.00000E+00
    0.14779E+07        -0.11842E+08         0.00000E+00
    0.00000E+00         0.00000E+00         0.00000E+00
 
    0.10802E+07         0.15685E+07         0.00000E+00
    0.15685E+07        -0.11840E+08         0.00000E+00
    0.00000E+00         0.00000E+00         0.00000E+00
 
    0.10460E+07         0.16593E+07         0.00000E+00
    0.16593E+07        -0.11838E+08         0.00000E+00
    0.00000E+00         0.00000E+00         0.00000E+00
 
    0.10120E+07         0.17504E+07         0.00000E+00
    0.17504E+07        -0.11835E+08         0.00000E+00
    0.00000E+00         0.00000E+00         0.00000E+00
 
    0.97837E+06         0.18418E+07         0.00000E+00
    0.18418E+07        -0.11833E+08         0.00000E+00
    0.00000E+00         0.00000E+00         0.00000E+00
 
    0.94494E+06         0.19334E+07         0.00000E+00
    0.19334E+07        -0.11830E+08         0.00000E+00
    0.00000E+00         0.00000E+00         0.00000E+00
 
    0.91173E+06         0.20254E+07         0.00000E+00
    0.20254E+07        -0.11827E+08         0.00000E+00
    0.00000E+00         0.00000E+00         0.00000E+00
 
    0.87873E+06         0.21176E+07         0.00000E+00
    0.21176E+07        -0.11823E+08         0.00000E+00
    0.00000E+00         0.00000E+00         0.00000E+00
 
    0.84591E+06         0.22103E+07         0.00000E+00
    0.22103E+07        -0.11820E+08         0.00000E+00
    0.00000E+00         0.00000E+00         0.00000E+00
 
    0.81325E+06         0.23032E+07         0.00000E+00
    0.23032E+07        -0.11816E+08         0.00000E+00
    0.00000E+00         0.00000E+00         0.00000E+00
 
    0.78072E+06         0.23966E+07         0.00000E+00
    0.23966E+07        -0.11811E+08         0.00000E+00
    0.00000E+00         0.00000E+00         0.00000E+00
 
    0.74832E+06         0.24903E+07         0.00000E+00
    0.24903E+07        -0.11806E+08         0.00000E+00
    0.00000E+00         0.00000E+00         0.00000E+00
 
    0.71601E+06         0.25844E+07         0.00000E+00
    0.25844E+07        -0.11801E+08         0.00000E+00
    0.00000E+00         0.00000E+00         0.00000E+00
 
    0.68377E+06         0.26789E+07         0.00000E+00
    0.26789E+07        -0.11795E+08         0.00000E+00
    0.00000E+00         0.00000E+00         0.00000E+00
 
    0.65159E+06         0.27738E+07         0.00000E+00
    0.27738E+07        -0.11789E+08         0.00000E+00
    0.00000E+00         0.00000E+00         0.00000E+00
 
    0.61943E+06         0.28691E+07         0.00000E+00
    0.28691E+07        -0.11783E+08         0.00000E+00
    0.00000E+00         0.00000E+00         0.00000E+00
 
    0.58728E+06         0.29649E+07         0.00000E+00
    0.29649E+07        -0.11776E+08         0.00000E+00
    0.00000E+00         0.00000E+00         0.00000E+00
 
    0.55511E+06         0.30612E+07         0.00000E+00
    0.30612E+07        -0.11769E+08         0.00000E+00
    0.00000E+00         0.00000E+00         0.00000E+00
 
    0.52290E+06         0.31579E+07         0.00000E+00
    0.31579E+07        -0.11761E+08         0.00000E+00
    0.00000E+00         0.00000E+00         0.00000E+00
 
    0.49062E+06         0.32550E+07         0.00000E+00
    0.32550E+07        -0.11753E+08         0.00000E+00
    0.00000E+00         0.00000E+00         0.00000E+00
 
    0.45825E+06         0.33527E+07         0.00000E+00
    0.33527E+07        -0.11744E+08         0.00000E+00
    0.00000E+00         0.00000E+00         0.00000E+00
 
    0.42577E+06         0.34508E+07         0.00000E+00
    0.34508E+07        -0.11734E+08         0.00000E+00
    0.00000E+00         0.00000E+00         0.00000E+00
 
    0.39315E+06         0.35494E+07         0.00000E+00
    0.35494E+07        -0.11724E+08         0.00000E+00
    0.00000E+00         0.00000E+00         0.00000E+00
 
    0.36037E+06         0.36486E+07         0.00000E+00
    0.36486E+07        -0.11714E+08         0.00000E+00
    0.00000E+00         0.00000E+00         0.00000E+00
 
    0.32740E+06         0.37482E+07         0.00000E+00
    0.37482E+07        -0.11703E+08         0.00000E+00
    0.00000E+00         0.00000E+00         0.00000E+00
 
    0.29421E+06         0.38484E+07         0.00000E+00
    0.38484E+07        -0.11691E+08         0.00000E+00
    0.00000E+00         0.00000E+00         0.00000E+00
 
    0.26079E+06         0.39491E+07         0.00000E+00
    0.39491E+07        -0.11679E+08         0.00000E+00
    0.00000E+00         0.00000E+00         0.00000E+00
 
    0.22711E+06         0.40503E+07         0.00000E+00
    0.40503E+07        -0.11666E+08         0.00000E+00
    0.00000E+00         0.00000E+00         0.00000E+00
 
    0.19313E+06         0.41521E+07         0.00000E+00
    0.41521E+07        -0.11652E+08         0.00000E+00
    0.00000E+00         0.00000E+00         0.00000E+00
 
    0.15884E+06         0.42544E+07         0.00000E+00
    0.42544E+07        -0.11638E+08         0.00000E+00
    0.00000E+00         0.00000E+00         0.00000E+00
 
    0.12421E+06         0.43572E+07         0.00000E+00
    0.43572E+07        -0.11623E+08         0.00000E+00
    0.00000E+00         0.00000E+00         0.00000E+00
 
    0.89214E+05         0.44606E+07         0.00000E+00
    0.44606E+07        -0.11607E+08         0.00000E+00
    0.00000E+00         0.00000E+00         0.00000E+00
 
    0.53823E+05         0.45646E+07         0.00000E+00
    0.45646E+07        -0.11590E+08         0.00000E+00
    0.00000E+00         0.00000E+00         0.00000E+00
 
    0.18013E+05         0.46691E+07         0.00000E+00
    0.46691E+07        -0.11573E+08         0.00000E+00
    0.00000E+00         0.00000E+00         0.00000E+00
 
    0.16362E+07         0.45093E+05         0.00000E+00
    0.45093E+05        -0.12386E+08         0.00000E+00
    0.00000E+00         0.00000E+00         0.00000E+00
 
    0.15943E+07         0.13498E+06         0.00000E+00
    0.13498E+06        -0.12386E+08         0.00000E+00
    0.00000E+00         0.00000E+00         0.00000E+00
 
    0.15530E+07         0.22479E+06         0.00000E+00
    0.22479E+06        -0.12386E+08         0.00000E+00
    0.00000E+00         0.00000E+00         0.00000E+00
 
    0.15124E+07         0.31455E+06         0.00000E+00
    0.31455E+06        -0.12386E+08         0.00000E+00
    0.00000E+00         0.00000E+00         0.00000E+00
 
    0.14724E+07         0.40429E+06         0.00000E+00
    0.40429E+06        -0.12386E+08         0.00000E+00
    0.00000E+00         0.00000E+00         0.00000E+00
 
    0.14330E+07         0.49403E+06         0.00000E+00
    0.49403E+06        -0.12386E+08         0.00000E+00
    0.00000E+00         0.00000E+00         0.00000E+00
 
    0.13942E+07         0.58381E+06         0.00000E+00
    0.58381E+06        -0.12386E+08         0.00000E+00
    0.00000E+00         0.00000E+00         0.00000E+00
 
    0.13560E+07         0.67364E+06         0.00000E+00
    0.67364E+06        -0.12386E+08         0.00000E+00
    0.00000E+00         0.00000E+00         0.00000E+00
 
    0.13184E+07         0.76356E+06         0.00000E+00
    0.76356E+06        -0.12386E+08         0.00000E+00
    0.00000E+00         0.00000E+00         0.00000E+00
 
    0.12813E+07         0.85357E+06         0.00000E+00
    0.85357E+06        -0.12386E+08         0.00000E+00
    0.00000E+00         0.00000E+00         0.00000E+00
 
    0.12448E+07         0.94372E+06         0.00000E+00
    0.94372E+06        -0.12386E+08         0.00000E+00
    0.00000E+00         0.00000E+00         0.00000E+00
 
    0.12088E+07         0.10340E+07         0.00000E+00
    0.10340E+07        -0.12386E+08         0.00000E+00
    0.00000E+00         0.00000E+00         0.00000E+00
 
    0.11733E+07         0.11245E+07         0.00000E+00
    0.11245E+07        -0.12386E+08         0.00000E+00
    0.00000E+00         0.00000E+00         0.00000E+00
 
    0.11382E+07         0.12152E+07         0.00000E+00
    0.12152E+07        -0.12385E+08         0.00000E+00
    0.00000E+00         0.00000E+00         0.00000E+00
 
    0.11037E+07         0.13060E+07         0.00000E+00
    0.13060E+07        -0.12385E+08         0.00000E+00
    0.00000E+00         0.00000E+00         0.00000E+00
 
    0.10696E+07         0.13972E+07         0.00000E+00
    0.13972E+07        -0.12384E+08         0.00000E+00
    0.00000E+00         0.00000E+00         0.00000E+00
 
    0.10360E+07         0.14886E+07         0.00000E+00
    0.14886E+07        -0.12383E+08         0.00000E+00
    0.00000E+00         0.00000E+00         0.00000E+00
 
    0.10027E+07         0.15802E+07         0.00000E+00
    0.15802E+07        -0.12382E+08         0.00000E+00
    0.00000E+00         0.00000E+00         0.00000E+00
 
    0.96984E+06         0.16722E+07         0.00000E+00
    0.16722E+07        -0.12381E+08         0.00000E+00
    0.00000E+00         0.00000E+00         0.00000E+00
 
    0.93736E+06         0.17645E+07         0.00000E+00
    0.17645E+07        -0.12380E+08         0.00000E+00
    0.00000E+00         0.00000E+00         0.00000E+00
 
    0.90522E+06         0.18571E+07         0.00000E+00
    0.18571E+07        -0.12378E+08         0.00000E+00
    0.00000E+00         0.00000E+00         0.00000E+00
 
    0.87340E+06         0.19501E+07         0.00000E+00
    0.19501E+07        -0.12377E+08         0.00000E+00
    0.00000E+00         0.00000E+00         0.00000E+00
 
    0.84190E+06         0.20434E+07         0.00000E+00
    0.20434E+07        -0.12375E+08         0.00000E+00
    0.00000E+00         0.00000E+00         0.00000E+00
 
    0.81067E+06         0.21372E+07         0.00000E+00
    0.21372E+07        -0.12372E+08         0.00000E+00
    0.00000E+00         0.00000E+00         0.00000E+00
 
    0.77970E+06         0.22313E+07         0.00000E+00
    0.22313E+07        -0.12370E+08         0.00000E+00
    0.00000E+00         0.00000E+00         0.00000E+00
 
    0.74897E+06         0.23259E+07         0.00000E+00
    0.23259E+07        -0.12367E+08         0.00000E+00
    0.00000E+00         0.00000E+00         0.00000E+00
 
    0.71845E+06         0.24209E+07         0.00000E+00
    0.24209E+07        -0.12364E+08         0.00000E+00
    0.00000E+00         0.00000E+00         0.00000E+00
 
    0.68812E+06         0.25164E+07         0.00000E+00
    0.25164E+07        -0.12360E+08         0.00000E+00
    0.00000E+00         0.00000E+00         0.00000E+00
 
    0.65795E+06         0.26123E+07         0.00000E+00
    0.26123E+07        -0.12356E+08         0.00000E+00
    0.00000E+00         0.00000E+00         0.00000E+00
 
    0.62791E+06         0.27087E+07         0.00000E+00
    0.27087E+07        -0.12352E+08         0.00000E+00
    0.00000E+00         0.00000E+00         0.00000E+00
 
    0.59800E+06         0.28056E+07         0.00000E+00
    0.28056E+07        -0.12347E+08         0.00000E+00
    0.00000E+00         0.00000E+00         0.00000E+00
 
    0.56817E+06         0.29030E+07         0.00000E+00
    0.29030E+07        -0.12342E+08         0.00000E+00
    0.00000E+00         0.00000E+00         0.00000E+00
 
    0.53840E+06         0.30009E+07         0.00000E+00
    0.30009E+07        -0.12337E+08         0.00000E+00
    0.00000E+00         0.00000E+00         0.00000E+00
 
    0.50867E+06         0.30994E+07         0.00000E+00
    0.30994E+07        -0.12331E+08         0.00000E+00
    0.00000E+00         0.00000E+00         0.00000E+00
 
    0.47896E+06         0.31983E+07         0.00000E+00
    0.31983E+07        -0.12325E+08         0.00000E+00
    0.00000E+00         0.00000E+00         0.00000E+00
 
    0.44922E+06         0.32979E+07         0.00000E+00
    0.32979E+07        -0.12318E+08         0.00000E+00
    0.00000E+00         0.00000E+00         0.00000E+00
 
    0.41945E+06         0.33980E+07         0.00000E+00
    0.33980E+07        -0.12310E+08         0.00000E+00
    0.00000E+00         0.00000E+00         0.00000E+00
 
    0.38961E+06         0.34986E+07         0.00000E+00
    0.34986E+07        -0.12302E+08         0.00000E+00
    0.00000E+00         0.00000E+00         0.00000E+00
 
    0.35968E+06         0.35999E+07         0.00000E+00
    0.35999E+07        -0.12294E+08         0.00000E+00
    0.00000E+00         0.00000E+00         0.00000E+00
 
    0.32963E+06         0.37017E+07         0.00000E+00
    0.37017E+07        -0.12285E+08         0.00000E+00
    0.00000E+00         0.00000E+00         0.00000E+00
 
    0.29943E+06         0.38042E+07         0.00000E+00
    0.38042E+07        -0.12275E+08         0.00000E+00
    0.00000E+00         0.00000E+00         0.00000E+00
 
    0.26905E+06         0.39072E+07         0.00000E+00
    0.39072E+07        -0.12265E+08         0.00000E+00
    0.00000E+00         0.00000E+00         0.00000E+00
 
    0.23848E+06         0.40109E+07         0.00000E+00
    0.40109E+07        -0.12254E+08         0.00000E+00
    0.00000E+00         0.00000E+00         0.00000E+00
 
    0.20767E+06         0.41151E+07         0.00000E+00
    0.41151E+07        -0.12243E+08         0.00000E+00
    0.00000E+00         0.00000E+00         0.00000E+00
 
    0.17661E+06         0.42200E+07         0.00000E+00
    0.42200E+07        -0.12231E+08         0.00000E+00
    0.00000E+00         0.00000E+00         0.00000E+00
 
    0.14527E+06         0.43255E+07         0.00000E+00
    0.43255E+07        -0.12218E+08         0.00000E+00
    0.00000E+00         0.00000E+00         0.00000E+00
 
    0.11361E+06         0.44317E+07         0.00000E+00
    0.44317E+07        -0.12204E+08         0.00000E+00
    0.00000E+00         0.00000E+00         0.00000E+00
 
    0.81612E+05         0.45385E+07         0.00000E+00
    0.45385E+07        -0.12190E+08         0.00000E+00
    0.00000E+00         0.00000E+00         0.00000E+00
 
    0.49246E+05         0.46460E+07         0.00000E+00
    0.46460E+07        -0.12175E+08         0.00000E+00
    0.00000E+00         0.00000E+00         0.00000E+00
 
    0.16484E+05         0.47541E+07         0.00000E+00
    0.47541E+07        -0.12159E+08         0.00000E+00
    0.00000E+00         0.00000E+00         0.00000E+00
 
    0.15340E+07         0.45085E+05         0.00000E+00
    0.45085E+05        -0.12938E+08         0.00000E+00
    0.00000E+00         0.00000E+00         0.00000E+00
 
    0.14917E+07         0.13502E+06         0.00000E+00
    0.13502E+06        -0.12938E+08         0.00000E+00
    0.00000E+00         0.00000E+00         0.00000E+00
 
    0.14502E+07         0.22491E+06         0.00000E+00
    0.22491E+06        -0.12938E+08         0.00000E+00
    0.00000E+00         0.00000E+00         0.00000E+00
 
    0.14095E+07         0.31479E+06         0.00000E+00
    0.31479E+06        -0.12938E+08         0.00000E+00
    0.00000E+00         0.00000E+00         0.00000E+00
 
    0.13695E+07         0.40468E+06         0.00000E+00
    0.40468E+06        -0.12939E+08         0.00000E+00
    0.00000E+00         0.00000E+00         0.00000E+00
 
    0.13303E+07         0.49462E+06         0.00000E+00
    0.49462E+06        -0.12939E+08         0.00000E+00
    0.00000E+00         0.00000E+00         0.00000E+00
 
    0.12918E+07         0.58463E+06         0.00000E+00
    0.58463E+06        -0.12940E+08         0.00000E+00
    0.00000E+00         0.00000E+00         0.00000E+00
 
    0.12541E+07         0.67474E+06         0.00000E+00
    0.67474E+06        -0.12940E+08         0.00000E+00
    0.00000E+00         0.00000E+00         0.00000E+00
 
    0.12170E+07         0.76498E+06         0.00000E+00
    0.76498E+06        -0.12941E+08         0.00000E+00
    0.00000E+00         0.00000E+00         0.00000E+00
 
    0.11806E+07         0.85537E+06         0.00000E+00
    0.85537E+06        -0.12941E+08         0.00000E+00
    0.00000E+00         0.00000E+00         0.00000E+00
 
    0.11449E+07         0.94594E+06         0.00000E+00
    0.94594E+06        -0.12942E+08         0.00000E+00
    0.00000E+00         0.00000E+00         0.00000E+00
 
    0.11098E+07         0.10367E+07         0.00000E+00
    0.10367E+07        -0.12943E+08         0.00000E+00
    0.00000E+00         0.00000E+00         0.00000E+00
 
    0.10753E+07         0.11277E+07         0.00000E+00
    0.11277E+07        -0.12943E+08         0.00000E+00
    0.00000E+00         0.00000E+00         0.00000E+00
 
    0.10415E+07         0.12190E+07         0.00000E+00
    0.12190E+07        -0.12944E+08         0.00000E+00
    0.00000E+00         0.00000E+00         0.00000E+00
 
    0.10082E+07         0.13105E+07         0.00000E+00
    0.13105E+07        -0.12944E+08         0.00000E+00
    0.00000E+00         0.00000E+00         0.00000E+00
 
    0.97549E+06         0.14024E+07         0.00000E+00
    0.14024E+07        -0.12944E+08         0.00000E+00
    0.00000E+00         0.00000E+00         0.00000E+00
 
    0.94331E+06         0.14945E+07         0.00000E+00
    0.14945E+07        -0.12945E+08         0.00000E+00
    0.00000E+00         0.00000E+00         0.00000E+00
 
    0.91165E+06         0.15871E+07         0.00000E+00
    0.15871E+07        -0.12945E+08         0.00000E+00
    0.00000E+00         0.00000E+00         0.00000E+00
 
    0.88048E+06         0.16799E+07         0.00000E+00
    0.16799E+07        -0.12945E+08         0.00000E+00
    0.00000E+00         0.00000E+00         0.00000E+00
 
    0.84978E+06         0.17732E+07         0.00000E+00
    0.17732E+07        -0.12944E+08         0.00000E+00
    0.00000E+00         0.00000E+00         0.00000E+00
 
    0.81952E+06         0.18669E+07         0.00000E+00
    0.18669E+07        -0.12944E+08         0.00000E+00
    0.00000E+00         0.00000E+00         0.00000E+00
 
    0.78968E+06         0.19610E+07         0.00000E+00
    0.19610E+07        -0.12944E+08         0.00000E+00
    0.00000E+00         0.00000E+00         0.00000E+00
 
    0.76023E+06         0.20556E+07         0.00000E+00
    0.20556E+07        -0.12943E+08         0.00000E+00
    0.00000E+00         0.00000E+00         0.00000E+00
 
    0.73115E+06         0.21506E+07         0.00000E+00
    0.21506E+07        -0.12942E+08         0.00000E+00
    0.00000E+00         0.00000E+00         0.00000E+00
 
    0.70241E+06         0.22461E+07         0.00000E+00
    0.22461E+07        -0.12941E+08         0.00000E+00
    0.00000E+00         0.00000E+00         0.00000E+00
 
    0.67399E+06         0.23421E+07         0.00000E+00
    0.23421E+07        -0.12939E+08         0.00000E+00
    0.00000E+00         0.00000E+00         0.00000E+00
 
    0.64586E+06         0.24386E+07         0.00000E+00
    0.24386E+07        -0.12937E+08         0.00000E+00
    0.00000E+00         0.00000E+00         0.00000E+00
 
    0.61800E+06         0.25357E+07         0.00000E+00
    0.25357E+07        -0.12935E+08         0.00000E+00
    0.00000E+00         0.00000E+00         0.00000E+00
 
    0.59036E+06         0.26333E+07         0.00000E+00
    0.26333E+07        -0.12933E+08         0.00000E+00
    0.00000E+00         0.00000E+00         0.00000E+00
 
    0.56294E+06         0.27315E+07         0.00000E+00
    0.27315E+07        -0.12930E+08         0.00000E+00
    0.00000E+00         0.00000E+00         0.00000E+00
 
    0.53570E+06         0.28302E+07         0.00000E+00
    0.28302E+07        -0.12927E+08         0.00000E+00
    0.00000E+00         0.00000E+00         0.00000E+00
 
    0.50861E+06         0.29295E+07         0.00000E+00
    0.29295E+07        -0.12924E+08         0.00000E+00
    0.00000E+00         0.00000E+00         0.00000E+00
 
    0.48165E+06         0.30295E+07         0.00000E+00
    0.30295E+07        -0.12920E+08         0.00000E+00
    0.00000E+00         0.00000E+00         0.00000E+00
 
    0.45478E+06         0.31300E+07         0.00000E+00
    0.31300E+07        -0.12915E+08         0.00000E+00
    0.00000E+00         0.00000E+00         0.00000E+00
 
    0.42799E+06         0.32312E+07         0.00000E+00
    0.32312E+07        -0.12911E+08         0.00000E+00
    0.00000E+00         0.00000E+00         0.00000E+00
 
    0.40123E+06         0.33330E+07         0.00000E+00
    0.33330E+07        -0.12905E+08         0.00000E+00
    0.00000E+00         0.00000E+00         0.00000E+00
 
    0.37449E+06         0.34355E+07         0.00000E+00
    0.34355E+07        -0.12900E+08         0.00000E+00
    0.00000E+00         0.00000E+00         0.00000E+00
 
    0.34773E+06         0.35386E+07         0.00000E+00
    0.35386E+07        -0.12894E+08         0.00000E+00
    0.00000E+00         0.00000E+00         0.00000E+00
 
    0.32093E+06         0.36424E+07         0.00000E+00
    0.36424E+07        -0.12887E+08         0.00000E+00
    0.00000E+00         0.00000E+00         0.00000E+00
 
    0.29405E+06         0.37469E+07         0.00000E+00
    0.37469E+07        -0.12879E+08         0.00000E+00
    0.00000E+00         0.00000E+00         0.00000E+00
 
    0.26707E+06         0.38521E+07         0.00000E+00
    0.38521E+07        -0.12872E+08         0.00000E+00
    0.00000E+00         0.00000E+00         0.00000E+00
 
    0.23995E+06         0.39579E+07         0.00000E+00
    0.39579E+07        -0.12863E+08         0.00000E+00
    0.00000E+00         0.00000E+00         0.00000E+00
 
    0.21267E+06         0.40645E+07         0.00000E+00
    0.40645E+07        -0.12854E+08         0.00000E+00
    0.00000E+00         0.00000E+00         0.00000E+00
 
    0.18521E+06         0.41718E+07         0.00000E+00
    0.41718E+07        -0.12844E+08         0.00000E+00
    0.00000E+00         0.00000E+00         0.00000E+00
 
    0.15752E+06         0.42798E+07         0.00000E+00
    0.42798E+07        -0.12834E+08         0.00000E+00
    0.00000E+00         0.00000E+00         0.00000E+00
 
    0.12958E+06         0.43885E+07         0.00000E+00
    0.43885E+07        -0.12823E+08         0.00000E+00
    0.00000E+00         0.00000E+00         0.00000E+00
 
    0.10136E+06         0.44980E+07         0.00000E+00
    0.44980E+07        -0.12811E+08         0.00000E+00
    0.00000E+00         0.00000E+00         0.00000E+00
 
    0.72827E+05         0.46082E+07         0.00000E+00
    0.46082E+07        -0.12799E+08         0.00000E+00
    0.00000E+00         0.00000E+00         0.00000E+00
 
    0.43957E+05         0.47191E+07         0.00000E+00
    0.47191E+07        -0.12785E+08         0.00000E+00
    0.00000E+00         0.00000E+00         0.00000E+00
 
    0.14716E+05         0.48308E+07         0.00000E+00
    0.48308E+07        -0.12771E+08         0.00000E+00
    0.00000E+00         0.00000E+00         0.00000E+00
 
    0.14125E+07         0.44883E+05         0.00000E+00
    0.44883E+05        -0.13509E+08         0.00000E+00
    0.00000E+00         0.00000E+00         0.00000E+00
 
    0.13700E+07         0.13450E+06         0.00000E+00
    0.13450E+06        -0.13509E+08         0.00000E+00
    0.00000E+00         0.00000E+00         0.00000E+00
 
    0.13284E+07         0.22411E+06         0.00000E+00
    0.22411E+06        -0.13509E+08         0.00000E+00
    0.00000E+00         0.00000E+00         0.00000E+00
 
    0.12878E+07         0.31374E+06         0.00000E+00
    0.31374E+06        -0.13510E+08         0.00000E+00
    0.00000E+00         0.00000E+00         0.00000E+00
 
    0.12480E+07         0.40343E+06         0.00000E+00
    0.40343E+06        -0.13510E+08         0.00000E+00
    0.00000E+00         0.00000E+00         0.00000E+00
 
    0.12092E+07         0.49321E+06         0.00000E+00
    0.49321E+06        -0.13511E+08         0.00000E+00
    0.00000E+00         0.00000E+00         0.00000E+00
 
    0.11713E+07         0.58310E+06         0.00000E+00
    0.58310E+06        -0.13512E+08         0.00000E+00
    0.00000E+00         0.00000E+00         0.00000E+00
 
    0.11342E+07         0.67315E+06         0.00000E+00
    0.67315E+06        -0.13513E+08         0.00000E+00
    0.00000E+00         0.00000E+00         0.00000E+00
 
    0.10979E+07         0.76338E+06         0.00000E+00
    0.76338E+06        -0.13515E+08         0.00000E+00
    0.00000E+00         0.00000E+00         0.00000E+00
 
    0.10625E+07         0.85383E+06         0.00000E+00
    0.85383E+06        -0.13516E+08         0.00000E+00
    0.00000E+00         0.00000E+00         0.00000E+00
 
    0.10279E+07         0.94451E+06         0.00000E+00
    0.94451E+06        -0.13517E+08         0.00000E+00
    0.00000E+00         0.00000E+00         0.00000E+00
 
    0.99403E+06         0.10355E+07         0.00000E+00
    0.10355E+07        -0.13519E+08         0.00000E+00
    0.00000E+00         0.00000E+00         0.00000E+00
 
    0.96092E+06         0.11267E+07         0.00000E+00
    0.11267E+07        -0.13520E+08         0.00000E+00
    0.00000E+00         0.00000E+00         0.00000E+00
 
    0.92855E+06         0.12183E+07         0.00000E+00
    0.12183E+07        -0.13521E+08         0.00000E+00
    0.00000E+00         0.00000E+00         0.00000E+00
 
    0.89688E+06         0.13102E+07         0.00000E+00
    0.13102E+07        -0.13523E+08         0.00000E+00
    0.00000E+00         0.00000E+00         0.00000E+00
 
    0.86589E+06         0.14025E+07         0.00000E+00
    0.14025E+07        -0.13524E+08         0.00000E+00
    0.00000E+00         0.00000E+00         0.00000E+00
 
    0.83555E+06         0.14952E+07         0.00000E+00
    0.14952E+07        -0.13526E+08         0.00000E+00
    0.00000E+00         0.00000E+00         0.00000E+00
 
    0.80584E+06         0.15883E+07         0.00000E+00
    0.15883E+07        -0.13527E+08         0.00000E+00
    0.00000E+00         0.00000E+00         0.00000E+00
 
    0.77673E+06         0.16818E+07         0.00000E+00
    0.16818E+07        -0.13528E+08         0.00000E+00
    0.00000E+00         0.00000E+00         0.00000E+00
 
    0.74819E+06         0.17759E+07         0.00000E+00
    0.17759E+07        -0.13529E+08         0.00000E+00
    0.00000E+00         0.00000E+00         0.00000E+00
 
    0.72020E+06         0.18704E+07         0.00000E+00
    0.18704E+07        -0.13530E+08         0.00000E+00
    0.00000E+00         0.00000E+00         0.00000E+00
 
    0.69273E+06         0.19654E+07         0.00000E+00
    0.19654E+07        -0.13531E+08         0.00000E+00
    0.00000E+00         0.00000E+00         0.00000E+00
 
    0.66575E+06         0.20610E+07         0.00000E+00
    0.20610E+07        -0.13532E+08         0.00000E+00
    0.00000E+00         0.00000E+00         0.00000E+00
 
    0.63923E+06         0.21571E+07         0.00000E+00
    0.21571E+07        -0.13532E+08         0.00000E+00
    0.00000E+00         0.00000E+00         0.00000E+00
 
    0.61315E+06         0.22537E+07         0.00000E+00
    0.22537E+07        -0.13533E+08         0.00000E+00
    0.00000E+00         0.00000E+00         0.00000E+00
 
    0.58746E+06         0.23510E+07         0.00000E+00
    0.23510E+07        -0.13533E+08         0.00000E+00
    0.00000E+00         0.00000E+00         0.00000E+00
 
    0.56215E+06         0.24489E+07         0.00000E+00
    0.24489E+07        -0.13532E+08         0.00000E+00
    0.00000E+00         0.00000E+00         0.00000E+00
 
    0.53718E+06         0.25474E+07         0.00000E+00
    0.25474E+07        -0.13532E+08         0.00000E+00
    0.00000E+00         0.00000E+00         0.00000E+00
 
    0.51253E+06         0.26465E+07         0.00000E+00
    0.26465E+07        -0.13531E+08         0.00000E+00
    0.00000E+00         0.00000E+00         0.00000E+00
 
    0.48816E+06         0.27463E+07         0.00000E+00
    0.27463E+07        -0.13530E+08         0.00000E+00
    0.00000E+00         0.00000E+00         0.00000E+00
 
    0.46404E+06         0.28467E+07         0.00000E+00
    0.28467E+07        -0.13529E+08         0.00000E+00
    0.00000E+00         0.00000E+00         0.00000E+00
 
    0.44015E+06         0.29478E+07         0.00000E+00
    0.29478E+07        -0.13527E+08         0.00000E+00
    0.00000E+00         0.00000E+00         0.00000E+00
 
    0.41645E+06         0.30497E+07         0.00000E+00
    0.30497E+07        -0.13525E+08         0.00000E+00
    0.00000E+00         0.00000E+00         0.00000E+00
 
    0.39291E+06         0.31522E+07         0.00000E+00
    0.31522E+07        -0.13523E+08         0.00000E+00
    0.00000E+00         0.00000E+00         0.00000E+00
 
    0.36950E+06         0.32555E+07         0.00000E+00
    0.32555E+07        -0.13520E+08         0.00000E+00
    0.00000E+00         0.00000E+00         0.00000E+00
 
    0.34618E+06         0.33595E+07         0.00000E+00
    0.33595E+07        -0.13516E+08         0.00000E+00
    0.00000E+00         0.00000E+00         0.00000E+00
 
    0.32294E+06         0.34642E+07         0.00000E+00
    0.34642E+07        -0.13512E+08         0.00000E+00
    0.00000E+00         0.00000E+00         0.00000E+00
 
    0.29973E+06         0.35697E+07         0.00000E+00
    0.35697E+07        -0.13508E+08         0.00000E+00
    0.00000E+00         0.00000E+00         0.00000E+00
 
    0.27653E+06         0.36760E+07         0.00000E+00
    0.36760E+07        -0.13503E+08         0.00000E+00
    0.00000E+00         0.00000E+00         0.00000E+00
 
    0.25330E+06         0.37830E+07         0.00000E+00
    0.37830E+07        -0.13498E+08         0.00000E+00
    0.00000E+00         0.00000E+00         0.00000E+00
 
    0.23002E+06         0.38908E+07         0.00000E+00
    0.38908E+07        -0.13492E+08         0.00000E+00
    0.00000E+00         0.00000E+00         0.00000E+00
 
    0.20665E+06         0.39994E+07         0.00000E+00
    0.39994E+07        -0.13485E+08         0.00000E+00
    0.00000E+00         0.00000E+00         0.00000E+00
 
    0.18315E+06         0.41089E+07         0.00000E+00
    0.41089E+07        -0.13478E+08         0.00000E+00
    0.00000E+00         0.00000E+00         0.00000E+00
 
    0.15951E+06         0.42191E+07         0.00000E+00
    0.42191E+07        -0.13471E+08         0.00000E+00
    0.00000E+00         0.00000E+00         0.00000E+00
 
    0.13568E+06         0.43302E+07         0.00000E+00
    0.43302E+07        -0.13462E+08         0.00000E+00
    0.00000E+00         0.00000E+00         0.00000E+00
 
    0.11164E+06         0.44420E+07         0.00000E+00
    0.44420E+07        -0.13453E+08         0.00000E+00
    0.00000E+00         0.00000E+00         0.00000E+00
 
    0.87352E+05         0.45548E+07         0.00000E+00
    0.45548E+07        -0.13443E+08         0.00000E+00
    0.00000E+00         0.00000E+00         0.00000E+00
 
    0.62787E+05         0.46683E+07         0.00000E+00
    0.46683E+07        -0.13433E+08         0.00000E+00
    0.00000E+00         0.00000E+00         0.00000E+00
 
    0.37912E+05         0.47827E+07         0.00000E+00
    0.47827E+07        -0.13422E+08         0.00000E+00
    0.00000E+00         0.00000E+00         0.00000E+00
 
    0.12697E+05         0.48980E+07         0.00000E+00
    0.48980E+07        -0.13410E+08         0.00000E+00
    0.00000E+00         0.00000E+00         0.00000E+00
 
    0.12696E+07         0.44459E+05         0.00000E+00
    0.44459E+05        -0.14098E+08         0.00000E+00
    0.00000E+00         0.00000E+00         0.00000E+00
 
    0.12271E+07         0.13333E+06         0.00000E+00
    0.13333E+06        -0.14098E+08         0.00000E+00
    0.00000E+00         0.00000E+00         0.00000E+00
 
    0.11856E+07         0.22223E+06         0.00000E+00
    0.22223E+06        -0.14099E+08         0.00000E+00
    0.00000E+00         0.00000E+00         0.00000E+00
 
    0.11453E+07         0.31120E+06         0.00000E+00
    0.31120E+06        -0.14100E+08         0.00000E+00
    0.00000E+00         0.00000E+00         0.00000E+00
 
    0.11061E+07         0.40028E+06         0.00000E+00
    0.40028E+06        -0.14101E+08         0.00000E+00
    0.00000E+00         0.00000E+00         0.00000E+00
 
    0.10679E+07         0.48950E+06         0.00000E+00
    0.48950E+06        -0.14102E+08         0.00000E+00
    0.00000E+00         0.00000E+00         0.00000E+00
 
    0.10308E+07         0.57890E+06         0.00000E+00
    0.57890E+06        -0.14103E+08         0.00000E+00
    0.00000E+00         0.00000E+00         0.00000E+00
 
    0.99466E+06         0.66851E+06         0.00000E+00
    0.66851E+06        -0.14105E+08         0.00000E+00
    0.00000E+00         0.00000E+00         0.00000E+00
 
    0.95954E+06         0.75836E+06         0.00000E+00
    0.75836E+06        -0.14107E+08         0.00000E+00
    0.00000E+00         0.00000E+00         0.00000E+00
 
    0.92539E+06         0.84849E+06         0.00000E+00
    0.84849E+06        -0.14109E+08         0.00000E+00
    0.00000E+00         0.00000E+00         0.00000E+00
 
    0.89219E+06         0.93893E+06         0.00000E+00
    0.93893E+06        -0.14111E+08         0.00000E+00
    0.00000E+00         0.00000E+00         0.00000E+00
 
    0.85991E+06         0.10297E+07         0.00000E+00
    0.10297E+07        -0.14114E+08         0.00000E+00
    0.00000E+00         0.00000E+00         0.00000E+00
 
    0.82852E+06         0.11209E+07         0.00000E+00
    0.11209E+07        -0.14116E+08         0.00000E+00
    0.00000E+00         0.00000E+00         0.00000E+00
 
    0.79800E+06         0.12124E+07         0.00000E+00
    0.12124E+07        -0.14119E+08         0.00000E+00
    0.00000E+00         0.00000E+00         0.00000E+00
 
    0.76832E+06         0.13044E+07         0.00000E+00
    0.13044E+07        -0.14121E+08         0.00000E+00
    0.00000E+00         0.00000E+00         0.00000E+00
 
    0.73944E+06         0.13968E+07         0.00000E+00
    0.13968E+07        -0.14124E+08         0.00000E+00
    0.00000E+00         0.00000E+00         0.00000E+00
 
    0.71135E+06         0.14897E+07         0.00000E+00
    0.14897E+07        -0.14126E+08         0.00000E+00
    0.00000E+00         0.00000E+00         0.00000E+00
 
    0.68400E+06         0.15832E+07         0.00000E+00
    0.15832E+07        -0.14129E+08         0.00000E+00
    0.00000E+00         0.00000E+00         0.00000E+00
 
    0.65738E+06         0.16771E+07         0.00000E+00
    0.16771E+07        -0.14132E+08         0.00000E+00
    0.00000E+00         0.00000E+00         0.00000E+00
 
    0.63144E+06         0.17716E+07         0.00000E+00
    0.17716E+07        -0.14134E+08         0.00000E+00
    0.00000E+00         0.00000E+00         0.00000E+00
 
    0.60616E+06         0.18667E+07         0.00000E+00
    0.18667E+07        -0.14137E+08         0.00000E+00
    0.00000E+00         0.00000E+00         0.00000E+00
 
    0.58150E+06         0.19624E+07         0.00000E+00
    0.19624E+07        -0.14139E+08         0.00000E+00
    0.00000E+00         0.00000E+00         0.00000E+00
 
    0.55744E+06         0.20587E+07         0.00000E+00
    0.20587E+07        -0.14141E+08         0.00000E+00
    0.00000E+00         0.00000E+00         0.00000E+00
 
    0.53394E+06         0.21557E+07         0.00000E+00
    0.21557E+07        -0.14144E+08         0.00000E+00
    0.00000E+00         0.00000E+00         0.00000E+00
 
    0.51097E+06         0.22533E+07         0.00000E+00
    0.22533E+07        -0.14146E+08         0.00000E+00
    0.00000E+00         0.00000E+00         0.00000E+00
 
    0.48849E+06         0.23516E+07         0.00000E+00
    0.23516E+07        -0.14147E+08         0.00000E+00
    0.00000E+00         0.00000E+00         0.00000E+00
 
    0.46648E+06         0.24506E+07         0.00000E+00
    0.24506E+07        -0.14149E+08         0.00000E+00
    0.00000E+00         0.00000E+00         0.00000E+00
 
    0.44489E+06         0.25504E+07         0.00000E+00
    0.25504E+07        -0.14150E+08         0.00000E+00
    0.00000E+00         0.00000E+00         0.00000E+00
 
    0.42370E+06         0.26508E+07         0.00000E+00
    0.26508E+07        -0.14152E+08         0.00000E+00
    0.00000E+00         0.00000E+00         0.00000E+00
 
    0.40288E+06         0.27521E+07         0.00000E+00
    0.27521E+07        -0.14152E+08         0.00000E+00
    0.00000E+00         0.00000E+00         0.00000E+00
 
    0.38238E+06         0.28540E+07         0.00000E+00
    0.28540E+07        -0.14153E+08         0.00000E+00
    0.00000E+00         0.00000E+00         0.00000E+00
 
    0.36217E+06         0.29568E+07         0.00000E+00
    0.29568E+07        -0.14153E+08         0.00000E+00
    0.00000E+00         0.00000E+00         0.00000E+00
 
    0.34223E+06         0.30604E+07         0.00000E+00
    0.30604E+07        -0.14153E+08         0.00000E+00
    0.00000E+00         0.00000E+00         0.00000E+00
 
    0.32251E+06         0.31648E+07         0.00000E+00
    0.31648E+07        -0.14153E+08         0.00000E+00
    0.00000E+00         0.00000E+00         0.00000E+00
 
    0.30299E+06         0.32700E+07         0.00000E+00
    0.32700E+07        -0.14152E+08         0.00000E+00
    0.00000E+00         0.00000E+00         0.00000E+00
 
    0.28362E+06         0.33761E+07         0.00000E+00
    0.33761E+07        -0.14151E+08         0.00000E+00
    0.00000E+00         0.00000E+00         0.00000E+00
 
    0.26439E+06         0.34830E+07         0.00000E+00
    0.34830E+07        -0.14149E+08         0.00000E+00
    0.00000E+00         0.00000E+00         0.00000E+00
 
    0.24524E+06         0.35907E+07         0.00000E+00
    0.35907E+07        -0.14147E+08         0.00000E+00
    0.00000E+00         0.00000E+00         0.00000E+00
 
    0.22615E+06         0.36993E+07         0.00000E+00
    0.36993E+07        -0.14144E+08         0.00000E+00
    0.00000E+00         0.00000E+00         0.00000E+00
 
    0.20709E+06         0.38089E+07         0.00000E+00
    0.38089E+07        -0.14141E+08         0.00000E+00
    0.00000E+00         0.00000E+00         0.00000E+00
 
    0.18801E+06         0.39193E+07         0.00000E+00
    0.39193E+07        -0.14137E+08         0.00000E+00
    0.00000E+00         0.00000E+00         0.00000E+00
 
    0.16890E+06         0.40306E+07         0.00000E+00
    0.40306E+07        -0.14133E+08         0.00000E+00
    0.00000E+00         0.00000E+00         0.00000E+00
 
    0.14970E+06         0.41428E+07         0.00000E+00
    0.41428E+07        -0.14128E+08         0.00000E+00
    0.00000E+00         0.00000E+00         0.00000E+00
 
    0.13040E+06         0.42559E+07         0.00000E+00
    0.42559E+07        -0.14122E+08         0.00000E+00
    0.00000E+00         0.00000E+00         0.00000E+00
 
    0.11096E+06         0.43700E+07         0.00000E+00
    0.43700E+07        -0.14116E+08         0.00000E+00
    0.00000E+00         0.00000E+00         0.00000E+00
 
    0.91334E+05         0.44850E+07         0.00000E+00
    0.44850E+07        -0.14109E+08         0.00000E+00
    0.00000E+00         0.00000E+00         0.00000E+00
 
    0.71502E+05         0.46009E+07         0.00000E+00
    0.46009E+07        -0.14102E+08         0.00000E+00
    0.00000E+00         0.00000E+00         0.00000E+00
 
    0.51426E+05         0.47178E+07         0.00000E+00
    0.47178E+07        -0.14093E+08         0.00000E+00
    0.00000E+00         0.00000E+00         0.00000E+00
 
    0.31074E+05         0.48356E+07         0.00000E+00
    0.48356E+07        -0.14085E+08         0.00000E+00
    0.00000E+00         0.00000E+00         0.00000E+00
 
    0.10413E+05         0.49544E+07         0.00000E+00
    0.49544E+07        -0.14075E+08         0.00000E+00
    0.00000E+00         0.00000E+00         0.00000E+00
 
    0.11033E+07         0.43781E+05         0.00000E+00
    0.43781E+05        -0.14706E+08         0.00000E+00
    0.00000E+00         0.00000E+00         0.00000E+00
 
    0.10609E+07         0.13142E+06         0.00000E+00
    0.13142E+06        -0.14706E+08         0.00000E+00
    0.00000E+00         0.00000E+00         0.00000E+00
 
    0.10199E+07         0.21913E+06         0.00000E+00
    0.21913E+06        -0.14707E+08         0.00000E+00
    0.00000E+00         0.00000E+00         0.00000E+00
 
    0.98011E+06         0.30697E+06         0.00000E+00
    0.30697E+06        -0.14708E+08         0.00000E+00
    0.00000E+00         0.00000E+00         0.00000E+00
 
    0.94164E+06         0.39498E+06         0.00000E+00
    0.39498E+06        -0.14709E+08         0.00000E+00
    0.00000E+00         0.00000E+00         0.00000E+00
 
    0.90441E+06         0.48319E+06         0.00000E+00
    0.48319E+06        -0.14711E+08         0.00000E+00
    0.00000E+00         0.00000E+00         0.00000E+00
 
    0.86841E+06         0.57165E+06         0.00000E+00
    0.57165E+06        -0.14713E+08         0.00000E+00
    0.00000E+00         0.00000E+00         0.00000E+00
 
    0.83361E+06         0.66039E+06         0.00000E+00
    0.66039E+06        -0.14716E+08         0.00000E+00
    0.00000E+00         0.00000E+00         0.00000E+00
 
    0.79997E+06         0.74944E+06         0.00000E+00
    0.74944E+06        -0.14719E+08         0.00000E+00
    0.00000E+00         0.00000E+00         0.00000E+00
 
    0.76747E+06         0.83885E+06         0.00000E+00
    0.83885E+06        -0.14721E+08         0.00000E+00
    0.00000E+00         0.00000E+00         0.00000E+00
 
    0.73609E+06         0.92865E+06         0.00000E+00
    0.92865E+06        -0.14725E+08         0.00000E+00
    0.00000E+00         0.00000E+00         0.00000E+00
 
    0.70578E+06         0.10189E+07         0.00000E+00
    0.10189E+07        -0.14728E+08         0.00000E+00
    0.00000E+00         0.00000E+00         0.00000E+00
 
    0.67652E+06         0.11096E+07         0.00000E+00
    0.11096E+07        -0.14732E+08         0.00000E+00
    0.00000E+00         0.00000E+00         0.00000E+00
 
    0.64828E+06         0.12007E+07         0.00000E+00
    0.12007E+07        -0.14735E+08         0.00000E+00
    0.00000E+00         0.00000E+00         0.00000E+00
 
    0.62102E+06         0.12924E+07         0.00000E+00
    0.12924E+07        -0.14739E+08         0.00000E+00
    0.00000E+00         0.00000E+00         0.00000E+00
 
    0.59471E+06         0.13846E+07         0.00000E+00
    0.13846E+07        -0.14743E+08         0.00000E+00
    0.00000E+00         0.00000E+00         0.00000E+00
 
    0.56932E+06         0.14774E+07         0.00000E+00
    0.14774E+07        -0.14747E+08         0.00000E+00
    0.00000E+00         0.00000E+00         0.00000E+00
 
    0.54481E+06         0.15709E+07         0.00000E+00
    0.15709E+07        -0.14751E+08         0.00000E+00
    0.00000E+00         0.00000E+00         0.00000E+00
 
    0.52115E+06         0.16649E+07         0.00000E+00
    0.16649E+07        -0.14755E+08         0.00000E+00
    0.00000E+00         0.00000E+00         0.00000E+00
 
    0.49830E+06         0.17596E+07         0.00000E+00
    0.17596E+07        -0.14760E+08         0.00000E+00
    0.00000E+00         0.00000E+00         0.00000E+00
 
    0.47622E+06         0.18550E+07         0.00000E+00
    0.18550E+07        -0.14764E+08         0.00000E+00
    0.00000E+00         0.00000E+00         0.00000E+00
 
    0.45488E+06         0.19511E+07         0.00000E+00
    0.19511E+07        -0.14768E+08         0.00000E+00
    0.00000E+00         0.00000E+00         0.00000E+00
 
    0.43425E+06         0.20479E+07         0.00000E+00
    0.20479E+07        -0.14772E+08         0.00000E+00
    0.00000E+00         0.00000E+00         0.00000E+00
 
    0.41428E+06         0.21455E+07         0.00000E+00
    0.21455E+07        -0.14776E+08         0.00000E+00
    0.00000E+00         0.00000E+00         0.00000E+00
 
    0.39494E+06         0.22438E+07         0.00000E+00
    0.22438E+07        -0.14780E+08         0.00000E+00
    0.00000E+00         0.00000E+00         0.00000E+00
 
    0.37620E+06         0.23430E+07         0.00000E+00
    0.23430E+07        -0.14784E+08         0.00000E+00
    0.00000E+00         0.00000E+00         0.00000E+00
 
    0.35800E+06         0.24429E+07         0.00000E+00
    0.24429E+07        -0.14787E+08         0.00000E+00
    0.00000E+00         0.00000E+00         0.00000E+00
 
    0.34033E+06         0.25437E+07         0.00000E+00
    0.25437E+07        -0.14791E+08         0.00000E+00
    0.00000E+00         0.00000E+00         0.00000E+00
 
    0.32314E+06         0.26453E+07         0.00000E+00
    0.26453E+07        -0.14794E+08         0.00000E+00
    0.00000E+00         0.00000E+00         0.00000E+00
 
    0.30639E+06         0.27478E+07         0.00000E+00
    0.27478E+07        -0.14797E+08         0.00000E+00
    0.00000E+00         0.00000E+00         0.00000E+00
 
    0.29004E+06         0.28511E+07         0.00000E+00
    0.28511E+07        -0.14800E+08         0.00000E+00
    0.00000E+00         0.00000E+00         0.00000E+00
 
    0.27407E+06         0.29554E+07         0.00000E+00
    0.29554E+07        -0.14802E+08         0.00000E+00
    0.00000E+00         0.00000E+00         0.00000E+00
 
    0.25843E+06         0.30606E+07         0.00000E+00
    0.30606E+07        -0.14804E+08         0.00000E+00
    0.00000E+00         0.00000E+00         0.00000E+00
 
    0.24308E+06         0.31667E+07         0.00000E+00
    0.31667E+07        -0.14806E+08         0.00000E+00
    0.00000E+00         0.00000E+00         0.00000E+00
 
    0.22799E+06         0.32737E+07         0.00000E+00
    0.32737E+07        -0.14807E+08         0.00000E+00
    0.00000E+00         0.00000E+00         0.00000E+00
 
    0.21312E+06         0.33817E+07         0.00000E+00
    0.33817E+07        -0.14808E+08         0.00000E+00
    0.00000E+00         0.00000E+00         0.00000E+00
 
    0.19843E+06         0.34906E+07         0.00000E+00
    0.34906E+07        -0.14809E+08         0.00000E+00
    0.00000E+00         0.00000E+00         0.00000E+00
 
    0.18389E+06         0.36005E+07         0.00000E+00
    0.36005E+07        -0.14809E+08         0.00000E+00
    0.00000E+00         0.00000E+00         0.00000E+00
 
    0.16946E+06         0.37114E+07         0.00000E+00
    0.37114E+07        -0.14809E+08         0.00000E+00
    0.00000E+00         0.00000E+00         0.00000E+00
 
    0.15511E+06         0.38233E+07         0.00000E+00
    0.38233E+07        -0.14808E+08         0.00000E+00
    0.00000E+00         0.00000E+00         0.00000E+00
 
    0.14079E+06         0.39362E+07         0.00000E+00
    0.39362E+07        -0.14807E+08         0.00000E+00
    0.00000E+00         0.00000E+00         0.00000E+00
 
    0.12648E+06         0.40501E+07         0.00000E+00
    0.40501E+07        -0.14805E+08         0.00000E+00
    0.00000E+00         0.00000E+00         0.00000E+00
 
    0.11214E+06         0.41650E+07         0.00000E+00
    0.41650E+07        -0.14802E+08         0.00000E+00
    0.00000E+00         0.00000E+00         0.00000E+00
 
    0.97724E+05         0.42810E+07         0.00000E+00
    0.42810E+07        -0.14799E+08         0.00000E+00
    0.00000E+00         0.00000E+00         0.00000E+00
 
    0.83208E+05         0.43980E+07         0.00000E+00
    0.43980E+07        -0.14796E+08         0.00000E+00
    0.00000E+00         0.00000E+00         0.00000E+00
 
    0.68553E+05         0.45160E+07         0.00000E+00
    0.45160E+07        -0.14791E+08         0.00000E+00
    0.00000E+00         0.00000E+00         0.00000E+00
 
    0.53725E+05         0.46351E+07         0.00000E+00
    0.46351E+07        -0.14786E+08         0.00000E+00
    0.00000E+00         0.00000E+00         0.00000E+00
 
    0.38688E+05         0.47552E+07         0.00000E+00
    0.47552E+07        -0.14781E+08         0.00000E+00
    0.00000E+00         0.00000E+00         0.00000E+00
 
    0.23409E+05         0.48764E+07         0.00000E+00
    0.48764E+07        -0.14774E+08         0.00000E+00
    0.00000E+00         0.00000E+00         0.00000E+00
 
    0.78520E+04         0.49987E+07         0.00000E+00
    0.49987E+07        -0.14767E+08         0.00000E+00
    0.00000E+00         0.00000E+00         0.00000E+00
 
    0.91102E+06         0.42811E+05         0.00000E+00
    0.42811E+05        -0.15332E+08         0.00000E+00
    0.00000E+00         0.00000E+00         0.00000E+00
 
    0.86911E+06         0.12865E+06         0.00000E+00
    0.12865E+06        -0.15332E+08         0.00000E+00
    0.00000E+00         0.00000E+00         0.00000E+00
 
    0.82873E+06         0.21464E+06         0.00000E+00
    0.21464E+06        -0.15333E+08         0.00000E+00
    0.00000E+00         0.00000E+00         0.00000E+00
 
    0.78988E+06         0.30082E+06         0.00000E+00
    0.30082E+06        -0.15335E+08         0.00000E+00
    0.00000E+00         0.00000E+00         0.00000E+00
 
    0.75250E+06         0.38723E+06         0.00000E+00
    0.38723E+06        -0.15337E+08         0.00000E+00
    0.00000E+00         0.00000E+00         0.00000E+00
 
    0.71659E+06         0.47392E+06         0.00000E+00
    0.47392E+06        -0.15339E+08         0.00000E+00
    0.00000E+00         0.00000E+00         0.00000E+00
 
    0.68210E+06         0.56094E+06         0.00000E+00
    0.56094E+06        -0.15342E+08         0.00000E+00
    0.00000E+00         0.00000E+00         0.00000E+00
 
    0.64900E+06         0.64832E+06         0.00000E+00
    0.64832E+06        -0.15345E+08         0.00000E+00
    0.00000E+00         0.00000E+00         0.00000E+00
 
    0.61726E+06         0.73611E+06         0.00000E+00
    0.73611E+06        -0.15349E+08         0.00000E+00
    0.00000E+00         0.00000E+00         0.00000E+00
 
    0.58685E+06         0.82434E+06         0.00000E+00
    0.82434E+06        -0.15353E+08         0.00000E+00
    0.00000E+00         0.00000E+00         0.00000E+00
 
    0.55773E+06         0.91305E+06         0.00000E+00
    0.91305E+06        -0.15357E+08         0.00000E+00
    0.00000E+00         0.00000E+00         0.00000E+00
 
    0.52986E+06         0.10023E+07         0.00000E+00
    0.10023E+07        -0.15361E+08         0.00000E+00
    0.00000E+00         0.00000E+00         0.00000E+00
 
    0.50321E+06         0.10921E+07         0.00000E+00
    0.10921E+07        -0.15366E+08         0.00000E+00
    0.00000E+00         0.00000E+00         0.00000E+00
 
    0.47774E+06         0.11825E+07         0.00000E+00
    0.11825E+07        -0.15371E+08         0.00000E+00
    0.00000E+00         0.00000E+00         0.00000E+00
 
    0.45341E+06         0.12735E+07         0.00000E+00
    0.12735E+07        -0.15377E+08         0.00000E+00
    0.00000E+00         0.00000E+00         0.00000E+00
 
    0.43018E+06         0.13651E+07         0.00000E+00
    0.13651E+07        -0.15382E+08         0.00000E+00
    0.00000E+00         0.00000E+00         0.00000E+00
 
    0.40802E+06         0.14575E+07         0.00000E+00
    0.14575E+07        -0.15388E+08         0.00000E+00
    0.00000E+00         0.00000E+00         0.00000E+00
 
    0.38688E+06         0.15505E+07         0.00000E+00
    0.15505E+07        -0.15393E+08         0.00000E+00
    0.00000E+00         0.00000E+00         0.00000E+00
 
    0.36672E+06         0.16443E+07         0.00000E+00
    0.16443E+07        -0.15399E+08         0.00000E+00
    0.00000E+00         0.00000E+00         0.00000E+00
 
    0.34750E+06         0.17389E+07         0.00000E+00
    0.17389E+07        -0.15405E+08         0.00000E+00
    0.00000E+00         0.00000E+00         0.00000E+00
 
    0.32919E+06         0.18343E+07         0.00000E+00
    0.18343E+07        -0.15411E+08         0.00000E+00
    0.00000E+00         0.00000E+00         0.00000E+00
 
    0.31173E+06         0.19305E+07         0.00000E+00
    0.19305E+07        -0.15417E+08         0.00000E+00
    0.00000E+00         0.00000E+00         0.00000E+00
 
    0.29509E+06         0.20275E+07         0.00000E+00
    0.20275E+07        -0.15424E+08         0.00000E+00
    0.00000E+00         0.00000E+00         0.00000E+00
 
    0.27923E+06         0.21254E+07         0.00000E+00
    0.21254E+07        -0.15430E+08         0.00000E+00
    0.00000E+00         0.00000E+00         0.00000E+00
 
    0.26410E+06         0.22242E+07         0.00000E+00
    0.22242E+07        -0.15436E+08         0.00000E+00
    0.00000E+00         0.00000E+00         0.00000E+00
 
    0.24967E+06         0.23239E+07         0.00000E+00
    0.23239E+07        -0.15441E+08         0.00000E+00
    0.00000E+00         0.00000E+00         0.00000E+00
 
    0.23588E+06         0.24246E+07         0.00000E+00
    0.24246E+07        -0.15447E+08         0.00000E+00
    0.00000E+00         0.00000E+00         0.00000E+00
 
    0.22271E+06         0.25262E+07         0.00000E+00
    0.25262E+07        -0.15453E+08         0.00000E+00
    0.00000E+00         0.00000E+00         0.00000E+00
 
    0.21010E+06         0.26287E+07         0.00000E+00
    0.26287E+07        -0.15458E+08         0.00000E+00
    0.00000E+00         0.00000E+00         0.00000E+00
 
    0.19801E+06         0.27323E+07         0.00000E+00
    0.27323E+07        -0.15464E+08         0.00000E+00
    0.00000E+00         0.00000E+00         0.00000E+00
 
    0.18642E+06         0.28368E+07         0.00000E+00
    0.28368E+07        -0.15469E+08         0.00000E+00
    0.00000E+00         0.00000E+00         0.00000E+00
 
    0.17526E+06         0.29424E+07         0.00000E+00
    0.29424E+07        -0.15474E+08         0.00000E+00
    0.00000E+00         0.00000E+00         0.00000E+00
 
    0.16451E+06         0.30490E+07         0.00000E+00
    0.30490E+07        -0.15478E+08         0.00000E+00
    0.00000E+00         0.00000E+00         0.00000E+00
 
    0.15411E+06         0.31566E+07         0.00000E+00
    0.31566E+07        -0.15482E+08         0.00000E+00
    0.00000E+00         0.00000E+00         0.00000E+00
 
    0.14404E+06         0.32653E+07         0.00000E+00
    0.32653E+07        -0.15486E+08         0.00000E+00
    0.00000E+00         0.00000E+00         0.00000E+00
 
    0.13425E+06         0.33751E+07         0.00000E+00
    0.33751E+07        -0.15490E+08         0.00000E+00
    0.00000E+00         0.00000E+00         0.00000E+00
 
    0.12471E+06         0.34859E+07         0.00000E+00
    0.34859E+07        -0.15493E+08         0.00000E+00
    0.00000E+00         0.00000E+00         0.00000E+00
 
    0.11536E+06         0.35979E+07         0.00000E+00
    0.35979E+07        -0.15496E+08         0.00000E+00
    0.00000E+00         0.00000E+00         0.00000E+00
 
    0.10617E+06         0.37109E+07         0.00000E+00
    0.37109E+07        -0.15498E+08         0.00000E+00
    0.00000E+00         0.00000E+00         0.00000E+00
 
    0.97111E+05         0.38250E+07         0.00000E+00
    0.38250E+07        -0.15500E+08         0.00000E+00
    0.00000E+00         0.00000E+00         0.00000E+00
 
    0.88135E+05         0.39403E+07         0.00000E+00
    0.39403E+07        -0.15501E+08         0.00000E+00
    0.00000E+00         0.00000E+00         0.00000E+00
 
    0.79205E+05         0.40567E+07         0.00000E+00
    0.40567E+07        -0.15502E+08         0.00000E+00
    0.00000E+00         0.00000E+00         0.00000E+00
 
    0.70285E+05         0.41742E+07         0.00000E+00
    0.41742E+07        -0.15502E+08         0.00000E+00
    0.00000E+00         0.00000E+00         0.00000E+00
 
    0.61337E+05         0.42929E+07         0.00000E+00
    0.42929E+07        -0.15502E+08         0.00000E+00
    0.00000E+00         0.00000E+00         0.00000E+00
 
    0.52323E+05         0.44128E+07         0.00000E+00
    0.44128E+07        -0.15501E+08         0.00000E+00
    0.00000E+00         0.00000E+00         0.00000E+00
 
    0.43208E+05         0.45338E+07         0.00000E+00
    0.45338E+07        -0.15500E+08         0.00000E+00
    0.00000E+00         0.00000E+00         0.00000E+00
 
    0.33954E+05         0.46559E+07         0.00000E+00
    0.46559E+07        -0.15497E+08         0.00000E+00
    0.00000E+00         0.00000E+00         0.00000E+00
 
    0.24527E+05         0.47793E+07         0.00000E+00
    0.47793E+07        -0.15494E+08         0.00000E+00
    0.00000E+00         0.00000E+00         0.00000E+00
 
    0.14889E+05         0.49038E+07         0.00000E+00
    0.49038E+07        -0.15491E+08         0.00000E+00
    0.00000E+00         0.00000E+00         0.00000E+00
 
    0.50069E+04         0.50295E+07         0.00000E+00
    0.50295E+07        -0.15487E+08         0.00000E+00
    0.00000E+00         0.00000E+00         0.00000E+00
 
    0.69019E+06         0.41507E+05         0.00000E+00
    0.41507E+05        -0.15976E+08         0.00000E+00
    0.00000E+00         0.00000E+00         0.00000E+00
 
    0.64905E+06         0.12493E+06         0.00000E+00
    0.12493E+06        -0.15976E+08         0.00000E+00
    0.00000E+00         0.00000E+00         0.00000E+00
 
    0.60971E+06         0.20856E+06         0.00000E+00
    0.20856E+06        -0.15978E+08         0.00000E+00
    0.00000E+00         0.00000E+00         0.00000E+00
 
    0.57212E+06         0.29247E+06         0.00000E+00
    0.29247E+06        -0.15979E+08         0.00000E+00
    0.00000E+00         0.00000E+00         0.00000E+00
 
    0.53626E+06         0.37670E+06         0.00000E+00
    0.37670E+06        -0.15982E+08         0.00000E+00
    0.00000E+00         0.00000E+00         0.00000E+00
 
    0.50208E+06         0.46130E+06         0.00000E+00
    0.46130E+06        -0.15985E+08         0.00000E+00
    0.00000E+00         0.00000E+00         0.00000E+00
 
    0.46955E+06         0.54632E+06         0.00000E+00
    0.54632E+06        -0.15989E+08         0.00000E+00
    0.00000E+00         0.00000E+00         0.00000E+00
 
    0.43863E+06         0.63180E+06         0.00000E+00
    0.63180E+06        -0.15993E+08         0.00000E+00
    0.00000E+00         0.00000E+00         0.00000E+00
 
    0.40928E+06         0.71779E+06         0.00000E+00
    0.71779E+06        -0.15997E+08         0.00000E+00
    0.00000E+00         0.00000E+00         0.00000E+00
 
    0.38146E+06         0.80433E+06         0.00000E+00
    0.80433E+06        -0.16002E+08         0.00000E+00
    0.00000E+00         0.00000E+00         0.00000E+00
 
    0.35512E+06         0.89147E+06         0.00000E+00
    0.89147E+06        -0.16008E+08         0.00000E+00
    0.00000E+00         0.00000E+00         0.00000E+00
 
    0.33024E+06         0.97924E+06         0.00000E+00
    0.97924E+06        -0.16014E+08         0.00000E+00
    0.00000E+00         0.00000E+00         0.00000E+00
 
    0.30675E+06         0.10677E+07         0.00000E+00
    0.10677E+07        -0.16020E+08         0.00000E+00
    0.00000E+00         0.00000E+00         0.00000E+00
 
    0.28462E+06         0.11568E+07         0.00000E+00
    0.11568E+07        -0.16026E+08         0.00000E+00
    0.00000E+00         0.00000E+00         0.00000E+00
 
    0.26380E+06         0.12467E+07         0.00000E+00
    0.12467E+07        -0.16033E+08         0.00000E+00
    0.00000E+00         0.00000E+00         0.00000E+00
 
    0.24424E+06         0.13374E+07         0.00000E+00
    0.13374E+07        -0.16040E+08         0.00000E+00
    0.00000E+00         0.00000E+00         0.00000E+00
 
    0.22591E+06         0.14289E+07         0.00000E+00
    0.14289E+07        -0.16048E+08         0.00000E+00
    0.00000E+00         0.00000E+00         0.00000E+00
 
    0.20875E+06         0.15212E+07         0.00000E+00
    0.15212E+07        -0.16055E+08         0.00000E+00
    0.00000E+00         0.00000E+00         0.00000E+00
 
    0.19271E+06         0.16144E+07         0.00000E+00
    0.16144E+07        -0.16063E+08         0.00000E+00
    0.00000E+00         0.00000E+00         0.00000E+00
 
    0.17776E+06         0.17085E+07         0.00000E+00
    0.17085E+07        -0.16071E+08         0.00000E+00
    0.00000E+00         0.00000E+00         0.00000E+00
 
    0.16383E+06         0.18035E+07         0.00000E+00
    0.18035E+07        -0.16079E+08         0.00000E+00
    0.00000E+00         0.00000E+00         0.00000E+00
 
    0.15089E+06         0.18995E+07         0.00000E+00
    0.18995E+07        -0.16087E+08         0.00000E+00
    0.00000E+00         0.00000E+00         0.00000E+00
 
    0.13888E+06         0.19965E+07         0.00000E+00
    0.19965E+07        -0.16096E+08         0.00000E+00
    0.00000E+00         0.00000E+00         0.00000E+00
 
    0.12777E+06         0.20944E+07         0.00000E+00
    0.20944E+07        -0.16104E+08         0.00000E+00
    0.00000E+00         0.00000E+00         0.00000E+00
 
    0.11749E+06         0.21934E+07         0.00000E+00
    0.21934E+07        -0.16112E+08         0.00000E+00
    0.00000E+00         0.00000E+00         0.00000E+00
 
    0.10801E+06         0.22935E+07         0.00000E+00
    0.22935E+07        -0.16121E+08         0.00000E+00
    0.00000E+00         0.00000E+00         0.00000E+00
 
    0.99281E+05         0.23946E+07         0.00000E+00
    0.23946E+07        -0.16129E+08         0.00000E+00
    0.00000E+00         0.00000E+00         0.00000E+00
 
    0.91249E+05         0.24967E+07         0.00000E+00
    0.24967E+07        -0.16137E+08         0.00000E+00
    0.00000E+00         0.00000E+00         0.00000E+00
 
    0.83869E+05         0.26000E+07         0.00000E+00
    0.26000E+07        -0.16145E+08         0.00000E+00
    0.00000E+00         0.00000E+00         0.00000E+00
 
    0.77098E+05         0.27044E+07         0.00000E+00
    0.27044E+07        -0.16153E+08         0.00000E+00
    0.00000E+00         0.00000E+00         0.00000E+00
 
    0.70887E+05         0.28099E+07         0.00000E+00
    0.28099E+07        -0.16160E+08         0.00000E+00
    0.00000E+00         0.00000E+00         0.00000E+00
 
    0.65192E+05         0.29166E+07         0.00000E+00
    0.29166E+07        -0.16168E+08         0.00000E+00
    0.00000E+00         0.00000E+00         0.00000E+00
 
    0.59968E+05         0.30245E+07         0.00000E+00
    0.30245E+07        -0.16175E+08         0.00000E+00
    0.00000E+00         0.00000E+00         0.00000E+00
 
    0.55170E+05         0.31335E+07         0.00000E+00
    0.31335E+07        -0.16182E+08         0.00000E+00
    0.00000E+00         0.00000E+00         0.00000E+00
 
    0.50753E+05         0.32437E+07         0.00000E+00
    0.32437E+07        -0.16189E+08         0.00000E+00
    0.00000E+00         0.00000E+00         0.00000E+00
 
    0.46673E+05         0.33551E+07         0.00000E+00
    0.33551E+07        -0.16195E+08         0.00000E+00
    0.00000E+00         0.00000E+00         0.00000E+00
 
    0.42889E+05         0.34677E+07         0.00000E+00
    0.34677E+07        -0.16201E+08         0.00000E+00
    0.00000E+00         0.00000E+00         0.00000E+00
 
    0.39356E+05         0.35815E+07         0.00000E+00
    0.35815E+07        -0.16207E+08         0.00000E+00
    0.00000E+00         0.00000E+00         0.00000E+00
 
    0.36034E+05         0.36965E+07         0.00000E+00
    0.36965E+07        -0.16212E+08         0.00000E+00
    0.00000E+00         0.00000E+00         0.00000E+00
 
    0.32879E+05         0.38128E+07         0.00000E+00
    0.38128E+07        -0.16217E+08         0.00000E+00
    0.00000E+00         0.00000E+00         0.00000E+00
 
    0.29852E+05         0.39303E+07         0.00000E+00
    0.39303E+07        -0.16221E+08         0.00000E+00
    0.00000E+00         0.00000E+00         0.00000E+00
 
    0.26912E+05         0.40491E+07         0.00000E+00
    0.40491E+07        -0.16225E+08         0.00000E+00
    0.00000E+00         0.00000E+00         0.00000E+00
 
    0.24019E+05         0.41692E+07         0.00000E+00
    0.41692E+07        -0.16228E+08         0.00000E+00
    0.00000E+00         0.00000E+00         0.00000E+00
 
    0.21134E+05         0.42905E+07         0.00000E+00
    0.42905E+07        -0.16230E+08         0.00000E+00
    0.00000E+00         0.00000E+00         0.00000E+00
 
    0.18219E+05         0.44131E+07         0.00000E+00
    0.44131E+07        -0.16233E+08         0.00000E+00
    0.00000E+00         0.00000E+00         0.00000E+00
 
    0.15235E+05         0.45369E+07         0.00000E+00
    0.45369E+07        -0.16234E+08         0.00000E+00
    0.00000E+00         0.00000E+00         0.00000E+00
 
    0.12145E+05         0.46621E+07         0.00000E+00
    0.46621E+07        -0.16235E+08         0.00000E+00
    0.00000E+00         0.00000E+00         0.00000E+00
 
    0.89118E+04         0.47885E+07         0.00000E+00
    0.47885E+07        -0.16235E+08         0.00000E+00
    0.00000E+00         0.00000E+00         0.00000E+00
 
    0.54995E+04         0.49163E+07         0.00000E+00
    0.49163E+07        -0.16235E+08         0.00000E+00
    0.00000E+00         0.00000E+00         0.00000E+00
 
    0.18720E+04         0.50453E+07         0.00000E+00
    0.50453E+07        -0.16234E+08         0.00000E+00
    0.00000E+00         0.00000E+00         0.00000E+00
 
    0.43778E+06         0.39820E+05         0.00000E+00
    0.39820E+05        -0.16637E+08         0.00000E+00
    0.00000E+00         0.00000E+00         0.00000E+00
 
    0.39783E+06         0.12010E+06         0.00000E+00
    0.12010E+06        -0.16638E+08         0.00000E+00
    0.00000E+00         0.00000E+00         0.00000E+00
 
    0.35994E+06         0.20068E+06         0.00000E+00
    0.20068E+06        -0.16639E+08         0.00000E+00
    0.00000E+00         0.00000E+00         0.00000E+00
 
    0.32409E+06         0.28164E+06         0.00000E+00
    0.28164E+06        -0.16642E+08         0.00000E+00
    0.00000E+00         0.00000E+00         0.00000E+00
 
    0.29022E+06         0.36303E+06         0.00000E+00
    0.36303E+06        -0.16645E+08         0.00000E+00
    0.00000E+00         0.00000E+00         0.00000E+00
 
    0.25829E+06         0.44489E+06         0.00000E+00
    0.44489E+06        -0.16649E+08         0.00000E+00
    0.00000E+00         0.00000E+00         0.00000E+00
 
    0.22826E+06         0.52728E+06         0.00000E+00
    0.52728E+06        -0.16653E+08         0.00000E+00
    0.00000E+00         0.00000E+00         0.00000E+00
 
    0.20008E+06         0.61026E+06         0.00000E+00
    0.61026E+06        -0.16658E+08         0.00000E+00
    0.00000E+00         0.00000E+00         0.00000E+00
 
    0.17370E+06         0.69387E+06         0.00000E+00
    0.69387E+06        -0.16664E+08         0.00000E+00
    0.00000E+00         0.00000E+00         0.00000E+00
 
    0.14907E+06         0.77816E+06         0.00000E+00
    0.77816E+06        -0.16670E+08         0.00000E+00
    0.00000E+00         0.00000E+00         0.00000E+00
 
    0.12615E+06         0.86317E+06         0.00000E+00
    0.86317E+06        -0.16677E+08         0.00000E+00
    0.00000E+00         0.00000E+00         0.00000E+00
 
    0.10487E+06         0.94895E+06         0.00000E+00
    0.94895E+06        -0.16684E+08         0.00000E+00
    0.00000E+00         0.00000E+00         0.00000E+00
 
    0.85195E+05         0.10355E+07         0.00000E+00
    0.10355E+07        -0.16692E+08         0.00000E+00
    0.00000E+00         0.00000E+00         0.00000E+00
 
    0.67063E+05         0.11230E+07         0.00000E+00
    0.11230E+07        -0.16700E+08         0.00000E+00
    0.00000E+00         0.00000E+00         0.00000E+00
 
    0.50424E+05         0.12113E+07         0.00000E+00
    0.12113E+07        -0.16709E+08         0.00000E+00
    0.00000E+00         0.00000E+00         0.00000E+00
 
    0.35222E+05         0.13005E+07         0.00000E+00
    0.13005E+07        -0.16718E+08         0.00000E+00
    0.00000E+00         0.00000E+00         0.00000E+00
 
    0.21406E+05         0.13907E+07         0.00000E+00
    0.13907E+07        -0.16727E+08         0.00000E+00
    0.00000E+00         0.00000E+00         0.00000E+00
 
    0.89189E+04         0.14819E+07         0.00000E+00
    0.14819E+07        -0.16737E+08         0.00000E+00
    0.00000E+00         0.00000E+00         0.00000E+00
 
   -0.22924E+04         0.15741E+07         0.00000E+00
    0.15741E+07        -0.16747E+08         0.00000E+00
    0.00000E+00         0.00000E+00         0.00000E+00
 
   -0.12283E+05         0.16674E+07         0.00000E+00
    0.16674E+07        -0.16757E+08         0.00000E+00
    0.00000E+00         0.00000E+00         0.00000E+00
 
   -0.21107E+05         0.17617E+07         0.00000E+00
    0.17617E+07        -0.16767E+08         0.00000E+00
    0.00000E+00         0.00000E+00         0.00000E+00
 
   -0.28820E+05         0.18571E+07         0.00000E+00
    0.18571E+07        -0.16778E+08         0.00000E+00
    0.00000E+00         0.00000E+00         0.00000E+00
 
   -0.35475E+05         0.19537E+07         0.00000E+00
    0.19537E+07        -0.16788E+08         0.00000E+00
    0.00000E+00         0.00000E+00         0.00000E+00
 
   -0.41128E+05         0.20514E+07         0.00000E+00
    0.20514E+07        -0.16799E+08         0.00000E+00
    0.00000E+00         0.00000E+00         0.00000E+00
 
   -0.45832E+05         0.21503E+07         0.00000E+00
    0.21503E+07        -0.16810E+08         0.00000E+00
    0.00000E+00         0.00000E+00         0.00000E+00
 
   -0.49640E+05         0.22503E+07         0.00000E+00
    0.22503E+07        -0.16821E+08         0.00000E+00
    0.00000E+00         0.00000E+00         0.00000E+00
 
   -0.52606E+05         0.23516E+07         0.00000E+00
    0.23516E+07        -0.16832E+08         0.00000E+00
    0.00000E+00         0.00000E+00         0.00000E+00
 
   -0.54783E+05         0.24541E+07         0.00000E+00
    0.24541E+07        -0.16843E+08         0.00000E+00
    0.00000E+00         0.00000E+00         0.00000E+00
 
   -0.56224E+05         0.25579E+07         0.00000E+00
    0.25579E+07        -0.16853E+08         0.00000E+00
    0.00000E+00         0.00000E+00         0.00000E+00
 
   -0.56979E+05         0.26629E+07         0.00000E+00
    0.26629E+07        -0.16864E+08         0.00000E+00
    0.00000E+00         0.00000E+00         0.00000E+00
 
   -0.57099E+05         0.27692E+07         0.00000E+00
    0.27692E+07        -0.16874E+08         0.00000E+00
    0.00000E+00         0.00000E+00         0.00000E+00
 
   -0.56637E+05         0.28768E+07         0.00000E+00
    0.28768E+07        -0.16885E+08         0.00000E+00
    0.00000E+00         0.00000E+00         0.00000E+00
 
   -0.55640E+05         0.29857E+07         0.00000E+00
    0.29857E+07        -0.16895E+08         0.00000E+00
    0.00000E+00         0.00000E+00         0.00000E+00
 
   -0.54159E+05         0.30959E+07         0.00000E+00
    0.30959E+07        -0.16905E+08         0.00000E+00
    0.00000E+00         0.00000E+00         0.00000E+00
 
   -0.52242E+05         0.32074E+07         0.00000E+00
    0.32074E+07        -0.16915E+08         0.00000E+00
    0.00000E+00         0.00000E+00         0.00000E+00
 
   -0.49937E+05         0.33203E+07         0.00000E+00
    0.33203E+07        -0.16924E+08         0.00000E+00
    0.00000E+00         0.00000E+00         0.00000E+00
 
   -0.47289E+05         0.34345E+07         0.00000E+00
    0.34345E+07        -0.16933E+08         0.00000E+00
    0.00000E+00         0.00000E+00         0.00000E+00
 
   -0.44346E+05         0.35501E+07         0.00000E+00
    0.35501E+07        -0.16942E+08         0.00000E+00
    0.00000E+00         0.00000E+00         0.00000E+00
 
   -0.41152E+05         0.36670E+07         0.00000E+00
    0.36670E+07        -0.16950E+08         0.00000E+00
    0.00000E+00         0.00000E+00         0.00000E+00
 
   -0.37752E+05         0.37853E+07         0.00000E+00
    0.37853E+07        -0.16958E+08         0.00000E+00
    0.00000E+00         0.00000E+00         0.00000E+00
 
   -0.34190E+05         0.39050E+07         0.00000E+00
    0.39050E+07        -0.16965E+08         0.00000E+00
    0.00000E+00         0.00000E+00         0.00000E+00
 
   -0.30507E+05         0.40260E+07         0.00000E+00
    0.40260E+07        -0.16972E+08         0.00000E+00
    0.00000E+00         0.00000E+00         0.00000E+00
 
   -0.26746E+05         0.41484E+07         0.00000E+00
    0.41484E+07        -0.16979E+08         0.00000E+00
    0.00000E+00         0.00000E+00         0.00000E+00
 
   -0.22948E+05         0.42723E+07         0.00000E+00
    0.42723E+07        -0.16985E+08         0.00000E+00
    0.00000E+00         0.00000E+00         0.00000E+00
 
   -0.19152E+05         0.43975E+07         0.00000E+00
    0.43975E+07        -0.16990E+08         0.00000E+00
    0.00000E+00         0.00000E+00         0.00000E+00
 
   -0.15398E+05         0.45241E+07         0.00000E+00
    0.45241E+07        -0.16995E+08         0.00000E+00
    0.00000E+00         0.00000E+00         0.00000E+00
 
   -0.11724E+05         0.46522E+07         0.00000E+00
    0.46522E+07        -0.16999E+08         0.00000E+00
    0.00000E+00         0.00000E+00         0.00000E+00
 
   -0.81677E+04         0.47816E+07         0.00000E+00
    0.47816E+07        -0.17003E+08         0.00000E+00
    0.00000E+00         0.00000E+00         0.00000E+00
 
   -0.47657E+04         0.49125E+07         0.00000E+00
    0.49125E+07        -0.17005E+08         0.00000E+00
    0.00000E+00         0.00000E+00         0.00000E+00
 
   -0.15539E+04         0.50448E+07         0.00000E+00
    0.50448E+07        -0.17008E+08         0.00000E+00
    0.00000E+00         0.00000E+00         0.00000E+00
 
    0.15045E+06         0.37698E+05         0.00000E+00
    0.37698E+05        -0.17315E+08         0.00000E+00
    0.00000E+00         0.00000E+00         0.00000E+00
 
    0.11218E+06         0.11402E+06         0.00000E+00
    0.11402E+06        -0.17316E+08         0.00000E+00
    0.00000E+00         0.00000E+00         0.00000E+00
 
    0.76289E+05         0.19077E+06         0.00000E+00
    0.19077E+06        -0.17318E+08         0.00000E+00
    0.00000E+00         0.00000E+00         0.00000E+00
 
    0.42733E+05         0.26801E+06         0.00000E+00
    0.26801E+06        -0.17321E+08         0.00000E+00
    0.00000E+00         0.00000E+00         0.00000E+00
 
    0.11458E+05         0.34581E+06         0.00000E+00
    0.34581E+06        -0.17325E+08         0.00000E+00
    0.00000E+00         0.00000E+00         0.00000E+00
 
   -0.17593E+05         0.42422E+06         0.00000E+00
    0.42422E+06        -0.17329E+08         0.00000E+00
    0.00000E+00         0.00000E+00         0.00000E+00
 
   -0.44474E+05         0.50330E+06         0.00000E+00
    0.50330E+06        -0.17335E+08         0.00000E+00
    0.00000E+00         0.00000E+00         0.00000E+00
 
   -0.69244E+05         0.58311E+06         0.00000E+00
    0.58311E+06        -0.17341E+08         0.00000E+00
    0.00000E+00         0.00000E+00         0.00000E+00
 
   -0.91961E+05         0.66369E+06         0.00000E+00
    0.66369E+06        -0.17348E+08         0.00000E+00
    0.00000E+00         0.00000E+00         0.00000E+00
 
   -0.11269E+06         0.74510E+06         0.00000E+00
    0.74510E+06        -0.17356E+08         0.00000E+00
    0.00000E+00         0.00000E+00         0.00000E+00
 
   -0.13148E+06         0.82740E+06         0.00000E+00
    0.82740E+06        -0.17364E+08         0.00000E+00
    0.00000E+00         0.00000E+00         0.00000E+00
 
   -0.14840E+06         0.91061E+06         0.00000E+00
    0.91061E+06        -0.17373E+08         0.00000E+00
    0.00000E+00         0.00000E+00         0.00000E+00
 
   -0.16351E+06         0.99479E+06         0.00000E+00
    0.99479E+06        -0.17382E+08         0.00000E+00
    0.00000E+00         0.00000E+00         0.00000E+00
 
   -0.17688E+06         0.10800E+07         0.00000E+00
    0.10800E+07        -0.17392E+08         0.00000E+00
    0.00000E+00         0.00000E+00         0.00000E+00
 
   -0.18856E+06         0.11662E+07         0.00000E+00
    0.11662E+07        -0.17403E+08         0.00000E+00
    0.00000E+00         0.00000E+00         0.00000E+00
 
   -0.19863E+06         0.12535E+07         0.00000E+00
    0.12535E+07        -0.17414E+08         0.00000E+00
    0.00000E+00         0.00000E+00         0.00000E+00
 
   -0.20714E+06         0.13420E+07         0.00000E+00
    0.13420E+07        -0.17425E+08         0.00000E+00
    0.00000E+00         0.00000E+00         0.00000E+00
 
   -0.21415E+06         0.14316E+07         0.00000E+00
    0.14316E+07        -0.17437E+08         0.00000E+00
    0.00000E+00         0.00000E+00         0.00000E+00
 
   -0.21974E+06         0.15224E+07         0.00000E+00
    0.15224E+07        -0.17449E+08         0.00000E+00
    0.00000E+00         0.00000E+00         0.00000E+00
 
   -0.22396E+06         0.16144E+07         0.00000E+00
    0.16144E+07        -0.17462E+08         0.00000E+00
    0.00000E+00         0.00000E+00         0.00000E+00
 
   -0.22688E+06         0.17076E+07         0.00000E+00
    0.17076E+07        -0.17475E+08         0.00000E+00
    0.00000E+00         0.00000E+00         0.00000E+00
 
   -0.22856E+06         0.18021E+07         0.00000E+00
    0.18021E+07        -0.17488E+08         0.00000E+00
    0.00000E+00         0.00000E+00         0.00000E+00
 
   -0.22907E+06         0.18980E+07         0.00000E+00
    0.18980E+07        -0.17501E+08         0.00000E+00
    0.00000E+00         0.00000E+00         0.00000E+00
 
   -0.22846E+06         0.19951E+07         0.00000E+00
    0.19951E+07        -0.17515E+08         0.00000E+00
    0.00000E+00         0.00000E+00         0.00000E+00
 
   -0.22679E+06         0.20935E+07         0.00000E+00
    0.20935E+07        -0.17528E+08         0.00000E+00
    0.00000E+00         0.00000E+00         0.00000E+00
 
   -0.22414E+06         0.21934E+07         0.00000E+00
    0.21934E+07        -0.17542E+08         0.00000E+00
    0.00000E+00         0.00000E+00         0.00000E+00
 
   -0.22055E+06         0.22946E+07         0.00000E+00
    0.22946E+07        -0.17556E+08         0.00000E+00
    0.00000E+00         0.00000E+00         0.00000E+00
 
   -0.21609E+06         0.23971E+07         0.00000E+00
    0.23971E+07        -0.17569E+08         0.00000E+00
    0.00000E+00         0.00000E+00         0.00000E+00
 
   -0.21081E+06         0.25011E+07         0.00000E+00
    0.25011E+07        -0.17583E+08         0.00000E+00
    0.00000E+00         0.00000E+00         0.00000E+00
 
   -0.20478E+06         0.26066E+07         0.00000E+00
    0.26066E+07        -0.17597E+08         0.00000E+00
    0.00000E+00         0.00000E+00         0.00000E+00
 
   -0.19805E+06         0.27134E+07         0.00000E+00
    0.27134E+07        -0.17610E+08         0.00000E+00
    0.00000E+00         0.00000E+00         0.00000E+00
 
   -0.19067E+06         0.28217E+07         0.00000E+00
    0.28217E+07        -0.17624E+08         0.00000E+00
    0.00000E+00         0.00000E+00         0.00000E+00
 
   -0.18271E+06         0.29315E+07         0.00000E+00
    0.29315E+07        -0.17637E+08         0.00000E+00
    0.00000E+00         0.00000E+00         0.00000E+00
 
   -0.17421E+06         0.30427E+07         0.00000E+00
    0.30427E+07        -0.17650E+08         0.00000E+00
    0.00000E+00         0.00000E+00         0.00000E+00
 
   -0.16523E+06         0.31554E+07         0.00000E+00
    0.31554E+07        -0.17663E+08         0.00000E+00
    0.00000E+00         0.00000E+00         0.00000E+00
 
   -0.15582E+06         0.32695E+07         0.00000E+00
    0.32695E+07        -0.17676E+08         0.00000E+00
    0.00000E+00         0.00000E+00         0.00000E+00
 
   -0.14603E+06         0.33852E+07         0.00000E+00
    0.33852E+07        -0.17688E+08         0.00000E+00
    0.00000E+00         0.00000E+00         0.00000E+00
 
   -0.13592E+06         0.35023E+07         0.00000E+00
    0.35023E+07        -0.17700E+08         0.00000E+00
    0.00000E+00         0.00000E+00         0.00000E+00
 
   -0.12552E+06         0.36210E+07         0.00000E+00
    0.36210E+07        -0.17712E+08         0.00000E+00
    0.00000E+00         0.00000E+00         0.00000E+00
 
   -0.11489E+06         0.37412E+07         0.00000E+00
    0.37412E+07        -0.17723E+08         0.00000E+00
    0.00000E+00         0.00000E+00         0.00000E+00
 
   -0.10407E+06         0.38628E+07         0.00000E+00
    0.38628E+07        -0.17734E+08         0.00000E+00
    0.00000E+00         0.00000E+00         0.00000E+00
 
   -0.93105E+05         0.39860E+07         0.00000E+00
    0.39860E+07        -0.17744E+08         0.00000E+00
    0.00000E+00         0.00000E+00         0.00000E+00
 
   -0.82044E+05         0.41107E+07         0.00000E+00
    0.41107E+07        -0.17754E+08         0.00000E+00
    0.00000E+00         0.00000E+00         0.00000E+00
 
   -0.70927E+05         0.42370E+07         0.00000E+00
    0.42370E+07        -0.17764E+08         0.00000E+00
    0.00000E+00         0.00000E+00         0.00000E+00
 
   -0.59794E+05         0.43647E+07         0.00000E+00
    0.43647E+07        -0.17773E+08         0.00000E+00
    0.00000E+00         0.00000E+00         0.00000E+00
 
   -0.48687E+05         0.44940E+07         0.00000E+00
    0.44940E+07        -0.17781E+08         0.00000E+00
    0.00000E+00         0.00000E+00         0.00000E+00
 
   -0.37643E+05         0.46248E+07         0.00000E+00
    0.46248E+07        -0.17789E+08         0.00000E+00
    0.00000E+00         0.00000E+00         0.00000E+00
 
   -0.26701E+05         0.47571E+07         0.00000E+00
    0.47571E+07        -0.17796E+08         0.00000E+00
    0.00000E+00         0.00000E+00         0.00000E+00
 
   -0.15898E+05         0.48910E+07         0.00000E+00
    0.48910E+07        -0.17803E+08         0.00000E+00
    0.00000E+00         0.00000E+00         0.00000E+00
 
   -0.52674E+04         0.50264E+07         0.00000E+00
    0.50264E+07        -0.17808E+08         0.00000E+00
    0.00000E+00         0.00000E+00         0.00000E+00
 
   -0.17556E+06         0.35080E+05         0.00000E+00
    0.35080E+05        -0.18010E+08         0.00000E+00
    0.00000E+00         0.00000E+00         0.00000E+00
 
   -0.21151E+06         0.10654E+06         0.00000E+00
    0.10654E+06        -0.18011E+08         0.00000E+00
    0.00000E+00         0.00000E+00         0.00000E+00
 
   -0.24474E+06         0.17857E+06         0.00000E+00
    0.17857E+06        -0.18014E+08         0.00000E+00
    0.00000E+00         0.00000E+00         0.00000E+00
 
   -0.27529E+06         0.25124E+06         0.00000E+00
    0.25124E+06        -0.18017E+08         0.00000E+00
    0.00000E+00         0.00000E+00         0.00000E+00
 
   -0.30324E+06         0.32463E+06         0.00000E+00
    0.32463E+06        -0.18022E+08         0.00000E+00
    0.00000E+00         0.00000E+00         0.00000E+00
 
   -0.32865E+06         0.39879E+06         0.00000E+00
    0.39879E+06        -0.18027E+08         0.00000E+00
    0.00000E+00         0.00000E+00         0.00000E+00
 
   -0.35160E+06         0.47379E+06         0.00000E+00
    0.47379E+06        -0.18033E+08         0.00000E+00
    0.00000E+00         0.00000E+00         0.00000E+00
 
   -0.37216E+06         0.54969E+06         0.00000E+00
    0.54969E+06        -0.18041E+08         0.00000E+00
    0.00000E+00         0.00000E+00         0.00000E+00
 
   -0.39039E+06         0.62655E+06         0.00000E+00
    0.62655E+06        -0.18049E+08         0.00000E+00
    0.00000E+00         0.00000E+00         0.00000E+00
 
   -0.40637E+06         0.70441E+06         0.00000E+00
    0.70441E+06        -0.18058E+08         0.00000E+00
    0.00000E+00         0.00000E+00         0.00000E+00
 
   -0.42017E+06         0.78333E+06         0.00000E+00
    0.78333E+06        -0.18068E+08         0.00000E+00
    0.00000E+00         0.00000E+00         0.00000E+00
 
   -0.43187E+06         0.86337E+06         0.00000E+00
    0.86337E+06        -0.18079E+08         0.00000E+00
    0.00000E+00         0.00000E+00         0.00000E+00
 
   -0.44153E+06         0.94455E+06         0.00000E+00
    0.94455E+06        -0.18090E+08         0.00000E+00
    0.00000E+00         0.00000E+00         0.00000E+00
 
   -0.44925E+06         0.10269E+07         0.00000E+00
    0.10269E+07        -0.18102E+08         0.00000E+00
    0.00000E+00         0.00000E+00         0.00000E+00
 
   -0.45508E+06         0.11106E+07         0.00000E+00
    0.11106E+07        -0.18115E+08         0.00000E+00
    0.00000E+00         0.00000E+00         0.00000E+00
 
   -0.45910E+06         0.11955E+07         0.00000E+00
    0.11955E+07        -0.18128E+08         0.00000E+00
    0.00000E+00         0.00000E+00         0.00000E+00
 
   -0.46140E+06         0.12817E+07         0.00000E+00
    0.12817E+07        -0.18142E+08         0.00000E+00
    0.00000E+00         0.00000E+00         0.00000E+00
 
   -0.46204E+06         0.13692E+07         0.00000E+00
    0.13692E+07        -0.18156E+08         0.00000E+00
    0.00000E+00         0.00000E+00         0.00000E+00
 
   -0.46109E+06         0.14581E+07         0.00000E+00
    0.14581E+07        -0.18171E+08         0.00000E+00
    0.00000E+00         0.00000E+00         0.00000E+00
 
   -0.45864E+06         0.15485E+07         0.00000E+00
    0.15485E+07        -0.18186E+08         0.00000E+00
    0.00000E+00         0.00000E+00         0.00000E+00
 
   -0.45475E+06         0.16402E+07         0.00000E+00
    0.16402E+07        -0.18202E+08         0.00000E+00
    0.00000E+00         0.00000E+00         0.00000E+00
 
   -0.44949E+06         0.17335E+07         0.00000E+00
    0.17335E+07        -0.18217E+08         0.00000E+00
    0.00000E+00         0.00000E+00         0.00000E+00
 
   -0.44295E+06         0.18282E+07         0.00000E+00
    0.18282E+07        -0.18234E+08         0.00000E+00
    0.00000E+00         0.00000E+00         0.00000E+00
 
   -0.43518E+06         0.19244E+07         0.00000E+00
    0.19244E+07        -0.18250E+08         0.00000E+00
    0.00000E+00         0.00000E+00         0.00000E+00
 
   -0.42626E+06         0.20221E+07         0.00000E+00
    0.20221E+07        -0.18266E+08         0.00000E+00
    0.00000E+00         0.00000E+00         0.00000E+00
 
   -0.41627E+06         0.21214E+07         0.00000E+00
    0.21214E+07        -0.18283E+08         0.00000E+00
    0.00000E+00         0.00000E+00         0.00000E+00
 
   -0.40525E+06         0.22222E+07         0.00000E+00
    0.22222E+07        -0.18300E+08         0.00000E+00
    0.00000E+00         0.00000E+00         0.00000E+00
 
   -0.39329E+06         0.23246E+07         0.00000E+00
    0.23246E+07        -0.18317E+08         0.00000E+00
    0.00000E+00         0.00000E+00         0.00000E+00
 
   -0.38045E+06         0.24286E+07         0.00000E+00
    0.24286E+07        -0.18334E+08         0.00000E+00
    0.00000E+00         0.00000E+00         0.00000E+00
 
   -0.36679E+06         0.25341E+07         0.00000E+00
    0.25341E+07        -0.18351E+08         0.00000E+00
    0.00000E+00         0.00000E+00         0.00000E+00
 
   -0.35238E+06         0.26413E+07         0.00000E+00
    0.26413E+07        -0.18367E+08         0.00000E+00
    0.00000E+00         0.00000E+00         0.00000E+00
 
   -0.33728E+06         0.27501E+07         0.00000E+00
    0.27501E+07        -0.18384E+08         0.00000E+00
    0.00000E+00         0.00000E+00         0.00000E+00
 
   -0.32155E+06         0.28605E+07         0.00000E+00
    0.28605E+07        -0.18401E+08         0.00000E+00
    0.00000E+00         0.00000E+00         0.00000E+00
 
   -0.30524E+06         0.29725E+07         0.00000E+00
    0.29725E+07        -0.18417E+08         0.00000E+00
    0.00000E+00         0.00000E+00         0.00000E+00
 
   -0.28843E+06         0.30862E+07         0.00000E+00
    0.30862E+07        -0.18434E+08         0.00000E+00
    0.00000E+00         0.00000E+00         0.00000E+00
 
   -0.27115E+06         0.32015E+07         0.00000E+00
    0.32015E+07        -0.18450E+08         0.00000E+00
    0.00000E+00         0.00000E+00         0.00000E+00
 
   -0.25347E+06         0.33185E+07         0.00000E+00
    0.33185E+07        -0.18466E+08         0.00000E+00
    0.00000E+00         0.00000E+00         0.00000E+00
 
   -0.23545E+06         0.34371E+07         0.00000E+00
    0.34371E+07        -0.18481E+08         0.00000E+00
    0.00000E+00         0.00000E+00         0.00000E+00
 
   -0.21713E+06         0.35573E+07         0.00000E+00
    0.35573E+07        -0.18497E+08         0.00000E+00
    0.00000E+00         0.00000E+00         0.00000E+00
 
   -0.19856E+06         0.36792E+07         0.00000E+00
    0.36792E+07        -0.18511E+08         0.00000E+00
    0.00000E+00         0.00000E+00         0.00000E+00
 
   -0.17979E+06         0.38027E+07         0.00000E+00
    0.38027E+07        -0.18526E+08         0.00000E+00
    0.00000E+00         0.00000E+00         0.00000E+00
 
   -0.16087E+06         0.39279E+07         0.00000E+00
    0.39279E+07        -0.18540E+08         0.00000E+00
    0.00000E+00         0.00000E+00         0.00000E+00
 
   -0.14185E+06         0.40547E+07         0.00000E+00
    0.40547E+07        -0.18554E+08         0.00000E+00
    0.00000E+00         0.00000E+00         0.00000E+00
 
   -0.12277E+06         0.41832E+07         0.00000E+00
    0.41832E+07        -0.18567E+08         0.00000E+00
    0.00000E+00         0.00000E+00         0.00000E+00
 
   -0.10367E+06         0.43134E+07         0.00000E+00
    0.43134E+07        -0.18580E+08         0.00000E+00
    0.00000E+00         0.00000E+00         0.00000E+00
 
   -0.84590E+05         0.44452E+07         0.00000E+00
    0.44452E+07        -0.18592E+08         0.00000E+00
    0.00000E+00         0.00000E+00         0.00000E+00
 
   -0.65573E+05         0.45786E+07         0.00000E+00
    0.45786E+07        -0.18604E+08         0.00000E+00
    0.00000E+00         0.00000E+00         0.00000E+00
 
   -0.46655E+05         0.47137E+07         0.00000E+00
    0.47137E+07        -0.18615E+08         0.00000E+00
    0.00000E+00         0.00000E+00         0.00000E+00
 
   -0.27873E+05         0.48504E+07         0.00000E+00
    0.48504E+07        -0.18625E+08         0.00000E+00
    0.00000E+00         0.00000E+00         0.00000E+00
 
   -0.92598E+04         0.49888E+07         0.00000E+00
    0.49888E+07        -0.18635E+08         0.00000E+00
    0.00000E+00         0.00000E+00         0.00000E+00
 
   -0.54440E+06         0.31903E+05         0.00000E+00
    0.31903E+05        -0.18721E+08         0.00000E+00
    0.00000E+00         0.00000E+00         0.00000E+00
 
   -0.57724E+06         0.97481E+05         0.00000E+00
    0.97481E+05        -0.18722E+08         0.00000E+00
    0.00000E+00         0.00000E+00         0.00000E+00
 
   -0.60696E+06         0.16381E+06         0.00000E+00
    0.16381E+06        -0.18725E+08         0.00000E+00
    0.00000E+00         0.00000E+00         0.00000E+00
 
   -0.63364E+06         0.23098E+06         0.00000E+00
    0.23098E+06        -0.18729E+08         0.00000E+00
    0.00000E+00         0.00000E+00         0.00000E+00
 
   -0.65737E+06         0.29905E+06         0.00000E+00
    0.29905E+06        -0.18734E+08         0.00000E+00
    0.00000E+00         0.00000E+00         0.00000E+00
 
   -0.67823E+06         0.36809E+06         0.00000E+00
    0.36809E+06        -0.18740E+08         0.00000E+00
    0.00000E+00         0.00000E+00         0.00000E+00
 
   -0.69630E+06         0.43818E+06         0.00000E+00
    0.43818E+06        -0.18748E+08         0.00000E+00
    0.00000E+00         0.00000E+00         0.00000E+00
 
   -0.71167E+06         0.50938E+06         0.00000E+00
    0.50938E+06        -0.18757E+08         0.00000E+00
    0.00000E+00         0.00000E+00         0.00000E+00
 
   -0.72443E+06         0.58174E+06         0.00000E+00
    0.58174E+06        -0.18766E+08         0.00000E+00
    0.00000E+00         0.00000E+00         0.00000E+00
 
   -0.73466E+06         0.65533E+06         0.00000E+00
    0.65533E+06        -0.18777E+08         0.00000E+00
    0.00000E+00         0.00000E+00         0.00000E+00
 
   -0.74246E+06         0.73019E+06         0.00000E+00
    0.73019E+06        -0.18789E+08         0.00000E+00
    0.00000E+00         0.00000E+00         0.00000E+00
 
   -0.74791E+06         0.80638E+06         0.00000E+00
    0.80638E+06        -0.18801E+08         0.00000E+00
    0.00000E+00         0.00000E+00         0.00000E+00
 
   -0.75111E+06         0.88393E+06         0.00000E+00
    0.88393E+06        -0.18815E+08         0.00000E+00
    0.00000E+00         0.00000E+00         0.00000E+00
 
   -0.75213E+06         0.96291E+06         0.00000E+00
    0.96291E+06        -0.18829E+08         0.00000E+00
    0.00000E+00         0.00000E+00         0.00000E+00
 
   -0.75107E+06         0.10433E+07         0.00000E+00
    0.10433E+07        -0.18844E+08         0.00000E+00
    0.00000E+00         0.00000E+00         0.00000E+00
 
   -0.74802E+06         0.11253E+07         0.00000E+00
    0.11253E+07        -0.18860E+08         0.00000E+00
    0.00000E+00         0.00000E+00         0.00000E+00
 
   -0.74306E+06         0.12087E+07         0.00000E+00
    0.12087E+07        -0.18876E+08         0.00000E+00
    0.00000E+00         0.00000E+00         0.00000E+00
 
   -0.73629E+06         0.12938E+07         0.00000E+00
    0.12938E+07        -0.18893E+08         0.00000E+00
    0.00000E+00         0.00000E+00         0.00000E+00
 
   -0.72778E+06         0.13804E+07         0.00000E+00
    0.13804E+07        -0.18910E+08         0.00000E+00
    0.00000E+00         0.00000E+00         0.00000E+00
 
   -0.71763E+06         0.14686E+07         0.00000E+00
    0.14686E+07        -0.18928E+08         0.00000E+00
    0.00000E+00         0.00000E+00         0.00000E+00
 
   -0.70591E+06         0.15585E+07         0.00000E+00
    0.15585E+07        -0.18946E+08         0.00000E+00
    0.00000E+00         0.00000E+00         0.00000E+00
 
   -0.69271E+06         0.16500E+07         0.00000E+00
    0.16500E+07        -0.18965E+08         0.00000E+00
    0.00000E+00         0.00000E+00         0.00000E+00
 
   -0.67812E+06         0.17433E+07         0.00000E+00
    0.17433E+07        -0.18984E+08         0.00000E+00
    0.00000E+00         0.00000E+00         0.00000E+00
 
   -0.66221E+06         0.18382E+07         0.00000E+00
    0.18382E+07        -0.19004E+08         0.00000E+00
    0.00000E+00         0.00000E+00         0.00000E+00
 
   -0.64506E+06         0.19349E+07         0.00000E+00
    0.19349E+07        -0.19023E+08         0.00000E+00
    0.00000E+00         0.00000E+00         0.00000E+00
 
   -0.62675E+06         0.20333E+07         0.00000E+00
    0.20333E+07        -0.19043E+08         0.00000E+00
    0.00000E+00         0.00000E+00         0.00000E+00
 
   -0.60736E+06         0.21335E+07         0.00000E+00
    0.21335E+07        -0.19063E+08         0.00000E+00
    0.00000E+00         0.00000E+00         0.00000E+00
 
   -0.58697E+06         0.22354E+07         0.00000E+00
    0.22354E+07        -0.19084E+08         0.00000E+00
    0.00000E+00         0.00000E+00         0.00000E+00
 
   -0.56564E+06         0.23391E+07         0.00000E+00
    0.23391E+07        -0.19104E+08         0.00000E+00
    0.00000E+00         0.00000E+00         0.00000E+00
 
   -0.54345E+06         0.24445E+07         0.00000E+00
    0.24445E+07        -0.19124E+08         0.00000E+00
    0.00000E+00         0.00000E+00         0.00000E+00
 
   -0.52047E+06         0.25518E+07         0.00000E+00
    0.25518E+07        -0.19145E+08         0.00000E+00
    0.00000E+00         0.00000E+00         0.00000E+00
 
   -0.49676E+06         0.26609E+07         0.00000E+00
    0.26609E+07        -0.19165E+08         0.00000E+00
    0.00000E+00         0.00000E+00         0.00000E+00
 
   -0.47240E+06         0.27717E+07         0.00000E+00
    0.27717E+07        -0.19185E+08         0.00000E+00
    0.00000E+00         0.00000E+00         0.00000E+00
 
   -0.44745E+06         0.28844E+07         0.00000E+00
    0.28844E+07        -0.19205E+08         0.00000E+00
    0.00000E+00         0.00000E+00         0.00000E+00
 
   -0.42197E+06         0.29988E+07         0.00000E+00
    0.29988E+07        -0.19225E+08         0.00000E+00
    0.00000E+00         0.00000E+00         0.00000E+00
 
   -0.39602E+06         0.31151E+07         0.00000E+00
    0.31151E+07        -0.19245E+08         0.00000E+00
    0.00000E+00         0.00000E+00         0.00000E+00
 
   -0.36967E+06         0.32331E+07         0.00000E+00
    0.32331E+07        -0.19265E+08         0.00000E+00
    0.00000E+00         0.00000E+00         0.00000E+00
 
   -0.34297E+06         0.33530E+07         0.00000E+00
    0.33530E+07        -0.19284E+08         0.00000E+00
    0.00000E+00         0.00000E+00         0.00000E+00
 
   -0.31597E+06         0.34747E+07         0.00000E+00
    0.34747E+07        -0.19303E+08         0.00000E+00
    0.00000E+00         0.00000E+00         0.00000E+00
 
   -0.28874E+06         0.35981E+07         0.00000E+00
    0.35981E+07        -0.19322E+08         0.00000E+00
    0.00000E+00         0.00000E+00         0.00000E+00
 
   -0.26131E+06         0.37234E+07         0.00000E+00
    0.37234E+07        -0.19340E+08         0.00000E+00
    0.00000E+00         0.00000E+00         0.00000E+00
 
   -0.23375E+06         0.38504E+07         0.00000E+00
    0.38504E+07        -0.19358E+08         0.00000E+00
    0.00000E+00         0.00000E+00         0.00000E+00
 
   -0.20609E+06         0.39792E+07         0.00000E+00
    0.39792E+07        -0.19376E+08         0.00000E+00
    0.00000E+00         0.00000E+00         0.00000E+00
 
   -0.17839E+06         0.41099E+07         0.00000E+00
    0.41099E+07        -0.19393E+08         0.00000E+00
    0.00000E+00         0.00000E+00         0.00000E+00
 
   -0.15069E+06         0.42422E+07         0.00000E+00
    0.42422E+07        -0.19410E+08         0.00000E+00
    0.00000E+00         0.00000E+00         0.00000E+00
 
   -0.12303E+06         0.43764E+07         0.00000E+00
    0.43764E+07        -0.19426E+08         0.00000E+00
    0.00000E+00         0.00000E+00         0.00000E+00
 
   -0.95440E+05         0.45123E+07         0.00000E+00
    0.45123E+07        -0.19442E+08         0.00000E+00
    0.00000E+00         0.00000E+00         0.00000E+00
 
   -0.67971E+05         0.46500E+07         0.00000E+00
    0.46500E+07        -0.19457E+08         0.00000E+00
    0.00000E+00         0.00000E+00         0.00000E+00
 
   -0.40652E+05         0.47895E+07         0.00000E+00
    0.47895E+07        -0.19472E+08         0.00000E+00
    0.00000E+00         0.00000E+00         0.00000E+00
 
   -0.13517E+05         0.49307E+07         0.00000E+00
    0.49307E+07        -0.19486E+08         0.00000E+00
    0.00000E+00         0.00000E+00         0.00000E+00
 
   -0.96068E+06         0.28100E+05         0.00000E+00
    0.28100E+05        -0.19446E+08         0.00000E+00
    0.00000E+00         0.00000E+00         0.00000E+00
 
   -0.98939E+06         0.86673E+05         0.00000E+00
    0.86673E+05        -0.19447E+08         0.00000E+00
    0.00000E+00         0.00000E+00         0.00000E+00
 
   -0.10146E+07         0.14623E+06         0.00000E+00
    0.14623E+06        -0.19451E+08         0.00000E+00
    0.00000E+00         0.00000E+00         0.00000E+00
 
   -0.10363E+07         0.20685E+06         0.00000E+00
    0.20685E+06        -0.19455E+08         0.00000E+00
    0.00000E+00         0.00000E+00         0.00000E+00
 
   -0.10547E+07         0.26862E+06         0.00000E+00
    0.26862E+06        -0.19461E+08         0.00000E+00
    0.00000E+00         0.00000E+00         0.00000E+00
 
   -0.10699E+07         0.33161E+06         0.00000E+00
    0.33161E+06        -0.19469E+08         0.00000E+00
    0.00000E+00         0.00000E+00         0.00000E+00
 
   -0.10819E+07         0.39590E+06         0.00000E+00
    0.39590E+06        -0.19478E+08         0.00000E+00
    0.00000E+00         0.00000E+00         0.00000E+00
 
   -0.10910E+07         0.46154E+06         0.00000E+00
    0.46154E+06        -0.19488E+08         0.00000E+00
    0.00000E+00         0.00000E+00         0.00000E+00
 
   -0.10971E+07         0.52859E+06         0.00000E+00
    0.52859E+06        -0.19499E+08         0.00000E+00
    0.00000E+00         0.00000E+00         0.00000E+00
 
   -0.11004E+07         0.59713E+06         0.00000E+00
    0.59713E+06        -0.19512E+08         0.00000E+00
    0.00000E+00         0.00000E+00         0.00000E+00
 
   -0.11010E+07         0.66720E+06         0.00000E+00
    0.66720E+06        -0.19525E+08         0.00000E+00
    0.00000E+00         0.00000E+00         0.00000E+00
 
   -0.10990E+07         0.73885E+06         0.00000E+00
    0.73885E+06        -0.19540E+08         0.00000E+00
    0.00000E+00         0.00000E+00         0.00000E+00
 
   -0.10945E+07         0.81212E+06         0.00000E+00
    0.81212E+06        -0.19555E+08         0.00000E+00
    0.00000E+00         0.00000E+00         0.00000E+00
 
   -0.10876E+07         0.88707E+06         0.00000E+00
    0.88707E+06        -0.19572E+08         0.00000E+00
    0.00000E+00         0.00000E+00         0.00000E+00
 
   -0.10785E+07         0.96373E+06         0.00000E+00
    0.96373E+06        -0.19589E+08         0.00000E+00
    0.00000E+00         0.00000E+00         0.00000E+00
 
   -0.10672E+07         0.10421E+07         0.00000E+00
    0.10421E+07        -0.19608E+08         0.00000E+00
    0.00000E+00         0.00000E+00         0.00000E+00
 
   -0.10538E+07         0.11223E+07         0.00000E+00
    0.11223E+07        -0.19626E+08         0.00000E+00
    0.00000E+00         0.00000E+00         0.00000E+00
 
   -0.10384E+07         0.12043E+07         0.00000E+00
    0.12043E+07        -0.19646E+08         0.00000E+00
    0.00000E+00         0.00000E+00         0.00000E+00
 
   -0.10212E+07         0.12881E+07         0.00000E+00
    0.12881E+07        -0.19666E+08         0.00000E+00
    0.00000E+00         0.00000E+00         0.00000E+00
 
   -0.10022E+07         0.13738E+07         0.00000E+00
    0.13738E+07        -0.19687E+08         0.00000E+00
    0.00000E+00         0.00000E+00         0.00000E+00
 
   -0.98152E+06         0.14614E+07         0.00000E+00
    0.14614E+07        -0.19708E+08         0.00000E+00
    0.00000E+00         0.00000E+00         0.00000E+00
 
   -0.95926E+06         0.15509E+07         0.00000E+00
    0.15509E+07        -0.19730E+08         0.00000E+00
    0.00000E+00         0.00000E+00         0.00000E+00
 
   -0.93551E+06         0.16423E+07         0.00000E+00
    0.16423E+07        -0.19753E+08         0.00000E+00
    0.00000E+00         0.00000E+00         0.00000E+00
 
   -0.91037E+06         0.17356E+07         0.00000E+00
    0.17356E+07        -0.19775E+08         0.00000E+00
    0.00000E+00         0.00000E+00         0.00000E+00
 
   -0.88392E+06         0.18309E+07         0.00000E+00
    0.18309E+07        -0.19798E+08         0.00000E+00
    0.00000E+00         0.00000E+00         0.00000E+00
 
   -0.85625E+06         0.19281E+07         0.00000E+00
    0.19281E+07        -0.19821E+08         0.00000E+00
    0.00000E+00         0.00000E+00         0.00000E+00
 
   -0.82745E+06         0.20273E+07         0.00000E+00
    0.20273E+07        -0.19845E+08         0.00000E+00
    0.00000E+00         0.00000E+00         0.00000E+00
 
   -0.79760E+06         0.21285E+07         0.00000E+00
    0.21285E+07        -0.19869E+08         0.00000E+00
    0.00000E+00         0.00000E+00         0.00000E+00
 
   -0.76678E+06         0.22316E+07         0.00000E+00
    0.22316E+07        -0.19892E+08         0.00000E+00
    0.00000E+00         0.00000E+00         0.00000E+00
 
   -0.73508E+06         0.23368E+07         0.00000E+00
    0.23368E+07        -0.19916E+08         0.00000E+00
    0.00000E+00         0.00000E+00         0.00000E+00
 
   -0.70257E+06         0.24439E+07         0.00000E+00
    0.24439E+07        -0.19940E+08         0.00000E+00
    0.00000E+00         0.00000E+00         0.00000E+00
 
   -0.66933E+06         0.25530E+07         0.00000E+00
    0.25530E+07        -0.19964E+08         0.00000E+00
    0.00000E+00         0.00000E+00         0.00000E+00
 
   -0.63543E+06         0.26641E+07         0.00000E+00
    0.26641E+07        -0.19988E+08         0.00000E+00
    0.00000E+00         0.00000E+00         0.00000E+00
 
   -0.60094E+06         0.27771E+07         0.00000E+00
    0.27771E+07        -0.20012E+08         0.00000E+00
    0.00000E+00         0.00000E+00         0.00000E+00
 
   -0.56593E+06         0.28922E+07         0.00000E+00
    0.28922E+07        -0.20036E+08         0.00000E+00
    0.00000E+00         0.00000E+00         0.00000E+00
 
   -0.53047E+06         0.30092E+07         0.00000E+00
    0.30092E+07        -0.20060E+08         0.00000E+00
    0.00000E+00         0.00000E+00         0.00000E+00
 
   -0.49462E+06         0.31282E+07         0.00000E+00
    0.31282E+07        -0.20083E+08         0.00000E+00
    0.00000E+00         0.00000E+00         0.00000E+00
 
   -0.45844E+06         0.32491E+07         0.00000E+00
    0.32491E+07        -0.20107E+08         0.00000E+00
    0.00000E+00         0.00000E+00         0.00000E+00
 
   -0.42199E+06         0.33721E+07         0.00000E+00
    0.33721E+07        -0.20130E+08         0.00000E+00
    0.00000E+00         0.00000E+00         0.00000E+00
 
   -0.38534E+06         0.34969E+07         0.00000E+00
    0.34969E+07        -0.20153E+08         0.00000E+00
    0.00000E+00         0.00000E+00         0.00000E+00
 
   -0.34853E+06         0.36237E+07         0.00000E+00
    0.36237E+07        -0.20175E+08         0.00000E+00
    0.00000E+00         0.00000E+00         0.00000E+00
 
   -0.31161E+06         0.37525E+07         0.00000E+00
    0.37525E+07        -0.20197E+08         0.00000E+00
    0.00000E+00         0.00000E+00         0.00000E+00
 
   -0.27465E+06         0.38831E+07         0.00000E+00
    0.38831E+07        -0.20219E+08         0.00000E+00
    0.00000E+00         0.00000E+00         0.00000E+00
 
   -0.23767E+06         0.40157E+07         0.00000E+00
    0.40157E+07        -0.20240E+08         0.00000E+00
    0.00000E+00         0.00000E+00         0.00000E+00
 
   -0.20074E+06         0.41502E+07         0.00000E+00
    0.41502E+07        -0.20261E+08         0.00000E+00
    0.00000E+00         0.00000E+00         0.00000E+00
 
   -0.16388E+06         0.42865E+07         0.00000E+00
    0.42865E+07        -0.20282E+08         0.00000E+00
    0.00000E+00         0.00000E+00         0.00000E+00
 
   -0.12715E+06         0.44248E+07         0.00000E+00
    0.44248E+07        -0.20302E+08         0.00000E+00
    0.00000E+00         0.00000E+00         0.00000E+00
 
   -0.90571E+05         0.45649E+07         0.00000E+00
    0.45649E+07        -0.20322E+08         0.00000E+00
    0.00000E+00         0.00000E+00         0.00000E+00
 
   -0.54185E+05         0.47070E+07         0.00000E+00
    0.47070E+07        -0.20341E+08         0.00000E+00
    0.00000E+00         0.00000E+00         0.00000E+00
 
   -0.18022E+05         0.48508E+07         0.00000E+00
    0.48508E+07        -0.20359E+08         0.00000E+00
    0.00000E+00         0.00000E+00         0.00000E+00
 
   -0.14294E+07         0.23602E+05         0.00000E+00
    0.23602E+05        -0.20185E+08         0.00000E+00
    0.00000E+00         0.00000E+00         0.00000E+00
 
   -0.14528E+07         0.73945E+05         0.00000E+00
    0.73945E+05        -0.20187E+08         0.00000E+00
    0.00000E+00         0.00000E+00         0.00000E+00
 
   -0.14721E+07         0.12556E+06         0.00000E+00
    0.12556E+06        -0.20190E+08         0.00000E+00
    0.00000E+00         0.00000E+00         0.00000E+00
 
   -0.14875E+07         0.17853E+06         0.00000E+00
    0.17853E+06        -0.20196E+08         0.00000E+00
    0.00000E+00         0.00000E+00         0.00000E+00
 
   -0.14993E+07         0.23295E+06         0.00000E+00
    0.23295E+06        -0.20203E+08         0.00000E+00
    0.00000E+00         0.00000E+00         0.00000E+00
 
   -0.15074E+07         0.28888E+06         0.00000E+00
    0.28888E+06        -0.20211E+08         0.00000E+00
    0.00000E+00         0.00000E+00         0.00000E+00
 
   -0.15120E+07         0.34641E+06         0.00000E+00
    0.34641E+06        -0.20222E+08         0.00000E+00
    0.00000E+00         0.00000E+00         0.00000E+00
 
   -0.15133E+07         0.40560E+06         0.00000E+00
    0.40560E+06        -0.20233E+08         0.00000E+00
    0.00000E+00         0.00000E+00         0.00000E+00
 
   -0.15114E+07         0.46651E+06         0.00000E+00
    0.46651E+06        -0.20246E+08         0.00000E+00
    0.00000E+00         0.00000E+00         0.00000E+00
 
   -0.15064E+07         0.52919E+06         0.00000E+00
    0.52919E+06        -0.20261E+08         0.00000E+00
    0.00000E+00         0.00000E+00         0.00000E+00
 
   -0.14984E+07         0.59371E+06         0.00000E+00
    0.59371E+06        -0.20276E+08         0.00000E+00
    0.00000E+00         0.00000E+00         0.00000E+00
 
   -0.14875E+07         0.66011E+06         0.00000E+00
    0.66011E+06        -0.20293E+08         0.00000E+00
    0.00000E+00         0.00000E+00         0.00000E+00
 
   -0.14740E+07         0.72843E+06         0.00000E+00
    0.72843E+06        -0.20311E+08         0.00000E+00
    0.00000E+00         0.00000E+00         0.00000E+00
 
   -0.14579E+07         0.79872E+06         0.00000E+00
    0.79872E+06        -0.20330E+08         0.00000E+00
    0.00000E+00         0.00000E+00         0.00000E+00
 
   -0.14393E+07         0.87101E+06         0.00000E+00
    0.87101E+06        -0.20350E+08         0.00000E+00
    0.00000E+00         0.00000E+00         0.00000E+00
 
   -0.14184E+07         0.94533E+06         0.00000E+00
    0.94533E+06        -0.20370E+08         0.00000E+00
    0.00000E+00         0.00000E+00         0.00000E+00
 
   -0.13952E+07         0.10217E+07         0.00000E+00
    0.10217E+07        -0.20392E+08         0.00000E+00
    0.00000E+00         0.00000E+00         0.00000E+00
 
   -0.13699E+07         0.11002E+07         0.00000E+00
    0.11002E+07        -0.20414E+08         0.00000E+00
    0.00000E+00         0.00000E+00         0.00000E+00
 
   -0.13427E+07         0.11808E+07         0.00000E+00
    0.11808E+07        -0.20438E+08         0.00000E+00
    0.00000E+00         0.00000E+00         0.00000E+00
 
   -0.13135E+07         0.12635E+07         0.00000E+00
    0.12635E+07        -0.20461E+08         0.00000E+00
    0.00000E+00         0.00000E+00         0.00000E+00
 
   -0.12826E+07         0.13483E+07         0.00000E+00
    0.13483E+07        -0.20486E+08         0.00000E+00
    0.00000E+00         0.00000E+00         0.00000E+00
 
   -0.12501E+07         0.14353E+07         0.00000E+00
    0.14353E+07        -0.20511E+08         0.00000E+00
    0.00000E+00         0.00000E+00         0.00000E+00
 
   -0.12160E+07         0.15245E+07         0.00000E+00
    0.15245E+07        -0.20536E+08         0.00000E+00
    0.00000E+00         0.00000E+00         0.00000E+00
 
   -0.11804E+07         0.16159E+07         0.00000E+00
    0.16159E+07        -0.20562E+08         0.00000E+00
    0.00000E+00         0.00000E+00         0.00000E+00
 
   -0.11435E+07         0.17094E+07         0.00000E+00
    0.17094E+07        -0.20589E+08         0.00000E+00
    0.00000E+00         0.00000E+00         0.00000E+00
 
   -0.11053E+07         0.18052E+07         0.00000E+00
    0.18052E+07        -0.20615E+08         0.00000E+00
    0.00000E+00         0.00000E+00         0.00000E+00
 
   -0.10660E+07         0.19031E+07         0.00000E+00
    0.19031E+07        -0.20642E+08         0.00000E+00
    0.00000E+00         0.00000E+00         0.00000E+00
 
   -0.10256E+07         0.20032E+07         0.00000E+00
    0.20032E+07        -0.20670E+08         0.00000E+00
    0.00000E+00         0.00000E+00         0.00000E+00
 
   -0.98423E+06         0.21056E+07         0.00000E+00
    0.21056E+07        -0.20697E+08         0.00000E+00
    0.00000E+00         0.00000E+00         0.00000E+00
 
   -0.94198E+06         0.22101E+07         0.00000E+00
    0.22101E+07        -0.20725E+08         0.00000E+00
    0.00000E+00         0.00000E+00         0.00000E+00
 
   -0.89893E+06         0.23168E+07         0.00000E+00
    0.23168E+07        -0.20752E+08         0.00000E+00
    0.00000E+00         0.00000E+00         0.00000E+00
 
   -0.85517E+06         0.24257E+07         0.00000E+00
    0.24257E+07        -0.20780E+08         0.00000E+00
    0.00000E+00         0.00000E+00         0.00000E+00
 
   -0.81077E+06         0.25368E+07         0.00000E+00
    0.25368E+07        -0.20808E+08         0.00000E+00
    0.00000E+00         0.00000E+00         0.00000E+00
 
   -0.76580E+06         0.26500E+07         0.00000E+00
    0.26500E+07        -0.20836E+08         0.00000E+00
    0.00000E+00         0.00000E+00         0.00000E+00
 
   -0.72036E+06         0.27655E+07         0.00000E+00
    0.27655E+07        -0.20864E+08         0.00000E+00
    0.00000E+00         0.00000E+00         0.00000E+00
 
   -0.67450E+06         0.28830E+07         0.00000E+00
    0.28830E+07        -0.20891E+08         0.00000E+00
    0.00000E+00         0.00000E+00         0.00000E+00
 
   -0.62829E+06         0.30027E+07         0.00000E+00
    0.30027E+07        -0.20919E+08         0.00000E+00
    0.00000E+00         0.00000E+00         0.00000E+00
 
   -0.58181E+06         0.31246E+07         0.00000E+00
    0.31246E+07        -0.20946E+08         0.00000E+00
    0.00000E+00         0.00000E+00         0.00000E+00
 
   -0.53512E+06         0.32486E+07         0.00000E+00
    0.32486E+07        -0.20974E+08         0.00000E+00
    0.00000E+00         0.00000E+00         0.00000E+00
 
   -0.48827E+06         0.33746E+07         0.00000E+00
    0.33746E+07        -0.21001E+08         0.00000E+00
    0.00000E+00         0.00000E+00         0.00000E+00
 
   -0.44133E+06         0.35028E+07         0.00000E+00
    0.35028E+07        -0.21027E+08         0.00000E+00
    0.00000E+00         0.00000E+00         0.00000E+00
 
   -0.39435E+06         0.36330E+07         0.00000E+00
    0.36330E+07        -0.21054E+08         0.00000E+00
    0.00000E+00         0.00000E+00         0.00000E+00
 
   -0.34738E+06         0.37654E+07         0.00000E+00
    0.37654E+07        -0.21080E+08         0.00000E+00
    0.00000E+00         0.00000E+00         0.00000E+00
 
   -0.30048E+06         0.38997E+07         0.00000E+00
    0.38997E+07        -0.21106E+08         0.00000E+00
    0.00000E+00         0.00000E+00         0.00000E+00
 
   -0.25368E+06         0.40361E+07         0.00000E+00
    0.40361E+07        -0.21131E+08         0.00000E+00
    0.00000E+00         0.00000E+00         0.00000E+00
 
   -0.20704E+06         0.41745E+07         0.00000E+00
    0.41745E+07        -0.21156E+08         0.00000E+00
    0.00000E+00         0.00000E+00         0.00000E+00
 
   -0.16059E+06         0.43149E+07         0.00000E+00
    0.43149E+07        -0.21181E+08         0.00000E+00
    0.00000E+00         0.00000E+00         0.00000E+00
 
   -0.11437E+06         0.44573E+07         0.00000E+00
    0.44573E+07        -0.21205E+08         0.00000E+00
    0.00000E+00         0.00000E+00         0.00000E+00
 
   -0.68415E+05         0.46017E+07         0.00000E+00
    0.46017E+07        -0.21229E+08         0.00000E+00
    0.00000E+00         0.00000E+00         0.00000E+00
 
   -0.22754E+05         0.47480E+07         0.00000E+00
    0.47480E+07        -0.21252E+08         0.00000E+00
    0.00000E+00         0.00000E+00         0.00000E+00
 
   -0.19561E+07         0.18345E+05         0.00000E+00
    0.18345E+05        -0.20936E+08         0.00000E+00
    0.00000E+00         0.00000E+00         0.00000E+00
 
   -0.19724E+07         0.59143E+05         0.00000E+00
    0.59143E+05        -0.20938E+08         0.00000E+00
    0.00000E+00         0.00000E+00         0.00000E+00
 
   -0.19843E+07         0.10157E+06         0.00000E+00
    0.10157E+06        -0.20943E+08         0.00000E+00
    0.00000E+00         0.00000E+00         0.00000E+00
 
   -0.19918E+07         0.14572E+06         0.00000E+00
    0.14572E+06        -0.20949E+08         0.00000E+00
    0.00000E+00         0.00000E+00         0.00000E+00
 
   -0.19952E+07         0.19168E+06         0.00000E+00
    0.19168E+06        -0.20957E+08         0.00000E+00
    0.00000E+00         0.00000E+00         0.00000E+00
 
   -0.19946E+07         0.23952E+06         0.00000E+00
    0.23952E+06        -0.20967E+08         0.00000E+00
    0.00000E+00         0.00000E+00         0.00000E+00
 
   -0.19902E+07         0.28931E+06         0.00000E+00
    0.28931E+06        -0.20978E+08         0.00000E+00
    0.00000E+00         0.00000E+00         0.00000E+00
 
   -0.19821E+07         0.34113E+06         0.00000E+00
    0.34113E+06        -0.20992E+08         0.00000E+00
    0.00000E+00         0.00000E+00         0.00000E+00
 
   -0.19704E+07         0.39503E+06         0.00000E+00
    0.39503E+06        -0.21006E+08         0.00000E+00
    0.00000E+00         0.00000E+00         0.00000E+00
 
   -0.19554E+07         0.45106E+06         0.00000E+00
    0.45106E+06        -0.21023E+08         0.00000E+00
    0.00000E+00         0.00000E+00         0.00000E+00
 
   -0.19372E+07         0.50927E+06         0.00000E+00
    0.50927E+06        -0.21040E+08         0.00000E+00
    0.00000E+00         0.00000E+00         0.00000E+00
 
   -0.19159E+07         0.56971E+06         0.00000E+00
    0.56971E+06        -0.21059E+08         0.00000E+00
    0.00000E+00         0.00000E+00         0.00000E+00
 
   -0.18917E+07         0.63242E+06         0.00000E+00
    0.63242E+06        -0.21079E+08         0.00000E+00
    0.00000E+00         0.00000E+00         0.00000E+00
 
   -0.18648E+07         0.69743E+06         0.00000E+00
    0.69743E+06        -0.21101E+08         0.00000E+00
    0.00000E+00         0.00000E+00         0.00000E+00
 
   -0.18352E+07         0.76476E+06         0.00000E+00
    0.76476E+06        -0.21123E+08         0.00000E+00
    0.00000E+00         0.00000E+00         0.00000E+00
 
   -0.18031E+07         0.83445E+06         0.00000E+00
    0.83445E+06        -0.21147E+08         0.00000E+00
    0.00000E+00         0.00000E+00         0.00000E+00
 
   -0.17687E+07         0.90652E+06         0.00000E+00
    0.90652E+06        -0.21171E+08         0.00000E+00
    0.00000E+00         0.00000E+00         0.00000E+00
 
   -0.17321E+07         0.98098E+06         0.00000E+00
    0.98098E+06        -0.21196E+08         0.00000E+00
    0.00000E+00         0.00000E+00         0.00000E+00
 
   -0.16934E+07         0.10579E+07         0.00000E+00
    0.10579E+07        -0.21222E+08         0.00000E+00
    0.00000E+00         0.00000E+00         0.00000E+00
 
   -0.16527E+07         0.11371E+07         0.00000E+00
    0.11371E+07        -0.21249E+08         0.00000E+00
    0.00000E+00         0.00000E+00         0.00000E+00
 
   -0.16102E+07         0.12189E+07         0.00000E+00
    0.12189E+07        -0.21277E+08         0.00000E+00
    0.00000E+00         0.00000E+00         0.00000E+00
 
   -0.15660E+07         0.13030E+07         0.00000E+00
    0.13030E+07        -0.21305E+08         0.00000E+00
    0.00000E+00         0.00000E+00         0.00000E+00
 
   -0.15202E+07         0.13896E+07         0.00000E+00
    0.13896E+07        -0.21334E+08         0.00000E+00
    0.00000E+00         0.00000E+00         0.00000E+00
 
   -0.14729E+07         0.14787E+07         0.00000E+00
    0.14787E+07        -0.21363E+08         0.00000E+00
    0.00000E+00         0.00000E+00         0.00000E+00
 
   -0.14243E+07         0.15702E+07         0.00000E+00
    0.15702E+07        -0.21393E+08         0.00000E+00
    0.00000E+00         0.00000E+00         0.00000E+00
 
   -0.13744E+07         0.16641E+07         0.00000E+00
    0.16641E+07        -0.21423E+08         0.00000E+00
    0.00000E+00         0.00000E+00         0.00000E+00
 
   -0.13234E+07         0.17605E+07         0.00000E+00
    0.17605E+07        -0.21453E+08         0.00000E+00
    0.00000E+00         0.00000E+00         0.00000E+00
 
   -0.12713E+07         0.18592E+07         0.00000E+00
    0.18592E+07        -0.21484E+08         0.00000E+00
    0.00000E+00         0.00000E+00         0.00000E+00
 
   -0.12183E+07         0.19605E+07         0.00000E+00
    0.19605E+07        -0.21515E+08         0.00000E+00
    0.00000E+00         0.00000E+00         0.00000E+00
 
   -0.11644E+07         0.20641E+07         0.00000E+00
    0.20641E+07        -0.21547E+08         0.00000E+00
    0.00000E+00         0.00000E+00         0.00000E+00
 
   -0.11098E+07         0.21701E+07         0.00000E+00
    0.21701E+07        -0.21578E+08         0.00000E+00
    0.00000E+00         0.00000E+00         0.00000E+00
 
   -0.10544E+07         0.22786E+07         0.00000E+00
    0.22786E+07        -0.21610E+08         0.00000E+00
    0.00000E+00         0.00000E+00         0.00000E+00
 
   -0.99854E+06         0.23894E+07         0.00000E+00
    0.23894E+07        -0.21641E+08         0.00000E+00
    0.00000E+00         0.00000E+00         0.00000E+00
 
   -0.94214E+06         0.25026E+07         0.00000E+00
    0.25026E+07        -0.21673E+08         0.00000E+00
    0.00000E+00         0.00000E+00         0.00000E+00
 
   -0.88532E+06         0.26181E+07         0.00000E+00
    0.26181E+07        -0.21705E+08         0.00000E+00
    0.00000E+00         0.00000E+00         0.00000E+00
 
   -0.82815E+06         0.27360E+07         0.00000E+00
    0.27360E+07        -0.21737E+08         0.00000E+00
    0.00000E+00         0.00000E+00         0.00000E+00
 
   -0.77071E+06         0.28562E+07         0.00000E+00
    0.28562E+07        -0.21768E+08         0.00000E+00
    0.00000E+00         0.00000E+00         0.00000E+00
 
   -0.71307E+06         0.29787E+07         0.00000E+00
    0.29787E+07        -0.21800E+08         0.00000E+00
    0.00000E+00         0.00000E+00         0.00000E+00
 
   -0.65531E+06         0.31035E+07         0.00000E+00
    0.31035E+07        -0.21832E+08         0.00000E+00
    0.00000E+00         0.00000E+00         0.00000E+00
 
   -0.59748E+06         0.32305E+07         0.00000E+00
    0.32305E+07        -0.21863E+08         0.00000E+00
    0.00000E+00         0.00000E+00         0.00000E+00
 
   -0.53964E+06         0.33598E+07         0.00000E+00
    0.33598E+07        -0.21894E+08         0.00000E+00
    0.00000E+00         0.00000E+00         0.00000E+00
 
   -0.48187E+06         0.34914E+07         0.00000E+00
    0.34914E+07        -0.21925E+08         0.00000E+00
    0.00000E+00         0.00000E+00         0.00000E+00
 
   -0.42420E+06         0.36251E+07         0.00000E+00
    0.36251E+07        -0.21955E+08         0.00000E+00
    0.00000E+00         0.00000E+00         0.00000E+00
 
   -0.36671E+06         0.37611E+07         0.00000E+00
    0.37611E+07        -0.21986E+08         0.00000E+00
    0.00000E+00         0.00000E+00         0.00000E+00
 
   -0.30942E+06         0.38991E+07         0.00000E+00
    0.38991E+07        -0.22016E+08         0.00000E+00
    0.00000E+00         0.00000E+00         0.00000E+00
 
   -0.25240E+06         0.40394E+07         0.00000E+00
    0.40394E+07        -0.22045E+08         0.00000E+00
    0.00000E+00         0.00000E+00         0.00000E+00
 
   -0.19568E+06         0.41817E+07         0.00000E+00
    0.41817E+07        -0.22075E+08         0.00000E+00
    0.00000E+00         0.00000E+00         0.00000E+00
 
   -0.13930E+06         0.43262E+07         0.00000E+00
    0.43262E+07        -0.22104E+08         0.00000E+00
    0.00000E+00         0.00000E+00         0.00000E+00
 
   -0.83293E+05         0.44727E+07         0.00000E+00
    0.44727E+07        -0.22132E+08         0.00000E+00
    0.00000E+00         0.00000E+00         0.00000E+00
 
   -0.27694E+05         0.46212E+07         0.00000E+00
    0.46212E+07        -0.22160E+08         0.00000E+00
    0.00000E+00         0.00000E+00         0.00000E+00
 
   -0.25464E+07         0.12271E+05         0.00000E+00
    0.12271E+05        -0.21699E+08         0.00000E+00
    0.00000E+00         0.00000E+00         0.00000E+00
 
   -0.25537E+07         0.42146E+05         0.00000E+00
    0.42146E+05        -0.21702E+08         0.00000E+00
    0.00000E+00         0.00000E+00         0.00000E+00
 
   -0.25561E+07         0.74098E+05         0.00000E+00
    0.74098E+05        -0.21707E+08         0.00000E+00
    0.00000E+00         0.00000E+00         0.00000E+00
 
   -0.25537E+07         0.10822E+06         0.00000E+00
    0.10822E+06        -0.21714E+08         0.00000E+00
    0.00000E+00         0.00000E+00         0.00000E+00
 
   -0.25468E+07         0.14459E+06         0.00000E+00
    0.14459E+06        -0.21723E+08         0.00000E+00
    0.00000E+00         0.00000E+00         0.00000E+00
 
   -0.25354E+07         0.18329E+06         0.00000E+00
    0.18329E+06        -0.21734E+08         0.00000E+00
    0.00000E+00         0.00000E+00         0.00000E+00
 
   -0.25199E+07         0.22438E+06         0.00000E+00
    0.22438E+06        -0.21747E+08         0.00000E+00
    0.00000E+00         0.00000E+00         0.00000E+00
 
   -0.25004E+07         0.26792E+06         0.00000E+00
    0.26792E+06        -0.21762E+08         0.00000E+00
    0.00000E+00         0.00000E+00         0.00000E+00
 
   -0.24771E+07         0.31397E+06         0.00000E+00
    0.31397E+06        -0.21778E+08         0.00000E+00
    0.00000E+00         0.00000E+00         0.00000E+00
 
   -0.24502E+07         0.36257E+06         0.00000E+00
    0.36257E+06        -0.21796E+08         0.00000E+00
    0.00000E+00         0.00000E+00         0.00000E+00
 
   -0.24199E+07         0.41376E+06         0.00000E+00
    0.41376E+06        -0.21816E+08         0.00000E+00
    0.00000E+00         0.00000E+00         0.00000E+00
 
   -0.23863E+07         0.46757E+06         0.00000E+00
    0.46757E+06        -0.21837E+08         0.00000E+00
    0.00000E+00         0.00000E+00         0.00000E+00
 
   -0.23496E+07         0.52404E+06         0.00000E+00
    0.52404E+06        -0.21859E+08         0.00000E+00
    0.00000E+00         0.00000E+00         0.00000E+00
 
   -0.23101E+07         0.58319E+06         0.00000E+00
    0.58319E+06        -0.21883E+08         0.00000E+00
    0.00000E+00         0.00000E+00         0.00000E+00
 
   -0.22677E+07         0.64504E+06         0.00000E+00
    0.64504E+06        -0.21908E+08         0.00000E+00
    0.00000E+00         0.00000E+00         0.00000E+00
 
   -0.22228E+07         0.70960E+06         0.00000E+00
    0.70960E+06        -0.21934E+08         0.00000E+00
    0.00000E+00         0.00000E+00         0.00000E+00
 
   -0.21755E+07         0.77688E+06         0.00000E+00
    0.77688E+06        -0.21961E+08         0.00000E+00
    0.00000E+00         0.00000E+00         0.00000E+00
 
   -0.21259E+07         0.84689E+06         0.00000E+00
    0.84689E+06        -0.21989E+08         0.00000E+00
    0.00000E+00         0.00000E+00         0.00000E+00
 
   -0.20742E+07         0.91963E+06         0.00000E+00
    0.91963E+06        -0.22018E+08         0.00000E+00
    0.00000E+00         0.00000E+00         0.00000E+00
 
   -0.20205E+07         0.99511E+06         0.00000E+00
    0.99511E+06        -0.22048E+08         0.00000E+00
    0.00000E+00         0.00000E+00         0.00000E+00
 
   -0.19649E+07         0.10733E+07         0.00000E+00
    0.10733E+07        -0.22078E+08         0.00000E+00
    0.00000E+00         0.00000E+00         0.00000E+00
 
   -0.19077E+07         0.11543E+07         0.00000E+00
    0.11543E+07        -0.22109E+08         0.00000E+00
    0.00000E+00         0.00000E+00         0.00000E+00
 
   -0.18488E+07         0.12379E+07         0.00000E+00
    0.12379E+07        -0.22141E+08         0.00000E+00
    0.00000E+00         0.00000E+00         0.00000E+00
 
   -0.17885E+07         0.13243E+07         0.00000E+00
    0.13243E+07        -0.22174E+08         0.00000E+00
    0.00000E+00         0.00000E+00         0.00000E+00
 
   -0.17269E+07         0.14134E+07         0.00000E+00
    0.14134E+07        -0.22207E+08         0.00000E+00
    0.00000E+00         0.00000E+00         0.00000E+00
 
   -0.16640E+07         0.15052E+07         0.00000E+00
    0.15052E+07        -0.22240E+08         0.00000E+00
    0.00000E+00         0.00000E+00         0.00000E+00
 
   -0.16001E+07         0.15996E+07         0.00000E+00
    0.15996E+07        -0.22274E+08         0.00000E+00
    0.00000E+00         0.00000E+00         0.00000E+00
 
   -0.15351E+07         0.16968E+07         0.00000E+00
    0.16968E+07        -0.22308E+08         0.00000E+00
    0.00000E+00         0.00000E+00         0.00000E+00
 
   -0.14693E+07         0.17965E+07         0.00000E+00
    0.17965E+07        -0.22343E+08         0.00000E+00
    0.00000E+00         0.00000E+00         0.00000E+00
 
   -0.14027E+07         0.18990E+07         0.00000E+00
    0.18990E+07        -0.22378E+08         0.00000E+00
    0.00000E+00         0.00000E+00         0.00000E+00
 
   -0.13354E+07         0.20040E+07         0.00000E+00
    0.20040E+07        -0.22413E+08         0.00000E+00
    0.00000E+00         0.00000E+00         0.00000E+00
 
   -0.12674E+07         0.21116E+07         0.00000E+00
    0.21116E+07        -0.22448E+08         0.00000E+00
    0.00000E+00         0.00000E+00         0.00000E+00
 
   -0.11990E+07         0.22219E+07         0.00000E+00
    0.22219E+07        -0.22484E+08         0.00000E+00
    0.00000E+00         0.00000E+00         0.00000E+00
 
   -0.11302E+07         0.23347E+07         0.00000E+00
    0.23347E+07        -0.22519E+08         0.00000E+00
    0.00000E+00         0.00000E+00         0.00000E+00
 
   -0.10610E+07         0.24500E+07         0.00000E+00
    0.24500E+07        -0.22555E+08         0.00000E+00
    0.00000E+00         0.00000E+00         0.00000E+00
 
   -0.99164E+06         0.25679E+07         0.00000E+00
    0.25679E+07        -0.22591E+08         0.00000E+00
    0.00000E+00         0.00000E+00         0.00000E+00
 
   -0.92207E+06         0.26882E+07         0.00000E+00
    0.26882E+07        -0.22627E+08         0.00000E+00
    0.00000E+00         0.00000E+00         0.00000E+00
 
   -0.85240E+06         0.28111E+07         0.00000E+00
    0.28111E+07        -0.22663E+08         0.00000E+00
    0.00000E+00         0.00000E+00         0.00000E+00
 
   -0.78272E+06         0.29364E+07         0.00000E+00
    0.29364E+07        -0.22698E+08         0.00000E+00
    0.00000E+00         0.00000E+00         0.00000E+00
 
   -0.71309E+06         0.30642E+07         0.00000E+00
    0.30642E+07        -0.22734E+08         0.00000E+00
    0.00000E+00         0.00000E+00         0.00000E+00
 
   -0.64358E+06         0.31943E+07         0.00000E+00
    0.31943E+07        -0.22770E+08         0.00000E+00
    0.00000E+00         0.00000E+00         0.00000E+00
 
   -0.57426E+06         0.33269E+07         0.00000E+00
    0.33269E+07        -0.22805E+08         0.00000E+00
    0.00000E+00         0.00000E+00         0.00000E+00
 
   -0.50518E+06         0.34618E+07         0.00000E+00
    0.34618E+07        -0.22840E+08         0.00000E+00
    0.00000E+00         0.00000E+00         0.00000E+00
 
   -0.43640E+06         0.35990E+07         0.00000E+00
    0.35990E+07        -0.22875E+08         0.00000E+00
    0.00000E+00         0.00000E+00         0.00000E+00
 
   -0.36798E+06         0.37385E+07         0.00000E+00
    0.37385E+07        -0.22910E+08         0.00000E+00
    0.00000E+00         0.00000E+00         0.00000E+00
 
   -0.29996E+06         0.38803E+07         0.00000E+00
    0.38803E+07        -0.22944E+08         0.00000E+00
    0.00000E+00         0.00000E+00         0.00000E+00
 
   -0.23240E+06         0.40243E+07         0.00000E+00
    0.40243E+07        -0.22978E+08         0.00000E+00
    0.00000E+00         0.00000E+00         0.00000E+00
 
   -0.16534E+06         0.41706E+07         0.00000E+00
    0.41706E+07        -0.23012E+08         0.00000E+00
    0.00000E+00         0.00000E+00         0.00000E+00
 
   -0.98804E+05         0.43190E+07         0.00000E+00
    0.43190E+07        -0.23046E+08         0.00000E+00
    0.00000E+00         0.00000E+00         0.00000E+00
 
   -0.32838E+05         0.44695E+07         0.00000E+00
    0.44695E+07        -0.23079E+08         0.00000E+00
    0.00000E+00         0.00000E+00         0.00000E+00
 
   -0.32063E+07         0.53399E+04         0.00000E+00
    0.53399E+04        -0.22473E+08         0.00000E+00
    0.00000E+00         0.00000E+00         0.00000E+00
 
   -0.32021E+07         0.22885E+05         0.00000E+00
    0.22885E+05        -0.22476E+08         0.00000E+00
    0.00000E+00         0.00000E+00         0.00000E+00
 
   -0.31925E+07         0.43063E+05         0.00000E+00
    0.43063E+05        -0.22481E+08         0.00000E+00
    0.00000E+00         0.00000E+00         0.00000E+00
 
   -0.31777E+07         0.65959E+05         0.00000E+00
    0.65959E+05        -0.22489E+08         0.00000E+00
    0.00000E+00         0.00000E+00         0.00000E+00
 
   -0.31579E+07         0.91649E+05         0.00000E+00
    0.91649E+05        -0.22499E+08         0.00000E+00
    0.00000E+00         0.00000E+00         0.00000E+00
 
   -0.31334E+07         0.12020E+06         0.00000E+00
    0.12020E+06        -0.22511E+08         0.00000E+00
    0.00000E+00         0.00000E+00         0.00000E+00
 
   -0.31045E+07         0.15166E+06         0.00000E+00
    0.15166E+06        -0.22525E+08         0.00000E+00
    0.00000E+00         0.00000E+00         0.00000E+00
 
   -0.30713E+07         0.18609E+06         0.00000E+00
    0.18609E+06        -0.22542E+08         0.00000E+00
    0.00000E+00         0.00000E+00         0.00000E+00
 
   -0.30340E+07         0.22352E+06         0.00000E+00
    0.22352E+06        -0.22560E+08         0.00000E+00
    0.00000E+00         0.00000E+00         0.00000E+00
 
   -0.29930E+07         0.26399E+06         0.00000E+00
    0.26399E+06        -0.22580E+08         0.00000E+00
    0.00000E+00         0.00000E+00         0.00000E+00
 
   -0.29484E+07         0.30753E+06         0.00000E+00
    0.30753E+06        -0.22601E+08         0.00000E+00
    0.00000E+00         0.00000E+00         0.00000E+00
 
   -0.29003E+07         0.35414E+06         0.00000E+00
    0.35414E+06        -0.22624E+08         0.00000E+00
    0.00000E+00         0.00000E+00         0.00000E+00
 
   -0.28492E+07         0.40384E+06         0.00000E+00
    0.40384E+06        -0.22649E+08         0.00000E+00
    0.00000E+00         0.00000E+00         0.00000E+00
 
   -0.27950E+07         0.45665E+06         0.00000E+00
    0.45665E+06        -0.22675E+08         0.00000E+00
    0.00000E+00         0.00000E+00         0.00000E+00
 
   -0.27380E+07         0.51256E+06         0.00000E+00
    0.51256E+06        -0.22702E+08         0.00000E+00
    0.00000E+00         0.00000E+00         0.00000E+00
 
   -0.26784E+07         0.57157E+06         0.00000E+00
    0.57157E+06        -0.22730E+08         0.00000E+00
    0.00000E+00         0.00000E+00         0.00000E+00
 
   -0.26164E+07         0.63367E+06         0.00000E+00
    0.63367E+06        -0.22759E+08         0.00000E+00
    0.00000E+00         0.00000E+00         0.00000E+00
 
   -0.25521E+07         0.69886E+06         0.00000E+00
    0.69886E+06        -0.22790E+08         0.00000E+00
    0.00000E+00         0.00000E+00         0.00000E+00
 
   -0.24858E+07         0.76712E+06         0.00000E+00
    0.76712E+06        -0.22821E+08         0.00000E+00
    0.00000E+00         0.00000E+00         0.00000E+00
 
   -0.24174E+07         0.83844E+06         0.00000E+00
    0.83844E+06        -0.22853E+08         0.00000E+00
    0.00000E+00         0.00000E+00         0.00000E+00
 
   -0.23473E+07         0.91280E+06         0.00000E+00
    0.91280E+06        -0.22887E+08         0.00000E+00
    0.00000E+00         0.00000E+00         0.00000E+00
 
   -0.22755E+07         0.99018E+06         0.00000E+00
    0.99018E+06        -0.22920E+08         0.00000E+00
    0.00000E+00         0.00000E+00         0.00000E+00
 
   -0.22022E+07         0.10706E+07         0.00000E+00
    0.10706E+07        -0.22955E+08         0.00000E+00
    0.00000E+00         0.00000E+00         0.00000E+00
 
   -0.21276E+07         0.11539E+07         0.00000E+00
    0.11539E+07        -0.22990E+08         0.00000E+00
    0.00000E+00         0.00000E+00         0.00000E+00
 
   -0.20516E+07         0.12403E+07         0.00000E+00
    0.12403E+07        -0.23026E+08         0.00000E+00
    0.00000E+00         0.00000E+00         0.00000E+00
 
   -0.19746E+07         0.13295E+07         0.00000E+00
    0.13295E+07        -0.23062E+08         0.00000E+00
    0.00000E+00         0.00000E+00         0.00000E+00
 
   -0.18965E+07         0.14217E+07         0.00000E+00
    0.14217E+07        -0.23099E+08         0.00000E+00
    0.00000E+00         0.00000E+00         0.00000E+00
 
   -0.18175E+07         0.15168E+07         0.00000E+00
    0.15168E+07        -0.23137E+08         0.00000E+00
    0.00000E+00         0.00000E+00         0.00000E+00
 
   -0.17378E+07         0.16148E+07         0.00000E+00
    0.16148E+07        -0.23175E+08         0.00000E+00
    0.00000E+00         0.00000E+00         0.00000E+00
 
   -0.16573E+07         0.17156E+07         0.00000E+00
    0.17156E+07        -0.23213E+08         0.00000E+00
    0.00000E+00         0.00000E+00         0.00000E+00
 
   -0.15763E+07         0.18192E+07         0.00000E+00
    0.18192E+07        -0.23251E+08         0.00000E+00
    0.00000E+00         0.00000E+00         0.00000E+00
 
   -0.14947E+07         0.19257E+07         0.00000E+00
    0.19257E+07        -0.23290E+08         0.00000E+00
    0.00000E+00         0.00000E+00         0.00000E+00
 
   -0.14128E+07         0.20349E+07         0.00000E+00
    0.20349E+07        -0.23329E+08         0.00000E+00
    0.00000E+00         0.00000E+00         0.00000E+00
 
   -0.13306E+07         0.21469E+07         0.00000E+00
    0.21469E+07        -0.23369E+08         0.00000E+00
    0.00000E+00         0.00000E+00         0.00000E+00
 
   -0.12481E+07         0.22616E+07         0.00000E+00
    0.22616E+07        -0.23408E+08         0.00000E+00
    0.00000E+00         0.00000E+00         0.00000E+00
 
   -0.11656E+07         0.23790E+07         0.00000E+00
    0.23790E+07        -0.23448E+08         0.00000E+00
    0.00000E+00         0.00000E+00         0.00000E+00
 
   -0.10829E+07         0.24991E+07         0.00000E+00
    0.24991E+07        -0.23488E+08         0.00000E+00
    0.00000E+00         0.00000E+00         0.00000E+00
 
   -0.10004E+07         0.26219E+07         0.00000E+00
    0.26219E+07        -0.23528E+08         0.00000E+00
    0.00000E+00         0.00000E+00         0.00000E+00
 
   -0.91790E+06         0.27473E+07         0.00000E+00
    0.27473E+07        -0.23568E+08         0.00000E+00
    0.00000E+00         0.00000E+00         0.00000E+00
 
   -0.83562E+06         0.28753E+07         0.00000E+00
    0.28753E+07        -0.23608E+08         0.00000E+00
    0.00000E+00         0.00000E+00         0.00000E+00
 
   -0.75362E+06         0.30059E+07         0.00000E+00
    0.30059E+07        -0.23648E+08         0.00000E+00
    0.00000E+00         0.00000E+00         0.00000E+00
 
   -0.67194E+06         0.31391E+07         0.00000E+00
    0.31391E+07        -0.23688E+08         0.00000E+00
    0.00000E+00         0.00000E+00         0.00000E+00
 
   -0.59068E+06         0.32747E+07         0.00000E+00
    0.32747E+07        -0.23727E+08         0.00000E+00
    0.00000E+00         0.00000E+00         0.00000E+00
 
   -0.50988E+06         0.34129E+07         0.00000E+00
    0.34129E+07        -0.23767E+08         0.00000E+00
    0.00000E+00         0.00000E+00         0.00000E+00
 
   -0.42962E+06         0.35535E+07         0.00000E+00
    0.35535E+07        -0.23807E+08         0.00000E+00
    0.00000E+00         0.00000E+00         0.00000E+00
 
   -0.34994E+06         0.36965E+07         0.00000E+00
    0.36965E+07        -0.23846E+08         0.00000E+00
    0.00000E+00         0.00000E+00         0.00000E+00
 
   -0.27092E+06         0.38419E+07         0.00000E+00
    0.38419E+07        -0.23885E+08         0.00000E+00
    0.00000E+00         0.00000E+00         0.00000E+00
 
   -0.19259E+06         0.39896E+07         0.00000E+00
    0.39896E+07        -0.23924E+08         0.00000E+00
    0.00000E+00         0.00000E+00         0.00000E+00
 
   -0.11500E+06         0.41397E+07         0.00000E+00
    0.41397E+07        -0.23963E+08         0.00000E+00
    0.00000E+00         0.00000E+00         0.00000E+00
 
   -0.38200E+05         0.42919E+07         0.00000E+00
    0.42919E+07        -0.24001E+08         0.00000E+00
    0.00000E+00         0.00000E+00         0.00000E+00
 
   -0.39416E+07        -0.24701E+04         0.00000E+00
   -0.24701E+04        -0.23255E+08         0.00000E+00
    0.00000E+00         0.00000E+00         0.00000E+00
 
   -0.39228E+07         0.13704E+04         0.00000E+00
    0.13704E+04        -0.23258E+08         0.00000E+00
    0.00000E+00         0.00000E+00         0.00000E+00
 
   -0.38981E+07         0.85300E+04         0.00000E+00
    0.85300E+04        -0.23264E+08         0.00000E+00
    0.00000E+00         0.00000E+00         0.00000E+00
 
   -0.38679E+07         0.19082E+05         0.00000E+00
    0.19082E+05        -0.23272E+08         0.00000E+00
    0.00000E+00         0.00000E+00         0.00000E+00
 
   -0.38323E+07         0.33088E+05         0.00000E+00
    0.33088E+05        -0.23283E+08         0.00000E+00
    0.00000E+00         0.00000E+00         0.00000E+00
 
   -0.37918E+07         0.50597E+05         0.00000E+00
    0.50597E+05        -0.23297E+08         0.00000E+00
    0.00000E+00         0.00000E+00         0.00000E+00
 
   -0.37465E+07         0.71648E+05         0.00000E+00
    0.71648E+05        -0.23312E+08         0.00000E+00
    0.00000E+00         0.00000E+00         0.00000E+00
 
   -0.36968E+07         0.96268E+05         0.00000E+00
    0.96268E+05        -0.23330E+08         0.00000E+00
    0.00000E+00         0.00000E+00         0.00000E+00
 
   -0.36430E+07         0.12448E+06         0.00000E+00
    0.12448E+06        -0.23349E+08         0.00000E+00
    0.00000E+00         0.00000E+00         0.00000E+00
 
   -0.35852E+07         0.15628E+06         0.00000E+00
    0.15628E+06        -0.23371E+08         0.00000E+00
    0.00000E+00         0.00000E+00         0.00000E+00
 
   -0.35238E+07         0.19169E+06         0.00000E+00
    0.19169E+06        -0.23394E+08         0.00000E+00
    0.00000E+00         0.00000E+00         0.00000E+00
 
   -0.34590E+07         0.23068E+06         0.00000E+00
    0.23068E+06        -0.23419E+08         0.00000E+00
    0.00000E+00         0.00000E+00         0.00000E+00
 
   -0.33910E+07         0.27326E+06         0.00000E+00
    0.27326E+06        -0.23445E+08         0.00000E+00
    0.00000E+00         0.00000E+00         0.00000E+00
 
   -0.33201E+07         0.31939E+06         0.00000E+00
    0.31939E+06        -0.23472E+08         0.00000E+00
    0.00000E+00         0.00000E+00         0.00000E+00
 
   -0.32464E+07         0.36906E+06         0.00000E+00
    0.36906E+06        -0.23501E+08         0.00000E+00
    0.00000E+00         0.00000E+00         0.00000E+00
 
   -0.31702E+07         0.42225E+06         0.00000E+00
    0.42225E+06        -0.23531E+08         0.00000E+00
    0.00000E+00         0.00000E+00         0.00000E+00
 
   -0.30917E+07         0.47891E+06         0.00000E+00
    0.47891E+06        -0.23563E+08         0.00000E+00
    0.00000E+00         0.00000E+00         0.00000E+00
 
   -0.30109E+07         0.53901E+06         0.00000E+00
    0.53901E+06        -0.23595E+08         0.00000E+00
    0.00000E+00         0.00000E+00         0.00000E+00
 
   -0.29282E+07         0.60253E+06         0.00000E+00
    0.60253E+06        -0.23628E+08         0.00000E+00
    0.00000E+00         0.00000E+00         0.00000E+00
 
   -0.28437E+07         0.66942E+06         0.00000E+00
    0.66942E+06        -0.23662E+08         0.00000E+00
    0.00000E+00         0.00000E+00         0.00000E+00
 
   -0.27576E+07         0.73965E+06         0.00000E+00
    0.73965E+06        -0.23697E+08         0.00000E+00
    0.00000E+00         0.00000E+00         0.00000E+00
 
   -0.26699E+07         0.81317E+06         0.00000E+00
    0.81317E+06        -0.23733E+08         0.00000E+00
    0.00000E+00         0.00000E+00         0.00000E+00
 
   -0.25808E+07         0.88996E+06         0.00000E+00
    0.88996E+06        -0.23770E+08         0.00000E+00
    0.00000E+00         0.00000E+00         0.00000E+00
 
   -0.24905E+07         0.96997E+06         0.00000E+00
    0.96997E+06        -0.23807E+08         0.00000E+00
    0.00000E+00         0.00000E+00         0.00000E+00
 
   -0.23991E+07         0.10532E+07         0.00000E+00
    0.10532E+07        -0.23845E+08         0.00000E+00
    0.00000E+00         0.00000E+00         0.00000E+00
 
   -0.23067E+07         0.11395E+07         0.00000E+00
    0.11395E+07        -0.23884E+08         0.00000E+00
    0.00000E+00         0.00000E+00         0.00000E+00
 
   -0.22134E+07         0.12290E+07         0.00000E+00
    0.12290E+07        -0.23923E+08         0.00000E+00
    0.00000E+00         0.00000E+00         0.00000E+00
 
   -0.21193E+07         0.13216E+07         0.00000E+00
    0.13216E+07        -0.23963E+08         0.00000E+00
    0.00000E+00         0.00000E+00         0.00000E+00
 
   -0.20246E+07         0.14172E+07         0.00000E+00
    0.14172E+07        -0.24004E+08         0.00000E+00
    0.00000E+00         0.00000E+00         0.00000E+00
 
   -0.19293E+07         0.15159E+07         0.00000E+00
    0.15159E+07        -0.24045E+08         0.00000E+00
    0.00000E+00         0.00000E+00         0.00000E+00
 
   -0.18336E+07         0.16176E+07         0.00000E+00
    0.16176E+07        -0.24086E+08         0.00000E+00
    0.00000E+00         0.00000E+00         0.00000E+00
 
   -0.17375E+07         0.17222E+07         0.00000E+00
    0.17222E+07        -0.24128E+08         0.00000E+00
    0.00000E+00         0.00000E+00         0.00000E+00
 
   -0.16411E+07         0.18299E+07         0.00000E+00
    0.18299E+07        -0.24170E+08         0.00000E+00
    0.00000E+00         0.00000E+00         0.00000E+00
 
   -0.15445E+07         0.19404E+07         0.00000E+00
    0.19404E+07        -0.24213E+08         0.00000E+00
    0.00000E+00         0.00000E+00         0.00000E+00
 
   -0.14479E+07         0.20539E+07         0.00000E+00
    0.20539E+07        -0.24256E+08         0.00000E+00
    0.00000E+00         0.00000E+00         0.00000E+00
 
   -0.13512E+07         0.21702E+07         0.00000E+00
    0.21702E+07        -0.24299E+08         0.00000E+00
    0.00000E+00         0.00000E+00         0.00000E+00
 
   -0.12547E+07         0.22895E+07         0.00000E+00
    0.22895E+07        -0.24343E+08         0.00000E+00
    0.00000E+00         0.00000E+00         0.00000E+00
 
   -0.11583E+07         0.24115E+07         0.00000E+00
    0.24115E+07        -0.24387E+08         0.00000E+00
    0.00000E+00         0.00000E+00         0.00000E+00
 
   -0.10621E+07         0.25364E+07         0.00000E+00
    0.25364E+07        -0.24431E+08         0.00000E+00
    0.00000E+00         0.00000E+00         0.00000E+00
 
   -0.96628E+06         0.26641E+07         0.00000E+00
    0.26641E+07        -0.24475E+08         0.00000E+00
    0.00000E+00         0.00000E+00         0.00000E+00
 
   -0.87088E+06         0.27945E+07         0.00000E+00
    0.27945E+07        -0.24519E+08         0.00000E+00
    0.00000E+00         0.00000E+00         0.00000E+00
 
   -0.77598E+06         0.29277E+07         0.00000E+00
    0.29277E+07        -0.24564E+08         0.00000E+00
    0.00000E+00         0.00000E+00         0.00000E+00
 
   -0.68166E+06         0.30636E+07         0.00000E+00
    0.30636E+07        -0.24609E+08         0.00000E+00
    0.00000E+00         0.00000E+00         0.00000E+00
 
   -0.58800E+06         0.32021E+07         0.00000E+00
    0.32021E+07        -0.24653E+08         0.00000E+00
    0.00000E+00         0.00000E+00         0.00000E+00
 
   -0.49507E+06         0.33433E+07         0.00000E+00
    0.33433E+07        -0.24698E+08         0.00000E+00
    0.00000E+00         0.00000E+00         0.00000E+00
 
   -0.40294E+06         0.34871E+07         0.00000E+00
    0.34871E+07        -0.24742E+08         0.00000E+00
    0.00000E+00         0.00000E+00         0.00000E+00
 
   -0.31169E+06         0.36335E+07         0.00000E+00
    0.36335E+07        -0.24787E+08         0.00000E+00
    0.00000E+00         0.00000E+00         0.00000E+00
 
   -0.22139E+06         0.37823E+07         0.00000E+00
    0.37823E+07        -0.24831E+08         0.00000E+00
    0.00000E+00         0.00000E+00         0.00000E+00
 
   -0.13208E+06         0.39336E+07         0.00000E+00
    0.39336E+07        -0.24875E+08         0.00000E+00
    0.00000E+00         0.00000E+00         0.00000E+00
 
   -0.43847E+05         0.40873E+07         0.00000E+00
    0.40873E+07        -0.24919E+08         0.00000E+00
    0.00000E+00         0.00000E+00         0.00000E+00
 
   -0.47578E+07        -0.11153E+05         0.00000E+00
   -0.11153E+05        -0.24044E+08         0.00000E+00
    0.00000E+00         0.00000E+00         0.00000E+00
 
   -0.47205E+07        -0.22287E+05         0.00000E+00
   -0.22287E+05        -0.24047E+08         0.00000E+00
    0.00000E+00         0.00000E+00         0.00000E+00
 
   -0.46770E+07        -0.29253E+05         0.00000E+00
   -0.29253E+05        -0.24054E+08         0.00000E+00
    0.00000E+00         0.00000E+00         0.00000E+00
 
   -0.46276E+07        -0.31997E+05         0.00000E+00
   -0.31997E+05        -0.24063E+08         0.00000E+00
    0.00000E+00         0.00000E+00         0.00000E+00
 
   -0.45726E+07        -0.30481E+05         0.00000E+00
   -0.30481E+05        -0.24075E+08         0.00000E+00
    0.00000E+00         0.00000E+00         0.00000E+00
 
   -0.45125E+07        -0.24683E+05         0.00000E+00
   -0.24683E+05        -0.24089E+08         0.00000E+00
    0.00000E+00         0.00000E+00         0.00000E+00
 
   -0.44476E+07        -0.14596E+05         0.00000E+00
   -0.14596E+05        -0.24105E+08         0.00000E+00
    0.00000E+00         0.00000E+00         0.00000E+00
 
   -0.43782E+07        -0.22332E+03         0.00000E+00
   -0.22332E+03        -0.24124E+08         0.00000E+00
    0.00000E+00         0.00000E+00         0.00000E+00
 
   -0.43047E+07         0.18417E+05         0.00000E+00
    0.18417E+05        -0.24145E+08         0.00000E+00
    0.00000E+00         0.00000E+00         0.00000E+00
 
   -0.42273E+07         0.41297E+05         0.00000E+00
    0.41297E+05        -0.24167E+08         0.00000E+00
    0.00000E+00         0.00000E+00         0.00000E+00
 
   -0.41463E+07         0.68381E+05         0.00000E+00
    0.68381E+05        -0.24191E+08         0.00000E+00
    0.00000E+00         0.00000E+00         0.00000E+00
 
   -0.40621E+07         0.99623E+05         0.00000E+00
    0.99623E+05        -0.24217E+08         0.00000E+00
    0.00000E+00         0.00000E+00         0.00000E+00
 
   -0.39749E+07         0.13497E+06         0.00000E+00
    0.13497E+06        -0.24244E+08         0.00000E+00
    0.00000E+00         0.00000E+00         0.00000E+00
 
   -0.38849E+07         0.17437E+06         0.00000E+00
    0.17437E+06        -0.24273E+08         0.00000E+00
    0.00000E+00         0.00000E+00         0.00000E+00
 
   -0.37924E+07         0.21775E+06         0.00000E+00
    0.21775E+06        -0.24303E+08         0.00000E+00
    0.00000E+00         0.00000E+00         0.00000E+00
 
   -0.36975E+07         0.26505E+06         0.00000E+00
    0.26505E+06        -0.24334E+08         0.00000E+00
    0.00000E+00         0.00000E+00         0.00000E+00
 
   -0.36006E+07         0.31620E+06         0.00000E+00
    0.31620E+06        -0.24366E+08         0.00000E+00
    0.00000E+00         0.00000E+00         0.00000E+00
 
   -0.35018E+07         0.37114E+06         0.00000E+00
    0.37114E+06        -0.24399E+08         0.00000E+00
    0.00000E+00         0.00000E+00         0.00000E+00
 
   -0.34012E+07         0.42979E+06         0.00000E+00
    0.42979E+06        -0.24433E+08         0.00000E+00
    0.00000E+00         0.00000E+00         0.00000E+00
 
   -0.32991E+07         0.49210E+06         0.00000E+00
    0.49210E+06        -0.24468E+08         0.00000E+00
    0.00000E+00         0.00000E+00         0.00000E+00
 
   -0.31955E+07         0.55799E+06         0.00000E+00
    0.55799E+06        -0.24504E+08         0.00000E+00
    0.00000E+00         0.00000E+00         0.00000E+00
 
   -0.30907E+07         0.62740E+06         0.00000E+00
    0.62740E+06        -0.24541E+08         0.00000E+00
    0.00000E+00         0.00000E+00         0.00000E+00
 
   -0.29847E+07         0.70027E+06         0.00000E+00
    0.70027E+06        -0.24579E+08         0.00000E+00
    0.00000E+00         0.00000E+00         0.00000E+00
 
   -0.28777E+07         0.77655E+06         0.00000E+00
    0.77655E+06        -0.24617E+08         0.00000E+00
    0.00000E+00         0.00000E+00         0.00000E+00
 
   -0.27699E+07         0.85619E+06         0.00000E+00
    0.85619E+06        -0.24656E+08         0.00000E+00
    0.00000E+00         0.00000E+00         0.00000E+00
 
   -0.26612E+07         0.93913E+06         0.00000E+00
    0.93913E+06        -0.24696E+08         0.00000E+00
    0.00000E+00         0.00000E+00         0.00000E+00
 
   -0.25518E+07         0.10253E+07         0.00000E+00
    0.10253E+07        -0.24737E+08         0.00000E+00
    0.00000E+00         0.00000E+00         0.00000E+00
 
   -0.24418E+07         0.11148E+07         0.00000E+00
    0.11148E+07        -0.24779E+08         0.00000E+00
    0.00000E+00         0.00000E+00         0.00000E+00
 
   -0.23314E+07         0.12074E+07         0.00000E+00
    0.12074E+07        -0.24821E+08         0.00000E+00
    0.00000E+00         0.00000E+00         0.00000E+00
 
   -0.22205E+07         0.13032E+07         0.00000E+00
    0.13032E+07        -0.24864E+08         0.00000E+00
    0.00000E+00         0.00000E+00         0.00000E+00
 
   -0.21093E+07         0.14021E+07         0.00000E+00
    0.14021E+07        -0.24907E+08         0.00000E+00
    0.00000E+00         0.00000E+00         0.00000E+00
 
   -0.19978E+07         0.15042E+07         0.00000E+00
    0.15042E+07        -0.24951E+08         0.00000E+00
    0.00000E+00         0.00000E+00         0.00000E+00
 
   -0.18862E+07         0.16093E+07         0.00000E+00
    0.16093E+07        -0.24996E+08         0.00000E+00
    0.00000E+00         0.00000E+00         0.00000E+00
 
   -0.17745E+07         0.17175E+07         0.00000E+00
    0.17175E+07        -0.25042E+08         0.00000E+00
    0.00000E+00         0.00000E+00         0.00000E+00
 
   -0.16628E+07         0.18288E+07         0.00000E+00
    0.18288E+07        -0.25088E+08         0.00000E+00
    0.00000E+00         0.00000E+00         0.00000E+00
 
   -0.15512E+07         0.19431E+07         0.00000E+00
    0.19431E+07        -0.25134E+08         0.00000E+00
    0.00000E+00         0.00000E+00         0.00000E+00
 
   -0.14398E+07         0.20605E+07         0.00000E+00
    0.20605E+07        -0.25181E+08         0.00000E+00
    0.00000E+00         0.00000E+00         0.00000E+00
 
   -0.13286E+07         0.21809E+07         0.00000E+00
    0.21809E+07        -0.25229E+08         0.00000E+00
    0.00000E+00         0.00000E+00         0.00000E+00
 
   -0.12178E+07         0.23043E+07         0.00000E+00
    0.23043E+07        -0.25277E+08         0.00000E+00
    0.00000E+00         0.00000E+00         0.00000E+00
 
   -0.11075E+07         0.24307E+07         0.00000E+00
    0.24307E+07        -0.25325E+08         0.00000E+00
    0.00000E+00         0.00000E+00         0.00000E+00
 
   -0.99768E+06         0.25601E+07         0.00000E+00
    0.25601E+07        -0.25374E+08         0.00000E+00
    0.00000E+00         0.00000E+00         0.00000E+00
 
   -0.88852E+06         0.26924E+07         0.00000E+00
    0.26924E+07        -0.25423E+08         0.00000E+00
    0.00000E+00         0.00000E+00         0.00000E+00
 
   -0.78009E+06         0.28277E+07         0.00000E+00
    0.28277E+07        -0.25472E+08         0.00000E+00
    0.00000E+00         0.00000E+00         0.00000E+00
 
   -0.67250E+06         0.29659E+07         0.00000E+00
    0.29659E+07        -0.25522E+08         0.00000E+00
    0.00000E+00         0.00000E+00         0.00000E+00
 
   -0.56585E+06         0.31070E+07         0.00000E+00
    0.31070E+07        -0.25572E+08         0.00000E+00
    0.00000E+00         0.00000E+00         0.00000E+00
 
   -0.46022E+06         0.32509E+07         0.00000E+00
    0.32509E+07        -0.25622E+08         0.00000E+00
    0.00000E+00         0.00000E+00         0.00000E+00
 
   -0.35572E+06         0.33976E+07         0.00000E+00
    0.33976E+07        -0.25672E+08         0.00000E+00
    0.00000E+00         0.00000E+00         0.00000E+00
 
   -0.25244E+06         0.35470E+07         0.00000E+00
    0.35470E+07        -0.25722E+08         0.00000E+00
    0.00000E+00         0.00000E+00         0.00000E+00
 
   -0.15048E+06         0.36991E+07         0.00000E+00
    0.36991E+07        -0.25772E+08         0.00000E+00
    0.00000E+00         0.00000E+00         0.00000E+00
 
   -0.49919E+05         0.38539E+07         0.00000E+00
    0.38539E+07        -0.25821E+08         0.00000E+00
    0.00000E+00         0.00000E+00         0.00000E+00
 
   -0.56596E+07        -0.20676E+05         0.00000E+00
   -0.20676E+05        -0.24839E+08         0.00000E+00
    0.00000E+00         0.00000E+00         0.00000E+00
 
   -0.55990E+07        -0.47859E+05         0.00000E+00
   -0.47859E+05        -0.24842E+08         0.00000E+00
    0.00000E+00         0.00000E+00         0.00000E+00
 
   -0.55319E+07        -0.69807E+05         0.00000E+00
   -0.69807E+05        -0.24849E+08         0.00000E+00
    0.00000E+00         0.00000E+00         0.00000E+00
 
   -0.54588E+07        -0.86500E+05         0.00000E+00
   -0.86500E+05        -0.24859E+08         0.00000E+00
    0.00000E+00         0.00000E+00         0.00000E+00
 
   -0.53801E+07        -0.97942E+05         0.00000E+00
   -0.97942E+05        -0.24871E+08         0.00000E+00
    0.00000E+00         0.00000E+00         0.00000E+00
 
   -0.52962E+07        -0.10415E+06         0.00000E+00
   -0.10415E+06        -0.24886E+08         0.00000E+00
    0.00000E+00         0.00000E+00         0.00000E+00
 
   -0.52077E+07        -0.10518E+06         0.00000E+00
   -0.10518E+06        -0.24903E+08         0.00000E+00
    0.00000E+00         0.00000E+00         0.00000E+00
 
   -0.51148E+07        -0.10106E+06         0.00000E+00
   -0.10106E+06        -0.24922E+08         0.00000E+00
    0.00000E+00         0.00000E+00         0.00000E+00
 
   -0.50180E+07        -0.91893E+05         0.00000E+00
   -0.91893E+05        -0.24943E+08         0.00000E+00
    0.00000E+00         0.00000E+00         0.00000E+00
 
   -0.49176E+07        -0.77748E+05         0.00000E+00
   -0.77748E+05        -0.24966E+08         0.00000E+00
    0.00000E+00         0.00000E+00         0.00000E+00
 
   -0.48140E+07        -0.58726E+05         0.00000E+00
   -0.58726E+05        -0.24990E+08         0.00000E+00
    0.00000E+00         0.00000E+00         0.00000E+00
 
   -0.47076E+07        -0.34936E+05         0.00000E+00
   -0.34936E+05        -0.25016E+08         0.00000E+00
    0.00000E+00         0.00000E+00         0.00000E+00
 
   -0.45985E+07        -0.64901E+04         0.00000E+00
   -0.64901E+04        -0.25043E+08         0.00000E+00
    0.00000E+00         0.00000E+00         0.00000E+00
 
   -0.44871E+07         0.26493E+05         0.00000E+00
    0.26493E+05        -0.25071E+08         0.00000E+00
    0.00000E+00         0.00000E+00         0.00000E+00
 
   -0.43737E+07         0.63892E+05         0.00000E+00
    0.63892E+05        -0.25101E+08         0.00000E+00
    0.00000E+00         0.00000E+00         0.00000E+00
 
   -0.42584E+07         0.10559E+06         0.00000E+00
    0.10559E+06        -0.25131E+08         0.00000E+00
    0.00000E+00         0.00000E+00         0.00000E+00
 
   -0.41414E+07         0.15145E+06         0.00000E+00
    0.15145E+06        -0.25163E+08         0.00000E+00
    0.00000E+00         0.00000E+00         0.00000E+00
 
   -0.40230E+07         0.20138E+06         0.00000E+00
    0.20138E+06        -0.25196E+08         0.00000E+00
    0.00000E+00         0.00000E+00         0.00000E+00
 
   -0.39033E+07         0.25525E+06         0.00000E+00
    0.25525E+06        -0.25229E+08         0.00000E+00
    0.00000E+00         0.00000E+00         0.00000E+00
 
   -0.37825E+07         0.31295E+06         0.00000E+00
    0.31295E+06        -0.25264E+08         0.00000E+00
    0.00000E+00         0.00000E+00         0.00000E+00
 
   -0.36606E+07         0.37438E+06         0.00000E+00
    0.37438E+06        -0.25299E+08         0.00000E+00
    0.00000E+00         0.00000E+00         0.00000E+00
 
   -0.35379E+07         0.43945E+06         0.00000E+00
    0.43945E+06        -0.25335E+08         0.00000E+00
    0.00000E+00         0.00000E+00         0.00000E+00
 
   -0.34143E+07         0.50808E+06         0.00000E+00
    0.50808E+06        -0.25372E+08         0.00000E+00
    0.00000E+00         0.00000E+00         0.00000E+00
 
   -0.32901E+07         0.58017E+06         0.00000E+00
    0.58017E+06        -0.25410E+08         0.00000E+00
    0.00000E+00         0.00000E+00         0.00000E+00
 
   -0.31652E+07         0.65568E+06         0.00000E+00
    0.65568E+06        -0.25449E+08         0.00000E+00
    0.00000E+00         0.00000E+00         0.00000E+00
 
   -0.30398E+07         0.73453E+06         0.00000E+00
    0.73453E+06        -0.25489E+08         0.00000E+00
    0.00000E+00         0.00000E+00         0.00000E+00
 
   -0.29139E+07         0.81668E+06         0.00000E+00
    0.81668E+06        -0.25530E+08         0.00000E+00
    0.00000E+00         0.00000E+00         0.00000E+00
 
   -0.27877E+07         0.90208E+06         0.00000E+00
    0.90208E+06        -0.25571E+08         0.00000E+00
    0.00000E+00         0.00000E+00         0.00000E+00
 
   -0.26610E+07         0.99070E+06         0.00000E+00
    0.99070E+06        -0.25614E+08         0.00000E+00
    0.00000E+00         0.00000E+00         0.00000E+00
 
   -0.25341E+07         0.10825E+07         0.00000E+00
    0.10825E+07        -0.25657E+08         0.00000E+00
    0.00000E+00         0.00000E+00         0.00000E+00
 
   -0.24070E+07         0.11775E+07         0.00000E+00
    0.11775E+07        -0.25702E+08         0.00000E+00
    0.00000E+00         0.00000E+00         0.00000E+00
 
   -0.22796E+07         0.12757E+07         0.00000E+00
    0.12757E+07        -0.25747E+08         0.00000E+00
    0.00000E+00         0.00000E+00         0.00000E+00
 
   -0.21522E+07         0.13770E+07         0.00000E+00
    0.13770E+07        -0.25794E+08         0.00000E+00
    0.00000E+00         0.00000E+00         0.00000E+00
 
   -0.20248E+07         0.14815E+07         0.00000E+00
    0.14815E+07        -0.25841E+08         0.00000E+00
    0.00000E+00         0.00000E+00         0.00000E+00
 
   -0.18973E+07         0.15892E+07         0.00000E+00
    0.15892E+07        -0.25889E+08         0.00000E+00
    0.00000E+00         0.00000E+00         0.00000E+00
 
   -0.17700E+07         0.17000E+07         0.00000E+00
    0.17000E+07        -0.25938E+08         0.00000E+00
    0.00000E+00         0.00000E+00         0.00000E+00
 
   -0.16429E+07         0.18141E+07         0.00000E+00
    0.18141E+07        -0.25988E+08         0.00000E+00
    0.00000E+00         0.00000E+00         0.00000E+00
 
   -0.15160E+07         0.19313E+07         0.00000E+00
    0.19313E+07        -0.26039E+08         0.00000E+00
    0.00000E+00         0.00000E+00         0.00000E+00
 
   -0.13896E+07         0.20518E+07         0.00000E+00
    0.20518E+07        -0.26091E+08         0.00000E+00
    0.00000E+00         0.00000E+00         0.00000E+00
 
   -0.12636E+07         0.21755E+07         0.00000E+00
    0.21755E+07        -0.26143E+08         0.00000E+00
    0.00000E+00         0.00000E+00         0.00000E+00
 
   -0.11381E+07         0.23024E+07         0.00000E+00
    0.23024E+07        -0.26197E+08         0.00000E+00
    0.00000E+00         0.00000E+00         0.00000E+00
 
   -0.10134E+07         0.24326E+07         0.00000E+00
    0.24326E+07        -0.26250E+08         0.00000E+00
    0.00000E+00         0.00000E+00         0.00000E+00
 
   -0.88955E+06         0.25661E+07         0.00000E+00
    0.25661E+07        -0.26305E+08         0.00000E+00
    0.00000E+00         0.00000E+00         0.00000E+00
 
   -0.76661E+06         0.27027E+07         0.00000E+00
    0.27027E+07        -0.26360E+08         0.00000E+00
    0.00000E+00         0.00000E+00         0.00000E+00
 
   -0.64476E+06         0.28426E+07         0.00000E+00
    0.28426E+07        -0.26415E+08         0.00000E+00
    0.00000E+00         0.00000E+00         0.00000E+00
 
   -0.52414E+06         0.29857E+07         0.00000E+00
    0.29857E+07        -0.26471E+08         0.00000E+00
    0.00000E+00         0.00000E+00         0.00000E+00
 
   -0.40487E+06         0.31319E+07         0.00000E+00
    0.31319E+07        -0.26527E+08         0.00000E+00
    0.00000E+00         0.00000E+00         0.00000E+00
 
   -0.28712E+06         0.32813E+07         0.00000E+00
    0.32813E+07        -0.26584E+08         0.00000E+00
    0.00000E+00         0.00000E+00         0.00000E+00
 
   -0.17101E+06         0.34337E+07         0.00000E+00
    0.34337E+07        -0.26640E+08         0.00000E+00
    0.00000E+00         0.00000E+00         0.00000E+00
 
   -0.56695E+05         0.35891E+07         0.00000E+00
    0.35891E+07        -0.26696E+08         0.00000E+00
    0.00000E+00         0.00000E+00         0.00000E+00
 
   -0.66504E+07        -0.31008E+05         0.00000E+00
   -0.31008E+05        -0.25637E+08         0.00000E+00
    0.00000E+00         0.00000E+00         0.00000E+00
 
   -0.65604E+07        -0.74976E+05         0.00000E+00
   -0.74976E+05        -0.25641E+08         0.00000E+00
    0.00000E+00         0.00000E+00         0.00000E+00
 
   -0.64639E+07        -0.11235E+06         0.00000E+00
   -0.11235E+06        -0.25648E+08         0.00000E+00
    0.00000E+00         0.00000E+00         0.00000E+00
 
   -0.63613E+07        -0.14318E+06         0.00000E+00
   -0.14318E+06        -0.25658E+08         0.00000E+00
    0.00000E+00         0.00000E+00         0.00000E+00
 
   -0.62534E+07        -0.16750E+06         0.00000E+00
   -0.16750E+06        -0.25670E+08         0.00000E+00
    0.00000E+00         0.00000E+00         0.00000E+00
 
   -0.61406E+07        -0.18540E+06         0.00000E+00
   -0.18540E+06        -0.25685E+08         0.00000E+00
    0.00000E+00         0.00000E+00         0.00000E+00
 
   -0.60236E+07        -0.19701E+06         0.00000E+00
   -0.19701E+06        -0.25702E+08         0.00000E+00
    0.00000E+00         0.00000E+00         0.00000E+00
 
   -0.59028E+07        -0.20247E+06         0.00000E+00
   -0.20247E+06        -0.25721E+08         0.00000E+00
    0.00000E+00         0.00000E+00         0.00000E+00
 
   -0.57786E+07        -0.20196E+06         0.00000E+00
   -0.20196E+06        -0.25741E+08         0.00000E+00
    0.00000E+00         0.00000E+00         0.00000E+00
 
   -0.56516E+07        -0.19564E+06         0.00000E+00
   -0.19564E+06        -0.25763E+08         0.00000E+00
    0.00000E+00         0.00000E+00         0.00000E+00
 
   -0.55222E+07        -0.18372E+06         0.00000E+00
   -0.18372E+06        -0.25786E+08         0.00000E+00
    0.00000E+00         0.00000E+00         0.00000E+00
 
   -0.53906E+07        -0.16641E+06         0.00000E+00
   -0.16641E+06        -0.25810E+08         0.00000E+00
    0.00000E+00         0.00000E+00         0.00000E+00
 
   -0.52572E+07        -0.14390E+06         0.00000E+00
   -0.14390E+06        -0.25836E+08         0.00000E+00
    0.00000E+00         0.00000E+00         0.00000E+00
 
   -0.51222E+07        -0.11642E+06         0.00000E+00
   -0.11642E+06        -0.25862E+08         0.00000E+00
    0.00000E+00         0.00000E+00         0.00000E+00
 
   -0.49861E+07        -0.84176E+05         0.00000E+00
   -0.84176E+05        -0.25889E+08         0.00000E+00
    0.00000E+00         0.00000E+00         0.00000E+00
 
   -0.48488E+07        -0.47364E+05         0.00000E+00
   -0.47364E+05        -0.25917E+08         0.00000E+00
    0.00000E+00         0.00000E+00         0.00000E+00
 
   -0.47107E+07        -0.61871E+04         0.00000E+00
   -0.61871E+04        -0.25946E+08         0.00000E+00
    0.00000E+00         0.00000E+00         0.00000E+00
 
   -0.45719E+07         0.39170E+05         0.00000E+00
    0.39170E+05        -0.25976E+08         0.00000E+00
    0.00000E+00         0.00000E+00         0.00000E+00
 
   -0.44324E+07         0.88532E+05         0.00000E+00
    0.88532E+05        -0.26006E+08         0.00000E+00
    0.00000E+00         0.00000E+00         0.00000E+00
 
   -0.42925E+07         0.14174E+06         0.00000E+00
    0.14174E+06        -0.26038E+08         0.00000E+00
    0.00000E+00         0.00000E+00         0.00000E+00
 
   -0.41521E+07         0.19864E+06         0.00000E+00
    0.19864E+06        -0.26070E+08         0.00000E+00
    0.00000E+00         0.00000E+00         0.00000E+00
 
   -0.40114E+07         0.25912E+06         0.00000E+00
    0.25912E+06        -0.26103E+08         0.00000E+00
    0.00000E+00         0.00000E+00         0.00000E+00
 
   -0.38703E+07         0.32304E+06         0.00000E+00
    0.32304E+06        -0.26138E+08         0.00000E+00
    0.00000E+00         0.00000E+00         0.00000E+00
 
   -0.37290E+07         0.39032E+06         0.00000E+00
    0.39032E+06        -0.26173E+08         0.00000E+00
    0.00000E+00         0.00000E+00         0.00000E+00
 
   -0.35874E+07         0.46087E+06         0.00000E+00
    0.46087E+06        -0.26209E+08         0.00000E+00
    0.00000E+00         0.00000E+00         0.00000E+00
 
   -0.34455E+07         0.53463E+06         0.00000E+00
    0.53463E+06        -0.26247E+08         0.00000E+00
    0.00000E+00         0.00000E+00         0.00000E+00
 
   -0.33034E+07         0.61154E+06         0.00000E+00
    0.61154E+06        -0.26285E+08         0.00000E+00
    0.00000E+00         0.00000E+00         0.00000E+00
 
   -0.31611E+07         0.69156E+06         0.00000E+00
    0.69156E+06        -0.26325E+08         0.00000E+00
    0.00000E+00         0.00000E+00         0.00000E+00
 
   -0.30185E+07         0.77468E+06         0.00000E+00
    0.77468E+06        -0.26367E+08         0.00000E+00
    0.00000E+00         0.00000E+00         0.00000E+00
 
   -0.28757E+07         0.86089E+06         0.00000E+00
    0.86089E+06        -0.26409E+08         0.00000E+00
    0.00000E+00         0.00000E+00         0.00000E+00
 
   -0.27327E+07         0.95018E+06         0.00000E+00
    0.95018E+06        -0.26453E+08         0.00000E+00
    0.00000E+00         0.00000E+00         0.00000E+00
 
   -0.25895E+07         0.10426E+07         0.00000E+00
    0.10426E+07        -0.26498E+08         0.00000E+00
    0.00000E+00         0.00000E+00         0.00000E+00
 
   -0.24461E+07         0.11381E+07         0.00000E+00
    0.11381E+07        -0.26545E+08         0.00000E+00
    0.00000E+00         0.00000E+00         0.00000E+00
 
   -0.23026E+07         0.12368E+07         0.00000E+00
    0.12368E+07        -0.26593E+08         0.00000E+00
    0.00000E+00         0.00000E+00         0.00000E+00
 
   -0.21590E+07         0.13387E+07         0.00000E+00
    0.13387E+07        -0.26643E+08         0.00000E+00
    0.00000E+00         0.00000E+00         0.00000E+00
 
   -0.20154E+07         0.14439E+07         0.00000E+00
    0.14439E+07        -0.26694E+08         0.00000E+00
    0.00000E+00         0.00000E+00         0.00000E+00
 
   -0.18717E+07         0.15524E+07         0.00000E+00
    0.15524E+07        -0.26746E+08         0.00000E+00
    0.00000E+00         0.00000E+00         0.00000E+00
 
   -0.17282E+07         0.16643E+07         0.00000E+00
    0.16643E+07        -0.26800E+08         0.00000E+00
    0.00000E+00         0.00000E+00         0.00000E+00
 
   -0.15849E+07         0.17796E+07         0.00000E+00
    0.17796E+07        -0.26855E+08         0.00000E+00
    0.00000E+00         0.00000E+00         0.00000E+00
 
   -0.14419E+07         0.18985E+07         0.00000E+00
    0.18985E+07        -0.26912E+08         0.00000E+00
    0.00000E+00         0.00000E+00         0.00000E+00
 
   -0.12993E+07         0.20209E+07         0.00000E+00
    0.20209E+07        -0.26970E+08         0.00000E+00
    0.00000E+00         0.00000E+00         0.00000E+00
 
   -0.11574E+07         0.21469E+07         0.00000E+00
    0.21469E+07        -0.27029E+08         0.00000E+00
    0.00000E+00         0.00000E+00         0.00000E+00
 
   -0.10161E+07         0.22766E+07         0.00000E+00
    0.22766E+07        -0.27089E+08         0.00000E+00
    0.00000E+00         0.00000E+00         0.00000E+00
 
   -0.87584E+06         0.24099E+07         0.00000E+00
    0.24099E+07        -0.27150E+08         0.00000E+00
    0.00000E+00         0.00000E+00         0.00000E+00
 
   -0.73664E+06         0.25471E+07         0.00000E+00
    0.25471E+07        -0.27211E+08         0.00000E+00
    0.00000E+00         0.00000E+00         0.00000E+00
 
   -0.59876E+06         0.26879E+07         0.00000E+00
    0.26879E+07        -0.27274E+08         0.00000E+00
    0.00000E+00         0.00000E+00         0.00000E+00
 
   -0.46240E+06         0.28325E+07         0.00000E+00
    0.28325E+07        -0.27337E+08         0.00000E+00
    0.00000E+00         0.00000E+00         0.00000E+00
 
   -0.32778E+06         0.29807E+07         0.00000E+00
    0.29807E+07        -0.27401E+08         0.00000E+00
    0.00000E+00         0.00000E+00         0.00000E+00
 
   -0.19512E+06         0.31327E+07         0.00000E+00
    0.31327E+07        -0.27465E+08         0.00000E+00
    0.00000E+00         0.00000E+00         0.00000E+00
 
   -0.64652E+05         0.32882E+07         0.00000E+00
    0.32882E+07        -0.27529E+08         0.00000E+00
    0.00000E+00         0.00000E+00         0.00000E+00
 
   -0.77319E+07        -0.42089E+05         0.00000E+00
   -0.42089E+05        -0.26438E+08         0.00000E+00
    0.00000E+00         0.00000E+00         0.00000E+00
 
   -0.76046E+07        -0.10318E+06         0.00000E+00
   -0.10318E+06        -0.26442E+08         0.00000E+00
    0.00000E+00         0.00000E+00         0.00000E+00
 
   -0.74708E+07        -0.15584E+06         0.00000E+00
   -0.15584E+06        -0.26449E+08         0.00000E+00
    0.00000E+00         0.00000E+00         0.00000E+00
 
   -0.73314E+07        -0.20014E+06         0.00000E+00
   -0.20014E+06        -0.26458E+08         0.00000E+00
    0.00000E+00         0.00000E+00         0.00000E+00
 
   -0.71874E+07        -0.23628E+06         0.00000E+00
   -0.23628E+06        -0.26470E+08         0.00000E+00
    0.00000E+00         0.00000E+00         0.00000E+00
 
   -0.70393E+07        -0.26450E+06         0.00000E+00
   -0.26450E+06        -0.26484E+08         0.00000E+00
    0.00000E+00         0.00000E+00         0.00000E+00
 
   -0.68880E+07        -0.28508E+06         0.00000E+00
   -0.28508E+06        -0.26500E+08         0.00000E+00
    0.00000E+00         0.00000E+00         0.00000E+00
 
   -0.67340E+07        -0.29829E+06         0.00000E+00
   -0.29829E+06        -0.26517E+08         0.00000E+00
    0.00000E+00         0.00000E+00         0.00000E+00
 
   -0.65779E+07        -0.30447E+06         0.00000E+00
   -0.30447E+06        -0.26535E+08         0.00000E+00
    0.00000E+00         0.00000E+00         0.00000E+00
 
   -0.64203E+07        -0.30395E+06         0.00000E+00
   -0.30395E+06        -0.26554E+08         0.00000E+00
    0.00000E+00         0.00000E+00         0.00000E+00
 
   -0.62616E+07        -0.29709E+06         0.00000E+00
   -0.29709E+06        -0.26573E+08         0.00000E+00
    0.00000E+00         0.00000E+00         0.00000E+00
 
   -0.61022E+07        -0.28428E+06         0.00000E+00
   -0.28428E+06        -0.26593E+08         0.00000E+00
    0.00000E+00         0.00000E+00         0.00000E+00
 
   -0.59424E+07        -0.26586E+06         0.00000E+00
   -0.26586E+06        -0.26614E+08         0.00000E+00
    0.00000E+00         0.00000E+00         0.00000E+00
 
   -0.57825E+07        -0.24220E+06         0.00000E+00
   -0.24220E+06        -0.26636E+08         0.00000E+00
    0.00000E+00         0.00000E+00         0.00000E+00
 
   -0.56226E+07        -0.21363E+06         0.00000E+00
   -0.21363E+06        -0.26657E+08         0.00000E+00
    0.00000E+00         0.00000E+00         0.00000E+00
 
   -0.54629E+07        -0.18049E+06         0.00000E+00
   -0.18049E+06        -0.26680E+08         0.00000E+00
    0.00000E+00         0.00000E+00         0.00000E+00
 
   -0.53035E+07        -0.14306E+06         0.00000E+00
   -0.14306E+06        -0.26703E+08         0.00000E+00
    0.00000E+00         0.00000E+00         0.00000E+00
 
   -0.51445E+07        -0.10161E+06         0.00000E+00
   -0.10161E+06        -0.26726E+08         0.00000E+00
    0.00000E+00         0.00000E+00         0.00000E+00
 
   -0.49858E+07        -0.56389E+05         0.00000E+00
   -0.56389E+05        -0.26751E+08         0.00000E+00
    0.00000E+00         0.00000E+00         0.00000E+00
 
   -0.48276E+07        -0.76050E+04         0.00000E+00
   -0.76050E+04        -0.26776E+08         0.00000E+00
    0.00000E+00         0.00000E+00         0.00000E+00
 
   -0.46697E+07         0.44552E+05         0.00000E+00
    0.44552E+05        -0.26802E+08         0.00000E+00
    0.00000E+00         0.00000E+00         0.00000E+00
 
   -0.45121E+07         0.99923E+05         0.00000E+00
    0.99923E+05        -0.26829E+08         0.00000E+00
    0.00000E+00         0.00000E+00         0.00000E+00
 
   -0.43548E+07         0.15837E+06         0.00000E+00
    0.15837E+06        -0.26858E+08         0.00000E+00
    0.00000E+00         0.00000E+00         0.00000E+00
 
   -0.41976E+07         0.21979E+06         0.00000E+00
    0.21979E+06        -0.26888E+08         0.00000E+00
    0.00000E+00         0.00000E+00         0.00000E+00
 
   -0.40406E+07         0.28410E+06         0.00000E+00
    0.28410E+06        -0.26919E+08         0.00000E+00
    0.00000E+00         0.00000E+00         0.00000E+00
 
   -0.38836E+07         0.35122E+06         0.00000E+00
    0.35122E+06        -0.26951E+08         0.00000E+00
    0.00000E+00         0.00000E+00         0.00000E+00
 
   -0.37265E+07         0.42113E+06         0.00000E+00
    0.42113E+06        -0.26985E+08         0.00000E+00
    0.00000E+00         0.00000E+00         0.00000E+00
 
   -0.35693E+07         0.49379E+06         0.00000E+00
    0.49379E+06        -0.27021E+08         0.00000E+00
    0.00000E+00         0.00000E+00         0.00000E+00
 
   -0.34119E+07         0.56922E+06         0.00000E+00
    0.56922E+06        -0.27059E+08         0.00000E+00
    0.00000E+00         0.00000E+00         0.00000E+00
 
   -0.32542E+07         0.64743E+06         0.00000E+00
    0.64743E+06        -0.27098E+08         0.00000E+00
    0.00000E+00         0.00000E+00         0.00000E+00
 
   -0.30962E+07         0.72846E+06         0.00000E+00
    0.72846E+06        -0.27140E+08         0.00000E+00
    0.00000E+00         0.00000E+00         0.00000E+00
 
   -0.29378E+07         0.81236E+06         0.00000E+00
    0.81236E+06        -0.27183E+08         0.00000E+00
    0.00000E+00         0.00000E+00         0.00000E+00
 
   -0.27789E+07         0.89921E+06         0.00000E+00
    0.89921E+06        -0.27228E+08         0.00000E+00
    0.00000E+00         0.00000E+00         0.00000E+00
 
   -0.26196E+07         0.98910E+06         0.00000E+00
    0.98910E+06        -0.27276E+08         0.00000E+00
    0.00000E+00         0.00000E+00         0.00000E+00
 
   -0.24597E+07         0.10821E+07         0.00000E+00
    0.10821E+07        -0.27326E+08         0.00000E+00
    0.00000E+00         0.00000E+00         0.00000E+00
 
   -0.22994E+07         0.11784E+07         0.00000E+00
    0.11784E+07        -0.27378E+08         0.00000E+00
    0.00000E+00         0.00000E+00         0.00000E+00
 
   -0.21386E+07         0.12781E+07         0.00000E+00
    0.12781E+07        -0.27432E+08         0.00000E+00
    0.00000E+00         0.00000E+00         0.00000E+00
 
   -0.19775E+07         0.13813E+07         0.00000E+00
    0.13813E+07        -0.27489E+08         0.00000E+00
    0.00000E+00         0.00000E+00         0.00000E+00
 
   -0.18160E+07         0.14882E+07         0.00000E+00
    0.14882E+07        -0.27547E+08         0.00000E+00
    0.00000E+00         0.00000E+00         0.00000E+00
 
   -0.16544E+07         0.15989E+07         0.00000E+00
    0.15989E+07        -0.27608E+08         0.00000E+00
    0.00000E+00         0.00000E+00         0.00000E+00
 
   -0.14927E+07         0.17136E+07         0.00000E+00
    0.17136E+07        -0.27671E+08         0.00000E+00
    0.00000E+00         0.00000E+00         0.00000E+00
 
   -0.13312E+07         0.18324E+07         0.00000E+00
    0.18324E+07        -0.27735E+08         0.00000E+00
    0.00000E+00         0.00000E+00         0.00000E+00
 
   -0.11700E+07         0.19554E+07         0.00000E+00
    0.19554E+07        -0.27802E+08         0.00000E+00
    0.00000E+00         0.00000E+00         0.00000E+00
 
   -0.10093E+07         0.20828E+07         0.00000E+00
    0.20828E+07        -0.27870E+08         0.00000E+00
    0.00000E+00         0.00000E+00         0.00000E+00
 
   -0.84956E+06         0.22147E+07         0.00000E+00
    0.22147E+07        -0.27940E+08         0.00000E+00
    0.00000E+00         0.00000E+00         0.00000E+00
 
   -0.69092E+06         0.23512E+07         0.00000E+00
    0.23512E+07        -0.28011E+08         0.00000E+00
    0.00000E+00         0.00000E+00         0.00000E+00
 
   -0.53375E+06         0.24923E+07         0.00000E+00
    0.24923E+07        -0.28083E+08         0.00000E+00
    0.00000E+00         0.00000E+00         0.00000E+00
 
   -0.37839E+06         0.26380E+07         0.00000E+00
    0.26380E+07        -0.28156E+08         0.00000E+00
    0.00000E+00         0.00000E+00         0.00000E+00
 
   -0.22524E+06         0.27884E+07         0.00000E+00
    0.27884E+07        -0.28230E+08         0.00000E+00
    0.00000E+00         0.00000E+00         0.00000E+00
 
   -0.74636E+05         0.29433E+07         0.00000E+00
    0.29433E+07        -0.28303E+08         0.00000E+00
    0.00000E+00         0.00000E+00         0.00000E+00
 
   -0.89034E+07        -0.54359E+05         0.00000E+00
   -0.54359E+05        -0.27238E+08         0.00000E+00
    0.00000E+00         0.00000E+00         0.00000E+00
 
   -0.87273E+07        -0.13189E+06         0.00000E+00
   -0.13189E+06        -0.27242E+08         0.00000E+00
    0.00000E+00         0.00000E+00         0.00000E+00
 
   -0.85455E+07        -0.19824E+06         0.00000E+00
   -0.19824E+06        -0.27248E+08         0.00000E+00
    0.00000E+00         0.00000E+00         0.00000E+00
 
   -0.83595E+07        -0.25398E+06         0.00000E+00
   -0.25398E+06        -0.27257E+08         0.00000E+00
    0.00000E+00         0.00000E+00         0.00000E+00
 
   -0.81701E+07        -0.29940E+06         0.00000E+00
   -0.29940E+06        -0.27268E+08         0.00000E+00
    0.00000E+00         0.00000E+00         0.00000E+00
 
   -0.79785E+07        -0.33485E+06         0.00000E+00
   -0.33485E+06        -0.27279E+08         0.00000E+00
    0.00000E+00         0.00000E+00         0.00000E+00
 
   -0.77856E+07        -0.36083E+06         0.00000E+00
   -0.36083E+06        -0.27292E+08         0.00000E+00
    0.00000E+00         0.00000E+00         0.00000E+00
 
   -0.75924E+07        -0.37793E+06         0.00000E+00
   -0.37793E+06        -0.27304E+08         0.00000E+00
    0.00000E+00         0.00000E+00         0.00000E+00
 
   -0.73995E+07        -0.38682E+06         0.00000E+00
   -0.38682E+06        -0.27317E+08         0.00000E+00
    0.00000E+00         0.00000E+00         0.00000E+00
 
   -0.72076E+07        -0.38820E+06         0.00000E+00
   -0.38820E+06        -0.27329E+08         0.00000E+00
    0.00000E+00         0.00000E+00         0.00000E+00
 
   -0.70171E+07        -0.38276E+06         0.00000E+00
   -0.38276E+06        -0.27341E+08         0.00000E+00
    0.00000E+00         0.00000E+00         0.00000E+00
 
   -0.68284E+07        -0.37114E+06         0.00000E+00
   -0.37114E+06        -0.27353E+08         0.00000E+00
    0.00000E+00         0.00000E+00         0.00000E+00
 
   -0.66416E+07        -0.35396E+06         0.00000E+00
   -0.35396E+06        -0.27365E+08         0.00000E+00
    0.00000E+00         0.00000E+00         0.00000E+00
 
   -0.64568E+07        -0.33176E+06         0.00000E+00
   -0.33176E+06        -0.27377E+08         0.00000E+00
    0.00000E+00         0.00000E+00         0.00000E+00
 
   -0.62740E+07        -0.30504E+06         0.00000E+00
   -0.30504E+06        -0.27388E+08         0.00000E+00
    0.00000E+00         0.00000E+00         0.00000E+00
 
   -0.60933E+07        -0.27423E+06         0.00000E+00
   -0.27423E+06        -0.27401E+08         0.00000E+00
    0.00000E+00         0.00000E+00         0.00000E+00
 
   -0.59144E+07        -0.23970E+06         0.00000E+00
   -0.23970E+06        -0.27413E+08         0.00000E+00
    0.00000E+00         0.00000E+00         0.00000E+00
 
   -0.57373E+07        -0.20180E+06         0.00000E+00
   -0.20180E+06        -0.27426E+08         0.00000E+00
    0.00000E+00         0.00000E+00         0.00000E+00
 
   -0.55618E+07        -0.16079E+06         0.00000E+00
   -0.16079E+06        -0.27440E+08         0.00000E+00
    0.00000E+00         0.00000E+00         0.00000E+00
 
   -0.53878E+07        -0.11691E+06         0.00000E+00
   -0.11691E+06        -0.27455E+08         0.00000E+00
    0.00000E+00         0.00000E+00         0.00000E+00
 
   -0.52150E+07        -0.70361E+05         0.00000E+00
   -0.70361E+05        -0.27472E+08         0.00000E+00
    0.00000E+00         0.00000E+00         0.00000E+00
 
   -0.50432E+07        -0.21297E+05         0.00000E+00
   -0.21297E+05        -0.27489E+08         0.00000E+00
    0.00000E+00         0.00000E+00         0.00000E+00
 
   -0.48723E+07         0.30156E+05         0.00000E+00
    0.30156E+05        -0.27508E+08         0.00000E+00
    0.00000E+00         0.00000E+00         0.00000E+00
 
   -0.47020E+07         0.83903E+05         0.00000E+00
    0.83903E+05        -0.27529E+08         0.00000E+00
    0.00000E+00         0.00000E+00         0.00000E+00
 
   -0.45322E+07         0.13988E+06         0.00000E+00
    0.13988E+06        -0.27552E+08         0.00000E+00
    0.00000E+00         0.00000E+00         0.00000E+00
 
   -0.43626E+07         0.19804E+06         0.00000E+00
    0.19804E+06        -0.27577E+08         0.00000E+00
    0.00000E+00         0.00000E+00         0.00000E+00
 
   -0.41930E+07         0.25837E+06         0.00000E+00
    0.25837E+06        -0.27604E+08         0.00000E+00
    0.00000E+00         0.00000E+00         0.00000E+00
 
   -0.40233E+07         0.32088E+06         0.00000E+00
    0.32088E+06        -0.27633E+08         0.00000E+00
    0.00000E+00         0.00000E+00         0.00000E+00
 
   -0.38532E+07         0.38560E+06         0.00000E+00
    0.38560E+06        -0.27665E+08         0.00000E+00
    0.00000E+00         0.00000E+00         0.00000E+00
 
   -0.36827E+07         0.45259E+06         0.00000E+00
    0.45259E+06        -0.27699E+08         0.00000E+00
    0.00000E+00         0.00000E+00         0.00000E+00
 
   -0.35114E+07         0.52192E+06         0.00000E+00
    0.52192E+06        -0.27736E+08         0.00000E+00
    0.00000E+00         0.00000E+00         0.00000E+00
 
   -0.33393E+07         0.59369E+06         0.00000E+00
    0.59369E+06        -0.27776E+08         0.00000E+00
    0.00000E+00         0.00000E+00         0.00000E+00
 
   -0.31663E+07         0.66802E+06         0.00000E+00
    0.66802E+06        -0.27819E+08         0.00000E+00
    0.00000E+00         0.00000E+00         0.00000E+00
 
   -0.29921E+07         0.74507E+06         0.00000E+00
    0.74507E+06        -0.27864E+08         0.00000E+00
    0.00000E+00         0.00000E+00         0.00000E+00
 
   -0.28167E+07         0.82499E+06         0.00000E+00
    0.82499E+06        -0.27913E+08         0.00000E+00
    0.00000E+00         0.00000E+00         0.00000E+00
 
   -0.26400E+07         0.90798E+06         0.00000E+00
    0.90798E+06        -0.27965E+08         0.00000E+00
    0.00000E+00         0.00000E+00         0.00000E+00
 
   -0.24620E+07         0.99427E+06         0.00000E+00
    0.99427E+06        -0.28020E+08         0.00000E+00
    0.00000E+00         0.00000E+00         0.00000E+00
 
   -0.22825E+07         0.10841E+07         0.00000E+00
    0.10841E+07        -0.28079E+08         0.00000E+00
    0.00000E+00         0.00000E+00         0.00000E+00
 
   -0.21018E+07         0.11777E+07         0.00000E+00
    0.11777E+07        -0.28141E+08         0.00000E+00
    0.00000E+00         0.00000E+00         0.00000E+00
 
   -0.19197E+07         0.12754E+07         0.00000E+00
    0.12754E+07        -0.28206E+08         0.00000E+00
    0.00000E+00         0.00000E+00         0.00000E+00
 
   -0.17365E+07         0.13776E+07         0.00000E+00
    0.13776E+07        -0.28274E+08         0.00000E+00
    0.00000E+00         0.00000E+00         0.00000E+00
 
   -0.15523E+07         0.14844E+07         0.00000E+00
    0.14844E+07        -0.28345E+08         0.00000E+00
    0.00000E+00         0.00000E+00         0.00000E+00
 
   -0.13674E+07         0.15963E+07         0.00000E+00
    0.15963E+07        -0.28420E+08         0.00000E+00
    0.00000E+00         0.00000E+00         0.00000E+00
 
   -0.11822E+07         0.17135E+07         0.00000E+00
    0.17135E+07        -0.28497E+08         0.00000E+00
    0.00000E+00         0.00000E+00         0.00000E+00
 
   -0.99691E+06         0.18363E+07         0.00000E+00
    0.18363E+07        -0.28576E+08         0.00000E+00
    0.00000E+00         0.00000E+00         0.00000E+00
 
   -0.81213E+06         0.19650E+07         0.00000E+00
    0.19650E+07        -0.28658E+08         0.00000E+00
    0.00000E+00         0.00000E+00         0.00000E+00
 
   -0.62830E+06         0.20996E+07         0.00000E+00
    0.20996E+07        -0.28742E+08         0.00000E+00
    0.00000E+00         0.00000E+00         0.00000E+00
 
   -0.44592E+06         0.22404E+07         0.00000E+00
    0.22404E+07        -0.28827E+08         0.00000E+00
    0.00000E+00         0.00000E+00         0.00000E+00
 
   -0.26552E+06         0.23874E+07         0.00000E+00
    0.23874E+07        -0.28914E+08         0.00000E+00
    0.00000E+00         0.00000E+00         0.00000E+00
 
   -0.87940E+05         0.25411E+07         0.00000E+00
    0.25411E+07        -0.29002E+08         0.00000E+00
    0.00000E+00         0.00000E+00         0.00000E+00
 
   -0.10160E+08        -0.67000E+05         0.00000E+00
   -0.67000E+05        -0.28034E+08         0.00000E+00
    0.00000E+00         0.00000E+00         0.00000E+00
 
   -0.99185E+07        -0.15959E+06         0.00000E+00
   -0.15959E+06        -0.28038E+08         0.00000E+00
    0.00000E+00         0.00000E+00         0.00000E+00
 
   -0.96726E+07        -0.23760E+06         0.00000E+00
   -0.23760E+06        -0.28045E+08         0.00000E+00
    0.00000E+00         0.00000E+00         0.00000E+00
 
   -0.94241E+07        -0.30018E+06         0.00000E+00
   -0.30018E+06        -0.28053E+08         0.00000E+00
    0.00000E+00         0.00000E+00         0.00000E+00
 
   -0.91754E+07        -0.34805E+06         0.00000E+00
   -0.34805E+06        -0.28060E+08         0.00000E+00
    0.00000E+00         0.00000E+00         0.00000E+00
 
   -0.89290E+07        -0.38267E+06         0.00000E+00
   -0.38267E+06        -0.28066E+08         0.00000E+00
    0.00000E+00         0.00000E+00         0.00000E+00
 
   -0.86863E+07        -0.40569E+06         0.00000E+00
   -0.40569E+06        -0.28069E+08         0.00000E+00
    0.00000E+00         0.00000E+00         0.00000E+00
 
   -0.84483E+07        -0.41872E+06         0.00000E+00
   -0.41872E+06        -0.28071E+08         0.00000E+00
    0.00000E+00         0.00000E+00         0.00000E+00
 
   -0.82158E+07        -0.42323E+06         0.00000E+00
   -0.42323E+06        -0.28071E+08         0.00000E+00
    0.00000E+00         0.00000E+00         0.00000E+00
 
   -0.79889E+07        -0.42052E+06         0.00000E+00
   -0.42052E+06        -0.28069E+08         0.00000E+00
    0.00000E+00         0.00000E+00         0.00000E+00
 
   -0.77675E+07        -0.41166E+06         0.00000E+00
   -0.41166E+06        -0.28066E+08         0.00000E+00
    0.00000E+00         0.00000E+00         0.00000E+00
 
   -0.75517E+07        -0.39760E+06         0.00000E+00
   -0.39760E+06        -0.28062E+08         0.00000E+00
    0.00000E+00         0.00000E+00         0.00000E+00
 
   -0.73409E+07        -0.37909E+06         0.00000E+00
   -0.37909E+06        -0.28058E+08         0.00000E+00
    0.00000E+00         0.00000E+00         0.00000E+00
 
   -0.71350E+07        -0.35678E+06         0.00000E+00
   -0.35678E+06        -0.28053E+08         0.00000E+00
    0.00000E+00         0.00000E+00         0.00000E+00
 
   -0.69335E+07        -0.33119E+06         0.00000E+00
   -0.33119E+06        -0.28049E+08         0.00000E+00
    0.00000E+00         0.00000E+00         0.00000E+00
 
   -0.67361E+07        -0.30274E+06         0.00000E+00
   -0.30274E+06        -0.28045E+08         0.00000E+00
    0.00000E+00         0.00000E+00         0.00000E+00
 
   -0.65422E+07        -0.27179E+06         0.00000E+00
   -0.27179E+06        -0.28042E+08         0.00000E+00
    0.00000E+00         0.00000E+00         0.00000E+00
 
   -0.63516E+07        -0.23862E+06         0.00000E+00
   -0.23862E+06        -0.28040E+08         0.00000E+00
    0.00000E+00         0.00000E+00         0.00000E+00
 
   -0.61637E+07        -0.20347E+06         0.00000E+00
   -0.20347E+06        -0.28040E+08         0.00000E+00
    0.00000E+00         0.00000E+00         0.00000E+00
 
   -0.59783E+07        -0.16650E+06         0.00000E+00
   -0.16650E+06        -0.28041E+08         0.00000E+00
    0.00000E+00         0.00000E+00         0.00000E+00
 
   -0.57948E+07        -0.12787E+06         0.00000E+00
   -0.12787E+06        -0.28044E+08         0.00000E+00
    0.00000E+00         0.00000E+00         0.00000E+00
 
   -0.56130E+07        -0.87675E+05         0.00000E+00
   -0.87675E+05        -0.28049E+08         0.00000E+00
    0.00000E+00         0.00000E+00         0.00000E+00
 
   -0.54326E+07        -0.45995E+05         0.00000E+00
   -0.45995E+05        -0.28056E+08         0.00000E+00
    0.00000E+00         0.00000E+00         0.00000E+00
 
   -0.52530E+07        -0.28803E+04         0.00000E+00
   -0.28803E+04        -0.28066E+08         0.00000E+00
    0.00000E+00         0.00000E+00         0.00000E+00
 
   -0.50741E+07         0.41644E+05         0.00000E+00
    0.41644E+05        -0.28078E+08         0.00000E+00
    0.00000E+00         0.00000E+00         0.00000E+00
 
   -0.48955E+07         0.87573E+05         0.00000E+00
    0.87573E+05        -0.28093E+08         0.00000E+00
    0.00000E+00         0.00000E+00         0.00000E+00
 
   -0.47168E+07         0.13493E+06         0.00000E+00
    0.13493E+06        -0.28111E+08         0.00000E+00
    0.00000E+00         0.00000E+00         0.00000E+00
 
   -0.45379E+07         0.18374E+06         0.00000E+00
    0.18374E+06        -0.28132E+08         0.00000E+00
    0.00000E+00         0.00000E+00         0.00000E+00
 
   -0.43583E+07         0.23406E+06         0.00000E+00
    0.23406E+06        -0.28156E+08         0.00000E+00
    0.00000E+00         0.00000E+00         0.00000E+00
 
   -0.41778E+07         0.28598E+06         0.00000E+00
    0.28598E+06        -0.28184E+08         0.00000E+00
    0.00000E+00         0.00000E+00         0.00000E+00
 
   -0.39962E+07         0.33959E+06         0.00000E+00
    0.33959E+06        -0.28215E+08         0.00000E+00
    0.00000E+00         0.00000E+00         0.00000E+00
 
   -0.38131E+07         0.39501E+06         0.00000E+00
    0.39501E+06        -0.28250E+08         0.00000E+00
    0.00000E+00         0.00000E+00         0.00000E+00
 
   -0.36282E+07         0.45239E+06         0.00000E+00
    0.45239E+06        -0.28288E+08         0.00000E+00
    0.00000E+00         0.00000E+00         0.00000E+00
 
   -0.34414E+07         0.51190E+06         0.00000E+00
    0.51190E+06        -0.28331E+08         0.00000E+00
    0.00000E+00         0.00000E+00         0.00000E+00
 
   -0.32524E+07         0.57373E+06         0.00000E+00
    0.57373E+06        -0.28377E+08         0.00000E+00
    0.00000E+00         0.00000E+00         0.00000E+00
 
   -0.30609E+07         0.63814E+06         0.00000E+00
    0.63814E+06        -0.28428E+08         0.00000E+00
    0.00000E+00         0.00000E+00         0.00000E+00
 
   -0.28667E+07         0.70540E+06         0.00000E+00
    0.70540E+06        -0.28483E+08         0.00000E+00
    0.00000E+00         0.00000E+00         0.00000E+00
 
   -0.26696E+07         0.77582E+06         0.00000E+00
    0.77582E+06        -0.28543E+08         0.00000E+00
    0.00000E+00         0.00000E+00         0.00000E+00
 
   -0.24694E+07         0.84978E+06         0.00000E+00
    0.84978E+06        -0.28607E+08         0.00000E+00
    0.00000E+00         0.00000E+00         0.00000E+00
 
   -0.22661E+07         0.92770E+06         0.00000E+00
    0.92770E+06        -0.28676E+08         0.00000E+00
    0.00000E+00         0.00000E+00         0.00000E+00
 
   -0.20594E+07         0.10101E+07         0.00000E+00
    0.10101E+07        -0.28749E+08         0.00000E+00
    0.00000E+00         0.00000E+00         0.00000E+00
 
   -0.18496E+07         0.10975E+07         0.00000E+00
    0.10975E+07        -0.28828E+08         0.00000E+00
    0.00000E+00         0.00000E+00         0.00000E+00
 
   -0.16366E+07         0.11906E+07         0.00000E+00
    0.11906E+07        -0.28911E+08         0.00000E+00
    0.00000E+00         0.00000E+00         0.00000E+00
 
   -0.14208E+07         0.12901E+07         0.00000E+00
    0.12901E+07        -0.28999E+08         0.00000E+00
    0.00000E+00         0.00000E+00         0.00000E+00
 
   -0.12027E+07         0.13967E+07         0.00000E+00
    0.13967E+07        -0.29092E+08         0.00000E+00
    0.00000E+00         0.00000E+00         0.00000E+00
 
   -0.98287E+06         0.15113E+07         0.00000E+00
    0.15113E+07        -0.29189E+08         0.00000E+00
    0.00000E+00         0.00000E+00         0.00000E+00
 
   -0.76242E+06         0.16344E+07         0.00000E+00
    0.16344E+07        -0.29290E+08         0.00000E+00
    0.00000E+00         0.00000E+00         0.00000E+00
 
   -0.54251E+06         0.17667E+07         0.00000E+00
    0.17667E+07        -0.29393E+08         0.00000E+00
    0.00000E+00         0.00000E+00         0.00000E+00
 
   -0.32428E+06         0.19080E+07         0.00000E+00
    0.19080E+07        -0.29499E+08         0.00000E+00
    0.00000E+00         0.00000E+00         0.00000E+00
 
   -0.10785E+06         0.20570E+07         0.00000E+00
    0.20570E+07        -0.29604E+08         0.00000E+00
    0.00000E+00         0.00000E+00         0.00000E+00
 
   -0.11496E+08        -0.89990E+05         0.00000E+00
   -0.89990E+05        -0.28833E+08         0.00000E+00
    0.00000E+00         0.00000E+00         0.00000E+00
 
   -0.11148E+08        -0.19372E+06         0.00000E+00
   -0.19372E+06        -0.28843E+08         0.00000E+00
    0.00000E+00         0.00000E+00         0.00000E+00
 
   -0.10801E+08        -0.26501E+06         0.00000E+00
   -0.26501E+06        -0.28846E+08         0.00000E+00
    0.00000E+00         0.00000E+00         0.00000E+00
 
   -0.10464E+08        -0.31249E+06         0.00000E+00
   -0.31249E+06        -0.28841E+08         0.00000E+00
    0.00000E+00         0.00000E+00         0.00000E+00
 
   -0.10141E+08        -0.34247E+06         0.00000E+00
   -0.34247E+06        -0.28829E+08         0.00000E+00
    0.00000E+00         0.00000E+00         0.00000E+00
 
   -0.98337E+07        -0.35952E+06         0.00000E+00
   -0.35952E+06        -0.28812E+08         0.00000E+00
    0.00000E+00         0.00000E+00         0.00000E+00
 
   -0.95412E+07        -0.36692E+06         0.00000E+00
   -0.36692E+06        -0.28791E+08         0.00000E+00
    0.00000E+00         0.00000E+00         0.00000E+00
 
   -0.92627E+07        -0.36704E+06         0.00000E+00
   -0.36704E+06        -0.28766E+08         0.00000E+00
    0.00000E+00         0.00000E+00         0.00000E+00
 
   -0.89970E+07        -0.36160E+06         0.00000E+00
   -0.36160E+06        -0.28740E+08         0.00000E+00
    0.00000E+00         0.00000E+00         0.00000E+00
 
   -0.87428E+07        -0.35188E+06         0.00000E+00
   -0.35188E+06        -0.28712E+08         0.00000E+00
    0.00000E+00         0.00000E+00         0.00000E+00
 
   -0.84991E+07        -0.33880E+06         0.00000E+00
   -0.33880E+06        -0.28684E+08         0.00000E+00
    0.00000E+00         0.00000E+00         0.00000E+00
 
   -0.82646E+07        -0.32306E+06         0.00000E+00
   -0.32306E+06        -0.28655E+08         0.00000E+00
    0.00000E+00         0.00000E+00         0.00000E+00
 
   -0.80383E+07        -0.30518E+06         0.00000E+00
   -0.30518E+06        -0.28628E+08         0.00000E+00
    0.00000E+00         0.00000E+00         0.00000E+00
 
   -0.78193E+07        -0.28556E+06         0.00000E+00
   -0.28556E+06        -0.28601E+08         0.00000E+00
    0.00000E+00         0.00000E+00         0.00000E+00
 
   -0.76067E+07        -0.26450E+06         0.00000E+00
   -0.26450E+06        -0.28576E+08         0.00000E+00
    0.00000E+00         0.00000E+00         0.00000E+00
 
   -0.73996E+07        -0.24222E+06         0.00000E+00
   -0.24222E+06        -0.28553E+08         0.00000E+00
    0.00000E+00         0.00000E+00         0.00000E+00
 
   -0.71973E+07        -0.21890E+06         0.00000E+00
   -0.21890E+06        -0.28532E+08         0.00000E+00
    0.00000E+00         0.00000E+00         0.00000E+00
 
   -0.69993E+07        -0.19466E+06         0.00000E+00
   -0.19466E+06        -0.28513E+08         0.00000E+00
    0.00000E+00         0.00000E+00         0.00000E+00
 
   -0.68047E+07        -0.16960E+06         0.00000E+00
   -0.16960E+06        -0.28496E+08         0.00000E+00
    0.00000E+00         0.00000E+00         0.00000E+00
 
   -0.66132E+07        -0.14379E+06         0.00000E+00
   -0.14379E+06        -0.28483E+08         0.00000E+00
    0.00000E+00         0.00000E+00         0.00000E+00
 
   -0.64241E+07        -0.11728E+06         0.00000E+00
   -0.11728E+06        -0.28472E+08         0.00000E+00
    0.00000E+00         0.00000E+00         0.00000E+00
 
   -0.62369E+07        -0.90105E+05         0.00000E+00
   -0.90105E+05        -0.28464E+08         0.00000E+00
    0.00000E+00         0.00000E+00         0.00000E+00
 
   -0.60513E+07        -0.62270E+05         0.00000E+00
   -0.62270E+05        -0.28459E+08         0.00000E+00
    0.00000E+00         0.00000E+00         0.00000E+00
 
   -0.58666E+07        -0.33779E+05         0.00000E+00
   -0.33779E+05        -0.28458E+08         0.00000E+00
    0.00000E+00         0.00000E+00         0.00000E+00
 
   -0.56826E+07        -0.46232E+04         0.00000E+00
   -0.46232E+04        -0.28460E+08         0.00000E+00
    0.00000E+00         0.00000E+00         0.00000E+00
 
   -0.54988E+07         0.25221E+05         0.00000E+00
    0.25221E+05        -0.28465E+08         0.00000E+00
    0.00000E+00         0.00000E+00         0.00000E+00
 
   -0.53149E+07         0.55787E+05         0.00000E+00
    0.55787E+05        -0.28474E+08         0.00000E+00
    0.00000E+00         0.00000E+00         0.00000E+00
 
   -0.51303E+07         0.87121E+05         0.00000E+00
    0.87121E+05        -0.28487E+08         0.00000E+00
    0.00000E+00         0.00000E+00         0.00000E+00
 
   -0.49448E+07         0.11928E+06         0.00000E+00
    0.11928E+06        -0.28504E+08         0.00000E+00
    0.00000E+00         0.00000E+00         0.00000E+00
 
   -0.47580E+07         0.15233E+06         0.00000E+00
    0.15233E+06        -0.28525E+08         0.00000E+00
    0.00000E+00         0.00000E+00         0.00000E+00
 
   -0.45695E+07         0.18635E+06         0.00000E+00
    0.18635E+06        -0.28550E+08         0.00000E+00
    0.00000E+00         0.00000E+00         0.00000E+00
 
   -0.43789E+07         0.22145E+06         0.00000E+00
    0.22145E+06        -0.28580E+08         0.00000E+00
    0.00000E+00         0.00000E+00         0.00000E+00
 
   -0.41859E+07         0.25775E+06         0.00000E+00
    0.25775E+06        -0.28614E+08         0.00000E+00
    0.00000E+00         0.00000E+00         0.00000E+00
 
   -0.39900E+07         0.29538E+06         0.00000E+00
    0.29538E+06        -0.28653E+08         0.00000E+00
    0.00000E+00         0.00000E+00         0.00000E+00
 
   -0.37908E+07         0.33450E+06         0.00000E+00
    0.33450E+06        -0.28696E+08         0.00000E+00
    0.00000E+00         0.00000E+00         0.00000E+00
 
   -0.35880E+07         0.37533E+06         0.00000E+00
    0.37533E+06        -0.28744E+08         0.00000E+00
    0.00000E+00         0.00000E+00         0.00000E+00
 
   -0.33810E+07         0.41808E+06         0.00000E+00
    0.41808E+06        -0.28798E+08         0.00000E+00
    0.00000E+00         0.00000E+00         0.00000E+00
 
   -0.31694E+07         0.46304E+06         0.00000E+00
    0.46304E+06        -0.28857E+08         0.00000E+00
    0.00000E+00         0.00000E+00         0.00000E+00
 
   -0.29527E+07         0.51057E+06         0.00000E+00
    0.51057E+06        -0.28922E+08         0.00000E+00
    0.00000E+00         0.00000E+00         0.00000E+00
 
   -0.27305E+07         0.56106E+06         0.00000E+00
    0.56106E+06        -0.28993E+08         0.00000E+00
    0.00000E+00         0.00000E+00         0.00000E+00
 
   -0.25021E+07         0.61504E+06         0.00000E+00
    0.61504E+06        -0.29071E+08         0.00000E+00
    0.00000E+00         0.00000E+00         0.00000E+00
 
   -0.22671E+07         0.67315E+06         0.00000E+00
    0.67315E+06        -0.29155E+08         0.00000E+00
    0.00000E+00         0.00000E+00         0.00000E+00
 
   -0.20249E+07         0.73619E+06         0.00000E+00
    0.73619E+06        -0.29246E+08         0.00000E+00
    0.00000E+00         0.00000E+00         0.00000E+00
 
   -0.17751E+07         0.80517E+06         0.00000E+00
    0.80517E+06        -0.29344E+08         0.00000E+00
    0.00000E+00         0.00000E+00         0.00000E+00
 
   -0.15172E+07         0.88140E+06         0.00000E+00
    0.88140E+06        -0.29450E+08         0.00000E+00
    0.00000E+00         0.00000E+00         0.00000E+00
 
   -0.12512E+07         0.96655E+06         0.00000E+00
    0.96655E+06        -0.29565E+08         0.00000E+00
    0.00000E+00         0.00000E+00         0.00000E+00
 
   -0.97760E+06         0.10628E+07         0.00000E+00
    0.10628E+07        -0.29687E+08         0.00000E+00
    0.00000E+00         0.00000E+00         0.00000E+00
 
   -0.69772E+06         0.11730E+07         0.00000E+00
    0.11730E+07        -0.29818E+08         0.00000E+00
    0.00000E+00         0.00000E+00         0.00000E+00
 
   -0.41501E+06         0.13007E+07         0.00000E+00
    0.13007E+07        -0.29956E+08         0.00000E+00
    0.00000E+00         0.00000E+00         0.00000E+00
 
   -0.13677E+06         0.14507E+07         0.00000E+00
    0.14507E+07        -0.30100E+08         0.00000E+00
    0.00000E+00         0.00000E+00         0.00000E+00
 
   -0.12799E+08        -0.11643E+06         0.00000E+00
   -0.11643E+06        -0.29595E+08         0.00000E+00
    0.00000E+00         0.00000E+00         0.00000E+00
 
   -0.12263E+08        -0.14572E+06         0.00000E+00
   -0.14572E+06        -0.29560E+08         0.00000E+00
    0.00000E+00         0.00000E+00         0.00000E+00
 
   -0.11795E+08        -0.16027E+06         0.00000E+00
   -0.16027E+06        -0.29514E+08         0.00000E+00
    0.00000E+00         0.00000E+00         0.00000E+00
 
   -0.11377E+08        -0.16644E+06         0.00000E+00
   -0.16644E+06        -0.29460E+08         0.00000E+00
    0.00000E+00         0.00000E+00         0.00000E+00
 
   -0.10998E+08        -0.16760E+06         0.00000E+00
   -0.16760E+06        -0.29403E+08         0.00000E+00
    0.00000E+00         0.00000E+00         0.00000E+00
 
   -0.10652E+08        -0.16567E+06         0.00000E+00
   -0.16567E+06        -0.29344E+08         0.00000E+00
    0.00000E+00         0.00000E+00         0.00000E+00
 
   -0.10331E+08        -0.16172E+06         0.00000E+00
   -0.16172E+06        -0.29285E+08         0.00000E+00
    0.00000E+00         0.00000E+00         0.00000E+00
 
   -0.10032E+08        -0.15642E+06         0.00000E+00
   -0.15642E+06        -0.29227E+08         0.00000E+00
    0.00000E+00         0.00000E+00         0.00000E+00
 
   -0.97507E+07        -0.15017E+06         0.00000E+00
   -0.15017E+06        -0.29170E+08         0.00000E+00
    0.00000E+00         0.00000E+00         0.00000E+00
 
   -0.94850E+07        -0.14322E+06         0.00000E+00
   -0.14322E+06        -0.29114E+08         0.00000E+00
    0.00000E+00         0.00000E+00         0.00000E+00
 
   -0.92323E+07        -0.13577E+06         0.00000E+00
   -0.13577E+06        -0.29062E+08         0.00000E+00
    0.00000E+00         0.00000E+00         0.00000E+00
 
   -0.89908E+07        -0.12791E+06         0.00000E+00
   -0.12791E+06        -0.29011E+08         0.00000E+00
    0.00000E+00         0.00000E+00         0.00000E+00
 
   -0.87590E+07        -0.11974E+06         0.00000E+00
   -0.11974E+06        -0.28964E+08         0.00000E+00
    0.00000E+00         0.00000E+00         0.00000E+00
 
   -0.85356E+07        -0.11131E+06         0.00000E+00
   -0.11131E+06        -0.28920E+08         0.00000E+00
    0.00000E+00         0.00000E+00         0.00000E+00
 
   -0.83193E+07        -0.10266E+06         0.00000E+00
   -0.10266E+06        -0.28879E+08         0.00000E+00
    0.00000E+00         0.00000E+00         0.00000E+00
 
   -0.81092E+07        -0.93833E+05         0.00000E+00
   -0.93833E+05        -0.28841E+08         0.00000E+00
    0.00000E+00         0.00000E+00         0.00000E+00
 
   -0.79044E+07        -0.84834E+05         0.00000E+00
   -0.84834E+05        -0.28806E+08         0.00000E+00
    0.00000E+00         0.00000E+00         0.00000E+00
 
   -0.77041E+07        -0.75682E+05         0.00000E+00
   -0.75682E+05        -0.28775E+08         0.00000E+00
    0.00000E+00         0.00000E+00         0.00000E+00
 
   -0.75075E+07        -0.66384E+05         0.00000E+00
   -0.66384E+05        -0.28748E+08         0.00000E+00
    0.00000E+00         0.00000E+00         0.00000E+00
 
   -0.73142E+07        -0.56943E+05         0.00000E+00
   -0.56943E+05        -0.28724E+08         0.00000E+00
    0.00000E+00         0.00000E+00         0.00000E+00
 
   -0.71233E+07        -0.47359E+05         0.00000E+00
   -0.47359E+05        -0.28704E+08         0.00000E+00
    0.00000E+00         0.00000E+00         0.00000E+00
 
   -0.69345E+07        -0.37630E+05         0.00000E+00
   -0.37630E+05        -0.28687E+08         0.00000E+00
    0.00000E+00         0.00000E+00         0.00000E+00
 
   -0.67471E+07        -0.27747E+05         0.00000E+00
   -0.27747E+05        -0.28675E+08         0.00000E+00
    0.00000E+00         0.00000E+00         0.00000E+00
 
   -0.65608E+07        -0.17703E+05         0.00000E+00
   -0.17703E+05        -0.28666E+08         0.00000E+00
    0.00000E+00         0.00000E+00         0.00000E+00
 
   -0.63750E+07        -0.74851E+04         0.00000E+00
   -0.74851E+04        -0.28662E+08         0.00000E+00
    0.00000E+00         0.00000E+00         0.00000E+00
 
   -0.61893E+07         0.29210E+04         0.00000E+00
    0.29210E+04        -0.28661E+08         0.00000E+00
    0.00000E+00         0.00000E+00         0.00000E+00
 
   -0.60032E+07         0.13533E+05         0.00000E+00
    0.13533E+05        -0.28665E+08         0.00000E+00
    0.00000E+00         0.00000E+00         0.00000E+00
 
   -0.58164E+07         0.24370E+05         0.00000E+00
    0.24370E+05        -0.28673E+08         0.00000E+00
    0.00000E+00         0.00000E+00         0.00000E+00
 
   -0.56285E+07         0.35458E+05         0.00000E+00
    0.35458E+05        -0.28685E+08         0.00000E+00
    0.00000E+00         0.00000E+00         0.00000E+00
 
   -0.54389E+07         0.46824E+05         0.00000E+00
    0.46824E+05        -0.28702E+08         0.00000E+00
    0.00000E+00         0.00000E+00         0.00000E+00
 
   -0.52473E+07         0.58501E+05         0.00000E+00
    0.58501E+05        -0.28723E+08         0.00000E+00
    0.00000E+00         0.00000E+00         0.00000E+00
 
   -0.50532E+07         0.70528E+05         0.00000E+00
    0.70528E+05        -0.28749E+08         0.00000E+00
    0.00000E+00         0.00000E+00         0.00000E+00
 
   -0.48562E+07         0.82948E+05         0.00000E+00
    0.82948E+05        -0.28780E+08         0.00000E+00
    0.00000E+00         0.00000E+00         0.00000E+00
 
   -0.46558E+07         0.95815E+05         0.00000E+00
    0.95815E+05        -0.28816E+08         0.00000E+00
    0.00000E+00         0.00000E+00         0.00000E+00
 
   -0.44514E+07         0.10919E+06         0.00000E+00
    0.10919E+06        -0.28857E+08         0.00000E+00
    0.00000E+00         0.00000E+00         0.00000E+00
 
   -0.42426E+07         0.12315E+06         0.00000E+00
    0.12315E+06        -0.28904E+08         0.00000E+00
    0.00000E+00         0.00000E+00         0.00000E+00
 
   -0.40287E+07         0.13779E+06         0.00000E+00
    0.13779E+06        -0.28956E+08         0.00000E+00
    0.00000E+00         0.00000E+00         0.00000E+00
 
   -0.38090E+07         0.15322E+06         0.00000E+00
    0.15322E+06        -0.29014E+08         0.00000E+00
    0.00000E+00         0.00000E+00         0.00000E+00
 
   -0.35829E+07         0.16957E+06         0.00000E+00
    0.16957E+06        -0.29079E+08         0.00000E+00
    0.00000E+00         0.00000E+00         0.00000E+00
 
   -0.33493E+07         0.18703E+06         0.00000E+00
    0.18703E+06        -0.29150E+08         0.00000E+00
    0.00000E+00         0.00000E+00         0.00000E+00
 
   -0.31075E+07         0.20581E+06         0.00000E+00
    0.20581E+06        -0.29228E+08         0.00000E+00
    0.00000E+00         0.00000E+00         0.00000E+00
 
   -0.28561E+07         0.22620E+06         0.00000E+00
    0.22620E+06        -0.29315E+08         0.00000E+00
    0.00000E+00         0.00000E+00         0.00000E+00
 
   -0.25938E+07         0.24859E+06         0.00000E+00
    0.24859E+06        -0.29409E+08         0.00000E+00
    0.00000E+00         0.00000E+00         0.00000E+00
 
   -0.23188E+07         0.27351E+06         0.00000E+00
    0.27351E+06        -0.29513E+08         0.00000E+00
    0.00000E+00         0.00000E+00         0.00000E+00
 
   -0.20292E+07         0.30168E+06         0.00000E+00
    0.30168E+06        -0.29627E+08         0.00000E+00
    0.00000E+00         0.00000E+00         0.00000E+00
 
   -0.17222E+07         0.33416E+06         0.00000E+00
    0.33416E+06        -0.29753E+08         0.00000E+00
    0.00000E+00         0.00000E+00         0.00000E+00
 
   -0.13942E+07         0.37251E+06         0.00000E+00
    0.37251E+06        -0.29893E+08         0.00000E+00
    0.00000E+00         0.00000E+00         0.00000E+00
 
   -0.10406E+07         0.41917E+06         0.00000E+00
    0.41917E+06        -0.30048E+08         0.00000E+00
    0.00000E+00         0.00000E+00         0.00000E+00
 
   -0.65450E+06         0.47800E+06         0.00000E+00
    0.47800E+06        -0.30223E+08         0.00000E+00
    0.00000E+00         0.00000E+00         0.00000E+00
 
   -0.22619E+06         0.55555E+06         0.00000E+00
    0.55555E+06        -0.30421E+08         0.00000E+00
    0.00000E+00         0.00000E+00         0.00000E+00
 
TENSORS stresstot double 
   -0.49303E+08        -0.57943E+04         0.00000E+00
   -0.57943E+04        -0.50001E+08         0.00000E+00
    0.00000E+00         0.00000E+00        -0.49980E+08
 
   -0.49327E+08        -0.69978E+04         0.00000E+00
   -0.69978E+04        -0.50002E+08         0.00000E+00
    0.00000E+00         0.00000E+00        -0.49980E+08
 
   -0.49349E+08        -0.74711E+04         0.00000E+00
   -0.74711E+04        -0.50005E+08         0.00000E+00
    0.00000E+00         0.00000E+00        -0.49980E+08
 
   -0.49368E+08        -0.75361E+04         0.00000E+00
   -0.75361E+04        -0.50007E+08         0.00000E+00
    0.00000E+00         0.00000E+00        -0.49980E+08
 
   -0.49385E+08        -0.73648E+04         0.00000E+00
   -0.73648E+04        -0.50009E+08         0.00000E+00
    0.00000E+00         0.00000E+00        -0.49980E+08
 
   -0.49401E+08        -0.70521E+04         0.00000E+00
   -0.70521E+04        -0.50012E+08         0.00000E+00
    0.00000E+00         0.00000E+00        -0.49981E+08
 
   -0.49416E+08        -0.66522E+04         0.00000E+00
   -0.66522E+04        -0.50014E+08         0.00000E+00
    0.00000E+00         0.00000E+00        -0.49981E+08
 
   -0.49430E+08        -0.61971E+04         0.00000E+00
   -0.61971E+04        -0.50017E+08         0.00000E+00
    0.00000E+00         0.00000E+00        -0.49981E+08
 
   -0.49443E+08        -0.57065E+04         0.00000E+00
   -0.57065E+04        -0.50019E+08         0.00000E+00
    0.00000E+00         0.00000E+00        -0.49981E+08
 
   -0.49456E+08        -0.51925E+04         0.00000E+00
   -0.51925E+04        -0.50021E+08         0.00000E+00
    0.00000E+00         0.00000E+00        -0.49981E+08
 
   -0.49468E+08        -0.46632E+04         0.00000E+00
   -0.46632E+04        -0.50023E+08         0.00000E+00
    0.00000E+00         0.00000E+00        -0.49981E+08
 
   -0.49479E+08        -0.41239E+04         0.00000E+00
   -0.41239E+04        -0.50024E+08         0.00000E+00
    0.00000E+00         0.00000E+00        -0.49981E+08
 
   -0.49491E+08        -0.35781E+04         0.00000E+00
   -0.35781E+04        -0.50026E+08         0.00000E+00
    0.00000E+00         0.00000E+00        -0.49981E+08
 
   -0.49502E+08        -0.30283E+04         0.00000E+00
   -0.30283E+04        -0.50027E+08         0.00000E+00
    0.00000E+00         0.00000E+00        -0.49981E+08
 
   -0.49513E+08        -0.24762E+04         0.00000E+00
   -0.24762E+04        -0.50028E+08         0.00000E+00
    0.00000E+00         0.00000E+00        -0.49981E+08
 
   -0.49524E+08        -0.19228E+04         0.00000E+00
   -0.19228E+04        -0.50029E+08         0.00000E+00
    0.00000E+00         0.00000E+00        -0.49981E+08
 
   -0.49535E+08        -0.13687E+04         0.00000E+00
   -0.13687E+04        -0.50029E+08         0.00000E+00
    0.00000E+00         0.00000E+00        -0.49981E+08
 
   -0.49545E+08        -0.81451E+03         0.00000E+00
   -0.81451E+03        -0.50030E+08         0.00000E+00
    0.00000E+00         0.00000E+00        -0.49981E+08
 
   -0.49556E+08        -0.26024E+03         0.00000E+00
   -0.26024E+03        -0.50030E+08         0.00000E+00
    0.00000E+00         0.00000E+00        -0.49981E+08
 
   -0.49566E+08         0.29408E+03         0.00000E+00
    0.29408E+03        -0.50030E+08         0.00000E+00
    0.00000E+00         0.00000E+00        -0.49981E+08
 
   -0.49576E+08         0.84864E+03         0.00000E+00
    0.84864E+03        -0.50030E+08         0.00000E+00
    0.00000E+00         0.00000E+00        -0.49981E+08
 
   -0.49587E+08         0.14037E+04         0.00000E+00
    0.14037E+04        -0.50029E+08         0.00000E+00
    0.00000E+00         0.00000E+00        -0.49981E+08
 
   -0.49597E+08         0.19598E+04         0.00000E+00
    0.19598E+04        -0.50028E+08         0.00000E+00
    0.00000E+00         0.00000E+00        -0.49981E+08
 
   -0.49608E+08         0.25174E+04         0.00000E+00
    0.25174E+04        -0.50027E+08         0.00000E+00
    0.00000E+00         0.00000E+00        -0.49981E+08
 
   -0.49618E+08         0.30771E+04         0.00000E+00
    0.30771E+04        -0.50026E+08         0.00000E+00
    0.00000E+00         0.00000E+00        -0.49981E+08
 
   -0.49629E+08         0.36396E+04         0.00000E+00
    0.36396E+04        -0.50025E+08         0.00000E+00
    0.00000E+00         0.00000E+00        -0.49981E+08
 
   -0.49640E+08         0.42060E+04         0.00000E+00
    0.42060E+04        -0.50023E+08         0.00000E+00
    0.00000E+00         0.00000E+00        -0.49981E+08
 
   -0.49651E+08         0.47771E+04         0.00000E+00
    0.47771E+04        -0.50022E+08         0.00000E+00
    0.00000E+00         0.00000E+00        -0.49981E+08
 
   -0.49662E+08         0.53541E+04         0.00000E+00
    0.53541E+04        -0.50020E+08         0.00000E+00
    0.00000E+00         0.00000E+00        -0.49981E+08
 
   -0.49673E+08         0.59383E+04         0.00000E+00
    0.59383E+04        -0.50017E+08         0.00000E+00
    0.00000E+00         0.00000E+00        -0.49981E+08
 
   -0.49684E+08         0.65314E+04         0.00000E+00
    0.65314E+04        -0.50015E+08         0.00000E+00
    0.00000E+00         0.00000E+00        -0.49981E+08
 
   -0.49696E+08         0.71349E+04         0.00000E+00
    0.71349E+04        -0.50012E+08         0.00000E+00
    0.00000E+00         0.00000E+00        -0.49981E+08
 
   -0.49707E+08         0.77511E+04         0.00000E+00
    0.77511E+04        -0.50009E+08         0.00000E+00
    0.00000E+00         0.00000E+00        -0.49981E+08
 
   -0.49719E+08         0.83824E+04         0.00000E+00
    0.83824E+04        -0.50006E+08         0.00000E+00
    0.00000E+00         0.00000E+00        -0.49981E+08
 
   -0.49731E+08         0.90317E+04         0.00000E+00
    0.90317E+04        -0.50002E+08         0.00000E+00
    0.00000E+00         0.00000E+00        -0.49981E+08
 
   -0.49743E+08         0.97023E+04         0.00000E+00
    0.97023E+04        -0.49999E+08         0.00000E+00
    0.00000E+00         0.00000E+00        -0.49982E+08
 
   -0.49756E+08         0.10399E+05         0.00000E+00
    0.10399E+05        -0.49995E+08         0.00000E+00
    0.00000E+00         0.00000E+00        -0.49982E+08
 
   -0.49769E+08         0.11126E+05         0.00000E+00
    0.11126E+05        -0.49990E+08         0.00000E+00
    0.00000E+00         0.00000E+00        -0.49982E+08
 
   -0.49782E+08         0.11890E+05         0.00000E+00
    0.11890E+05        -0.49986E+08         0.00000E+00
    0.00000E+00         0.00000E+00        -0.49982E+08
 
   -0.49796E+08         0.12699E+05         0.00000E+00
    0.12699E+05        -0.49981E+08         0.00000E+00
    0.00000E+00         0.00000E+00        -0.49982E+08
 
   -0.49810E+08         0.13564E+05         0.00000E+00
    0.13564E+05        -0.49976E+08         0.00000E+00
    0.00000E+00         0.00000E+00        -0.49982E+08
 
   -0.49825E+08         0.14497E+05         0.00000E+00
    0.14497E+05        -0.49970E+08         0.00000E+00
    0.00000E+00         0.00000E+00        -0.49982E+08
 
   -0.49840E+08         0.15517E+05         0.00000E+00
    0.15517E+05        -0.49964E+08         0.00000E+00
    0.00000E+00         0.00000E+00        -0.49982E+08
 
   -0.49855E+08         0.16647E+05         0.00000E+00
    0.16647E+05        -0.49958E+08         0.00000E+00
    0.00000E+00         0.00000E+00        -0.49982E+08
 
   -0.49872E+08         0.17922E+05         0.00000E+00
    0.17922E+05        -0.49951E+08         0.00000E+00
    0.00000E+00         0.00000E+00        -0.49982E+08
 
   -0.49889E+08         0.19390E+05         0.00000E+00
    0.19390E+05        -0.49943E+08         0.00000E+00
    0.00000E+00         0.00000E+00        -0.49982E+08
 
   -0.49907E+08         0.21123E+05         0.00000E+00
    0.21123E+05        -0.49935E+08         0.00000E+00
    0.00000E+00         0.00000E+00        -0.49982E+08
 
   -0.49926E+08         0.23233E+05         0.00000E+00
    0.23233E+05        -0.49926E+08         0.00000E+00
    0.00000E+00         0.00000E+00        -0.49982E+08
 
   -0.49947E+08         0.25899E+05         0.00000E+00
    0.25899E+05        -0.49917E+08         0.00000E+00
    0.00000E+00         0.00000E+00        -0.49982E+08
 
   -0.49970E+08         0.29422E+05         0.00000E+00
    0.29422E+05        -0.49906E+08         0.00000E+00
    0.00000E+00         0.00000E+00        -0.49982E+08
 
   -0.49326E+08        -0.40873E+04         0.00000E+00
   -0.40873E+04        -0.50000E+08         0.00000E+00
    0.00000E+00         0.00000E+00        -0.49942E+08
 
   -0.49341E+08        -0.85807E+04         0.00000E+00
   -0.85807E+04        -0.49999E+08         0.00000E+00
    0.00000E+00         0.00000E+00        -0.49942E+08
 
   -0.49357E+08        -0.11473E+05         0.00000E+00
   -0.11473E+05        -0.49999E+08         0.00000E+00
    0.00000E+00         0.00000E+00        -0.49942E+08
 
   -0.49372E+08        -0.13201E+05         0.00000E+00
   -0.13201E+05        -0.49999E+08         0.00000E+00
    0.00000E+00         0.00000E+00        -0.49942E+08
 
   -0.49386E+08        -0.14082E+05         0.00000E+00
   -0.14082E+05        -0.49999E+08         0.00000E+00
    0.00000E+00         0.00000E+00        -0.49942E+08
 
   -0.49401E+08        -0.14346E+05         0.00000E+00
   -0.14346E+05        -0.49999E+08         0.00000E+00
    0.00000E+00         0.00000E+00        -0.49942E+08
 
   -0.49414E+08        -0.14156E+05         0.00000E+00
   -0.14156E+05        -0.50000E+08         0.00000E+00
    0.00000E+00         0.00000E+00        -0.49942E+08
 
   -0.49427E+08        -0.13632E+05         0.00000E+00
   -0.13632E+05        -0.50000E+08         0.00000E+00
    0.00000E+00         0.00000E+00        -0.49942E+08
 
   -0.49440E+08        -0.12858E+05         0.00000E+00
   -0.12858E+05        -0.50001E+08         0.00000E+00
    0.00000E+00         0.00000E+00        -0.49942E+08
 
   -0.49452E+08        -0.11897E+05         0.00000E+00
   -0.11897E+05        -0.50002E+08         0.00000E+00
    0.00000E+00         0.00000E+00        -0.49942E+08
 
   -0.49464E+08        -0.10794E+05         0.00000E+00
   -0.10794E+05        -0.50002E+08         0.00000E+00
    0.00000E+00         0.00000E+00        -0.49943E+08
 
   -0.49475E+08        -0.95842E+04         0.00000E+00
   -0.95842E+04        -0.50003E+08         0.00000E+00
    0.00000E+00         0.00000E+00        -0.49943E+08
 
   -0.49486E+08        -0.82920E+04         0.00000E+00
   -0.82920E+04        -0.50003E+08         0.00000E+00
    0.00000E+00         0.00000E+00        -0.49943E+08
 
   -0.49497E+08        -0.69364E+04         0.00000E+00
   -0.69364E+04        -0.50004E+08         0.00000E+00
    0.00000E+00         0.00000E+00        -0.49943E+08
 
   -0.49508E+08        -0.55314E+04         0.00000E+00
   -0.55314E+04        -0.50004E+08         0.00000E+00
    0.00000E+00         0.00000E+00        -0.49943E+08
 
   -0.49519E+08        -0.40878E+04         0.00000E+00
   -0.40878E+04        -0.50004E+08         0.00000E+00
    0.00000E+00         0.00000E+00        -0.49943E+08
 
   -0.49529E+08        -0.26134E+04         0.00000E+00
   -0.26134E+04        -0.50004E+08         0.00000E+00
    0.00000E+00         0.00000E+00        -0.49943E+08
 
   -0.49540E+08        -0.11142E+04         0.00000E+00
   -0.11142E+04        -0.50004E+08         0.00000E+00
    0.00000E+00         0.00000E+00        -0.49943E+08
 
   -0.49550E+08         0.40546E+03         0.00000E+00
    0.40546E+03        -0.50004E+08         0.00000E+00
    0.00000E+00         0.00000E+00        -0.49943E+08
 
   -0.49561E+08         0.19426E+04         0.00000E+00
    0.19426E+04        -0.50003E+08         0.00000E+00
    0.00000E+00         0.00000E+00        -0.49943E+08
 
   -0.49571E+08         0.34951E+04         0.00000E+00
    0.34951E+04        -0.50003E+08         0.00000E+00
    0.00000E+00         0.00000E+00        -0.49943E+08
 
   -0.49582E+08         0.50618E+04         0.00000E+00
    0.50618E+04        -0.50002E+08         0.00000E+00
    0.00000E+00         0.00000E+00        -0.49944E+08
 
   -0.49592E+08         0.66421E+04         0.00000E+00
    0.66421E+04        -0.50001E+08         0.00000E+00
    0.00000E+00         0.00000E+00        -0.49944E+08
 
   -0.49602E+08         0.82362E+04         0.00000E+00
    0.82362E+04        -0.49999E+08         0.00000E+00
    0.00000E+00         0.00000E+00        -0.49944E+08
 
   -0.49613E+08         0.98447E+04         0.00000E+00
    0.98447E+04        -0.49998E+08         0.00000E+00
    0.00000E+00         0.00000E+00        -0.49944E+08
 
   -0.49624E+08         0.11469E+05         0.00000E+00
    0.11469E+05        -0.49996E+08         0.00000E+00
    0.00000E+00         0.00000E+00        -0.49944E+08
 
   -0.49634E+08         0.13110E+05         0.00000E+00
    0.13110E+05        -0.49995E+08         0.00000E+00
    0.00000E+00         0.00000E+00        -0.49944E+08
 
   -0.49645E+08         0.14771E+05         0.00000E+00
    0.14771E+05        -0.49993E+08         0.00000E+00
    0.00000E+00         0.00000E+00        -0.49944E+08
 
   -0.49656E+08         0.16453E+05         0.00000E+00
    0.16453E+05        -0.49990E+08         0.00000E+00
    0.00000E+00         0.00000E+00        -0.49944E+08
 
   -0.49667E+08         0.18161E+05         0.00000E+00
    0.18161E+05        -0.49988E+08         0.00000E+00
    0.00000E+00         0.00000E+00        -0.49944E+08
 
   -0.49678E+08         0.19898E+05         0.00000E+00
    0.19898E+05        -0.49985E+08         0.00000E+00
    0.00000E+00         0.00000E+00        -0.49944E+08
 
   -0.49690E+08         0.21669E+05         0.00000E+00
    0.21669E+05        -0.49982E+08         0.00000E+00
    0.00000E+00         0.00000E+00        -0.49944E+08
 
   -0.49701E+08         0.23479E+05         0.00000E+00
    0.23479E+05        -0.49979E+08         0.00000E+00
    0.00000E+00         0.00000E+00        -0.49945E+08
 
   -0.49713E+08         0.25335E+05         0.00000E+00
    0.25335E+05        -0.49976E+08         0.00000E+00
    0.00000E+00         0.00000E+00        -0.49945E+08
 
   -0.49725E+08         0.27244E+05         0.00000E+00
    0.27244E+05        -0.49972E+08         0.00000E+00
    0.00000E+00         0.00000E+00        -0.49945E+08
 
   -0.49737E+08         0.29215E+05         0.00000E+00
    0.29215E+05        -0.49969E+08         0.00000E+00
    0.00000E+00         0.00000E+00        -0.49945E+08
 
   -0.49749E+08         0.31259E+05         0.00000E+00
    0.31259E+05        -0.49965E+08         0.00000E+00
    0.00000E+00         0.00000E+00        -0.49945E+08
 
   -0.49762E+08         0.33390E+05         0.00000E+00
    0.33390E+05        -0.49960E+08         0.00000E+00
    0.00000E+00         0.00000E+00        -0.49945E+08
 
   -0.49775E+08         0.35622E+05         0.00000E+00
    0.35622E+05        -0.49956E+08         0.00000E+00
    0.00000E+00         0.00000E+00        -0.49945E+08
 
   -0.49788E+08         0.37975E+05         0.00000E+00
    0.37975E+05        -0.49951E+08         0.00000E+00
    0.00000E+00         0.00000E+00        -0.49945E+08
 
   -0.49801E+08         0.40473E+05         0.00000E+00
    0.40473E+05        -0.49946E+08         0.00000E+00
    0.00000E+00         0.00000E+00        -0.49945E+08
 
   -0.49815E+08         0.43145E+05         0.00000E+00
    0.43145E+05        -0.49940E+08         0.00000E+00
    0.00000E+00         0.00000E+00        -0.49945E+08
 
   -0.49829E+08         0.46028E+05         0.00000E+00
    0.46028E+05        -0.49934E+08         0.00000E+00
    0.00000E+00         0.00000E+00        -0.49945E+08
 
   -0.49844E+08         0.49169E+05         0.00000E+00
    0.49169E+05        -0.49928E+08         0.00000E+00
    0.00000E+00         0.00000E+00        -0.49945E+08
 
   -0.49859E+08         0.52628E+05         0.00000E+00
    0.52628E+05        -0.49922E+08         0.00000E+00
    0.00000E+00         0.00000E+00        -0.49945E+08
 
   -0.49874E+08         0.56482E+05         0.00000E+00
    0.56482E+05        -0.49915E+08         0.00000E+00
    0.00000E+00         0.00000E+00        -0.49945E+08
 
   -0.49890E+08         0.60832E+05         0.00000E+00
    0.60832E+05        -0.49907E+08         0.00000E+00
    0.00000E+00         0.00000E+00        -0.49945E+08
 
   -0.49906E+08         0.65808E+05         0.00000E+00
    0.65808E+05        -0.49900E+08         0.00000E+00
    0.00000E+00         0.00000E+00        -0.49945E+08
 
   -0.49922E+08         0.71581E+05         0.00000E+00
    0.71581E+05        -0.49892E+08         0.00000E+00
    0.00000E+00         0.00000E+00        -0.49945E+08
 
   -0.49938E+08         0.78364E+05         0.00000E+00
    0.78364E+05        -0.49884E+08         0.00000E+00
    0.00000E+00         0.00000E+00        -0.49945E+08
 
   -0.49349E+08        -0.26534E+04         0.00000E+00
   -0.26534E+04        -0.50000E+08         0.00000E+00
    0.00000E+00         0.00000E+00        -0.49905E+08
 
   -0.49359E+08        -0.61145E+04         0.00000E+00
   -0.61145E+04        -0.50000E+08         0.00000E+00
    0.00000E+00         0.00000E+00        -0.49905E+08
 
   -0.49369E+08        -0.89175E+04         0.00000E+00
   -0.89175E+04        -0.49999E+08         0.00000E+00
    0.00000E+00         0.00000E+00        -0.49905E+08
 
   -0.49380E+08        -0.11009E+05         0.00000E+00
   -0.11009E+05        -0.49998E+08         0.00000E+00
    0.00000E+00         0.00000E+00        -0.49905E+08
 
   -0.49391E+08        -0.12420E+05         0.00000E+00
   -0.12420E+05        -0.49998E+08         0.00000E+00
    0.00000E+00         0.00000E+00        -0.49905E+08
 
   -0.49402E+08        -0.13218E+05         0.00000E+00
   -0.13218E+05        -0.49997E+08         0.00000E+00
    0.00000E+00         0.00000E+00        -0.49905E+08
 
   -0.49414E+08        -0.13483E+05         0.00000E+00
   -0.13483E+05        -0.49996E+08         0.00000E+00
    0.00000E+00         0.00000E+00        -0.49905E+08
 
   -0.49425E+08        -0.13293E+05         0.00000E+00
   -0.13293E+05        -0.49996E+08         0.00000E+00
    0.00000E+00         0.00000E+00        -0.49905E+08
 
   -0.49436E+08        -0.12719E+05         0.00000E+00
   -0.12719E+05        -0.49995E+08         0.00000E+00
    0.00000E+00         0.00000E+00        -0.49905E+08
 
   -0.49447E+08        -0.11825E+05         0.00000E+00
   -0.11825E+05        -0.49994E+08         0.00000E+00
    0.00000E+00         0.00000E+00        -0.49905E+08
 
   -0.49458E+08        -0.10664E+05         0.00000E+00
   -0.10664E+05        -0.49994E+08         0.00000E+00
    0.00000E+00         0.00000E+00        -0.49906E+08
 
   -0.49468E+08        -0.92797E+04         0.00000E+00
   -0.92797E+04        -0.49993E+08         0.00000E+00
    0.00000E+00         0.00000E+00        -0.49906E+08
 
   -0.49479E+08        -0.77100E+04         0.00000E+00
   -0.77100E+04        -0.49993E+08         0.00000E+00
    0.00000E+00         0.00000E+00        -0.49906E+08
 
   -0.49489E+08        -0.59857E+04         0.00000E+00
   -0.59857E+04        -0.49992E+08         0.00000E+00
    0.00000E+00         0.00000E+00        -0.49906E+08
 
   -0.49500E+08        -0.41319E+04         0.00000E+00
   -0.41319E+04        -0.49991E+08         0.00000E+00
    0.00000E+00         0.00000E+00        -0.49906E+08
 
   -0.49510E+08        -0.21692E+04         0.00000E+00
   -0.21692E+04        -0.49990E+08         0.00000E+00
    0.00000E+00         0.00000E+00        -0.49906E+08
 
   -0.49521E+08        -0.11443E+03         0.00000E+00
   -0.11443E+03        -0.49990E+08         0.00000E+00
    0.00000E+00         0.00000E+00        -0.49906E+08
 
   -0.49531E+08         0.20190E+04         0.00000E+00
    0.20190E+04        -0.49989E+08         0.00000E+00
    0.00000E+00         0.00000E+00        -0.49906E+08
 
   -0.49541E+08         0.42202E+04         0.00000E+00
    0.42202E+04        -0.49988E+08         0.00000E+00
    0.00000E+00         0.00000E+00        -0.49907E+08
 
   -0.49551E+08         0.64807E+04         0.00000E+00
    0.64807E+04        -0.49986E+08         0.00000E+00
    0.00000E+00         0.00000E+00        -0.49907E+08
 
   -0.49561E+08         0.87939E+04         0.00000E+00
    0.87939E+04        -0.49985E+08         0.00000E+00
    0.00000E+00         0.00000E+00        -0.49907E+08
 
   -0.49572E+08         0.11155E+05         0.00000E+00
    0.11155E+05        -0.49984E+08         0.00000E+00
    0.00000E+00         0.00000E+00        -0.49907E+08
 
   -0.49582E+08         0.13560E+05         0.00000E+00
    0.13560E+05        -0.49982E+08         0.00000E+00
    0.00000E+00         0.00000E+00        -0.49907E+08
 
   -0.49592E+08         0.16006E+05         0.00000E+00
    0.16006E+05        -0.49980E+08         0.00000E+00
    0.00000E+00         0.00000E+00        -0.49907E+08
 
   -0.49603E+08         0.18493E+05         0.00000E+00
    0.18493E+05        -0.49978E+08         0.00000E+00
    0.00000E+00         0.00000E+00        -0.49907E+08
 
   -0.49613E+08         0.21021E+05         0.00000E+00
    0.21021E+05        -0.49976E+08         0.00000E+00
    0.00000E+00         0.00000E+00        -0.49907E+08
 
   -0.49624E+08         0.23589E+05         0.00000E+00
    0.23589E+05        -0.49974E+08         0.00000E+00
    0.00000E+00         0.00000E+00        -0.49908E+08
 
   -0.49634E+08         0.26201E+05         0.00000E+00
    0.26201E+05        -0.49972E+08         0.00000E+00
    0.00000E+00         0.00000E+00        -0.49908E+08
 
   -0.49645E+08         0.28857E+05         0.00000E+00
    0.28857E+05        -0.49969E+08         0.00000E+00
    0.00000E+00         0.00000E+00        -0.49908E+08
 
   -0.49656E+08         0.31563E+05         0.00000E+00
    0.31563E+05        -0.49966E+08         0.00000E+00
    0.00000E+00         0.00000E+00        -0.49908E+08
 
   -0.49667E+08         0.34322E+05         0.00000E+00
    0.34322E+05        -0.49963E+08         0.00000E+00
    0.00000E+00         0.00000E+00        -0.49908E+08
 
   -0.49678E+08         0.37140E+05         0.00000E+00
    0.37140E+05        -0.49960E+08         0.00000E+00
    0.00000E+00         0.00000E+00        -0.49908E+08
 
   -0.49689E+08         0.40023E+05         0.00000E+00
    0.40023E+05        -0.49957E+08         0.00000E+00
    0.00000E+00         0.00000E+00        -0.49908E+08
 
   -0.49700E+08         0.42979E+05         0.00000E+00
    0.42979E+05        -0.49954E+08         0.00000E+00
    0.00000E+00         0.00000E+00        -0.49908E+08
 
   -0.49712E+08         0.46019E+05         0.00000E+00
    0.46019E+05        -0.49950E+08         0.00000E+00
    0.00000E+00         0.00000E+00        -0.49909E+08
 
   -0.49724E+08         0.49151E+05         0.00000E+00
    0.49151E+05        -0.49946E+08         0.00000E+00
    0.00000E+00         0.00000E+00        -0.49909E+08
 
   -0.49736E+08         0.52390E+05         0.00000E+00
    0.52390E+05        -0.49942E+08         0.00000E+00
    0.00000E+00         0.00000E+00        -0.49909E+08
 
   -0.49748E+08         0.55749E+05         0.00000E+00
    0.55749E+05        -0.49937E+08         0.00000E+00
    0.00000E+00         0.00000E+00        -0.49909E+08
 
   -0.49760E+08         0.59246E+05         0.00000E+00
    0.59246E+05        -0.49933E+08         0.00000E+00
    0.00000E+00         0.00000E+00        -0.49909E+08
 
   -0.49772E+08         0.62901E+05         0.00000E+00
    0.62901E+05        -0.49928E+08         0.00000E+00
    0.00000E+00         0.00000E+00        -0.49909E+08
 
   -0.49785E+08         0.66735E+05         0.00000E+00
    0.66735E+05        -0.49923E+08         0.00000E+00
    0.00000E+00         0.00000E+00        -0.49909E+08
 
   -0.49797E+08         0.70776E+05         0.00000E+00
    0.70776E+05        -0.49918E+08         0.00000E+00
    0.00000E+00         0.00000E+00        -0.49909E+08
 
   -0.49810E+08         0.75053E+05         0.00000E+00
    0.75053E+05        -0.49912E+08         0.00000E+00
    0.00000E+00         0.00000E+00        -0.49909E+08
 
   -0.49823E+08         0.79597E+05         0.00000E+00
    0.79597E+05        -0.49906E+08         0.00000E+00
    0.00000E+00         0.00000E+00        -0.49909E+08
 
   -0.49837E+08         0.84445E+05         0.00000E+00
    0.84445E+05        -0.49901E+08         0.00000E+00
    0.00000E+00         0.00000E+00        -0.49909E+08
 
   -0.49850E+08         0.89633E+05         0.00000E+00
    0.89633E+05        -0.49894E+08         0.00000E+00
    0.00000E+00         0.00000E+00        -0.49909E+08
 
   -0.49863E+08         0.95191E+05         0.00000E+00
    0.95191E+05        -0.49888E+08         0.00000E+00
    0.00000E+00         0.00000E+00        -0.49910E+08
 
   -0.49877E+08         0.10114E+06         0.00000E+00
    0.10114E+06        -0.49882E+08         0.00000E+00
    0.00000E+00         0.00000E+00        -0.49910E+08
 
   -0.49890E+08         0.10748E+06         0.00000E+00
    0.10748E+06        -0.49875E+08         0.00000E+00
    0.00000E+00         0.00000E+00        -0.49910E+08
 
   -0.49903E+08         0.11416E+06         0.00000E+00
    0.11416E+06        -0.49869E+08         0.00000E+00
    0.00000E+00         0.00000E+00        -0.49910E+08
 
   -0.49364E+08        -0.18022E+04         0.00000E+00
   -0.18022E+04        -0.50000E+08         0.00000E+00
    0.00000E+00         0.00000E+00        -0.49869E+08
 
   -0.49372E+08        -0.41039E+04         0.00000E+00
   -0.41039E+04        -0.50000E+08         0.00000E+00
    0.00000E+00         0.00000E+00        -0.49869E+08
 
   -0.49379E+08        -0.59305E+04         0.00000E+00
   -0.59305E+04        -0.49999E+08         0.00000E+00
    0.00000E+00         0.00000E+00        -0.49869E+08
 
   -0.49387E+08        -0.73048E+04         0.00000E+00
   -0.73048E+04        -0.49998E+08         0.00000E+00
    0.00000E+00         0.00000E+00        -0.49869E+08
 
   -0.49396E+08        -0.82362E+04         0.00000E+00
   -0.82362E+04        -0.49998E+08         0.00000E+00
    0.00000E+00         0.00000E+00        -0.49869E+08
 
   -0.49405E+08        -0.87372E+04         0.00000E+00
   -0.87372E+04        -0.49997E+08         0.00000E+00
    0.00000E+00         0.00000E+00        -0.49869E+08
 
   -0.49414E+08        -0.88279E+04         0.00000E+00
   -0.88279E+04        -0.49996E+08         0.00000E+00
    0.00000E+00         0.00000E+00        -0.49869E+08
 
   -0.49423E+08        -0.85344E+04         0.00000E+00
   -0.85344E+04        -0.49994E+08         0.00000E+00
    0.00000E+00         0.00000E+00        -0.49869E+08
 
   -0.49432E+08        -0.78873E+04         0.00000E+00
   -0.78873E+04        -0.49993E+08         0.00000E+00
    0.00000E+00         0.00000E+00        -0.49869E+08
 
   -0.49442E+08        -0.69187E+04         0.00000E+00
   -0.69187E+04        -0.49992E+08         0.00000E+00
    0.00000E+00         0.00000E+00        -0.49869E+08
 
   -0.49451E+08        -0.56604E+04         0.00000E+00
   -0.56604E+04        -0.49991E+08         0.00000E+00
    0.00000E+00         0.00000E+00        -0.49870E+08
 
   -0.49461E+08        -0.41433E+04         0.00000E+00
   -0.41433E+04        -0.49989E+08         0.00000E+00
    0.00000E+00         0.00000E+00        -0.49870E+08
 
   -0.49470E+08        -0.23958E+04         0.00000E+00
   -0.23958E+04        -0.49988E+08         0.00000E+00
    0.00000E+00         0.00000E+00        -0.49870E+08
 
   -0.49480E+08        -0.44409E+03         0.00000E+00
   -0.44409E+03        -0.49986E+08         0.00000E+00
    0.00000E+00         0.00000E+00        -0.49870E+08
 
   -0.49490E+08         0.16886E+04         0.00000E+00
    0.16886E+04        -0.49985E+08         0.00000E+00
    0.00000E+00         0.00000E+00        -0.49870E+08
 
   -0.49499E+08         0.39817E+04         0.00000E+00
    0.39817E+04        -0.49983E+08         0.00000E+00
    0.00000E+00         0.00000E+00        -0.49870E+08
 
   -0.49509E+08         0.64171E+04         0.00000E+00
    0.64171E+04        -0.49982E+08         0.00000E+00
    0.00000E+00         0.00000E+00        -0.49870E+08
 
   -0.49519E+08         0.89794E+04         0.00000E+00
    0.89794E+04        -0.49980E+08         0.00000E+00
    0.00000E+00         0.00000E+00        -0.49870E+08
 
   -0.49529E+08         0.11655E+05         0.00000E+00
    0.11655E+05        -0.49978E+08         0.00000E+00
    0.00000E+00         0.00000E+00        -0.49871E+08
 
   -0.49538E+08         0.14433E+05         0.00000E+00
    0.14433E+05        -0.49976E+08         0.00000E+00
    0.00000E+00         0.00000E+00        -0.49871E+08
 
   -0.49548E+08         0.17305E+05         0.00000E+00
    0.17305E+05        -0.49975E+08         0.00000E+00
    0.00000E+00         0.00000E+00        -0.49871E+08
 
   -0.49558E+08         0.20261E+05         0.00000E+00
    0.20261E+05        -0.49972E+08         0.00000E+00
    0.00000E+00         0.00000E+00        -0.49871E+08
 
   -0.49568E+08         0.23298E+05         0.00000E+00
    0.23298E+05        -0.49970E+08         0.00000E+00
    0.00000E+00         0.00000E+00        -0.49871E+08
 
   -0.49578E+08         0.26409E+05         0.00000E+00
    0.26409E+05        -0.49968E+08         0.00000E+00
    0.00000E+00         0.00000E+00        -0.49871E+08
 
   -0.49588E+08         0.29592E+05         0.00000E+00
    0.29592E+05        -0.49966E+08         0.00000E+00
    0.00000E+00         0.00000E+00        -0.49871E+08
 
   -0.49599E+08         0.32844E+05         0.00000E+00
    0.32844E+05        -0.49963E+08         0.00000E+00
    0.00000E+00         0.00000E+00        -0.49872E+08
 
   -0.49609E+08         0.36165E+05         0.00000E+00
    0.36165E+05        -0.49960E+08         0.00000E+00
    0.00000E+00         0.00000E+00        -0.49872E+08
 
   -0.49619E+08         0.39555E+05         0.00000E+00
    0.39555E+05        -0.49958E+08         0.00000E+00
    0.00000E+00         0.00000E+00        -0.49872E+08
 
   -0.49630E+08         0.43015E+05         0.00000E+00
    0.43015E+05        -0.49955E+08         0.00000E+00
    0.00000E+00         0.00000E+00        -0.49872E+08
 
   -0.49640E+08         0.46548E+05         0.00000E+00
    0.46548E+05        -0.49952E+08         0.00000E+00
    0.00000E+00         0.00000E+00        -0.49872E+08
 
   -0.49651E+08         0.50157E+05         0.00000E+00
    0.50157E+05        -0.49948E+08         0.00000E+00
    0.00000E+00         0.00000E+00        -0.49872E+08
 
   -0.49661E+08         0.53846E+05         0.00000E+00
    0.53846E+05        -0.49945E+08         0.00000E+00
    0.00000E+00         0.00000E+00        -0.49873E+08
 
   -0.49672E+08         0.57620E+05         0.00000E+00
    0.57620E+05        -0.49941E+08         0.00000E+00
    0.00000E+00         0.00000E+00        -0.49873E+08
 
   -0.49683E+08         0.61487E+05         0.00000E+00
    0.61487E+05        -0.49938E+08         0.00000E+00
    0.00000E+00         0.00000E+00        -0.49873E+08
 
   -0.49694E+08         0.65453E+05         0.00000E+00
    0.65453E+05        -0.49934E+08         0.00000E+00
    0.00000E+00         0.00000E+00        -0.49873E+08
 
   -0.49705E+08         0.69528E+05         0.00000E+00
    0.69528E+05        -0.49930E+08         0.00000E+00
    0.00000E+00         0.00000E+00        -0.49873E+08
 
   -0.49717E+08         0.73721E+05         0.00000E+00
    0.73721E+05        -0.49926E+08         0.00000E+00
    0.00000E+00         0.00000E+00        -0.49873E+08
 
   -0.49728E+08         0.78044E+05         0.00000E+00
    0.78044E+05        -0.49921E+08         0.00000E+00
    0.00000E+00         0.00000E+00        -0.49873E+08
 
   -0.49739E+08         0.82508E+05         0.00000E+00
    0.82508E+05        -0.49917E+08         0.00000E+00
    0.00000E+00         0.00000E+00        -0.49873E+08
 
   -0.49751E+08         0.87126E+05         0.00000E+00
    0.87126E+05        -0.49912E+08         0.00000E+00
    0.00000E+00         0.00000E+00        -0.49873E+08
 
   -0.49763E+08         0.91912E+05         0.00000E+00
    0.91912E+05        -0.49907E+08         0.00000E+00
    0.00000E+00         0.00000E+00        -0.49874E+08
 
   -0.49774E+08         0.96881E+05         0.00000E+00
    0.96881E+05        -0.49902E+08         0.00000E+00
    0.00000E+00         0.00000E+00        -0.49874E+08
 
   -0.49786E+08         0.10205E+06         0.00000E+00
    0.10205E+06        -0.49897E+08         0.00000E+00
    0.00000E+00         0.00000E+00        -0.49874E+08
 
   -0.49798E+08         0.10742E+06         0.00000E+00
    0.10742E+06        -0.49892E+08         0.00000E+00
    0.00000E+00         0.00000E+00        -0.49874E+08
 
   -0.49810E+08         0.11302E+06         0.00000E+00
    0.11302E+06        -0.49887E+08         0.00000E+00
    0.00000E+00         0.00000E+00        -0.49874E+08
 
   -0.49822E+08         0.11885E+06         0.00000E+00
    0.11885E+06        -0.49881E+08         0.00000E+00
    0.00000E+00         0.00000E+00        -0.49874E+08
 
   -0.49833E+08         0.12492E+06         0.00000E+00
    0.12492E+06        -0.49875E+08         0.00000E+00
    0.00000E+00         0.00000E+00        -0.49874E+08
 
   -0.49845E+08         0.13124E+06         0.00000E+00
    0.13124E+06        -0.49870E+08         0.00000E+00
    0.00000E+00         0.00000E+00        -0.49874E+08
 
   -0.49857E+08         0.13780E+06         0.00000E+00
    0.13780E+06        -0.49864E+08         0.00000E+00
    0.00000E+00         0.00000E+00        -0.49874E+08
 
   -0.49868E+08         0.14464E+06         0.00000E+00
    0.14464E+06        -0.49858E+08         0.00000E+00
    0.00000E+00         0.00000E+00        -0.49874E+08
 
   -0.49374E+08        -0.10002E+04         0.00000E+00
   -0.10002E+04        -0.50000E+08         0.00000E+00
    0.00000E+00         0.00000E+00        -0.49833E+08
 
   -0.49379E+08        -0.21194E+04         0.00000E+00
   -0.21194E+04        -0.50000E+08         0.00000E+00
    0.00000E+00         0.00000E+00        -0.49833E+08
 
   -0.49385E+08        -0.29094E+04         0.00000E+00
   -0.29094E+04        -0.49999E+08         0.00000E+00
    0.00000E+00         0.00000E+00        -0.49833E+08
 
   -0.49391E+08        -0.33681E+04         0.00000E+00
   -0.33681E+04        -0.49998E+08         0.00000E+00
    0.00000E+00         0.00000E+00        -0.49834E+08
 
   -0.49398E+08        -0.35011E+04         0.00000E+00
   -0.35011E+04        -0.49998E+08         0.00000E+00
    0.00000E+00         0.00000E+00        -0.49834E+08
 
   -0.49405E+08        -0.33165E+04         0.00000E+00
   -0.33165E+04        -0.49997E+08         0.00000E+00
    0.00000E+00         0.00000E+00        -0.49834E+08
 
   -0.49412E+08        -0.28237E+04         0.00000E+00
   -0.28237E+04        -0.49995E+08         0.00000E+00
    0.00000E+00         0.00000E+00        -0.49834E+08
 
   -0.49419E+08        -0.20336E+04         0.00000E+00
   -0.20336E+04        -0.49994E+08         0.00000E+00
    0.00000E+00         0.00000E+00        -0.49834E+08
 
   -0.49427E+08        -0.95919E+03         0.00000E+00
   -0.95919E+03        -0.49993E+08         0.00000E+00
    0.00000E+00         0.00000E+00        -0.49834E+08
 
   -0.49435E+08         0.38523E+03         0.00000E+00
    0.38523E+03        -0.49991E+08         0.00000E+00
    0.00000E+00         0.00000E+00        -0.49834E+08
 
   -0.49443E+08         0.19842E+04         0.00000E+00
    0.19842E+04        -0.49989E+08         0.00000E+00
    0.00000E+00         0.00000E+00        -0.49834E+08
 
   -0.49452E+08         0.38214E+04         0.00000E+00
    0.38214E+04        -0.49988E+08         0.00000E+00
    0.00000E+00         0.00000E+00        -0.49834E+08
 
   -0.49460E+08         0.58805E+04         0.00000E+00
    0.58805E+04        -0.49986E+08         0.00000E+00
    0.00000E+00         0.00000E+00        -0.49834E+08
 
   -0.49469E+08         0.81455E+04         0.00000E+00
    0.81455E+04        -0.49984E+08         0.00000E+00
    0.00000E+00         0.00000E+00        -0.49834E+08
 
   -0.49478E+08         0.10601E+05         0.00000E+00
    0.10601E+05        -0.49982E+08         0.00000E+00
    0.00000E+00         0.00000E+00        -0.49835E+08
 
   -0.49487E+08         0.13232E+05         0.00000E+00
    0.13232E+05        -0.49980E+08         0.00000E+00
    0.00000E+00         0.00000E+00        -0.49835E+08
 
   -0.49496E+08         0.16024E+05         0.00000E+00
    0.16024E+05        -0.49978E+08         0.00000E+00
    0.00000E+00         0.00000E+00        -0.49835E+08
 
   -0.49505E+08         0.18967E+05         0.00000E+00
    0.18967E+05        -0.49976E+08         0.00000E+00
    0.00000E+00         0.00000E+00        -0.49835E+08
 
   -0.49514E+08         0.22047E+05         0.00000E+00
    0.22047E+05        -0.49973E+08         0.00000E+00
    0.00000E+00         0.00000E+00        -0.49835E+08
 
   -0.49523E+08         0.25255E+05         0.00000E+00
    0.25255E+05        -0.49971E+08         0.00000E+00
    0.00000E+00         0.00000E+00        -0.49835E+08
 
   -0.49533E+08         0.28583E+05         0.00000E+00
    0.28583E+05        -0.49969E+08         0.00000E+00
    0.00000E+00         0.00000E+00        -0.49836E+08
 
   -0.49542E+08         0.32022E+05         0.00000E+00
    0.32022E+05        -0.49966E+08         0.00000E+00
    0.00000E+00         0.00000E+00        -0.49836E+08
 
   -0.49552E+08         0.35567E+05         0.00000E+00
    0.35567E+05        -0.49963E+08         0.00000E+00
    0.00000E+00         0.00000E+00        -0.49836E+08
 
   -0.49561E+08         0.39211E+05         0.00000E+00
    0.39211E+05        -0.49961E+08         0.00000E+00
    0.00000E+00         0.00000E+00        -0.49836E+08
 
   -0.49571E+08         0.42952E+05         0.00000E+00
    0.42952E+05        -0.49958E+08         0.00000E+00
    0.00000E+00         0.00000E+00        -0.49836E+08
 
   -0.49581E+08         0.46785E+05         0.00000E+00
    0.46785E+05        -0.49955E+08         0.00000E+00
    0.00000E+00         0.00000E+00        -0.49836E+08
 
   -0.49590E+08         0.50708E+05         0.00000E+00
    0.50708E+05        -0.49952E+08         0.00000E+00
    0.00000E+00         0.00000E+00        -0.49836E+08
 
   -0.49600E+08         0.54721E+05         0.00000E+00
    0.54721E+05        -0.49949E+08         0.00000E+00
    0.00000E+00         0.00000E+00        -0.49837E+08
 
   -0.49610E+08         0.58823E+05         0.00000E+00
    0.58823E+05        -0.49946E+08         0.00000E+00
    0.00000E+00         0.00000E+00        -0.49837E+08
 
   -0.49621E+08         0.63014E+05         0.00000E+00
    0.63014E+05        -0.49942E+08         0.00000E+00
    0.00000E+00         0.00000E+00        -0.49837E+08
 
   -0.49631E+08         0.67297E+05         0.00000E+00
    0.67297E+05        -0.49939E+08         0.00000E+00
    0.00000E+00         0.00000E+00        -0.49837E+08
 
   -0.49641E+08         0.71673E+05         0.00000E+00
    0.71673E+05        -0.49935E+08         0.00000E+00
    0.00000E+00         0.00000E+00        -0.49837E+08
 
   -0.49651E+08         0.76145E+05         0.00000E+00
    0.76145E+05        -0.49931E+08         0.00000E+00
    0.00000E+00         0.00000E+00        -0.49837E+08
 
   -0.49662E+08         0.80718E+05         0.00000E+00
    0.80718E+05        -0.49928E+08         0.00000E+00
    0.00000E+00         0.00000E+00        -0.49838E+08
 
   -0.49672E+08         0.85395E+05         0.00000E+00
    0.85395E+05        -0.49924E+08         0.00000E+00
    0.00000E+00         0.00000E+00        -0.49838E+08
 
   -0.49683E+08         0.90182E+05         0.00000E+00
    0.90182E+05        -0.49920E+08         0.00000E+00
    0.00000E+00         0.00000E+00        -0.49838E+08
 
   -0.49693E+08         0.95083E+05         0.00000E+00
    0.95083E+05        -0.49915E+08         0.00000E+00
    0.00000E+00         0.00000E+00        -0.49838E+08
 
   -0.49704E+08         0.10011E+06         0.00000E+00
    0.10011E+06        -0.49911E+08         0.00000E+00
    0.00000E+00         0.00000E+00        -0.49838E+08
 
   -0.49715E+08         0.10526E+06         0.00000E+00
    0.10526E+06        -0.49907E+08         0.00000E+00
    0.00000E+00         0.00000E+00        -0.49838E+08
 
   -0.49726E+08         0.11054E+06         0.00000E+00
    0.11054E+06        -0.49902E+08         0.00000E+00
    0.00000E+00         0.00000E+00        -0.49838E+08
 
   -0.49737E+08         0.11596E+06         0.00000E+00
    0.11596E+06        -0.49897E+08         0.00000E+00
    0.00000E+00         0.00000E+00        -0.49838E+08
 
   -0.49748E+08         0.12153E+06         0.00000E+00
    0.12153E+06        -0.49893E+08         0.00000E+00
    0.00000E+00         0.00000E+00        -0.49838E+08
 
   -0.49758E+08         0.12725E+06         0.00000E+00
    0.12725E+06        -0.49888E+08         0.00000E+00
    0.00000E+00         0.00000E+00        -0.49839E+08
 
   -0.49769E+08         0.13313E+06         0.00000E+00
    0.13313E+06        -0.49883E+08         0.00000E+00
    0.00000E+00         0.00000E+00        -0.49839E+08
 
   -0.49780E+08         0.13917E+06         0.00000E+00
    0.13917E+06        -0.49878E+08         0.00000E+00
    0.00000E+00         0.00000E+00        -0.49839E+08
 
   -0.49791E+08         0.14537E+06         0.00000E+00
    0.14537E+06        -0.49873E+08         0.00000E+00
    0.00000E+00         0.00000E+00        -0.49839E+08
 
   -0.49802E+08         0.15174E+06         0.00000E+00
    0.15174E+06        -0.49868E+08         0.00000E+00
    0.00000E+00         0.00000E+00        -0.49839E+08
 
   -0.49813E+08         0.15827E+06         0.00000E+00
    0.15827E+06        -0.49862E+08         0.00000E+00
    0.00000E+00         0.00000E+00        -0.49839E+08
 
   -0.49823E+08         0.16497E+06         0.00000E+00
    0.16497E+06        -0.49857E+08         0.00000E+00
    0.00000E+00         0.00000E+00        -0.49839E+08
 
   -0.49834E+08         0.17183E+06         0.00000E+00
    0.17183E+06        -0.49852E+08         0.00000E+00
    0.00000E+00         0.00000E+00        -0.49839E+08
 
   -0.49377E+08        -0.27882E+03         0.00000E+00
   -0.27882E+03        -0.50000E+08         0.00000E+00
    0.00000E+00         0.00000E+00        -0.49799E+08
 
   -0.49381E+08        -0.21265E+03         0.00000E+00
   -0.21265E+03        -0.50000E+08         0.00000E+00
    0.00000E+00         0.00000E+00        -0.49799E+08
 
   -0.49385E+08         0.87466E+02         0.00000E+00
    0.87466E+02        -0.49999E+08         0.00000E+00
    0.00000E+00         0.00000E+00        -0.49799E+08
 
   -0.49390E+08         0.62374E+03         0.00000E+00
    0.62374E+03        -0.49999E+08         0.00000E+00
    0.00000E+00         0.00000E+00        -0.49799E+08
 
   -0.49395E+08         0.13975E+04         0.00000E+00
    0.13975E+04        -0.49998E+08         0.00000E+00
    0.00000E+00         0.00000E+00        -0.49799E+08
 
   -0.49401E+08         0.24080E+04         0.00000E+00
    0.24080E+04        -0.49997E+08         0.00000E+00
    0.00000E+00         0.00000E+00        -0.49799E+08
 
   -0.49407E+08         0.36524E+04         0.00000E+00
    0.36524E+04        -0.49995E+08         0.00000E+00
    0.00000E+00         0.00000E+00        -0.49799E+08
 
   -0.49413E+08         0.51264E+04         0.00000E+00
    0.51264E+04        -0.49994E+08         0.00000E+00
    0.00000E+00         0.00000E+00        -0.49799E+08
 
   -0.49420E+08         0.68244E+04         0.00000E+00
    0.68244E+04        -0.49992E+08         0.00000E+00
    0.00000E+00         0.00000E+00        -0.49799E+08
 
   -0.49427E+08         0.87398E+04         0.00000E+00
    0.87398E+04        -0.49991E+08         0.00000E+00
    0.00000E+00         0.00000E+00        -0.49799E+08
 
   -0.49434E+08         0.10865E+05         0.00000E+00
    0.10865E+05        -0.49989E+08         0.00000E+00
    0.00000E+00         0.00000E+00        -0.49799E+08
 
   -0.49441E+08         0.13193E+05         0.00000E+00
    0.13193E+05        -0.49987E+08         0.00000E+00
    0.00000E+00         0.00000E+00        -0.49799E+08
 
   -0.49448E+08         0.15713E+05         0.00000E+00
    0.15713E+05        -0.49985E+08         0.00000E+00
    0.00000E+00         0.00000E+00        -0.49799E+08
 
   -0.49456E+08         0.18419E+05         0.00000E+00
    0.18419E+05        -0.49983E+08         0.00000E+00
    0.00000E+00         0.00000E+00        -0.49800E+08
 
   -0.49464E+08         0.21299E+05         0.00000E+00
    0.21299E+05        -0.49981E+08         0.00000E+00
    0.00000E+00         0.00000E+00        -0.49800E+08
 
   -0.49472E+08         0.24347E+05         0.00000E+00
    0.24347E+05        -0.49978E+08         0.00000E+00
    0.00000E+00         0.00000E+00        -0.49800E+08
 
   -0.49480E+08         0.27552E+05         0.00000E+00
    0.27552E+05        -0.49976E+08         0.00000E+00
    0.00000E+00         0.00000E+00        -0.49800E+08
 
   -0.49489E+08         0.30907E+05         0.00000E+00
    0.30907E+05        -0.49974E+08         0.00000E+00
    0.00000E+00         0.00000E+00        -0.49800E+08
 
   -0.49497E+08         0.34404E+05         0.00000E+00
    0.34404E+05        -0.49971E+08         0.00000E+00
    0.00000E+00         0.00000E+00        -0.49800E+08
 
   -0.49506E+08         0.38035E+05         0.00000E+00
    0.38035E+05        -0.49968E+08         0.00000E+00
    0.00000E+00         0.00000E+00        -0.49800E+08
 
   -0.49515E+08         0.41794E+05         0.00000E+00
    0.41794E+05        -0.49966E+08         0.00000E+00
    0.00000E+00         0.00000E+00        -0.49801E+08
 
   -0.49524E+08         0.45674E+05         0.00000E+00
    0.45674E+05        -0.49963E+08         0.00000E+00
    0.00000E+00         0.00000E+00        -0.49801E+08
 
   -0.49533E+08         0.49670E+05         0.00000E+00
    0.49670E+05        -0.49960E+08         0.00000E+00
    0.00000E+00         0.00000E+00        -0.49801E+08
 
   -0.49542E+08         0.53778E+05         0.00000E+00
    0.53778E+05        -0.49957E+08         0.00000E+00
    0.00000E+00         0.00000E+00        -0.49801E+08
 
   -0.49551E+08         0.57994E+05         0.00000E+00
    0.57994E+05        -0.49954E+08         0.00000E+00
    0.00000E+00         0.00000E+00        -0.49801E+08
 
   -0.49560E+08         0.62313E+05         0.00000E+00
    0.62313E+05        -0.49951E+08         0.00000E+00
    0.00000E+00         0.00000E+00        -0.49801E+08
 
   -0.49569E+08         0.66734E+05         0.00000E+00
    0.66734E+05        -0.49947E+08         0.00000E+00
    0.00000E+00         0.00000E+00        -0.49801E+08
 
   -0.49579E+08         0.71255E+05         0.00000E+00
    0.71255E+05        -0.49944E+08         0.00000E+00
    0.00000E+00         0.00000E+00        -0.49802E+08
 
   -0.49588E+08         0.75873E+05         0.00000E+00
    0.75873E+05        -0.49941E+08         0.00000E+00
    0.00000E+00         0.00000E+00        -0.49802E+08
 
   -0.49598E+08         0.80589E+05         0.00000E+00
    0.80589E+05        -0.49937E+08         0.00000E+00
    0.00000E+00         0.00000E+00        -0.49802E+08
 
   -0.49608E+08         0.85402E+05         0.00000E+00
    0.85402E+05        -0.49933E+08         0.00000E+00
    0.00000E+00         0.00000E+00        -0.49802E+08
 
   -0.49618E+08         0.90312E+05         0.00000E+00
    0.90312E+05        -0.49930E+08         0.00000E+00
    0.00000E+00         0.00000E+00        -0.49802E+08
 
   -0.49627E+08         0.95321E+05         0.00000E+00
    0.95321E+05        -0.49926E+08         0.00000E+00
    0.00000E+00         0.00000E+00        -0.49802E+08
 
   -0.49637E+08         0.10043E+06         0.00000E+00
    0.10043E+06        -0.49922E+08         0.00000E+00
    0.00000E+00         0.00000E+00        -0.49803E+08
 
   -0.49647E+08         0.10564E+06         0.00000E+00
    0.10564E+06        -0.49918E+08         0.00000E+00
    0.00000E+00         0.00000E+00        -0.49803E+08
 
   -0.49657E+08         0.11095E+06         0.00000E+00
    0.11095E+06        -0.49914E+08         0.00000E+00
    0.00000E+00         0.00000E+00        -0.49803E+08
 
   -0.49667E+08         0.11637E+06         0.00000E+00
    0.11637E+06        -0.49910E+08         0.00000E+00
    0.00000E+00         0.00000E+00        -0.49803E+08
 
   -0.49678E+08         0.12189E+06         0.00000E+00
    0.12189E+06        -0.49905E+08         0.00000E+00
    0.00000E+00         0.00000E+00        -0.49803E+08
 
   -0.49688E+08         0.12752E+06         0.00000E+00
    0.12752E+06        -0.49901E+08         0.00000E+00
    0.00000E+00         0.00000E+00        -0.49803E+08
 
   -0.49698E+08         0.13326E+06         0.00000E+00
    0.13326E+06        -0.49896E+08         0.00000E+00
    0.00000E+00         0.00000E+00        -0.49803E+08
 
   -0.49708E+08         0.13912E+06         0.00000E+00
    0.13912E+06        -0.49892E+08         0.00000E+00
    0.00000E+00         0.00000E+00        -0.49803E+08
 
   -0.49718E+08         0.14509E+06         0.00000E+00
    0.14509E+06        -0.49887E+08         0.00000E+00
    0.00000E+00         0.00000E+00        -0.49804E+08
 
   -0.49729E+08         0.15118E+06         0.00000E+00
    0.15118E+06        -0.49883E+08         0.00000E+00
    0.00000E+00         0.00000E+00        -0.49804E+08
 
   -0.49739E+08         0.15739E+06         0.00000E+00
    0.15739E+06        -0.49878E+08         0.00000E+00
    0.00000E+00         0.00000E+00        -0.49804E+08
 
   -0.49749E+08         0.16371E+06         0.00000E+00
    0.16371E+06        -0.49873E+08         0.00000E+00
    0.00000E+00         0.00000E+00        -0.49804E+08
 
   -0.49759E+08         0.17014E+06         0.00000E+00
    0.17014E+06        -0.49868E+08         0.00000E+00
    0.00000E+00         0.00000E+00        -0.49804E+08
 
   -0.49769E+08         0.17670E+06         0.00000E+00
    0.17670E+06        -0.49864E+08         0.00000E+00
    0.00000E+00         0.00000E+00        -0.49804E+08
 
   -0.49779E+08         0.18336E+06         0.00000E+00
    0.18336E+06        -0.49859E+08         0.00000E+00
    0.00000E+00         0.00000E+00        -0.49804E+08
 
   -0.49789E+08         0.19014E+06         0.00000E+00
    0.19014E+06        -0.49854E+08         0.00000E+00
    0.00000E+00         0.00000E+00        -0.49804E+08
 
   -0.49799E+08         0.19702E+06         0.00000E+00
    0.19702E+06        -0.49849E+08         0.00000E+00
    0.00000E+00         0.00000E+00        -0.49804E+08
 
   -0.49375E+08         0.39238E+03         0.00000E+00
    0.39238E+03        -0.50000E+08         0.00000E+00
    0.00000E+00         0.00000E+00        -0.49764E+08
 
   -0.49377E+08         0.16077E+04         0.00000E+00
    0.16077E+04        -0.50000E+08         0.00000E+00
    0.00000E+00         0.00000E+00        -0.49764E+08
 
   -0.49381E+08         0.29881E+04         0.00000E+00
    0.29881E+04        -0.49999E+08         0.00000E+00
    0.00000E+00         0.00000E+00        -0.49764E+08
 
   -0.49385E+08         0.45380E+04         0.00000E+00
    0.45380E+04        -0.49999E+08         0.00000E+00
    0.00000E+00         0.00000E+00        -0.49764E+08
 
   -0.49389E+08         0.62601E+04         0.00000E+00
    0.62601E+04        -0.49998E+08         0.00000E+00
    0.00000E+00         0.00000E+00        -0.49764E+08
 
   -0.49393E+08         0.81563E+04         0.00000E+00
    0.81563E+04        -0.49997E+08         0.00000E+00
    0.00000E+00         0.00000E+00        -0.49764E+08
 
   -0.49398E+08         0.10227E+05         0.00000E+00
    0.10227E+05        -0.49995E+08         0.00000E+00
    0.00000E+00         0.00000E+00        -0.49764E+08
 
   -0.49403E+08         0.12473E+05         0.00000E+00
    0.12473E+05        -0.49994E+08         0.00000E+00
    0.00000E+00         0.00000E+00        -0.49764E+08
 
   -0.49409E+08         0.14892E+05         0.00000E+00
    0.14892E+05        -0.49992E+08         0.00000E+00
    0.00000E+00         0.00000E+00        -0.49764E+08
 
   -0.49415E+08         0.17481E+05         0.00000E+00
    0.17481E+05        -0.49991E+08         0.00000E+00
    0.00000E+00         0.00000E+00        -0.49764E+08
 
   -0.49421E+08         0.20239E+05         0.00000E+00
    0.20239E+05        -0.49989E+08         0.00000E+00
    0.00000E+00         0.00000E+00        -0.49764E+08
 
   -0.49427E+08         0.23162E+05         0.00000E+00
    0.23162E+05        -0.49987E+08         0.00000E+00
    0.00000E+00         0.00000E+00        -0.49765E+08
 
   -0.49434E+08         0.26245E+05         0.00000E+00
    0.26245E+05        -0.49985E+08         0.00000E+00
    0.00000E+00         0.00000E+00        -0.49765E+08
 
   -0.49441E+08         0.29485E+05         0.00000E+00
    0.29485E+05        -0.49983E+08         0.00000E+00
    0.00000E+00         0.00000E+00        -0.49765E+08
 
   -0.49448E+08         0.32876E+05         0.00000E+00
    0.32876E+05        -0.49980E+08         0.00000E+00
    0.00000E+00         0.00000E+00        -0.49765E+08
 
   -0.49455E+08         0.36414E+05         0.00000E+00
    0.36414E+05        -0.49978E+08         0.00000E+00
    0.00000E+00         0.00000E+00        -0.49765E+08
 
   -0.49463E+08         0.40094E+05         0.00000E+00
    0.40094E+05        -0.49976E+08         0.00000E+00
    0.00000E+00         0.00000E+00        -0.49765E+08
 
   -0.49471E+08         0.43911E+05         0.00000E+00
    0.43911E+05        -0.49973E+08         0.00000E+00
    0.00000E+00         0.00000E+00        -0.49765E+08
 
   -0.49478E+08         0.47859E+05         0.00000E+00
    0.47859E+05        -0.49970E+08         0.00000E+00
    0.00000E+00         0.00000E+00        -0.49766E+08
 
   -0.49486E+08         0.51935E+05         0.00000E+00
    0.51935E+05        -0.49967E+08         0.00000E+00
    0.00000E+00         0.00000E+00        -0.49766E+08
 
   -0.49495E+08         0.56133E+05         0.00000E+00
    0.56133E+05        -0.49964E+08         0.00000E+00
    0.00000E+00         0.00000E+00        -0.49766E+08
 
   -0.49503E+08         0.60450E+05         0.00000E+00
    0.60450E+05        -0.49962E+08         0.00000E+00
    0.00000E+00         0.00000E+00        -0.49766E+08
 
   -0.49511E+08         0.64881E+05         0.00000E+00
    0.64881E+05        -0.49958E+08         0.00000E+00
    0.00000E+00         0.00000E+00        -0.49766E+08
 
   -0.49520E+08         0.69423E+05         0.00000E+00
    0.69423E+05        -0.49955E+08         0.00000E+00
    0.00000E+00         0.00000E+00        -0.49766E+08
 
   -0.49528E+08         0.74072E+05         0.00000E+00
    0.74072E+05        -0.49952E+08         0.00000E+00
    0.00000E+00         0.00000E+00        -0.49766E+08
 
   -0.49537E+08         0.78825E+05         0.00000E+00
    0.78825E+05        -0.49949E+08         0.00000E+00
    0.00000E+00         0.00000E+00        -0.49767E+08
 
   -0.49546E+08         0.83681E+05         0.00000E+00
    0.83681E+05        -0.49945E+08         0.00000E+00
    0.00000E+00         0.00000E+00        -0.49767E+08
 
   -0.49555E+08         0.88636E+05         0.00000E+00
    0.88636E+05        -0.49942E+08         0.00000E+00
    0.00000E+00         0.00000E+00        -0.49767E+08
 
   -0.49564E+08         0.93689E+05         0.00000E+00
    0.93689E+05        -0.49938E+08         0.00000E+00
    0.00000E+00         0.00000E+00        -0.49767E+08
 
   -0.49573E+08         0.98838E+05         0.00000E+00
    0.98838E+05        -0.49935E+08         0.00000E+00
    0.00000E+00         0.00000E+00        -0.49767E+08
 
   -0.49582E+08         0.10408E+06         0.00000E+00
    0.10408E+06        -0.49931E+08         0.00000E+00
    0.00000E+00         0.00000E+00        -0.49767E+08
 
   -0.49592E+08         0.10942E+06         0.00000E+00
    0.10942E+06        -0.49927E+08         0.00000E+00
    0.00000E+00         0.00000E+00        -0.49767E+08
 
   -0.49601E+08         0.11485E+06         0.00000E+00
    0.11485E+06        -0.49923E+08         0.00000E+00
    0.00000E+00         0.00000E+00        -0.49768E+08
 
   -0.49610E+08         0.12038E+06         0.00000E+00
    0.12038E+06        -0.49919E+08         0.00000E+00
    0.00000E+00         0.00000E+00        -0.49768E+08
 
   -0.49620E+08         0.12599E+06         0.00000E+00
    0.12599E+06        -0.49915E+08         0.00000E+00
    0.00000E+00         0.00000E+00        -0.49768E+08
 
   -0.49629E+08         0.13170E+06         0.00000E+00
    0.13170E+06        -0.49911E+08         0.00000E+00
    0.00000E+00         0.00000E+00        -0.49768E+08
 
   -0.49639E+08         0.13750E+06         0.00000E+00
    0.13750E+06        -0.49907E+08         0.00000E+00
    0.00000E+00         0.00000E+00        -0.49768E+08
 
   -0.49649E+08         0.14339E+06         0.00000E+00
    0.14339E+06        -0.49903E+08         0.00000E+00
    0.00000E+00         0.00000E+00        -0.49768E+08
 
   -0.49658E+08         0.14938E+06         0.00000E+00
    0.14938E+06        -0.49898E+08         0.00000E+00
    0.00000E+00         0.00000E+00        -0.49768E+08
 
   -0.49668E+08         0.15545E+06         0.00000E+00
    0.15545E+06        -0.49894E+08         0.00000E+00
    0.00000E+00         0.00000E+00        -0.49769E+08
 
   -0.49678E+08         0.16162E+06         0.00000E+00
    0.16162E+06        -0.49890E+08         0.00000E+00
    0.00000E+00         0.00000E+00        -0.49769E+08
 
   -0.49687E+08         0.16788E+06         0.00000E+00
    0.16788E+06        -0.49885E+08         0.00000E+00
    0.00000E+00         0.00000E+00        -0.49769E+08
 
   -0.49697E+08         0.17422E+06         0.00000E+00
    0.17422E+06        -0.49881E+08         0.00000E+00
    0.00000E+00         0.00000E+00        -0.49769E+08
 
   -0.49707E+08         0.18065E+06         0.00000E+00
    0.18065E+06        -0.49876E+08         0.00000E+00
    0.00000E+00         0.00000E+00        -0.49769E+08
 
   -0.49717E+08         0.18717E+06         0.00000E+00
    0.18717E+06        -0.49871E+08         0.00000E+00
    0.00000E+00         0.00000E+00        -0.49769E+08
 
   -0.49726E+08         0.19377E+06         0.00000E+00
    0.19377E+06        -0.49867E+08         0.00000E+00
    0.00000E+00         0.00000E+00        -0.49769E+08
 
   -0.49736E+08         0.20045E+06         0.00000E+00
    0.20045E+06        -0.49862E+08         0.00000E+00
    0.00000E+00         0.00000E+00        -0.49769E+08
 
   -0.49745E+08         0.20721E+06         0.00000E+00
    0.20721E+06        -0.49858E+08         0.00000E+00
    0.00000E+00         0.00000E+00        -0.49769E+08
 
   -0.49755E+08         0.21404E+06         0.00000E+00
    0.21404E+06        -0.49853E+08         0.00000E+00
    0.00000E+00         0.00000E+00        -0.49769E+08
 
   -0.49764E+08         0.22094E+06         0.00000E+00
    0.22094E+06        -0.49848E+08         0.00000E+00
    0.00000E+00         0.00000E+00        -0.49769E+08
 
   -0.49366E+08         0.10162E+04         0.00000E+00
    0.10162E+04        -0.50000E+08         0.00000E+00
    0.00000E+00         0.00000E+00        -0.49729E+08
 
   -0.49368E+08         0.33336E+04         0.00000E+00
    0.33336E+04        -0.50000E+08         0.00000E+00
    0.00000E+00         0.00000E+00        -0.49729E+08
 
   -0.49371E+08         0.57635E+04         0.00000E+00
    0.57635E+04        -0.49999E+08         0.00000E+00
    0.00000E+00         0.00000E+00        -0.49729E+08
 
   -0.49374E+08         0.83110E+04         0.00000E+00
    0.83110E+04        -0.49999E+08         0.00000E+00
    0.00000E+00         0.00000E+00        -0.49729E+08
 
   -0.49377E+08         0.10980E+05         0.00000E+00
    0.10980E+05        -0.49998E+08         0.00000E+00
    0.00000E+00         0.00000E+00        -0.49729E+08
 
   -0.49381E+08         0.13775E+05         0.00000E+00
    0.13775E+05        -0.49997E+08         0.00000E+00
    0.00000E+00         0.00000E+00        -0.49730E+08
 
   -0.49385E+08         0.16697E+05         0.00000E+00
    0.16697E+05        -0.49996E+08         0.00000E+00
    0.00000E+00         0.00000E+00        -0.49730E+08
 
   -0.49390E+08         0.19750E+05         0.00000E+00
    0.19750E+05        -0.49994E+08         0.00000E+00
    0.00000E+00         0.00000E+00        -0.49730E+08
 
   -0.49395E+08         0.22932E+05         0.00000E+00
    0.22932E+05        -0.49993E+08         0.00000E+00
    0.00000E+00         0.00000E+00        -0.49730E+08
 
   -0.49400E+08         0.26246E+05         0.00000E+00
    0.26246E+05        -0.49991E+08         0.00000E+00
    0.00000E+00         0.00000E+00        -0.49730E+08
 
   -0.49405E+08         0.29691E+05         0.00000E+00
    0.29691E+05        -0.49989E+08         0.00000E+00
    0.00000E+00         0.00000E+00        -0.49730E+08
 
   -0.49411E+08         0.33265E+05         0.00000E+00
    0.33265E+05        -0.49987E+08         0.00000E+00
    0.00000E+00         0.00000E+00        -0.49730E+08
 
   -0.49417E+08         0.36969E+05         0.00000E+00
    0.36969E+05        -0.49985E+08         0.00000E+00
    0.00000E+00         0.00000E+00        -0.49730E+08
 
   -0.49423E+08         0.40799E+05         0.00000E+00
    0.40799E+05        -0.49983E+08         0.00000E+00
    0.00000E+00         0.00000E+00        -0.49730E+08
 
   -0.49429E+08         0.44755E+05         0.00000E+00
    0.44755E+05        -0.49981E+08         0.00000E+00
    0.00000E+00         0.00000E+00        -0.49730E+08
 
   -0.49436E+08         0.48834E+05         0.00000E+00
    0.48834E+05        -0.49978E+08         0.00000E+00
    0.00000E+00         0.00000E+00        -0.49730E+08
 
   -0.49443E+08         0.53034E+05         0.00000E+00
    0.53034E+05        -0.49976E+08         0.00000E+00
    0.00000E+00         0.00000E+00        -0.49731E+08
 
   -0.49450E+08         0.57351E+05         0.00000E+00
    0.57351E+05        -0.49973E+08         0.00000E+00
    0.00000E+00         0.00000E+00        -0.49731E+08
 
   -0.49457E+08         0.61784E+05         0.00000E+00
    0.61784E+05        -0.49970E+08         0.00000E+00
    0.00000E+00         0.00000E+00        -0.49731E+08
 
   -0.49465E+08         0.66329E+05         0.00000E+00
    0.66329E+05        -0.49967E+08         0.00000E+00
    0.00000E+00         0.00000E+00        -0.49731E+08
 
   -0.49472E+08         0.70983E+05         0.00000E+00
    0.70983E+05        -0.49965E+08         0.00000E+00
    0.00000E+00         0.00000E+00        -0.49731E+08
 
   -0.49480E+08         0.75745E+05         0.00000E+00
    0.75745E+05        -0.49961E+08         0.00000E+00
    0.00000E+00         0.00000E+00        -0.49731E+08
 
   -0.49488E+08         0.80611E+05         0.00000E+00
    0.80611E+05        -0.49958E+08         0.00000E+00
    0.00000E+00         0.00000E+00        -0.49731E+08
 
   -0.49496E+08         0.85578E+05         0.00000E+00
    0.85578E+05        -0.49955E+08         0.00000E+00
    0.00000E+00         0.00000E+00        -0.49732E+08
 
   -0.49504E+08         0.90644E+05         0.00000E+00
    0.90644E+05        -0.49952E+08         0.00000E+00
    0.00000E+00         0.00000E+00        -0.49732E+08
 
   -0.49512E+08         0.95807E+05         0.00000E+00
    0.95807E+05        -0.49948E+08         0.00000E+00
    0.00000E+00         0.00000E+00        -0.49732E+08
 
   -0.49520E+08         0.10106E+06         0.00000E+00
    0.10106E+06        -0.49945E+08         0.00000E+00
    0.00000E+00         0.00000E+00        -0.49732E+08
 
   -0.49529E+08         0.10641E+06         0.00000E+00
    0.10641E+06        -0.49942E+08         0.00000E+00
    0.00000E+00         0.00000E+00        -0.49732E+08
 
   -0.49538E+08         0.11185E+06         0.00000E+00
    0.11185E+06        -0.49938E+08         0.00000E+00
    0.00000E+00         0.00000E+00        -0.49732E+08
 
   -0.49546E+08         0.11738E+06         0.00000E+00
    0.11738E+06        -0.49934E+08         0.00000E+00
    0.00000E+00         0.00000E+00        -0.49732E+08
 
   -0.49555E+08         0.12300E+06         0.00000E+00
    0.12300E+06        -0.49930E+08         0.00000E+00
    0.00000E+00         0.00000E+00        -0.49733E+08
 
   -0.49564E+08         0.12870E+06         0.00000E+00
    0.12870E+06        -0.49927E+08         0.00000E+00
    0.00000E+00         0.00000E+00        -0.49733E+08
 
   -0.49573E+08         0.13449E+06         0.00000E+00
    0.13449E+06        -0.49923E+08         0.00000E+00
    0.00000E+00         0.00000E+00        -0.49733E+08
 
   -0.49582E+08         0.14035E+06         0.00000E+00
    0.14035E+06        -0.49919E+08         0.00000E+00
    0.00000E+00         0.00000E+00        -0.49733E+08
 
   -0.49591E+08         0.14630E+06         0.00000E+00
    0.14630E+06        -0.49915E+08         0.00000E+00
    0.00000E+00         0.00000E+00        -0.49733E+08
 
   -0.49600E+08         0.15233E+06         0.00000E+00
    0.15233E+06        -0.49911E+08         0.00000E+00
    0.00000E+00         0.00000E+00        -0.49733E+08
 
   -0.49609E+08         0.15844E+06         0.00000E+00
    0.15844E+06        -0.49907E+08         0.00000E+00
    0.00000E+00         0.00000E+00        -0.49733E+08
 
   -0.49618E+08         0.16462E+06         0.00000E+00
    0.16462E+06        -0.49902E+08         0.00000E+00
    0.00000E+00         0.00000E+00        -0.49734E+08
 
   -0.49628E+08         0.17088E+06         0.00000E+00
    0.17088E+06        -0.49898E+08         0.00000E+00
    0.00000E+00         0.00000E+00        -0.49734E+08
 
   -0.49637E+08         0.17721E+06         0.00000E+00
    0.17721E+06        -0.49894E+08         0.00000E+00
    0.00000E+00         0.00000E+00        -0.49734E+08
 
   -0.49646E+08         0.18362E+06         0.00000E+00
    0.18362E+06        -0.49890E+08         0.00000E+00
    0.00000E+00         0.00000E+00        -0.49734E+08
 
   -0.49655E+08         0.19009E+06         0.00000E+00
    0.19009E+06        -0.49885E+08         0.00000E+00
    0.00000E+00         0.00000E+00        -0.49734E+08
 
   -0.49665E+08         0.19664E+06         0.00000E+00
    0.19664E+06        -0.49881E+08         0.00000E+00
    0.00000E+00         0.00000E+00        -0.49734E+08
 
   -0.49674E+08         0.20324E+06         0.00000E+00
    0.20324E+06        -0.49876E+08         0.00000E+00
    0.00000E+00         0.00000E+00        -0.49734E+08
 
   -0.49683E+08         0.20992E+06         0.00000E+00
    0.20992E+06        -0.49872E+08         0.00000E+00
    0.00000E+00         0.00000E+00        -0.49734E+08
 
   -0.49693E+08         0.21665E+06         0.00000E+00
    0.21665E+06        -0.49867E+08         0.00000E+00
    0.00000E+00         0.00000E+00        -0.49734E+08
 
   -0.49702E+08         0.22343E+06         0.00000E+00
    0.22343E+06        -0.49863E+08         0.00000E+00
    0.00000E+00         0.00000E+00        -0.49734E+08
 
   -0.49711E+08         0.23027E+06         0.00000E+00
    0.23027E+06        -0.49858E+08         0.00000E+00
    0.00000E+00         0.00000E+00        -0.49734E+08
 
   -0.49721E+08         0.23716E+06         0.00000E+00
    0.23716E+06        -0.49854E+08         0.00000E+00
    0.00000E+00         0.00000E+00        -0.49734E+08
 
   -0.49730E+08         0.24409E+06         0.00000E+00
    0.24409E+06        -0.49849E+08         0.00000E+00
    0.00000E+00         0.00000E+00        -0.49734E+08
 
   -0.49352E+08         0.15955E+04         0.00000E+00
    0.15955E+04        -0.50000E+08         0.00000E+00
    0.00000E+00         0.00000E+00        -0.49695E+08
 
   -0.49354E+08         0.49588E+04         0.00000E+00
    0.49588E+04        -0.50000E+08         0.00000E+00
    0.00000E+00         0.00000E+00        -0.49695E+08
 
   -0.49356E+08         0.83937E+04         0.00000E+00
    0.83937E+04        -0.49999E+08         0.00000E+00
    0.00000E+00         0.00000E+00        -0.49695E+08
 
   -0.49358E+08         0.11906E+05         0.00000E+00
    0.11906E+05        -0.49999E+08         0.00000E+00
    0.00000E+00         0.00000E+00        -0.49695E+08
 
   -0.49361E+08         0.15500E+05         0.00000E+00
    0.15500E+05        -0.49998E+08         0.00000E+00
    0.00000E+00         0.00000E+00        -0.49695E+08
 
   -0.49365E+08         0.19180E+05         0.00000E+00
    0.19180E+05        -0.49997E+08         0.00000E+00
    0.00000E+00         0.00000E+00        -0.49695E+08
 
   -0.49368E+08         0.22950E+05         0.00000E+00
    0.22950E+05        -0.49996E+08         0.00000E+00
    0.00000E+00         0.00000E+00        -0.49695E+08
 
   -0.49372E+08         0.26813E+05         0.00000E+00
    0.26813E+05        -0.49995E+08         0.00000E+00
    0.00000E+00         0.00000E+00        -0.49695E+08
 
   -0.49376E+08         0.30771E+05         0.00000E+00
    0.30771E+05        -0.49993E+08         0.00000E+00
    0.00000E+00         0.00000E+00        -0.49695E+08
 
   -0.49381E+08         0.34825E+05         0.00000E+00
    0.34825E+05        -0.49991E+08         0.00000E+00
    0.00000E+00         0.00000E+00        -0.49695E+08
 
   -0.49386E+08         0.38978E+05         0.00000E+00
    0.38978E+05        -0.49990E+08         0.00000E+00
    0.00000E+00         0.00000E+00        -0.49695E+08
 
   -0.49391E+08         0.43230E+05         0.00000E+00
    0.43230E+05        -0.49988E+08         0.00000E+00
    0.00000E+00         0.00000E+00        -0.49695E+08
 
   -0.49396E+08         0.47582E+05         0.00000E+00
    0.47582E+05        -0.49986E+08         0.00000E+00
    0.00000E+00         0.00000E+00        -0.49695E+08
 
   -0.49402E+08         0.52033E+05         0.00000E+00
    0.52033E+05        -0.49984E+08         0.00000E+00
    0.00000E+00         0.00000E+00        -0.49696E+08
 
   -0.49408E+08         0.56583E+05         0.00000E+00
    0.56583E+05        -0.49981E+08         0.00000E+00
    0.00000E+00         0.00000E+00        -0.49696E+08
 
   -0.49414E+08         0.61232E+05         0.00000E+00
    0.61232E+05        -0.49979E+08         0.00000E+00
    0.00000E+00         0.00000E+00        -0.49696E+08
 
   -0.49420E+08         0.65979E+05         0.00000E+00
    0.65979E+05        -0.49976E+08         0.00000E+00
    0.00000E+00         0.00000E+00        -0.49696E+08
 
   -0.49427E+08         0.70823E+05         0.00000E+00
    0.70823E+05        -0.49974E+08         0.00000E+00
    0.00000E+00         0.00000E+00        -0.49696E+08
 
   -0.49433E+08         0.75762E+05         0.00000E+00
    0.75762E+05        -0.49971E+08         0.00000E+00
    0.00000E+00         0.00000E+00        -0.49696E+08
 
   -0.49440E+08         0.80795E+05         0.00000E+00
    0.80795E+05        -0.49968E+08         0.00000E+00
    0.00000E+00         0.00000E+00        -0.49696E+08
 
   -0.49447E+08         0.85921E+05         0.00000E+00
    0.85921E+05        -0.49965E+08         0.00000E+00
    0.00000E+00         0.00000E+00        -0.49696E+08
 
   -0.49455E+08         0.91138E+05         0.00000E+00
    0.91138E+05        -0.49962E+08         0.00000E+00
    0.00000E+00         0.00000E+00        -0.49697E+08
 
   -0.49462E+08         0.96445E+05         0.00000E+00
    0.96445E+05        -0.49959E+08         0.00000E+00
    0.00000E+00         0.00000E+00        -0.49697E+08
 
   -0.49470E+08         0.10184E+06         0.00000E+00
    0.10184E+06        -0.49956E+08         0.00000E+00
    0.00000E+00         0.00000E+00        -0.49697E+08
 
   -0.49477E+08         0.10732E+06         0.00000E+00
    0.10732E+06        -0.49953E+08         0.00000E+00
    0.00000E+00         0.00000E+00        -0.49697E+08
 
   -0.49485E+08         0.11288E+06         0.00000E+00
    0.11288E+06        -0.49949E+08         0.00000E+00
    0.00000E+00         0.00000E+00        -0.49697E+08
 
   -0.49493E+08         0.11853E+06         0.00000E+00
    0.11853E+06        -0.49946E+08         0.00000E+00
    0.00000E+00         0.00000E+00        -0.49697E+08
 
   -0.49501E+08         0.12426E+06         0.00000E+00
    0.12426E+06        -0.49942E+08         0.00000E+00
    0.00000E+00         0.00000E+00        -0.49697E+08
 
   -0.49509E+08         0.13006E+06         0.00000E+00
    0.13006E+06        -0.49939E+08         0.00000E+00
    0.00000E+00         0.00000E+00        -0.49698E+08
 
   -0.49517E+08         0.13594E+06         0.00000E+00
    0.13594E+06        -0.49935E+08         0.00000E+00
    0.00000E+00         0.00000E+00        -0.49698E+08
 
   -0.49526E+08         0.14190E+06         0.00000E+00
    0.14190E+06        -0.49931E+08         0.00000E+00
    0.00000E+00         0.00000E+00        -0.49698E+08
 
   -0.49534E+08         0.14793E+06         0.00000E+00
    0.14793E+06        -0.49928E+08         0.00000E+00
    0.00000E+00         0.00000E+00        -0.49698E+08
 
   -0.49543E+08         0.15404E+06         0.00000E+00
    0.15404E+06        -0.49924E+08         0.00000E+00
    0.00000E+00         0.00000E+00        -0.49698E+08
 
   -0.49551E+08         0.16021E+06         0.00000E+00
    0.16021E+06        -0.49920E+08         0.00000E+00
    0.00000E+00         0.00000E+00        -0.49698E+08
 
   -0.49560E+08         0.16645E+06         0.00000E+00
    0.16645E+06        -0.49916E+08         0.00000E+00
    0.00000E+00         0.00000E+00        -0.49698E+08
 
   -0.49569E+08         0.17276E+06         0.00000E+00
    0.17276E+06        -0.49912E+08         0.00000E+00
    0.00000E+00         0.00000E+00        -0.49698E+08
 
   -0.49578E+08         0.17913E+06         0.00000E+00
    0.17913E+06        -0.49908E+08         0.00000E+00
    0.00000E+00         0.00000E+00        -0.49699E+08
 
   -0.49587E+08         0.18556E+06         0.00000E+00
    0.18556E+06        -0.49904E+08         0.00000E+00
    0.00000E+00         0.00000E+00        -0.49699E+08
 
   -0.49596E+08         0.19206E+06         0.00000E+00
    0.19206E+06        -0.49899E+08         0.00000E+00
    0.00000E+00         0.00000E+00        -0.49699E+08
 
   -0.49604E+08         0.19861E+06         0.00000E+00
    0.19861E+06        -0.49895E+08         0.00000E+00
    0.00000E+00         0.00000E+00        -0.49699E+08
 
   -0.49613E+08         0.20522E+06         0.00000E+00
    0.20522E+06        -0.49891E+08         0.00000E+00
    0.00000E+00         0.00000E+00        -0.49699E+08
 
   -0.49622E+08         0.21189E+06         0.00000E+00
    0.21189E+06        -0.49887E+08         0.00000E+00
    0.00000E+00         0.00000E+00        -0.49699E+08
 
   -0.49632E+08         0.21860E+06         0.00000E+00
    0.21860E+06        -0.49882E+08         0.00000E+00
    0.00000E+00         0.00000E+00        -0.49699E+08
 
   -0.49641E+08         0.22536E+06         0.00000E+00
    0.22536E+06        -0.49878E+08         0.00000E+00
    0.00000E+00         0.00000E+00        -0.49699E+08
 
   -0.49650E+08         0.23217E+06         0.00000E+00
    0.23217E+06        -0.49873E+08         0.00000E+00
    0.00000E+00         0.00000E+00        -0.49699E+08
 
   -0.49659E+08         0.23902E+06         0.00000E+00
    0.23902E+06        -0.49869E+08         0.00000E+00
    0.00000E+00         0.00000E+00        -0.49699E+08
 
   -0.49668E+08         0.24591E+06         0.00000E+00
    0.24591E+06        -0.49865E+08         0.00000E+00
    0.00000E+00         0.00000E+00        -0.49699E+08
 
   -0.49677E+08         0.25283E+06         0.00000E+00
    0.25283E+06        -0.49860E+08         0.00000E+00
    0.00000E+00         0.00000E+00        -0.49699E+08
 
   -0.49686E+08         0.25978E+06         0.00000E+00
    0.25978E+06        -0.49856E+08         0.00000E+00
    0.00000E+00         0.00000E+00        -0.49699E+08
 
   -0.49695E+08         0.26676E+06         0.00000E+00
    0.26676E+06        -0.49851E+08         0.00000E+00
    0.00000E+00         0.00000E+00        -0.49699E+08
 
   -0.49333E+08         0.21322E+04         0.00000E+00
    0.21322E+04        -0.50000E+08         0.00000E+00
    0.00000E+00         0.00000E+00        -0.49660E+08
 
   -0.49334E+08         0.64816E+04         0.00000E+00
    0.64816E+04        -0.50000E+08         0.00000E+00
    0.00000E+00         0.00000E+00        -0.49660E+08
 
   -0.49336E+08         0.10870E+05         0.00000E+00
    0.10870E+05        -0.49999E+08         0.00000E+00
    0.00000E+00         0.00000E+00        -0.49660E+08
 
   -0.49338E+08         0.15305E+05         0.00000E+00
    0.15305E+05        -0.49999E+08         0.00000E+00
    0.00000E+00         0.00000E+00        -0.49660E+08
 
   -0.49341E+08         0.19789E+05         0.00000E+00
    0.19789E+05        -0.49998E+08         0.00000E+00
    0.00000E+00         0.00000E+00        -0.49660E+08
 
   -0.49344E+08         0.24328E+05         0.00000E+00
    0.24328E+05        -0.49997E+08         0.00000E+00
    0.00000E+00         0.00000E+00        -0.49660E+08
 
   -0.49347E+08         0.28926E+05         0.00000E+00
    0.28926E+05        -0.49996E+08         0.00000E+00
    0.00000E+00         0.00000E+00        -0.49660E+08
 
   -0.49351E+08         0.33586E+05         0.00000E+00
    0.33586E+05        -0.49995E+08         0.00000E+00
    0.00000E+00         0.00000E+00        -0.49660E+08
 
   -0.49355E+08         0.38311E+05         0.00000E+00
    0.38311E+05        -0.49993E+08         0.00000E+00
    0.00000E+00         0.00000E+00        -0.49660E+08
 
   -0.49359E+08         0.43104E+05         0.00000E+00
    0.43104E+05        -0.49992E+08         0.00000E+00
    0.00000E+00         0.00000E+00        -0.49660E+08
 
   -0.49363E+08         0.47967E+05         0.00000E+00
    0.47967E+05        -0.49990E+08         0.00000E+00
    0.00000E+00         0.00000E+00        -0.49660E+08
 
   -0.49368E+08         0.52903E+05         0.00000E+00
    0.52903E+05        -0.49988E+08         0.00000E+00
    0.00000E+00         0.00000E+00        -0.49660E+08
 
   -0.49373E+08         0.57911E+05         0.00000E+00
    0.57911E+05        -0.49986E+08         0.00000E+00
    0.00000E+00         0.00000E+00        -0.49661E+08
 
   -0.49378E+08         0.62994E+05         0.00000E+00
    0.62994E+05        -0.49984E+08         0.00000E+00
    0.00000E+00         0.00000E+00        -0.49661E+08
 
   -0.49383E+08         0.68152E+05         0.00000E+00
    0.68152E+05        -0.49982E+08         0.00000E+00
    0.00000E+00         0.00000E+00        -0.49661E+08
 
   -0.49389E+08         0.73385E+05         0.00000E+00
    0.73385E+05        -0.49980E+08         0.00000E+00
    0.00000E+00         0.00000E+00        -0.49661E+08
 
   -0.49395E+08         0.78694E+05         0.00000E+00
    0.78694E+05        -0.49977E+08         0.00000E+00
    0.00000E+00         0.00000E+00        -0.49661E+08
 
   -0.49401E+08         0.84078E+05         0.00000E+00
    0.84078E+05        -0.49975E+08         0.00000E+00
    0.00000E+00         0.00000E+00        -0.49661E+08
 
   -0.49407E+08         0.89538E+05         0.00000E+00
    0.89538E+05        -0.49972E+08         0.00000E+00
    0.00000E+00         0.00000E+00        -0.49661E+08
 
   -0.49414E+08         0.95073E+05         0.00000E+00
    0.95073E+05        -0.49969E+08         0.00000E+00
    0.00000E+00         0.00000E+00        -0.49661E+08
 
   -0.49420E+08         0.10068E+06         0.00000E+00
    0.10068E+06        -0.49966E+08         0.00000E+00
    0.00000E+00         0.00000E+00        -0.49661E+08
 
   -0.49427E+08         0.10636E+06         0.00000E+00
    0.10636E+06        -0.49963E+08         0.00000E+00
    0.00000E+00         0.00000E+00        -0.49662E+08
 
   -0.49434E+08         0.11212E+06         0.00000E+00
    0.11212E+06        -0.49960E+08         0.00000E+00
    0.00000E+00         0.00000E+00        -0.49662E+08
 
   -0.49441E+08         0.11794E+06         0.00000E+00
    0.11794E+06        -0.49957E+08         0.00000E+00
    0.00000E+00         0.00000E+00        -0.49662E+08
 
   -0.49449E+08         0.12384E+06         0.00000E+00
    0.12384E+06        -0.49954E+08         0.00000E+00
    0.00000E+00         0.00000E+00        -0.49662E+08
 
   -0.49456E+08         0.12981E+06         0.00000E+00
    0.12981E+06        -0.49951E+08         0.00000E+00
    0.00000E+00         0.00000E+00        -0.49662E+08
 
   -0.49464E+08         0.13584E+06         0.00000E+00
    0.13584E+06        -0.49947E+08         0.00000E+00
    0.00000E+00         0.00000E+00        -0.49662E+08
 
   -0.49471E+08         0.14194E+06         0.00000E+00
    0.14194E+06        -0.49944E+08         0.00000E+00
    0.00000E+00         0.00000E+00        -0.49662E+08
 
   -0.49479E+08         0.14810E+06         0.00000E+00
    0.14810E+06        -0.49940E+08         0.00000E+00
    0.00000E+00         0.00000E+00        -0.49662E+08
 
   -0.49487E+08         0.15433E+06         0.00000E+00
    0.15433E+06        -0.49937E+08         0.00000E+00
    0.00000E+00         0.00000E+00        -0.49663E+08
 
   -0.49495E+08         0.16062E+06         0.00000E+00
    0.16062E+06        -0.49933E+08         0.00000E+00
    0.00000E+00         0.00000E+00        -0.49663E+08
 
   -0.49503E+08         0.16697E+06         0.00000E+00
    0.16697E+06        -0.49929E+08         0.00000E+00
    0.00000E+00         0.00000E+00        -0.49663E+08
 
   -0.49511E+08         0.17338E+06         0.00000E+00
    0.17338E+06        -0.49925E+08         0.00000E+00
    0.00000E+00         0.00000E+00        -0.49663E+08
 
   -0.49520E+08         0.17984E+06         0.00000E+00
    0.17984E+06        -0.49921E+08         0.00000E+00
    0.00000E+00         0.00000E+00        -0.49663E+08
 
   -0.49528E+08         0.18636E+06         0.00000E+00
    0.18636E+06        -0.49918E+08         0.00000E+00
    0.00000E+00         0.00000E+00        -0.49663E+08
 
   -0.49537E+08         0.19293E+06         0.00000E+00
    0.19293E+06        -0.49914E+08         0.00000E+00
    0.00000E+00         0.00000E+00        -0.49663E+08
 
   -0.49545E+08         0.19955E+06         0.00000E+00
    0.19955E+06        -0.49910E+08         0.00000E+00
    0.00000E+00         0.00000E+00        -0.49663E+08
 
   -0.49554E+08         0.20622E+06         0.00000E+00
    0.20622E+06        -0.49905E+08         0.00000E+00
    0.00000E+00         0.00000E+00        -0.49664E+08
 
   -0.49562E+08         0.21294E+06         0.00000E+00
    0.21294E+06        -0.49901E+08         0.00000E+00
    0.00000E+00         0.00000E+00        -0.49664E+08
 
   -0.49571E+08         0.21970E+06         0.00000E+00
    0.21970E+06        -0.49897E+08         0.00000E+00
    0.00000E+00         0.00000E+00        -0.49664E+08
 
   -0.49580E+08         0.22651E+06         0.00000E+00
    0.22651E+06        -0.49893E+08         0.00000E+00
    0.00000E+00         0.00000E+00        -0.49664E+08
 
   -0.49589E+08         0.23335E+06         0.00000E+00
    0.23335E+06        -0.49889E+08         0.00000E+00
    0.00000E+00         0.00000E+00        -0.49664E+08
 
   -0.49597E+08         0.24023E+06         0.00000E+00
    0.24023E+06        -0.49884E+08         0.00000E+00
    0.00000E+00         0.00000E+00        -0.49664E+08
 
   -0.49606E+08         0.24714E+06         0.00000E+00
    0.24714E+06        -0.49880E+08         0.00000E+00
    0.00000E+00         0.00000E+00        -0.49664E+08
 
   -0.49615E+08         0.25409E+06         0.00000E+00
    0.25409E+06        -0.49876E+08         0.00000E+00
    0.00000E+00         0.00000E+00        -0.49664E+08
 
   -0.49624E+08         0.26106E+06         0.00000E+00
    0.26106E+06        -0.49871E+08         0.00000E+00
    0.00000E+00         0.00000E+00        -0.49664E+08
 
   -0.49633E+08         0.26806E+06         0.00000E+00
    0.26806E+06        -0.49867E+08         0.00000E+00
    0.00000E+00         0.00000E+00        -0.49664E+08
 
   -0.49642E+08         0.27508E+06         0.00000E+00
    0.27508E+06        -0.49863E+08         0.00000E+00
    0.00000E+00         0.00000E+00        -0.49664E+08
 
   -0.49651E+08         0.28211E+06         0.00000E+00
    0.28211E+06        -0.49858E+08         0.00000E+00
    0.00000E+00         0.00000E+00        -0.49664E+08
 
   -0.49660E+08         0.28916E+06         0.00000E+00
    0.28916E+06        -0.49854E+08         0.00000E+00
    0.00000E+00         0.00000E+00        -0.49664E+08
 
   -0.49309E+08         0.26290E+04         0.00000E+00
    0.26290E+04        -0.50000E+08         0.00000E+00
    0.00000E+00         0.00000E+00        -0.49625E+08
 
   -0.49310E+08         0.79045E+04         0.00000E+00
    0.79045E+04        -0.50000E+08         0.00000E+00
    0.00000E+00         0.00000E+00        -0.49625E+08
 
   -0.49312E+08         0.13194E+05         0.00000E+00
    0.13194E+05        -0.49999E+08         0.00000E+00
    0.00000E+00         0.00000E+00        -0.49625E+08
 
   -0.49314E+08         0.18504E+05         0.00000E+00
    0.18504E+05        -0.49999E+08         0.00000E+00
    0.00000E+00         0.00000E+00        -0.49625E+08
 
   -0.49316E+08         0.23839E+05         0.00000E+00
    0.23839E+05        -0.49998E+08         0.00000E+00
    0.00000E+00         0.00000E+00        -0.49625E+08
 
   -0.49319E+08         0.29203E+05         0.00000E+00
    0.29203E+05        -0.49997E+08         0.00000E+00
    0.00000E+00         0.00000E+00        -0.49625E+08
 
   -0.49322E+08         0.34600E+05         0.00000E+00
    0.34600E+05        -0.49996E+08         0.00000E+00
    0.00000E+00         0.00000E+00        -0.49625E+08
 
   -0.49325E+08         0.40035E+05         0.00000E+00
    0.40035E+05        -0.49995E+08         0.00000E+00
    0.00000E+00         0.00000E+00        -0.49625E+08
 
   -0.49329E+08         0.45510E+05         0.00000E+00
    0.45510E+05        -0.49994E+08         0.00000E+00
    0.00000E+00         0.00000E+00        -0.49625E+08
 
   -0.49333E+08         0.51029E+05         0.00000E+00
    0.51029E+05        -0.49992E+08         0.00000E+00
    0.00000E+00         0.00000E+00        -0.49625E+08
 
   -0.49337E+08         0.56594E+05         0.00000E+00
    0.56594E+05        -0.49991E+08         0.00000E+00
    0.00000E+00         0.00000E+00        -0.49625E+08
 
   -0.49341E+08         0.62207E+05         0.00000E+00
    0.62207E+05        -0.49989E+08         0.00000E+00
    0.00000E+00         0.00000E+00        -0.49625E+08
 
   -0.49346E+08         0.67870E+05         0.00000E+00
    0.67870E+05        -0.49987E+08         0.00000E+00
    0.00000E+00         0.00000E+00        -0.49625E+08
 
   -0.49351E+08         0.73584E+05         0.00000E+00
    0.73584E+05        -0.49985E+08         0.00000E+00
    0.00000E+00         0.00000E+00        -0.49625E+08
 
   -0.49356E+08         0.79352E+05         0.00000E+00
    0.79352E+05        -0.49983E+08         0.00000E+00
    0.00000E+00         0.00000E+00        -0.49625E+08
 
   -0.49361E+08         0.85174E+05         0.00000E+00
    0.85174E+05        -0.49981E+08         0.00000E+00
    0.00000E+00         0.00000E+00        -0.49625E+08
 
   -0.49367E+08         0.91051E+05         0.00000E+00
    0.91051E+05        -0.49978E+08         0.00000E+00
    0.00000E+00         0.00000E+00        -0.49626E+08
 
   -0.49373E+08         0.96984E+05         0.00000E+00
    0.96984E+05        -0.49976E+08         0.00000E+00
    0.00000E+00         0.00000E+00        -0.49626E+08
 
   -0.49378E+08         0.10297E+06         0.00000E+00
    0.10297E+06        -0.49973E+08         0.00000E+00
    0.00000E+00         0.00000E+00        -0.49626E+08
 
   -0.49385E+08         0.10902E+06         0.00000E+00
    0.10902E+06        -0.49970E+08         0.00000E+00
    0.00000E+00         0.00000E+00        -0.49626E+08
 
   -0.49391E+08         0.11512E+06         0.00000E+00
    0.11512E+06        -0.49968E+08         0.00000E+00
    0.00000E+00         0.00000E+00        -0.49626E+08
 
   -0.49397E+08         0.12127E+06         0.00000E+00
    0.12127E+06        -0.49965E+08         0.00000E+00
    0.00000E+00         0.00000E+00        -0.49626E+08
 
   -0.49404E+08         0.12748E+06         0.00000E+00
    0.12748E+06        -0.49962E+08         0.00000E+00
    0.00000E+00         0.00000E+00        -0.49626E+08
 
   -0.49411E+08         0.13375E+06         0.00000E+00
    0.13375E+06        -0.49959E+08         0.00000E+00
    0.00000E+00         0.00000E+00        -0.49626E+08
 
   -0.49418E+08         0.14007E+06         0.00000E+00
    0.14007E+06        -0.49956E+08         0.00000E+00
    0.00000E+00         0.00000E+00        -0.49627E+08
 
   -0.49425E+08         0.14644E+06         0.00000E+00
    0.14644E+06        -0.49952E+08         0.00000E+00
    0.00000E+00         0.00000E+00        -0.49627E+08
 
   -0.49432E+08         0.15287E+06         0.00000E+00
    0.15287E+06        -0.49949E+08         0.00000E+00
    0.00000E+00         0.00000E+00        -0.49627E+08
 
   -0.49440E+08         0.15934E+06         0.00000E+00
    0.15934E+06        -0.49946E+08         0.00000E+00
    0.00000E+00         0.00000E+00        -0.49627E+08
 
   -0.49447E+08         0.16587E+06         0.00000E+00
    0.16587E+06        -0.49942E+08         0.00000E+00
    0.00000E+00         0.00000E+00        -0.49627E+08
 
   -0.49455E+08         0.17244E+06         0.00000E+00
    0.17244E+06        -0.49938E+08         0.00000E+00
    0.00000E+00         0.00000E+00        -0.49627E+08
 
   -0.49463E+08         0.17906E+06         0.00000E+00
    0.17906E+06        -0.49935E+08         0.00000E+00
    0.00000E+00         0.00000E+00        -0.49627E+08
 
   -0.49471E+08         0.18573E+06         0.00000E+00
    0.18573E+06        -0.49931E+08         0.00000E+00
    0.00000E+00         0.00000E+00        -0.49627E+08
 
   -0.49479E+08         0.19245E+06         0.00000E+00
    0.19245E+06        -0.49927E+08         0.00000E+00
    0.00000E+00         0.00000E+00        -0.49628E+08
 
   -0.49487E+08         0.19920E+06         0.00000E+00
    0.19920E+06        -0.49924E+08         0.00000E+00
    0.00000E+00         0.00000E+00        -0.49628E+08
 
   -0.49495E+08         0.20600E+06         0.00000E+00
    0.20600E+06        -0.49920E+08         0.00000E+00
    0.00000E+00         0.00000E+00        -0.49628E+08
 
   -0.49503E+08         0.21283E+06         0.00000E+00
    0.21283E+06        -0.49916E+08         0.00000E+00
    0.00000E+00         0.00000E+00        -0.49628E+08
 
   -0.49511E+08         0.21971E+06         0.00000E+00
    0.21971E+06        -0.49912E+08         0.00000E+00
    0.00000E+00         0.00000E+00        -0.49628E+08
 
   -0.49520E+08         0.22662E+06         0.00000E+00
    0.22662E+06        -0.49908E+08         0.00000E+00
    0.00000E+00         0.00000E+00        -0.49628E+08
 
   -0.49528E+08         0.23356E+06         0.00000E+00
    0.23356E+06        -0.49904E+08         0.00000E+00
    0.00000E+00         0.00000E+00        -0.49628E+08
 
   -0.49537E+08         0.24053E+06         0.00000E+00
    0.24053E+06        -0.49900E+08         0.00000E+00
    0.00000E+00         0.00000E+00        -0.49628E+08
 
   -0.49545E+08         0.24753E+06         0.00000E+00
    0.24753E+06        -0.49895E+08         0.00000E+00
    0.00000E+00         0.00000E+00        -0.49628E+08
 
   -0.49554E+08         0.25456E+06         0.00000E+00
    0.25456E+06        -0.49891E+08         0.00000E+00
    0.00000E+00         0.00000E+00        -0.49628E+08
 
   -0.49563E+08         0.26162E+06         0.00000E+00
    0.26162E+06        -0.49887E+08         0.00000E+00
    0.00000E+00         0.00000E+00        -0.49629E+08
 
   -0.49571E+08         0.26869E+06         0.00000E+00
    0.26869E+06        -0.49883E+08         0.00000E+00
    0.00000E+00         0.00000E+00        -0.49629E+08
 
   -0.49580E+08         0.27579E+06         0.00000E+00
    0.27579E+06        -0.49878E+08         0.00000E+00
    0.00000E+00         0.00000E+00        -0.49629E+08
 
   -0.49589E+08         0.28290E+06         0.00000E+00
    0.28290E+06        -0.49874E+08         0.00000E+00
    0.00000E+00         0.00000E+00        -0.49629E+08
 
   -0.49598E+08         0.29002E+06         0.00000E+00
    0.29002E+06        -0.49870E+08         0.00000E+00
    0.00000E+00         0.00000E+00        -0.49629E+08
 
   -0.49607E+08         0.29715E+06         0.00000E+00
    0.29715E+06        -0.49865E+08         0.00000E+00
    0.00000E+00         0.00000E+00        -0.49629E+08
 
   -0.49615E+08         0.30430E+06         0.00000E+00
    0.30430E+06        -0.49861E+08         0.00000E+00
    0.00000E+00         0.00000E+00        -0.49629E+08
 
   -0.49624E+08         0.31144E+06         0.00000E+00
    0.31144E+06        -0.49856E+08         0.00000E+00
    0.00000E+00         0.00000E+00        -0.49629E+08
 
   -0.49280E+08         0.30893E+04         0.00000E+00
    0.30893E+04        -0.50000E+08         0.00000E+00
    0.00000E+00         0.00000E+00        -0.49589E+08
 
   -0.49282E+08         0.92337E+04         0.00000E+00
    0.92337E+04        -0.50000E+08         0.00000E+00
    0.00000E+00         0.00000E+00        -0.49589E+08
 
   -0.49283E+08         0.15373E+05         0.00000E+00
    0.15373E+05        -0.49999E+08         0.00000E+00
    0.00000E+00         0.00000E+00        -0.49589E+08
 
   -0.49285E+08         0.21513E+05         0.00000E+00
    0.21513E+05        -0.49999E+08         0.00000E+00
    0.00000E+00         0.00000E+00        -0.49589E+08
 
   -0.49288E+08         0.27657E+05         0.00000E+00
    0.27657E+05        -0.49998E+08         0.00000E+00
    0.00000E+00         0.00000E+00        -0.49589E+08
 
   -0.49290E+08         0.33810E+05         0.00000E+00
    0.33810E+05        -0.49997E+08         0.00000E+00
    0.00000E+00         0.00000E+00        -0.49589E+08
 
   -0.49293E+08         0.39976E+05         0.00000E+00
    0.39976E+05        -0.49996E+08         0.00000E+00
    0.00000E+00         0.00000E+00        -0.49589E+08
 
   -0.49296E+08         0.46159E+05         0.00000E+00
    0.46159E+05        -0.49995E+08         0.00000E+00
    0.00000E+00         0.00000E+00        -0.49589E+08
 
   -0.49300E+08         0.52362E+05         0.00000E+00
    0.52362E+05        -0.49994E+08         0.00000E+00
    0.00000E+00         0.00000E+00        -0.49589E+08
 
   -0.49303E+08         0.58588E+05         0.00000E+00
    0.58588E+05        -0.49993E+08         0.00000E+00
    0.00000E+00         0.00000E+00        -0.49589E+08
 
   -0.49307E+08         0.64839E+05         0.00000E+00
    0.64839E+05        -0.49991E+08         0.00000E+00
    0.00000E+00         0.00000E+00        -0.49589E+08
 
   -0.49311E+08         0.71118E+05         0.00000E+00
    0.71118E+05        -0.49989E+08         0.00000E+00
    0.00000E+00         0.00000E+00        -0.49589E+08
 
   -0.49316E+08         0.77428E+05         0.00000E+00
    0.77428E+05        -0.49988E+08         0.00000E+00
    0.00000E+00         0.00000E+00        -0.49589E+08
 
   -0.49321E+08         0.83769E+05         0.00000E+00
    0.83769E+05        -0.49986E+08         0.00000E+00
    0.00000E+00         0.00000E+00        -0.49589E+08
 
   -0.49325E+08         0.90144E+05         0.00000E+00
    0.90144E+05        -0.49984E+08         0.00000E+00
    0.00000E+00         0.00000E+00        -0.49590E+08
 
   -0.49331E+08         0.96554E+05         0.00000E+00
    0.96554E+05        -0.49982E+08         0.00000E+00
    0.00000E+00         0.00000E+00        -0.49590E+08
 
   -0.49336E+08         0.10300E+06         0.00000E+00
    0.10300E+06        -0.49979E+08         0.00000E+00
    0.00000E+00         0.00000E+00        -0.49590E+08
 
   -0.49341E+08         0.10948E+06         0.00000E+00
    0.10948E+06        -0.49977E+08         0.00000E+00
    0.00000E+00         0.00000E+00        -0.49590E+08
 
   -0.49347E+08         0.11600E+06         0.00000E+00
    0.11600E+06        -0.49974E+08         0.00000E+00
    0.00000E+00         0.00000E+00        -0.49590E+08
 
   -0.49353E+08         0.12256E+06         0.00000E+00
    0.12256E+06        -0.49972E+08         0.00000E+00
    0.00000E+00         0.00000E+00        -0.49590E+08
 
   -0.49359E+08         0.12916E+06         0.00000E+00
    0.12916E+06        -0.49969E+08         0.00000E+00
    0.00000E+00         0.00000E+00        -0.49590E+08
 
   -0.49365E+08         0.13580E+06         0.00000E+00
    0.13580E+06        -0.49966E+08         0.00000E+00
    0.00000E+00         0.00000E+00        -0.49590E+08
 
   -0.49372E+08         0.14247E+06         0.00000E+00
    0.14247E+06        -0.49963E+08         0.00000E+00
    0.00000E+00         0.00000E+00        -0.49590E+08
 
   -0.49378E+08         0.14918E+06         0.00000E+00
    0.14918E+06        -0.49960E+08         0.00000E+00
    0.00000E+00         0.00000E+00        -0.49591E+08
 
   -0.49385E+08         0.15593E+06         0.00000E+00
    0.15593E+06        -0.49957E+08         0.00000E+00
    0.00000E+00         0.00000E+00        -0.49591E+08
 
   -0.49392E+08         0.16272E+06         0.00000E+00
    0.16272E+06        -0.49954E+08         0.00000E+00
    0.00000E+00         0.00000E+00        -0.49591E+08
 
   -0.49399E+08         0.16955E+06         0.00000E+00
    0.16955E+06        -0.49951E+08         0.00000E+00
    0.00000E+00         0.00000E+00        -0.49591E+08
 
   -0.49406E+08         0.17641E+06         0.00000E+00
    0.17641E+06        -0.49947E+08         0.00000E+00
    0.00000E+00         0.00000E+00        -0.49591E+08
 
   -0.49414E+08         0.18331E+06         0.00000E+00
    0.18331E+06        -0.49944E+08         0.00000E+00
    0.00000E+00         0.00000E+00        -0.49591E+08
 
   -0.49421E+08         0.19024E+06         0.00000E+00
    0.19024E+06        -0.49940E+08         0.00000E+00
    0.00000E+00         0.00000E+00        -0.49591E+08
 
   -0.49429E+08         0.19720E+06         0.00000E+00
    0.19720E+06        -0.49937E+08         0.00000E+00
    0.00000E+00         0.00000E+00        -0.49591E+08
 
   -0.49436E+08         0.20420E+06         0.00000E+00
    0.20420E+06        -0.49933E+08         0.00000E+00
    0.00000E+00         0.00000E+00        -0.49591E+08
 
   -0.49444E+08         0.21123E+06         0.00000E+00
    0.21123E+06        -0.49930E+08         0.00000E+00
    0.00000E+00         0.00000E+00        -0.49592E+08
 
   -0.49452E+08         0.21828E+06         0.00000E+00
    0.21828E+06        -0.49926E+08         0.00000E+00
    0.00000E+00         0.00000E+00        -0.49592E+08
 
   -0.49460E+08         0.22537E+06         0.00000E+00
    0.22537E+06        -0.49922E+08         0.00000E+00
    0.00000E+00         0.00000E+00        -0.49592E+08
 
   -0.49468E+08         0.23248E+06         0.00000E+00
    0.23248E+06        -0.49918E+08         0.00000E+00
    0.00000E+00         0.00000E+00        -0.49592E+08
 
   -0.49476E+08         0.23961E+06         0.00000E+00
    0.23961E+06        -0.49914E+08         0.00000E+00
    0.00000E+00         0.00000E+00        -0.49592E+08
 
   -0.49484E+08         0.24677E+06         0.00000E+00
    0.24677E+06        -0.49910E+08         0.00000E+00
    0.00000E+00         0.00000E+00        -0.49592E+08
 
   -0.49493E+08         0.25395E+06         0.00000E+00
    0.25395E+06        -0.49906E+08         0.00000E+00
    0.00000E+00         0.00000E+00        -0.49592E+08
 
   -0.49501E+08         0.26115E+06         0.00000E+00
    0.26115E+06        -0.49902E+08         0.00000E+00
    0.00000E+00         0.00000E+00        -0.49592E+08
 
   -0.49510E+08         0.26836E+06         0.00000E+00
    0.26836E+06        -0.49898E+08         0.00000E+00
    0.00000E+00         0.00000E+00        -0.49592E+08
 
   -0.49518E+08         0.27560E+06         0.00000E+00
    0.27560E+06        -0.49894E+08         0.00000E+00
    0.00000E+00         0.00000E+00        -0.49592E+08
 
   -0.49527E+08         0.28284E+06         0.00000E+00
    0.28284E+06        -0.49890E+08         0.00000E+00
    0.00000E+00         0.00000E+00        -0.49593E+08
 
   -0.49535E+08         0.29009E+06         0.00000E+00
    0.29009E+06        -0.49885E+08         0.00000E+00
    0.00000E+00         0.00000E+00        -0.49593E+08
 
   -0.49544E+08         0.29736E+06         0.00000E+00
    0.29736E+06        -0.49881E+08         0.00000E+00
    0.00000E+00         0.00000E+00        -0.49593E+08
 
   -0.49553E+08         0.30463E+06         0.00000E+00
    0.30463E+06        -0.49877E+08         0.00000E+00
    0.00000E+00         0.00000E+00        -0.49593E+08
 
   -0.49562E+08         0.31190E+06         0.00000E+00
    0.31190E+06        -0.49872E+08         0.00000E+00
    0.00000E+00         0.00000E+00        -0.49593E+08
 
   -0.49571E+08         0.31917E+06         0.00000E+00
    0.31917E+06        -0.49868E+08         0.00000E+00
    0.00000E+00         0.00000E+00        -0.49593E+08
 
   -0.49579E+08         0.32644E+06         0.00000E+00
    0.32644E+06        -0.49864E+08         0.00000E+00
    0.00000E+00         0.00000E+00        -0.49593E+08
 
   -0.49588E+08         0.33371E+06         0.00000E+00
    0.33371E+06        -0.49859E+08         0.00000E+00
    0.00000E+00         0.00000E+00        -0.49593E+08
 
   -0.49247E+08         0.35171E+04         0.00000E+00
    0.35171E+04        -0.50000E+08         0.00000E+00
    0.00000E+00         0.00000E+00        -0.49552E+08
 
   -0.49249E+08         0.10478E+05         0.00000E+00
    0.10478E+05        -0.50000E+08         0.00000E+00
    0.00000E+00         0.00000E+00        -0.49552E+08
 
   -0.49251E+08         0.17420E+05         0.00000E+00
    0.17420E+05        -0.49999E+08         0.00000E+00
    0.00000E+00         0.00000E+00        -0.49552E+08
 
   -0.49253E+08         0.24346E+05         0.00000E+00
    0.24346E+05        -0.49999E+08         0.00000E+00
    0.00000E+00         0.00000E+00        -0.49552E+08
 
   -0.49255E+08         0.31261E+05         0.00000E+00
    0.31261E+05        -0.49998E+08         0.00000E+00
    0.00000E+00         0.00000E+00        -0.49552E+08
 
   -0.49257E+08         0.38169E+05         0.00000E+00
    0.38169E+05        -0.49998E+08         0.00000E+00
    0.00000E+00         0.00000E+00        -0.49552E+08
 
   -0.49260E+08         0.45073E+05         0.00000E+00
    0.45073E+05        -0.49997E+08         0.00000E+00
    0.00000E+00         0.00000E+00        -0.49552E+08
 
   -0.49263E+08         0.51977E+05         0.00000E+00
    0.51977E+05        -0.49996E+08         0.00000E+00
    0.00000E+00         0.00000E+00        -0.49553E+08
 
   -0.49267E+08         0.58883E+05         0.00000E+00
    0.58883E+05        -0.49994E+08         0.00000E+00
    0.00000E+00         0.00000E+00        -0.49553E+08
 
   -0.49270E+08         0.65796E+05         0.00000E+00
    0.65796E+05        -0.49993E+08         0.00000E+00
    0.00000E+00         0.00000E+00        -0.49553E+08
 
   -0.49274E+08         0.72717E+05         0.00000E+00
    0.72717E+05        -0.49992E+08         0.00000E+00
    0.00000E+00         0.00000E+00        -0.49553E+08
 
   -0.49278E+08         0.79649E+05         0.00000E+00
    0.79649E+05        -0.49990E+08         0.00000E+00
    0.00000E+00         0.00000E+00        -0.49553E+08
 
   -0.49283E+08         0.86595E+05         0.00000E+00
    0.86595E+05        -0.49988E+08         0.00000E+00
    0.00000E+00         0.00000E+00        -0.49553E+08
 
   -0.49287E+08         0.93554E+05         0.00000E+00
    0.93554E+05        -0.49986E+08         0.00000E+00
    0.00000E+00         0.00000E+00        -0.49553E+08
 
   -0.49292E+08         0.10053E+06         0.00000E+00
    0.10053E+06        -0.49984E+08         0.00000E+00
    0.00000E+00         0.00000E+00        -0.49553E+08
 
   -0.49297E+08         0.10753E+06         0.00000E+00
    0.10753E+06        -0.49982E+08         0.00000E+00
    0.00000E+00         0.00000E+00        -0.49553E+08
 
   -0.49302E+08         0.11454E+06         0.00000E+00
    0.11454E+06        -0.49980E+08         0.00000E+00
    0.00000E+00         0.00000E+00        -0.49553E+08
 
   -0.49307E+08         0.12157E+06         0.00000E+00
    0.12157E+06        -0.49978E+08         0.00000E+00
    0.00000E+00         0.00000E+00        -0.49553E+08
 
   -0.49313E+08         0.12863E+06         0.00000E+00
    0.12863E+06        -0.49975E+08         0.00000E+00
    0.00000E+00         0.00000E+00        -0.49553E+08
 
   -0.49319E+08         0.13571E+06         0.00000E+00
    0.13571E+06        -0.49973E+08         0.00000E+00
    0.00000E+00         0.00000E+00        -0.49554E+08
 
   -0.49325E+08         0.14281E+06         0.00000E+00
    0.14281E+06        -0.49970E+08         0.00000E+00
    0.00000E+00         0.00000E+00        -0.49554E+08
 
   -0.49331E+08         0.14993E+06         0.00000E+00
    0.14993E+06        -0.49967E+08         0.00000E+00
    0.00000E+00         0.00000E+00        -0.49554E+08
 
   -0.49337E+08         0.15707E+06         0.00000E+00
    0.15707E+06        -0.49965E+08         0.00000E+00
    0.00000E+00         0.00000E+00        -0.49554E+08
 
   -0.49344E+08         0.16424E+06         0.00000E+00
    0.16424E+06        -0.49962E+08         0.00000E+00
    0.00000E+00         0.00000E+00        -0.49554E+08
 
   -0.49350E+08         0.17144E+06         0.00000E+00
    0.17144E+06        -0.49959E+08         0.00000E+00
    0.00000E+00         0.00000E+00        -0.49554E+08
 
   -0.49357E+08         0.17865E+06         0.00000E+00
    0.17865E+06        -0.49956E+08         0.00000E+00
    0.00000E+00         0.00000E+00        -0.49554E+08
 
   -0.49364E+08         0.18589E+06         0.00000E+00
    0.18589E+06        -0.49952E+08         0.00000E+00
    0.00000E+00         0.00000E+00        -0.49554E+08
 
   -0.49371E+08         0.19314E+06         0.00000E+00
    0.19314E+06        -0.49949E+08         0.00000E+00
    0.00000E+00         0.00000E+00        -0.49554E+08
 
   -0.49378E+08         0.20042E+06         0.00000E+00
    0.20042E+06        -0.49946E+08         0.00000E+00
    0.00000E+00         0.00000E+00        -0.49555E+08
 
   -0.49385E+08         0.20772E+06         0.00000E+00
    0.20772E+06        -0.49942E+08         0.00000E+00
    0.00000E+00         0.00000E+00        -0.49555E+08
 
   -0.49393E+08         0.21504E+06         0.00000E+00
    0.21504E+06        -0.49939E+08         0.00000E+00
    0.00000E+00         0.00000E+00        -0.49555E+08
 
   -0.49400E+08         0.22238E+06         0.00000E+00
    0.22238E+06        -0.49935E+08         0.00000E+00
    0.00000E+00         0.00000E+00        -0.49555E+08
 
   -0.49408E+08         0.22974E+06         0.00000E+00
    0.22974E+06        -0.49932E+08         0.00000E+00
    0.00000E+00         0.00000E+00        -0.49555E+08
 
   -0.49416E+08         0.23711E+06         0.00000E+00
    0.23711E+06        -0.49928E+08         0.00000E+00
    0.00000E+00         0.00000E+00        -0.49555E+08
 
   -0.49424E+08         0.24450E+06         0.00000E+00
    0.24450E+06        -0.49924E+08         0.00000E+00
    0.00000E+00         0.00000E+00        -0.49555E+08
 
   -0.49432E+08         0.25190E+06         0.00000E+00
    0.25190E+06        -0.49920E+08         0.00000E+00
    0.00000E+00         0.00000E+00        -0.49555E+08
 
   -0.49440E+08         0.25932E+06         0.00000E+00
    0.25932E+06        -0.49916E+08         0.00000E+00
    0.00000E+00         0.00000E+00        -0.49555E+08
 
   -0.49448E+08         0.26674E+06         0.00000E+00
    0.26674E+06        -0.49912E+08         0.00000E+00
    0.00000E+00         0.00000E+00        -0.49555E+08
 
   -0.49456E+08         0.27418E+06         0.00000E+00
    0.27418E+06        -0.49908E+08         0.00000E+00
    0.00000E+00         0.00000E+00        -0.49556E+08
 
   -0.49465E+08         0.28162E+06         0.00000E+00
    0.28162E+06        -0.49904E+08         0.00000E+00
    0.00000E+00         0.00000E+00        -0.49556E+08
 
   -0.49473E+08         0.28907E+06         0.00000E+00
    0.28907E+06        -0.49900E+08         0.00000E+00
    0.00000E+00         0.00000E+00        -0.49556E+08
 
   -0.49481E+08         0.29652E+06         0.00000E+00
    0.29652E+06        -0.49896E+08         0.00000E+00
    0.00000E+00         0.00000E+00        -0.49556E+08
 
   -0.49490E+08         0.30397E+06         0.00000E+00
    0.30397E+06        -0.49892E+08         0.00000E+00
    0.00000E+00         0.00000E+00        -0.49556E+08
 
   -0.49499E+08         0.31143E+06         0.00000E+00
    0.31143E+06        -0.49888E+08         0.00000E+00
    0.00000E+00         0.00000E+00        -0.49556E+08
 
   -0.49507E+08         0.31889E+06         0.00000E+00
    0.31889E+06        -0.49883E+08         0.00000E+00
    0.00000E+00         0.00000E+00        -0.49556E+08
 
   -0.49516E+08         0.32634E+06         0.00000E+00
    0.32634E+06        -0.49879E+08         0.00000E+00
    0.00000E+00         0.00000E+00        -0.49556E+08
 
   -0.49525E+08         0.33378E+06         0.00000E+00
    0.33378E+06        -0.49875E+08         0.00000E+00
    0.00000E+00         0.00000E+00        -0.49556E+08
 
   -0.49534E+08         0.34122E+06         0.00000E+00
    0.34122E+06        -0.49870E+08         0.00000E+00
    0.00000E+00         0.00000E+00        -0.49556E+08
 
   -0.49543E+08         0.34865E+06         0.00000E+00
    0.34865E+06        -0.49866E+08         0.00000E+00
    0.00000E+00         0.00000E+00        -0.49556E+08
 
   -0.49552E+08         0.35607E+06         0.00000E+00
    0.35607E+06        -0.49861E+08         0.00000E+00
    0.00000E+00         0.00000E+00        -0.49556E+08
 
   -0.49211E+08         0.39171E+04         0.00000E+00
    0.39171E+04        -0.50000E+08         0.00000E+00
    0.00000E+00         0.00000E+00        -0.49515E+08
 
   -0.49212E+08         0.11650E+05         0.00000E+00
    0.11650E+05        -0.50000E+08         0.00000E+00
    0.00000E+00         0.00000E+00        -0.49515E+08
 
   -0.49214E+08         0.19351E+05         0.00000E+00
    0.19351E+05        -0.50000E+08         0.00000E+00
    0.00000E+00         0.00000E+00        -0.49515E+08
 
   -0.49216E+08         0.27025E+05         0.00000E+00
    0.27025E+05        -0.49999E+08         0.00000E+00
    0.00000E+00         0.00000E+00        -0.49515E+08
 
   -0.49219E+08         0.34676E+05         0.00000E+00
    0.34676E+05        -0.49998E+08         0.00000E+00
    0.00000E+00         0.00000E+00        -0.49515E+08
 
   -0.49221E+08         0.42306E+05         0.00000E+00
    0.42306E+05        -0.49998E+08         0.00000E+00
    0.00000E+00         0.00000E+00        -0.49515E+08
 
   -0.49224E+08         0.49920E+05         0.00000E+00
    0.49920E+05        -0.49997E+08         0.00000E+00
    0.00000E+00         0.00000E+00        -0.49515E+08
 
   -0.49227E+08         0.57520E+05         0.00000E+00
    0.57520E+05        -0.49996E+08         0.00000E+00
    0.00000E+00         0.00000E+00        -0.49515E+08
 
   -0.49231E+08         0.65109E+05         0.00000E+00
    0.65109E+05        -0.49995E+08         0.00000E+00
    0.00000E+00         0.00000E+00        -0.49515E+08
 
   -0.49234E+08         0.72690E+05         0.00000E+00
    0.72690E+05        -0.49993E+08         0.00000E+00
    0.00000E+00         0.00000E+00        -0.49515E+08
 
   -0.49238E+08         0.80264E+05         0.00000E+00
    0.80264E+05        -0.49992E+08         0.00000E+00
    0.00000E+00         0.00000E+00        -0.49515E+08
 
   -0.49242E+08         0.87836E+05         0.00000E+00
    0.87836E+05        -0.49990E+08         0.00000E+00
    0.00000E+00         0.00000E+00        -0.49515E+08
 
   -0.49246E+08         0.95405E+05         0.00000E+00
    0.95405E+05        -0.49989E+08         0.00000E+00
    0.00000E+00         0.00000E+00        -0.49516E+08
 
   -0.49251E+08         0.10297E+06         0.00000E+00
    0.10297E+06        -0.49987E+08         0.00000E+00
    0.00000E+00         0.00000E+00        -0.49516E+08
 
   -0.49256E+08         0.11055E+06         0.00000E+00
    0.11055E+06        -0.49985E+08         0.00000E+00
    0.00000E+00         0.00000E+00        -0.49516E+08
 
   -0.49260E+08         0.11812E+06         0.00000E+00
    0.11812E+06        -0.49983E+08         0.00000E+00
    0.00000E+00         0.00000E+00        -0.49516E+08
 
   -0.49266E+08         0.12570E+06         0.00000E+00
    0.12570E+06        -0.49981E+08         0.00000E+00
    0.00000E+00         0.00000E+00        -0.49516E+08
 
   -0.49271E+08         0.13329E+06         0.00000E+00
    0.13329E+06        -0.49979E+08         0.00000E+00
    0.00000E+00         0.00000E+00        -0.49516E+08
 
   -0.49276E+08         0.14088E+06         0.00000E+00
    0.14088E+06        -0.49976E+08         0.00000E+00
    0.00000E+00         0.00000E+00        -0.49516E+08
 
   -0.49282E+08         0.14848E+06         0.00000E+00
    0.14848E+06        -0.49974E+08         0.00000E+00
    0.00000E+00         0.00000E+00        -0.49516E+08
 
   -0.49288E+08         0.15608E+06         0.00000E+00
    0.15608E+06        -0.49971E+08         0.00000E+00
    0.00000E+00         0.00000E+00        -0.49516E+08
 
   -0.49294E+08         0.16370E+06         0.00000E+00
    0.16370E+06        -0.49969E+08         0.00000E+00
    0.00000E+00         0.00000E+00        -0.49516E+08
 
   -0.49300E+08         0.17133E+06         0.00000E+00
    0.17133E+06        -0.49966E+08         0.00000E+00
    0.00000E+00         0.00000E+00        -0.49517E+08
 
   -0.49307E+08         0.17896E+06         0.00000E+00
    0.17896E+06        -0.49963E+08         0.00000E+00
    0.00000E+00         0.00000E+00        -0.49517E+08
 
   -0.49313E+08         0.18660E+06         0.00000E+00
    0.18660E+06        -0.49960E+08         0.00000E+00
    0.00000E+00         0.00000E+00        -0.49517E+08
 
   -0.49320E+08         0.19425E+06         0.00000E+00
    0.19425E+06        -0.49957E+08         0.00000E+00
    0.00000E+00         0.00000E+00        -0.49517E+08
 
   -0.49327E+08         0.20191E+06         0.00000E+00
    0.20191E+06        -0.49954E+08         0.00000E+00
    0.00000E+00         0.00000E+00        -0.49517E+08
 
   -0.49334E+08         0.20958E+06         0.00000E+00
    0.20958E+06        -0.49951E+08         0.00000E+00
    0.00000E+00         0.00000E+00        -0.49517E+08
 
   -0.49341E+08         0.21726E+06         0.00000E+00
    0.21726E+06        -0.49947E+08         0.00000E+00
    0.00000E+00         0.00000E+00        -0.49517E+08
 
   -0.49348E+08         0.22494E+06         0.00000E+00
    0.22494E+06        -0.49944E+08         0.00000E+00
    0.00000E+00         0.00000E+00        -0.49517E+08
 
   -0.49355E+08         0.23263E+06         0.00000E+00
    0.23263E+06        -0.49940E+08         0.00000E+00
    0.00000E+00         0.00000E+00        -0.49517E+08
 
   -0.49363E+08         0.24033E+06         0.00000E+00
    0.24033E+06        -0.49937E+08         0.00000E+00
    0.00000E+00         0.00000E+00        -0.49517E+08
 
   -0.49370E+08         0.24803E+06         0.00000E+00
    0.24803E+06        -0.49933E+08         0.00000E+00
    0.00000E+00         0.00000E+00        -0.49518E+08
 
   -0.49378E+08         0.25574E+06         0.00000E+00
    0.25574E+06        -0.49930E+08         0.00000E+00
    0.00000E+00         0.00000E+00        -0.49518E+08
 
   -0.49386E+08         0.26345E+06         0.00000E+00
    0.26345E+06        -0.49926E+08         0.00000E+00
    0.00000E+00         0.00000E+00        -0.49518E+08
 
   -0.49394E+08         0.27116E+06         0.00000E+00
    0.27116E+06        -0.49922E+08         0.00000E+00
    0.00000E+00         0.00000E+00        -0.49518E+08
 
   -0.49402E+08         0.27888E+06         0.00000E+00
    0.27888E+06        -0.49918E+08         0.00000E+00
    0.00000E+00         0.00000E+00        -0.49518E+08
 
   -0.49410E+08         0.28659E+06         0.00000E+00
    0.28659E+06        -0.49914E+08         0.00000E+00
    0.00000E+00         0.00000E+00        -0.49518E+08
 
   -0.49418E+08         0.29430E+06         0.00000E+00
    0.29430E+06        -0.49910E+08         0.00000E+00
    0.00000E+00         0.00000E+00        -0.49518E+08
 
   -0.49427E+08         0.30201E+06         0.00000E+00
    0.30201E+06        -0.49906E+08         0.00000E+00
    0.00000E+00         0.00000E+00        -0.49518E+08
 
   -0.49435E+08         0.30971E+06         0.00000E+00
    0.30971E+06        -0.49902E+08         0.00000E+00
    0.00000E+00         0.00000E+00        -0.49518E+08
 
   -0.49444E+08         0.31741E+06         0.00000E+00
    0.31741E+06        -0.49898E+08         0.00000E+00
    0.00000E+00         0.00000E+00        -0.49518E+08
 
   -0.49452E+08         0.32510E+06         0.00000E+00
    0.32510E+06        -0.49894E+08         0.00000E+00
    0.00000E+00         0.00000E+00        -0.49518E+08
 
   -0.49461E+08         0.33278E+06         0.00000E+00
    0.33278E+06        -0.49890E+08         0.00000E+00
    0.00000E+00         0.00000E+00        -0.49518E+08
 
   -0.49470E+08         0.34046E+06         0.00000E+00
    0.34046E+06        -0.49885E+08         0.00000E+00
    0.00000E+00         0.00000E+00        -0.49519E+08
 
   -0.49478E+08         0.34812E+06         0.00000E+00
    0.34812E+06        -0.49881E+08         0.00000E+00
    0.00000E+00         0.00000E+00        -0.49519E+08
 
   -0.49487E+08         0.35576E+06         0.00000E+00
    0.35576E+06        -0.49876E+08         0.00000E+00
    0.00000E+00         0.00000E+00        -0.49519E+08
 
   -0.49496E+08         0.36339E+06         0.00000E+00
    0.36339E+06        -0.49872E+08         0.00000E+00
    0.00000E+00         0.00000E+00        -0.49519E+08
 
   -0.49505E+08         0.37100E+06         0.00000E+00
    0.37100E+06        -0.49868E+08         0.00000E+00
    0.00000E+00         0.00000E+00        -0.49519E+08
 
   -0.49514E+08         0.37859E+06         0.00000E+00
    0.37859E+06        -0.49863E+08         0.00000E+00
    0.00000E+00         0.00000E+00        -0.49519E+08
 
   -0.49170E+08         0.42940E+04         0.00000E+00
    0.42940E+04        -0.50000E+08         0.00000E+00
    0.00000E+00         0.00000E+00        -0.49477E+08
 
   -0.49172E+08         0.12760E+05         0.00000E+00
    0.12760E+05        -0.50000E+08         0.00000E+00
    0.00000E+00         0.00000E+00        -0.49477E+08
 
   -0.49174E+08         0.21185E+05         0.00000E+00
    0.21185E+05        -0.50000E+08         0.00000E+00
    0.00000E+00         0.00000E+00        -0.49477E+08
 
   -0.49176E+08         0.29575E+05         0.00000E+00
    0.29575E+05        -0.49999E+08         0.00000E+00
    0.00000E+00         0.00000E+00        -0.49477E+08
 
   -0.49179E+08         0.37931E+05         0.00000E+00
    0.37931E+05        -0.49999E+08         0.00000E+00
    0.00000E+00         0.00000E+00        -0.49477E+08
 
   -0.49181E+08         0.46257E+05         0.00000E+00
    0.46257E+05        -0.49998E+08         0.00000E+00
    0.00000E+00         0.00000E+00        -0.49477E+08
 
   -0.49184E+08         0.54556E+05         0.00000E+00
    0.54556E+05        -0.49997E+08         0.00000E+00
    0.00000E+00         0.00000E+00        -0.49477E+08
 
   -0.49188E+08         0.62830E+05         0.00000E+00
    0.62830E+05        -0.49996E+08         0.00000E+00
    0.00000E+00         0.00000E+00        -0.49477E+08
 
   -0.49191E+08         0.71082E+05         0.00000E+00
    0.71082E+05        -0.49995E+08         0.00000E+00
    0.00000E+00         0.00000E+00        -0.49477E+08
 
   -0.49195E+08         0.79314E+05         0.00000E+00
    0.79314E+05        -0.49994E+08         0.00000E+00
    0.00000E+00         0.00000E+00        -0.49477E+08
 
   -0.49199E+08         0.87528E+05         0.00000E+00
    0.87528E+05        -0.49992E+08         0.00000E+00
    0.00000E+00         0.00000E+00        -0.49477E+08
 
   -0.49203E+08         0.95726E+05         0.00000E+00
    0.95726E+05        -0.49991E+08         0.00000E+00
    0.00000E+00         0.00000E+00        -0.49477E+08
 
   -0.49207E+08         0.10391E+06         0.00000E+00
    0.10391E+06        -0.49989E+08         0.00000E+00
    0.00000E+00         0.00000E+00        -0.49477E+08
 
   -0.49212E+08         0.11208E+06         0.00000E+00
    0.11208E+06        -0.49987E+08         0.00000E+00
    0.00000E+00         0.00000E+00        -0.49477E+08
 
   -0.49216E+08         0.12024E+06         0.00000E+00
    0.12024E+06        -0.49986E+08         0.00000E+00
    0.00000E+00         0.00000E+00        -0.49477E+08
 
   -0.49221E+08         0.12840E+06         0.00000E+00
    0.12840E+06        -0.49984E+08         0.00000E+00
    0.00000E+00         0.00000E+00        -0.49478E+08
 
   -0.49226E+08         0.13654E+06         0.00000E+00
    0.13654E+06        -0.49982E+08         0.00000E+00
    0.00000E+00         0.00000E+00        -0.49478E+08
 
   -0.49232E+08         0.14468E+06         0.00000E+00
    0.14468E+06        -0.49979E+08         0.00000E+00
    0.00000E+00         0.00000E+00        -0.49478E+08
 
   -0.49237E+08         0.15281E+06         0.00000E+00
    0.15281E+06        -0.49977E+08         0.00000E+00
    0.00000E+00         0.00000E+00        -0.49478E+08
 
   -0.49243E+08         0.16093E+06         0.00000E+00
    0.16093E+06        -0.49975E+08         0.00000E+00
    0.00000E+00         0.00000E+00        -0.49478E+08
 
   -0.49249E+08         0.16905E+06         0.00000E+00
    0.16905E+06        -0.49972E+08         0.00000E+00
    0.00000E+00         0.00000E+00        -0.49478E+08
 
   -0.49255E+08         0.17717E+06         0.00000E+00
    0.17717E+06        -0.49970E+08         0.00000E+00
    0.00000E+00         0.00000E+00        -0.49478E+08
 
   -0.49261E+08         0.18528E+06         0.00000E+00
    0.18528E+06        -0.49967E+08         0.00000E+00
    0.00000E+00         0.00000E+00        -0.49478E+08
 
   -0.49267E+08         0.19339E+06         0.00000E+00
    0.19339E+06        -0.49964E+08         0.00000E+00
    0.00000E+00         0.00000E+00        -0.49478E+08
 
   -0.49274E+08         0.20149E+06         0.00000E+00
    0.20149E+06        -0.49961E+08         0.00000E+00
    0.00000E+00         0.00000E+00        -0.49478E+08
 
   -0.49280E+08         0.20959E+06         0.00000E+00
    0.20959E+06        -0.49958E+08         0.00000E+00
    0.00000E+00         0.00000E+00        -0.49479E+08
 
   -0.49287E+08         0.21769E+06         0.00000E+00
    0.21769E+06        -0.49955E+08         0.00000E+00
    0.00000E+00         0.00000E+00        -0.49479E+08
 
   -0.49294E+08         0.22578E+06         0.00000E+00
    0.22578E+06        -0.49952E+08         0.00000E+00
    0.00000E+00         0.00000E+00        -0.49479E+08
 
   -0.49301E+08         0.23387E+06         0.00000E+00
    0.23387E+06        -0.49949E+08         0.00000E+00
    0.00000E+00         0.00000E+00        -0.49479E+08
 
   -0.49309E+08         0.24196E+06         0.00000E+00
    0.24196E+06        -0.49945E+08         0.00000E+00
    0.00000E+00         0.00000E+00        -0.49479E+08
 
   -0.49316E+08         0.25004E+06         0.00000E+00
    0.25004E+06        -0.49942E+08         0.00000E+00
    0.00000E+00         0.00000E+00        -0.49479E+08
 
   -0.49323E+08         0.25811E+06         0.00000E+00
    0.25811E+06        -0.49938E+08         0.00000E+00
    0.00000E+00         0.00000E+00        -0.49479E+08
 
   -0.49331E+08         0.26618E+06         0.00000E+00
    0.26618E+06        -0.49935E+08         0.00000E+00
    0.00000E+00         0.00000E+00        -0.49479E+08
 
   -0.49339E+08         0.27424E+06         0.00000E+00
    0.27424E+06        -0.49931E+08         0.00000E+00
    0.00000E+00         0.00000E+00        -0.49479E+08
 
   -0.49347E+08         0.28229E+06         0.00000E+00
    0.28229E+06        -0.49927E+08         0.00000E+00
    0.00000E+00         0.00000E+00        -0.49479E+08
 
   -0.49355E+08         0.29033E+06         0.00000E+00
    0.29033E+06        -0.49924E+08         0.00000E+00
    0.00000E+00         0.00000E+00        -0.49480E+08
 
   -0.49363E+08         0.29837E+06         0.00000E+00
    0.29837E+06        -0.49920E+08         0.00000E+00
    0.00000E+00         0.00000E+00        -0.49480E+08
 
   -0.49371E+08         0.30639E+06         0.00000E+00
    0.30639E+06        -0.49916E+08         0.00000E+00
    0.00000E+00         0.00000E+00        -0.49480E+08
 
   -0.49379E+08         0.31440E+06         0.00000E+00
    0.31440E+06        -0.49912E+08         0.00000E+00
    0.00000E+00         0.00000E+00        -0.49480E+08
 
   -0.49387E+08         0.32240E+06         0.00000E+00
    0.32240E+06        -0.49908E+08         0.00000E+00
    0.00000E+00         0.00000E+00        -0.49480E+08
 
   -0.49396E+08         0.33038E+06         0.00000E+00
    0.33038E+06        -0.49904E+08         0.00000E+00
    0.00000E+00         0.00000E+00        -0.49480E+08
 
   -0.49404E+08         0.33835E+06         0.00000E+00
    0.33835E+06        -0.49899E+08         0.00000E+00
    0.00000E+00         0.00000E+00        -0.49480E+08
 
   -0.49413E+08         0.34630E+06         0.00000E+00
    0.34630E+06        -0.49895E+08         0.00000E+00
    0.00000E+00         0.00000E+00        -0.49480E+08
 
   -0.49422E+08         0.35424E+06         0.00000E+00
    0.35424E+06        -0.49891E+08         0.00000E+00
    0.00000E+00         0.00000E+00        -0.49480E+08
 
   -0.49431E+08         0.36215E+06         0.00000E+00
    0.36215E+06        -0.49887E+08         0.00000E+00
    0.00000E+00         0.00000E+00        -0.49480E+08
 
   -0.49440E+08         0.37005E+06         0.00000E+00
    0.37005E+06        -0.49882E+08         0.00000E+00
    0.00000E+00         0.00000E+00        -0.49480E+08
 
   -0.49448E+08         0.37792E+06         0.00000E+00
    0.37792E+06        -0.49878E+08         0.00000E+00
    0.00000E+00         0.00000E+00        -0.49480E+08
 
   -0.49458E+08         0.38576E+06         0.00000E+00
    0.38576E+06        -0.49873E+08         0.00000E+00
    0.00000E+00         0.00000E+00        -0.49480E+08
 
   -0.49467E+08         0.39359E+06         0.00000E+00
    0.39359E+06        -0.49869E+08         0.00000E+00
    0.00000E+00         0.00000E+00        -0.49480E+08
 
   -0.49476E+08         0.40138E+06         0.00000E+00
    0.40138E+06        -0.49864E+08         0.00000E+00
    0.00000E+00         0.00000E+00        -0.49480E+08
 
   -0.49126E+08         0.46525E+04         0.00000E+00
    0.46525E+04        -0.50000E+08         0.00000E+00
    0.00000E+00         0.00000E+00        -0.49437E+08
 
   -0.49128E+08         0.13820E+05         0.00000E+00
    0.13820E+05        -0.50000E+08         0.00000E+00
    0.00000E+00         0.00000E+00        -0.49437E+08
 
   -0.49130E+08         0.22942E+05         0.00000E+00
    0.22942E+05        -0.50000E+08         0.00000E+00
    0.00000E+00         0.00000E+00        -0.49437E+08
 
   -0.49132E+08         0.32020E+05         0.00000E+00
    0.32020E+05        -0.49999E+08         0.00000E+00
    0.00000E+00         0.00000E+00        -0.49438E+08
 
   -0.49135E+08         0.41058E+05         0.00000E+00
    0.41058E+05        -0.49999E+08         0.00000E+00
    0.00000E+00         0.00000E+00        -0.49438E+08
 
   -0.49138E+08         0.50057E+05         0.00000E+00
    0.50057E+05        -0.49998E+08         0.00000E+00
    0.00000E+00         0.00000E+00        -0.49438E+08
 
   -0.49141E+08         0.59021E+05         0.00000E+00
    0.59021E+05        -0.49997E+08         0.00000E+00
    0.00000E+00         0.00000E+00        -0.49438E+08
 
   -0.49145E+08         0.67952E+05         0.00000E+00
    0.67952E+05        -0.49996E+08         0.00000E+00
    0.00000E+00         0.00000E+00        -0.49438E+08
 
   -0.49148E+08         0.76851E+05         0.00000E+00
    0.76851E+05        -0.49995E+08         0.00000E+00
    0.00000E+00         0.00000E+00        -0.49438E+08
 
   -0.49152E+08         0.85720E+05         0.00000E+00
    0.85720E+05        -0.49994E+08         0.00000E+00
    0.00000E+00         0.00000E+00        -0.49438E+08
 
   -0.49156E+08         0.94562E+05         0.00000E+00
    0.94562E+05        -0.49993E+08         0.00000E+00
    0.00000E+00         0.00000E+00        -0.49438E+08
 
   -0.49160E+08         0.10338E+06         0.00000E+00
    0.10338E+06        -0.49991E+08         0.00000E+00
    0.00000E+00         0.00000E+00        -0.49438E+08
 
   -0.49165E+08         0.11217E+06         0.00000E+00
    0.11217E+06        -0.49990E+08         0.00000E+00
    0.00000E+00         0.00000E+00        -0.49438E+08
 
   -0.49169E+08         0.12094E+06         0.00000E+00
    0.12094E+06        -0.49988E+08         0.00000E+00
    0.00000E+00         0.00000E+00        -0.49438E+08
 
   -0.49174E+08         0.12969E+06         0.00000E+00
    0.12969E+06        -0.49986E+08         0.00000E+00
    0.00000E+00         0.00000E+00        -0.49438E+08
 
   -0.49179E+08         0.13841E+06         0.00000E+00
    0.13841E+06        -0.49984E+08         0.00000E+00
    0.00000E+00         0.00000E+00        -0.49438E+08
 
   -0.49184E+08         0.14712E+06         0.00000E+00
    0.14712E+06        -0.49982E+08         0.00000E+00
    0.00000E+00         0.00000E+00        -0.49438E+08
 
   -0.49190E+08         0.15581E+06         0.00000E+00
    0.15581E+06        -0.49980E+08         0.00000E+00
    0.00000E+00         0.00000E+00        -0.49438E+08
 
   -0.49195E+08         0.16448E+06         0.00000E+00
    0.16448E+06        -0.49978E+08         0.00000E+00
    0.00000E+00         0.00000E+00        -0.49438E+08
 
   -0.49201E+08         0.17314E+06         0.00000E+00
    0.17314E+06        -0.49975E+08         0.00000E+00
    0.00000E+00         0.00000E+00        -0.49439E+08
 
   -0.49207E+08         0.18178E+06         0.00000E+00
    0.18178E+06        -0.49973E+08         0.00000E+00
    0.00000E+00         0.00000E+00        -0.49439E+08
 
   -0.49213E+08         0.19040E+06         0.00000E+00
    0.19040E+06        -0.49970E+08         0.00000E+00
    0.00000E+00         0.00000E+00        -0.49439E+08
 
   -0.49219E+08         0.19901E+06         0.00000E+00
    0.19901E+06        -0.49968E+08         0.00000E+00
    0.00000E+00         0.00000E+00        -0.49439E+08
 
   -0.49225E+08         0.20760E+06         0.00000E+00
    0.20760E+06        -0.49965E+08         0.00000E+00
    0.00000E+00         0.00000E+00        -0.49439E+08
 
   -0.49232E+08         0.21618E+06         0.00000E+00
    0.21618E+06        -0.49962E+08         0.00000E+00
    0.00000E+00         0.00000E+00        -0.49439E+08
 
   -0.49239E+08         0.22474E+06         0.00000E+00
    0.22474E+06        -0.49959E+08         0.00000E+00
    0.00000E+00         0.00000E+00        -0.49439E+08
 
   -0.49246E+08         0.23329E+06         0.00000E+00
    0.23329E+06        -0.49956E+08         0.00000E+00
    0.00000E+00         0.00000E+00        -0.49439E+08
 
   -0.49253E+08         0.24182E+06         0.00000E+00
    0.24182E+06        -0.49953E+08         0.00000E+00
    0.00000E+00         0.00000E+00        -0.49439E+08
 
   -0.49260E+08         0.25034E+06         0.00000E+00
    0.25034E+06        -0.49949E+08         0.00000E+00
    0.00000E+00         0.00000E+00        -0.49440E+08
 
   -0.49267E+08         0.25884E+06         0.00000E+00
    0.25884E+06        -0.49946E+08         0.00000E+00
    0.00000E+00         0.00000E+00        -0.49440E+08
 
   -0.49274E+08         0.26733E+06         0.00000E+00
    0.26733E+06        -0.49943E+08         0.00000E+00
    0.00000E+00         0.00000E+00        -0.49440E+08
 
   -0.49282E+08         0.27579E+06         0.00000E+00
    0.27579E+06        -0.49939E+08         0.00000E+00
    0.00000E+00         0.00000E+00        -0.49440E+08
 
   -0.49290E+08         0.28425E+06         0.00000E+00
    0.28425E+06        -0.49936E+08         0.00000E+00
    0.00000E+00         0.00000E+00        -0.49440E+08
 
   -0.49298E+08         0.29268E+06         0.00000E+00
    0.29268E+06        -0.49932E+08         0.00000E+00
    0.00000E+00         0.00000E+00        -0.49440E+08
 
   -0.49305E+08         0.30110E+06         0.00000E+00
    0.30110E+06        -0.49928E+08         0.00000E+00
    0.00000E+00         0.00000E+00        -0.49440E+08
 
   -0.49313E+08         0.30950E+06         0.00000E+00
    0.30950E+06        -0.49925E+08         0.00000E+00
    0.00000E+00         0.00000E+00        -0.49440E+08
 
   -0.49322E+08         0.31787E+06         0.00000E+00
    0.31787E+06        -0.49921E+08         0.00000E+00
    0.00000E+00         0.00000E+00        -0.49440E+08
 
   -0.49330E+08         0.32623E+06         0.00000E+00
    0.32623E+06        -0.49917E+08         0.00000E+00
    0.00000E+00         0.00000E+00        -0.49440E+08
 
   -0.49338E+08         0.33456E+06         0.00000E+00
    0.33456E+06        -0.49913E+08         0.00000E+00
    0.00000E+00         0.00000E+00        -0.49440E+08
 
   -0.49347E+08         0.34288E+06         0.00000E+00
    0.34288E+06        -0.49909E+08         0.00000E+00
    0.00000E+00         0.00000E+00        -0.49441E+08
 
   -0.49355E+08         0.35117E+06         0.00000E+00
    0.35117E+06        -0.49904E+08         0.00000E+00
    0.00000E+00         0.00000E+00        -0.49441E+08
 
   -0.49364E+08         0.35943E+06         0.00000E+00
    0.35943E+06        -0.49900E+08         0.00000E+00
    0.00000E+00         0.00000E+00        -0.49441E+08
 
   -0.49373E+08         0.36767E+06         0.00000E+00
    0.36767E+06        -0.49896E+08         0.00000E+00
    0.00000E+00         0.00000E+00        -0.49441E+08
 
   -0.49382E+08         0.37588E+06         0.00000E+00
    0.37588E+06        -0.49892E+08         0.00000E+00
    0.00000E+00         0.00000E+00        -0.49441E+08
 
   -0.49390E+08         0.38406E+06         0.00000E+00
    0.38406E+06        -0.49887E+08         0.00000E+00
    0.00000E+00         0.00000E+00        -0.49441E+08
 
   -0.49399E+08         0.39222E+06         0.00000E+00
    0.39222E+06        -0.49883E+08         0.00000E+00
    0.00000E+00         0.00000E+00        -0.49441E+08
 
   -0.49409E+08         0.40034E+06         0.00000E+00
    0.40034E+06        -0.49878E+08         0.00000E+00
    0.00000E+00         0.00000E+00        -0.49441E+08
 
   -0.49418E+08         0.40843E+06         0.00000E+00
    0.40843E+06        -0.49874E+08         0.00000E+00
    0.00000E+00         0.00000E+00        -0.49441E+08
 
   -0.49427E+08         0.41649E+06         0.00000E+00
    0.41649E+06        -0.49869E+08         0.00000E+00
    0.00000E+00         0.00000E+00        -0.49441E+08
 
   -0.49436E+08         0.42452E+06         0.00000E+00
    0.42452E+06        -0.49865E+08         0.00000E+00
    0.00000E+00         0.00000E+00        -0.49441E+08
 
   -0.49078E+08         0.49971E+04         0.00000E+00
    0.49971E+04        -0.50000E+08         0.00000E+00
    0.00000E+00         0.00000E+00        -0.49397E+08
 
   -0.49080E+08         0.14843E+05         0.00000E+00
    0.14843E+05        -0.50000E+08         0.00000E+00
    0.00000E+00         0.00000E+00        -0.49397E+08
 
   -0.49083E+08         0.24639E+05         0.00000E+00
    0.24639E+05        -0.50000E+08         0.00000E+00
    0.00000E+00         0.00000E+00        -0.49397E+08
 
   -0.49085E+08         0.34386E+05         0.00000E+00
    0.34386E+05        -0.49999E+08         0.00000E+00
    0.00000E+00         0.00000E+00        -0.49397E+08
 
   -0.49088E+08         0.44087E+05         0.00000E+00
    0.44087E+05        -0.49999E+08         0.00000E+00
    0.00000E+00         0.00000E+00        -0.49397E+08
 
   -0.49092E+08         0.53744E+05         0.00000E+00
    0.53744E+05        -0.49998E+08         0.00000E+00
    0.00000E+00         0.00000E+00        -0.49397E+08
 
   -0.49095E+08         0.63358E+05         0.00000E+00
    0.63358E+05        -0.49997E+08         0.00000E+00
    0.00000E+00         0.00000E+00        -0.49397E+08
 
   -0.49098E+08         0.72932E+05         0.00000E+00
    0.72932E+05        -0.49996E+08         0.00000E+00
    0.00000E+00         0.00000E+00        -0.49397E+08
 
   -0.49102E+08         0.82467E+05         0.00000E+00
    0.82467E+05        -0.49995E+08         0.00000E+00
    0.00000E+00         0.00000E+00        -0.49397E+08
 
   -0.49106E+08         0.91964E+05         0.00000E+00
    0.91964E+05        -0.49994E+08         0.00000E+00
    0.00000E+00         0.00000E+00        -0.49397E+08
 
   -0.49110E+08         0.10143E+06         0.00000E+00
    0.10143E+06        -0.49993E+08         0.00000E+00
    0.00000E+00         0.00000E+00        -0.49397E+08
 
   -0.49115E+08         0.11085E+06         0.00000E+00
    0.11085E+06        -0.49991E+08         0.00000E+00
    0.00000E+00         0.00000E+00        -0.49397E+08
 
   -0.49119E+08         0.12025E+06         0.00000E+00
    0.12025E+06        -0.49990E+08         0.00000E+00
    0.00000E+00         0.00000E+00        -0.49397E+08
 
   -0.49124E+08         0.12961E+06         0.00000E+00
    0.12961E+06        -0.49988E+08         0.00000E+00
    0.00000E+00         0.00000E+00        -0.49397E+08
 
   -0.49129E+08         0.13894E+06         0.00000E+00
    0.13894E+06        -0.49986E+08         0.00000E+00
    0.00000E+00         0.00000E+00        -0.49398E+08
 
   -0.49134E+08         0.14825E+06         0.00000E+00
    0.14825E+06        -0.49984E+08         0.00000E+00
    0.00000E+00         0.00000E+00        -0.49398E+08
 
   -0.49139E+08         0.15752E+06         0.00000E+00
    0.15752E+06        -0.49982E+08         0.00000E+00
    0.00000E+00         0.00000E+00        -0.49398E+08
 
   -0.49145E+08         0.16676E+06         0.00000E+00
    0.16676E+06        -0.49980E+08         0.00000E+00
    0.00000E+00         0.00000E+00        -0.49398E+08
 
   -0.49150E+08         0.17598E+06         0.00000E+00
    0.17598E+06        -0.49978E+08         0.00000E+00
    0.00000E+00         0.00000E+00        -0.49398E+08
 
   -0.49156E+08         0.18517E+06         0.00000E+00
    0.18517E+06        -0.49976E+08         0.00000E+00
    0.00000E+00         0.00000E+00        -0.49398E+08
 
   -0.49162E+08         0.19434E+06         0.00000E+00
    0.19434E+06        -0.49973E+08         0.00000E+00
    0.00000E+00         0.00000E+00        -0.49398E+08
 
   -0.49168E+08         0.20348E+06         0.00000E+00
    0.20348E+06        -0.49971E+08         0.00000E+00
    0.00000E+00         0.00000E+00        -0.49398E+08
 
   -0.49175E+08         0.21259E+06         0.00000E+00
    0.21259E+06        -0.49968E+08         0.00000E+00
    0.00000E+00         0.00000E+00        -0.49398E+08
 
   -0.49181E+08         0.22168E+06         0.00000E+00
    0.22168E+06        -0.49965E+08         0.00000E+00
    0.00000E+00         0.00000E+00        -0.49398E+08
 
   -0.49188E+08         0.23074E+06         0.00000E+00
    0.23074E+06        -0.49962E+08         0.00000E+00
    0.00000E+00         0.00000E+00        -0.49399E+08
 
   -0.49195E+08         0.23978E+06         0.00000E+00
    0.23978E+06        -0.49960E+08         0.00000E+00
    0.00000E+00         0.00000E+00        -0.49399E+08
 
   -0.49202E+08         0.24879E+06         0.00000E+00
    0.24879E+06        -0.49956E+08         0.00000E+00
    0.00000E+00         0.00000E+00        -0.49399E+08
 
   -0.49209E+08         0.25778E+06         0.00000E+00
    0.25778E+06        -0.49953E+08         0.00000E+00
    0.00000E+00         0.00000E+00        -0.49399E+08
 
   -0.49216E+08         0.26674E+06         0.00000E+00
    0.26674E+06        -0.49950E+08         0.00000E+00
    0.00000E+00         0.00000E+00        -0.49399E+08
 
   -0.49224E+08         0.27568E+06         0.00000E+00
    0.27568E+06        -0.49947E+08         0.00000E+00
    0.00000E+00         0.00000E+00        -0.49399E+08
 
   -0.49231E+08         0.28459E+06         0.00000E+00
    0.28459E+06        -0.49943E+08         0.00000E+00
    0.00000E+00         0.00000E+00        -0.49399E+08
 
   -0.49239E+08         0.29347E+06         0.00000E+00
    0.29347E+06        -0.49940E+08         0.00000E+00
    0.00000E+00         0.00000E+00        -0.49399E+08
 
   -0.49247E+08         0.30233E+06         0.00000E+00
    0.30233E+06        -0.49936E+08         0.00000E+00
    0.00000E+00         0.00000E+00        -0.49399E+08
 
   -0.49254E+08         0.31116E+06         0.00000E+00
    0.31116E+06        -0.49933E+08         0.00000E+00
    0.00000E+00         0.00000E+00        -0.49399E+08
 
   -0.49262E+08         0.31996E+06         0.00000E+00
    0.31996E+06        -0.49929E+08         0.00000E+00
    0.00000E+00         0.00000E+00        -0.49400E+08
 
   -0.49271E+08         0.32874E+06         0.00000E+00
    0.32874E+06        -0.49925E+08         0.00000E+00
    0.00000E+00         0.00000E+00        -0.49400E+08
 
   -0.49279E+08         0.33748E+06         0.00000E+00
    0.33748E+06        -0.49921E+08         0.00000E+00
    0.00000E+00         0.00000E+00        -0.49400E+08
 
   -0.49287E+08         0.34619E+06         0.00000E+00
    0.34619E+06        -0.49917E+08         0.00000E+00
    0.00000E+00         0.00000E+00        -0.49400E+08
 
   -0.49296E+08         0.35488E+06         0.00000E+00
    0.35488E+06        -0.49913E+08         0.00000E+00
    0.00000E+00         0.00000E+00        -0.49400E+08
 
   -0.49304E+08         0.36353E+06         0.00000E+00
    0.36353E+06        -0.49909E+08         0.00000E+00
    0.00000E+00         0.00000E+00        -0.49400E+08
 
   -0.49313E+08         0.37215E+06         0.00000E+00
    0.37215E+06        -0.49905E+08         0.00000E+00
    0.00000E+00         0.00000E+00        -0.49400E+08
 
   -0.49322E+08         0.38073E+06         0.00000E+00
    0.38073E+06        -0.49901E+08         0.00000E+00
    0.00000E+00         0.00000E+00        -0.49400E+08
 
   -0.49331E+08         0.38928E+06         0.00000E+00
    0.38928E+06        -0.49896E+08         0.00000E+00
    0.00000E+00         0.00000E+00        -0.49400E+08
 
   -0.49340E+08         0.39780E+06         0.00000E+00
    0.39780E+06        -0.49892E+08         0.00000E+00
    0.00000E+00         0.00000E+00        -0.49400E+08
 
   -0.49349E+08         0.40627E+06         0.00000E+00
    0.40627E+06        -0.49887E+08         0.00000E+00
    0.00000E+00         0.00000E+00        -0.49400E+08
 
   -0.49358E+08         0.41472E+06         0.00000E+00
    0.41472E+06        -0.49883E+08         0.00000E+00
    0.00000E+00         0.00000E+00        -0.49400E+08
 
   -0.49367E+08         0.42312E+06         0.00000E+00
    0.42312E+06        -0.49878E+08         0.00000E+00
    0.00000E+00         0.00000E+00        -0.49400E+08
 
   -0.49377E+08         0.43148E+06         0.00000E+00
    0.43148E+06        -0.49874E+08         0.00000E+00
    0.00000E+00         0.00000E+00        -0.49400E+08
 
   -0.49386E+08         0.43981E+06         0.00000E+00
    0.43981E+06        -0.49869E+08         0.00000E+00
    0.00000E+00         0.00000E+00        -0.49400E+08
 
   -0.49396E+08         0.44809E+06         0.00000E+00
    0.44809E+06        -0.49864E+08         0.00000E+00
    0.00000E+00         0.00000E+00        -0.49400E+08
 
   -0.49027E+08         0.53319E+04         0.00000E+00
    0.53319E+04        -0.50000E+08         0.00000E+00
    0.00000E+00         0.00000E+00        -0.49355E+08
 
   -0.49030E+08         0.15841E+05         0.00000E+00
    0.15841E+05        -0.50000E+08         0.00000E+00
    0.00000E+00         0.00000E+00        -0.49355E+08
 
   -0.49032E+08         0.26295E+05         0.00000E+00
    0.26295E+05        -0.50000E+08         0.00000E+00
    0.00000E+00         0.00000E+00        -0.49355E+08
 
   -0.49035E+08         0.36698E+05         0.00000E+00
    0.36698E+05        -0.49999E+08         0.00000E+00
    0.00000E+00         0.00000E+00        -0.49355E+08
 
   -0.49038E+08         0.47050E+05         0.00000E+00
    0.47050E+05        -0.49999E+08         0.00000E+00
    0.00000E+00         0.00000E+00        -0.49355E+08
 
   -0.49042E+08         0.57352E+05         0.00000E+00
    0.57352E+05        -0.49998E+08         0.00000E+00
    0.00000E+00         0.00000E+00        -0.49355E+08
 
   -0.49045E+08         0.67607E+05         0.00000E+00
    0.67607E+05        -0.49997E+08         0.00000E+00
    0.00000E+00         0.00000E+00        -0.49355E+08
 
   -0.49049E+08         0.77816E+05         0.00000E+00
    0.77816E+05        -0.49996E+08         0.00000E+00
    0.00000E+00         0.00000E+00        -0.49355E+08
 
   -0.49053E+08         0.87979E+05         0.00000E+00
    0.87979E+05        -0.49995E+08         0.00000E+00
    0.00000E+00         0.00000E+00        -0.49355E+08
 
   -0.49057E+08         0.98099E+05         0.00000E+00
    0.98099E+05        -0.49994E+08         0.00000E+00
    0.00000E+00         0.00000E+00        -0.49355E+08
 
   -0.49061E+08         0.10818E+06         0.00000E+00
    0.10818E+06        -0.49993E+08         0.00000E+00
    0.00000E+00         0.00000E+00        -0.49355E+08
 
   -0.49066E+08         0.11821E+06         0.00000E+00
    0.11821E+06        -0.49991E+08         0.00000E+00
    0.00000E+00         0.00000E+00        -0.49355E+08
 
   -0.49071E+08         0.12821E+06         0.00000E+00
    0.12821E+06        -0.49990E+08         0.00000E+00
    0.00000E+00         0.00000E+00        -0.49356E+08
 
   -0.49076E+08         0.13817E+06         0.00000E+00
    0.13817E+06        -0.49988E+08         0.00000E+00
    0.00000E+00         0.00000E+00        -0.49356E+08
 
   -0.49081E+08         0.14808E+06         0.00000E+00
    0.14808E+06        -0.49987E+08         0.00000E+00
    0.00000E+00         0.00000E+00        -0.49356E+08
 
   -0.49086E+08         0.15796E+06         0.00000E+00
    0.15796E+06        -0.49985E+08         0.00000E+00
    0.00000E+00         0.00000E+00        -0.49356E+08
 
   -0.49092E+08         0.16781E+06         0.00000E+00
    0.16781E+06        -0.49983E+08         0.00000E+00
    0.00000E+00         0.00000E+00        -0.49356E+08
 
   -0.49097E+08         0.17761E+06         0.00000E+00
    0.17761E+06        -0.49981E+08         0.00000E+00
    0.00000E+00         0.00000E+00        -0.49356E+08
 
   -0.49103E+08         0.18738E+06         0.00000E+00
    0.18738E+06        -0.49978E+08         0.00000E+00
    0.00000E+00         0.00000E+00        -0.49356E+08
 
   -0.49109E+08         0.19712E+06         0.00000E+00
    0.19712E+06        -0.49976E+08         0.00000E+00
    0.00000E+00         0.00000E+00        -0.49356E+08
 
   -0.49115E+08         0.20682E+06         0.00000E+00
    0.20682E+06        -0.49974E+08         0.00000E+00
    0.00000E+00         0.00000E+00        -0.49356E+08
 
   -0.49122E+08         0.21648E+06         0.00000E+00
    0.21648E+06        -0.49971E+08         0.00000E+00
    0.00000E+00         0.00000E+00        -0.49356E+08
 
   -0.49128E+08         0.22611E+06         0.00000E+00
    0.22611E+06        -0.49968E+08         0.00000E+00
    0.00000E+00         0.00000E+00        -0.49356E+08
 
   -0.49135E+08         0.23571E+06         0.00000E+00
    0.23571E+06        -0.49966E+08         0.00000E+00
    0.00000E+00         0.00000E+00        -0.49357E+08
 
   -0.49141E+08         0.24527E+06         0.00000E+00
    0.24527E+06        -0.49963E+08         0.00000E+00
    0.00000E+00         0.00000E+00        -0.49357E+08
 
   -0.49148E+08         0.25480E+06         0.00000E+00
    0.25480E+06        -0.49960E+08         0.00000E+00
    0.00000E+00         0.00000E+00        -0.49357E+08
 
   -0.49156E+08         0.26429E+06         0.00000E+00
    0.26429E+06        -0.49957E+08         0.00000E+00
    0.00000E+00         0.00000E+00        -0.49357E+08
 
   -0.49163E+08         0.27375E+06         0.00000E+00
    0.27375E+06        -0.49954E+08         0.00000E+00
    0.00000E+00         0.00000E+00        -0.49357E+08
 
   -0.49170E+08         0.28318E+06         0.00000E+00
    0.28318E+06        -0.49950E+08         0.00000E+00
    0.00000E+00         0.00000E+00        -0.49357E+08
 
   -0.49178E+08         0.29257E+06         0.00000E+00
    0.29257E+06        -0.49947E+08         0.00000E+00
    0.00000E+00         0.00000E+00        -0.49357E+08
 
   -0.49185E+08         0.30192E+06         0.00000E+00
    0.30192E+06        -0.49944E+08         0.00000E+00
    0.00000E+00         0.00000E+00        -0.49357E+08
 
   -0.49193E+08         0.31124E+06         0.00000E+00
    0.31124E+06        -0.49940E+08         0.00000E+00
    0.00000E+00         0.00000E+00        -0.49357E+08
 
   -0.49201E+08         0.32052E+06         0.00000E+00
    0.32052E+06        -0.49936E+08         0.00000E+00
    0.00000E+00         0.00000E+00        -0.49357E+08
 
   -0.49209E+08         0.32977E+06         0.00000E+00
    0.32977E+06        -0.49933E+08         0.00000E+00
    0.00000E+00         0.00000E+00        -0.49358E+08
 
   -0.49218E+08         0.33897E+06         0.00000E+00
    0.33897E+06        -0.49929E+08         0.00000E+00
    0.00000E+00         0.00000E+00        -0.49358E+08
 
   -0.49226E+08         0.34815E+06         0.00000E+00
    0.34815E+06        -0.49925E+08         0.00000E+00
    0.00000E+00         0.00000E+00        -0.49358E+08
 
   -0.49234E+08         0.35728E+06         0.00000E+00
    0.35728E+06        -0.49921E+08         0.00000E+00
    0.00000E+00         0.00000E+00        -0.49358E+08
 
   -0.49243E+08         0.36637E+06         0.00000E+00
    0.36637E+06        -0.49917E+08         0.00000E+00
    0.00000E+00         0.00000E+00        -0.49358E+08
 
   -0.49252E+08         0.37543E+06         0.00000E+00
    0.37543E+06        -0.49913E+08         0.00000E+00
    0.00000E+00         0.00000E+00        -0.49358E+08
 
   -0.49260E+08         0.38444E+06         0.00000E+00
    0.38444E+06        -0.49909E+08         0.00000E+00
    0.00000E+00         0.00000E+00        -0.49358E+08
 
   -0.49269E+08         0.39341E+06         0.00000E+00
    0.39341E+06        -0.49905E+08         0.00000E+00
    0.00000E+00         0.00000E+00        -0.49358E+08
 
   -0.49278E+08         0.40235E+06         0.00000E+00
    0.40235E+06        -0.49900E+08         0.00000E+00
    0.00000E+00         0.00000E+00        -0.49358E+08
 
   -0.49287E+08         0.41123E+06         0.00000E+00
    0.41123E+06        -0.49896E+08         0.00000E+00
    0.00000E+00         0.00000E+00        -0.49358E+08
 
   -0.49297E+08         0.42008E+06         0.00000E+00
    0.42008E+06        -0.49891E+08         0.00000E+00
    0.00000E+00         0.00000E+00        -0.49358E+08
 
   -0.49306E+08         0.42888E+06         0.00000E+00
    0.42888E+06        -0.49887E+08         0.00000E+00
    0.00000E+00         0.00000E+00        -0.49358E+08
 
   -0.49315E+08         0.43764E+06         0.00000E+00
    0.43764E+06        -0.49882E+08         0.00000E+00
    0.00000E+00         0.00000E+00        -0.49358E+08
 
   -0.49325E+08         0.44634E+06         0.00000E+00
    0.44634E+06        -0.49878E+08         0.00000E+00
    0.00000E+00         0.00000E+00        -0.49358E+08
 
   -0.49334E+08         0.45501E+06         0.00000E+00
    0.45501E+06        -0.49873E+08         0.00000E+00
    0.00000E+00         0.00000E+00        -0.49358E+08
 
   -0.49344E+08         0.46362E+06         0.00000E+00
    0.46362E+06        -0.49868E+08         0.00000E+00
    0.00000E+00         0.00000E+00        -0.49358E+08
 
   -0.49354E+08         0.47218E+06         0.00000E+00
    0.47218E+06        -0.49863E+08         0.00000E+00
    0.00000E+00         0.00000E+00        -0.49359E+08
 
   -0.48973E+08         0.56609E+04         0.00000E+00
    0.56609E+04        -0.50000E+08         0.00000E+00
    0.00000E+00         0.00000E+00        -0.49312E+08
 
   -0.48976E+08         0.16823E+05         0.00000E+00
    0.16823E+05        -0.50000E+08         0.00000E+00
    0.00000E+00         0.00000E+00        -0.49312E+08
 
   -0.48979E+08         0.27928E+05         0.00000E+00
    0.27928E+05        -0.50000E+08         0.00000E+00
    0.00000E+00         0.00000E+00        -0.49312E+08
 
   -0.48982E+08         0.38977E+05         0.00000E+00
    0.38977E+05        -0.49999E+08         0.00000E+00
    0.00000E+00         0.00000E+00        -0.49312E+08
 
   -0.48985E+08         0.49973E+05         0.00000E+00
    0.49973E+05        -0.49999E+08         0.00000E+00
    0.00000E+00         0.00000E+00        -0.49312E+08
 
   -0.48989E+08         0.60916E+05         0.00000E+00
    0.60916E+05        -0.49998E+08         0.00000E+00
    0.00000E+00         0.00000E+00        -0.49312E+08
 
   -0.48993E+08         0.71807E+05         0.00000E+00
    0.71807E+05        -0.49997E+08         0.00000E+00
    0.00000E+00         0.00000E+00        -0.49312E+08
 
   -0.48997E+08         0.82647E+05         0.00000E+00
    0.82647E+05        -0.49996E+08         0.00000E+00
    0.00000E+00         0.00000E+00        -0.49312E+08
 
   -0.49001E+08         0.93437E+05         0.00000E+00
    0.93437E+05        -0.49995E+08         0.00000E+00
    0.00000E+00         0.00000E+00        -0.49312E+08
 
   -0.49005E+08         0.10418E+06         0.00000E+00
    0.10418E+06        -0.49994E+08         0.00000E+00
    0.00000E+00         0.00000E+00        -0.49312E+08
 
   -0.49010E+08         0.11487E+06         0.00000E+00
    0.11487E+06        -0.49993E+08         0.00000E+00
    0.00000E+00         0.00000E+00        -0.49312E+08
 
   -0.49014E+08         0.12552E+06         0.00000E+00
    0.12552E+06        -0.49991E+08         0.00000E+00
    0.00000E+00         0.00000E+00        -0.49312E+08
 
   -0.49019E+08         0.13612E+06         0.00000E+00
    0.13612E+06        -0.49990E+08         0.00000E+00
    0.00000E+00         0.00000E+00        -0.49312E+08
 
   -0.49025E+08         0.14667E+06         0.00000E+00
    0.14667E+06        -0.49988E+08         0.00000E+00
    0.00000E+00         0.00000E+00        -0.49312E+08
 
   -0.49030E+08         0.15718E+06         0.00000E+00
    0.15718E+06        -0.49987E+08         0.00000E+00
    0.00000E+00         0.00000E+00        -0.49312E+08
 
   -0.49035E+08         0.16764E+06         0.00000E+00
    0.16764E+06        -0.49985E+08         0.00000E+00
    0.00000E+00         0.00000E+00        -0.49312E+08
 
   -0.49041E+08         0.17806E+06         0.00000E+00
    0.17806E+06        -0.49983E+08         0.00000E+00
    0.00000E+00         0.00000E+00        -0.49313E+08
 
   -0.49047E+08         0.18843E+06         0.00000E+00
    0.18843E+06        -0.49981E+08         0.00000E+00
    0.00000E+00         0.00000E+00        -0.49313E+08
 
   -0.49053E+08         0.19876E+06         0.00000E+00
    0.19876E+06        -0.49978E+08         0.00000E+00
    0.00000E+00         0.00000E+00        -0.49313E+08
 
   -0.49059E+08         0.20905E+06         0.00000E+00
    0.20905E+06        -0.49976E+08         0.00000E+00
    0.00000E+00         0.00000E+00        -0.49313E+08
 
   -0.49065E+08         0.21930E+06         0.00000E+00
    0.21930E+06        -0.49974E+08         0.00000E+00
    0.00000E+00         0.00000E+00        -0.49313E+08
 
   -0.49072E+08         0.22950E+06         0.00000E+00
    0.22950E+06        -0.49971E+08         0.00000E+00
    0.00000E+00         0.00000E+00        -0.49313E+08
 
   -0.49079E+08         0.23966E+06         0.00000E+00
    0.23966E+06        -0.49968E+08         0.00000E+00
    0.00000E+00         0.00000E+00        -0.49313E+08
 
   -0.49085E+08         0.24978E+06         0.00000E+00
    0.24978E+06        -0.49966E+08         0.00000E+00
    0.00000E+00         0.00000E+00        -0.49313E+08
 
   -0.49093E+08         0.25985E+06         0.00000E+00
    0.25985E+06        -0.49963E+08         0.00000E+00
    0.00000E+00         0.00000E+00        -0.49313E+08
 
   -0.49100E+08         0.26989E+06         0.00000E+00
    0.26989E+06        -0.49960E+08         0.00000E+00
    0.00000E+00         0.00000E+00        -0.49313E+08
 
   -0.49107E+08         0.27988E+06         0.00000E+00
    0.27988E+06        -0.49957E+08         0.00000E+00
    0.00000E+00         0.00000E+00        -0.49314E+08
 
   -0.49114E+08         0.28982E+06         0.00000E+00
    0.28982E+06        -0.49953E+08         0.00000E+00
    0.00000E+00         0.00000E+00        -0.49314E+08
 
   -0.49122E+08         0.29973E+06         0.00000E+00
    0.29973E+06        -0.49950E+08         0.00000E+00
    0.00000E+00         0.00000E+00        -0.49314E+08
 
   -0.49130E+08         0.30959E+06         0.00000E+00
    0.30959E+06        -0.49947E+08         0.00000E+00
    0.00000E+00         0.00000E+00        -0.49314E+08
 
   -0.49138E+08         0.31940E+06         0.00000E+00
    0.31940E+06        -0.49943E+08         0.00000E+00
    0.00000E+00         0.00000E+00        -0.49314E+08
 
   -0.49146E+08         0.32918E+06         0.00000E+00
    0.32918E+06        -0.49940E+08         0.00000E+00
    0.00000E+00         0.00000E+00        -0.49314E+08
 
   -0.49154E+08         0.33890E+06         0.00000E+00
    0.33890E+06        -0.49936E+08         0.00000E+00
    0.00000E+00         0.00000E+00        -0.49314E+08
 
   -0.49162E+08         0.34859E+06         0.00000E+00
    0.34859E+06        -0.49932E+08         0.00000E+00
    0.00000E+00         0.00000E+00        -0.49314E+08
 
   -0.49171E+08         0.35823E+06         0.00000E+00
    0.35823E+06        -0.49929E+08         0.00000E+00
    0.00000E+00         0.00000E+00        -0.49314E+08
 
   -0.49179E+08         0.36782E+06         0.00000E+00
    0.36782E+06        -0.49925E+08         0.00000E+00
    0.00000E+00         0.00000E+00        -0.49314E+08
 
   -0.49188E+08         0.37736E+06         0.00000E+00
    0.37736E+06        -0.49921E+08         0.00000E+00
    0.00000E+00         0.00000E+00        -0.49315E+08
 
   -0.49196E+08         0.38686E+06         0.00000E+00
    0.38686E+06        -0.49917E+08         0.00000E+00
    0.00000E+00         0.00000E+00        -0.49315E+08
 
   -0.49205E+08         0.39631E+06         0.00000E+00
    0.39631E+06        -0.49912E+08         0.00000E+00
    0.00000E+00         0.00000E+00        -0.49315E+08
 
   -0.49214E+08         0.40571E+06         0.00000E+00
    0.40571E+06        -0.49908E+08         0.00000E+00
    0.00000E+00         0.00000E+00        -0.49315E+08
 
   -0.49224E+08         0.41507E+06         0.00000E+00
    0.41507E+06        -0.49904E+08         0.00000E+00
    0.00000E+00         0.00000E+00        -0.49315E+08
 
   -0.49233E+08         0.42437E+06         0.00000E+00
    0.42437E+06        -0.49899E+08         0.00000E+00
    0.00000E+00         0.00000E+00        -0.49315E+08
 
   -0.49242E+08         0.43362E+06         0.00000E+00
    0.43362E+06        -0.49895E+08         0.00000E+00
    0.00000E+00         0.00000E+00        -0.49315E+08
 
   -0.49252E+08         0.44282E+06         0.00000E+00
    0.44282E+06        -0.49890E+08         0.00000E+00
    0.00000E+00         0.00000E+00        -0.49315E+08
 
   -0.49261E+08         0.45197E+06         0.00000E+00
    0.45197E+06        -0.49886E+08         0.00000E+00
    0.00000E+00         0.00000E+00        -0.49315E+08
 
   -0.49271E+08         0.46106E+06         0.00000E+00
    0.46106E+06        -0.49881E+08         0.00000E+00
    0.00000E+00         0.00000E+00        -0.49315E+08
 
   -0.49280E+08         0.47011E+06         0.00000E+00
    0.47011E+06        -0.49876E+08         0.00000E+00
    0.00000E+00         0.00000E+00        -0.49315E+08
 
   -0.49290E+08         0.47909E+06         0.00000E+00
    0.47909E+06        -0.49871E+08         0.00000E+00
    0.00000E+00         0.00000E+00        -0.49315E+08
 
   -0.49300E+08         0.48802E+06         0.00000E+00
    0.48802E+06        -0.49866E+08         0.00000E+00
    0.00000E+00         0.00000E+00        -0.49315E+08
 
   -0.49310E+08         0.49690E+06         0.00000E+00
    0.49690E+06        -0.49861E+08         0.00000E+00
    0.00000E+00         0.00000E+00        -0.49315E+08
 
   -0.48915E+08         0.59874E+04         0.00000E+00
    0.59874E+04        -0.50000E+08         0.00000E+00
    0.00000E+00         0.00000E+00        -0.49267E+08
 
   -0.48918E+08         0.17798E+05         0.00000E+00
    0.17798E+05        -0.50000E+08         0.00000E+00
    0.00000E+00         0.00000E+00        -0.49267E+08
 
   -0.48922E+08         0.29551E+05         0.00000E+00
    0.29551E+05        -0.50000E+08         0.00000E+00
    0.00000E+00         0.00000E+00        -0.49267E+08
 
   -0.48925E+08         0.41246E+05         0.00000E+00
    0.41246E+05        -0.49999E+08         0.00000E+00
    0.00000E+00         0.00000E+00        -0.49267E+08
 
   -0.48929E+08         0.52885E+05         0.00000E+00
    0.52885E+05        -0.49999E+08         0.00000E+00
    0.00000E+00         0.00000E+00        -0.49267E+08
 
   -0.48933E+08         0.64467E+05         0.00000E+00
    0.64467E+05        -0.49998E+08         0.00000E+00
    0.00000E+00         0.00000E+00        -0.49267E+08
 
   -0.48937E+08         0.75994E+05         0.00000E+00
    0.75994E+05        -0.49997E+08         0.00000E+00
    0.00000E+00         0.00000E+00        -0.49267E+08
 
   -0.48941E+08         0.87466E+05         0.00000E+00
    0.87466E+05        -0.49996E+08         0.00000E+00
    0.00000E+00         0.00000E+00        -0.49267E+08
 
   -0.48945E+08         0.98884E+05         0.00000E+00
    0.98884E+05        -0.49995E+08         0.00000E+00
    0.00000E+00         0.00000E+00        -0.49267E+08
 
   -0.48950E+08         0.11025E+06         0.00000E+00
    0.11025E+06        -0.49994E+08         0.00000E+00
    0.00000E+00         0.00000E+00        -0.49267E+08
 
   -0.48955E+08         0.12156E+06         0.00000E+00
    0.12156E+06        -0.49993E+08         0.00000E+00
    0.00000E+00         0.00000E+00        -0.49267E+08
 
   -0.48960E+08         0.13282E+06         0.00000E+00
    0.13282E+06        -0.49991E+08         0.00000E+00
    0.00000E+00         0.00000E+00        -0.49267E+08
 
   -0.48965E+08         0.14403E+06         0.00000E+00
    0.14403E+06        -0.49990E+08         0.00000E+00
    0.00000E+00         0.00000E+00        -0.49267E+08
 
   -0.48970E+08         0.15518E+06         0.00000E+00
    0.15518E+06        -0.49988E+08         0.00000E+00
    0.00000E+00         0.00000E+00        -0.49267E+08
 
   -0.48976E+08         0.16629E+06         0.00000E+00
    0.16629E+06        -0.49987E+08         0.00000E+00
    0.00000E+00         0.00000E+00        -0.49267E+08
 
   -0.48982E+08         0.17734E+06         0.00000E+00
    0.17734E+06        -0.49985E+08         0.00000E+00
    0.00000E+00         0.00000E+00        -0.49268E+08
 
   -0.48988E+08         0.18834E+06         0.00000E+00
    0.18834E+06        -0.49983E+08         0.00000E+00
    0.00000E+00         0.00000E+00        -0.49268E+08
 
   -0.48994E+08         0.19930E+06         0.00000E+00
    0.19930E+06        -0.49981E+08         0.00000E+00
    0.00000E+00         0.00000E+00        -0.49268E+08
 
   -0.49000E+08         0.21020E+06         0.00000E+00
    0.21020E+06        -0.49978E+08         0.00000E+00
    0.00000E+00         0.00000E+00        -0.49268E+08
 
   -0.49006E+08         0.22105E+06         0.00000E+00
    0.22105E+06        -0.49976E+08         0.00000E+00
    0.00000E+00         0.00000E+00        -0.49268E+08
 
   -0.49013E+08         0.23186E+06         0.00000E+00
    0.23186E+06        -0.49973E+08         0.00000E+00
    0.00000E+00         0.00000E+00        -0.49268E+08
 
   -0.49020E+08         0.24261E+06         0.00000E+00
    0.24261E+06        -0.49971E+08         0.00000E+00
    0.00000E+00         0.00000E+00        -0.49268E+08
 
   -0.49027E+08         0.25331E+06         0.00000E+00
    0.25331E+06        -0.49968E+08         0.00000E+00
    0.00000E+00         0.00000E+00        -0.49268E+08
 
   -0.49034E+08         0.26397E+06         0.00000E+00
    0.26397E+06        -0.49965E+08         0.00000E+00
    0.00000E+00         0.00000E+00        -0.49268E+08
 
   -0.49041E+08         0.27457E+06         0.00000E+00
    0.27457E+06        -0.49962E+08         0.00000E+00
    0.00000E+00         0.00000E+00        -0.49268E+08
 
   -0.49048E+08         0.28512E+06         0.00000E+00
    0.28512E+06        -0.49959E+08         0.00000E+00
    0.00000E+00         0.00000E+00        -0.49269E+08
 
   -0.49056E+08         0.29563E+06         0.00000E+00
    0.29563E+06        -0.49956E+08         0.00000E+00
    0.00000E+00         0.00000E+00        -0.49269E+08
 
   -0.49064E+08         0.30608E+06         0.00000E+00
    0.30608E+06        -0.49953E+08         0.00000E+00
    0.00000E+00         0.00000E+00        -0.49269E+08
 
   -0.49071E+08         0.31648E+06         0.00000E+00
    0.31648E+06        -0.49950E+08         0.00000E+00
    0.00000E+00         0.00000E+00        -0.49269E+08
 
   -0.49079E+08         0.32683E+06         0.00000E+00
    0.32683E+06        -0.49946E+08         0.00000E+00
    0.00000E+00         0.00000E+00        -0.49269E+08
 
   -0.49087E+08         0.33713E+06         0.00000E+00
    0.33713E+06        -0.49943E+08         0.00000E+00
    0.00000E+00         0.00000E+00        -0.49269E+08
 
   -0.49096E+08         0.34738E+06         0.00000E+00
    0.34738E+06        -0.49939E+08         0.00000E+00
    0.00000E+00         0.00000E+00        -0.49269E+08
 
   -0.49104E+08         0.35757E+06         0.00000E+00
    0.35757E+06        -0.49936E+08         0.00000E+00
    0.00000E+00         0.00000E+00        -0.49269E+08
 
   -0.49113E+08         0.36772E+06         0.00000E+00
    0.36772E+06        -0.49932E+08         0.00000E+00
    0.00000E+00         0.00000E+00        -0.49269E+08
 
   -0.49121E+08         0.37781E+06         0.00000E+00
    0.37781E+06        -0.49928E+08         0.00000E+00
    0.00000E+00         0.00000E+00        -0.49269E+08
 
   -0.49130E+08         0.38784E+06         0.00000E+00
    0.38784E+06        -0.49924E+08         0.00000E+00
    0.00000E+00         0.00000E+00        -0.49270E+08
 
   -0.49139E+08         0.39782E+06         0.00000E+00
    0.39782E+06        -0.49920E+08         0.00000E+00
    0.00000E+00         0.00000E+00        -0.49270E+08
 
   -0.49148E+08         0.40775E+06         0.00000E+00
    0.40775E+06        -0.49916E+08         0.00000E+00
    0.00000E+00         0.00000E+00        -0.49270E+08
 
   -0.49157E+08         0.41762E+06         0.00000E+00
    0.41762E+06        -0.49911E+08         0.00000E+00
    0.00000E+00         0.00000E+00        -0.49270E+08
 
   -0.49166E+08         0.42743E+06         0.00000E+00
    0.42743E+06        -0.49907E+08         0.00000E+00
    0.00000E+00         0.00000E+00        -0.49270E+08
 
   -0.49176E+08         0.43719E+06         0.00000E+00
    0.43719E+06        -0.49902E+08         0.00000E+00
    0.00000E+00         0.00000E+00        -0.49270E+08
 
   -0.49185E+08         0.44689E+06         0.00000E+00
    0.44689E+06        -0.49898E+08         0.00000E+00
    0.00000E+00         0.00000E+00        -0.49270E+08
 
   -0.49195E+08         0.45653E+06         0.00000E+00
    0.45653E+06        -0.49893E+08         0.00000E+00
    0.00000E+00         0.00000E+00        -0.49270E+08
 
   -0.49205E+08         0.46611E+06         0.00000E+00
    0.46611E+06        -0.49889E+08         0.00000E+00
    0.00000E+00         0.00000E+00        -0.49270E+08
 
   -0.49215E+08         0.47564E+06         0.00000E+00
    0.47564E+06        -0.49884E+08         0.00000E+00
    0.00000E+00         0.00000E+00        -0.49270E+08
 
   -0.49224E+08         0.48510E+06         0.00000E+00
    0.48510E+06        -0.49879E+08         0.00000E+00
    0.00000E+00         0.00000E+00        -0.49270E+08
 
   -0.49234E+08         0.49450E+06         0.00000E+00
    0.49450E+06        -0.49874E+08         0.00000E+00
    0.00000E+00         0.00000E+00        -0.49270E+08
 
   -0.49245E+08         0.50384E+06         0.00000E+00
    0.50384E+06        -0.49869E+08         0.00000E+00
    0.00000E+00         0.00000E+00        -0.49270E+08
 
   -0.49255E+08         0.51311E+06         0.00000E+00
    0.51311E+06        -0.49864E+08         0.00000E+00
    0.00000E+00         0.00000E+00        -0.49270E+08
 
   -0.49265E+08         0.52232E+06         0.00000E+00
    0.52232E+06        -0.49859E+08         0.00000E+00
    0.00000E+00         0.00000E+00        -0.49270E+08
 
   -0.48854E+08         0.63145E+04         0.00000E+00
    0.63145E+04        -0.50000E+08         0.00000E+00
    0.00000E+00         0.00000E+00        -0.49220E+08
 
   -0.48858E+08         0.18777E+05         0.00000E+00
    0.18777E+05        -0.50000E+08         0.00000E+00
    0.00000E+00         0.00000E+00        -0.49220E+08
 
   -0.48861E+08         0.31180E+05         0.00000E+00
    0.31180E+05        -0.50000E+08         0.00000E+00
    0.00000E+00         0.00000E+00        -0.49220E+08
 
   -0.48865E+08         0.43523E+05         0.00000E+00
    0.43523E+05        -0.49999E+08         0.00000E+00
    0.00000E+00         0.00000E+00        -0.49220E+08
 
   -0.48869E+08         0.55808E+05         0.00000E+00
    0.55808E+05        -0.49999E+08         0.00000E+00
    0.00000E+00         0.00000E+00        -0.49220E+08
 
   -0.48873E+08         0.68033E+05         0.00000E+00
    0.68033E+05        -0.49998E+08         0.00000E+00
    0.00000E+00         0.00000E+00        -0.49220E+08
 
   -0.48878E+08         0.80201E+05         0.00000E+00
    0.80201E+05        -0.49997E+08         0.00000E+00
    0.00000E+00         0.00000E+00        -0.49220E+08
 
   -0.48882E+08         0.92310E+05         0.00000E+00
    0.92310E+05        -0.49996E+08         0.00000E+00
    0.00000E+00         0.00000E+00        -0.49220E+08
 
   -0.48887E+08         0.10436E+06         0.00000E+00
    0.10436E+06        -0.49995E+08         0.00000E+00
    0.00000E+00         0.00000E+00        -0.49220E+08
 
   -0.48892E+08         0.11636E+06         0.00000E+00
    0.11636E+06        -0.49994E+08         0.00000E+00
    0.00000E+00         0.00000E+00        -0.49220E+08
 
   -0.48897E+08         0.12829E+06         0.00000E+00
    0.12829E+06        -0.49993E+08         0.00000E+00
    0.00000E+00         0.00000E+00        -0.49220E+08
 
   -0.48902E+08         0.14017E+06         0.00000E+00
    0.14017E+06        -0.49991E+08         0.00000E+00
    0.00000E+00         0.00000E+00        -0.49221E+08
 
   -0.48908E+08         0.15200E+06         0.00000E+00
    0.15200E+06        -0.49990E+08         0.00000E+00
    0.00000E+00         0.00000E+00        -0.49221E+08
 
   -0.48913E+08         0.16377E+06         0.00000E+00
    0.16377E+06        -0.49988E+08         0.00000E+00
    0.00000E+00         0.00000E+00        -0.49221E+08
 
   -0.48919E+08         0.17548E+06         0.00000E+00
    0.17548E+06        -0.49986E+08         0.00000E+00
    0.00000E+00         0.00000E+00        -0.49221E+08
 
   -0.48925E+08         0.18713E+06         0.00000E+00
    0.18713E+06        -0.49985E+08         0.00000E+00
    0.00000E+00         0.00000E+00        -0.49221E+08
 
   -0.48931E+08         0.19873E+06         0.00000E+00
    0.19873E+06        -0.49982E+08         0.00000E+00
    0.00000E+00         0.00000E+00        -0.49221E+08
 
   -0.48938E+08         0.21027E+06         0.00000E+00
    0.21027E+06        -0.49980E+08         0.00000E+00
    0.00000E+00         0.00000E+00        -0.49221E+08
 
   -0.48944E+08         0.22176E+06         0.00000E+00
    0.22176E+06        -0.49978E+08         0.00000E+00
    0.00000E+00         0.00000E+00        -0.49221E+08
 
   -0.48951E+08         0.23319E+06         0.00000E+00
    0.23319E+06        -0.49976E+08         0.00000E+00
    0.00000E+00         0.00000E+00        -0.49221E+08
 
   -0.48958E+08         0.24457E+06         0.00000E+00
    0.24457E+06        -0.49973E+08         0.00000E+00
    0.00000E+00         0.00000E+00        -0.49221E+08
 
   -0.48965E+08         0.25589E+06         0.00000E+00
    0.25589E+06        -0.49971E+08         0.00000E+00
    0.00000E+00         0.00000E+00        -0.49221E+08
 
   -0.48972E+08         0.26715E+06         0.00000E+00
    0.26715E+06        -0.49968E+08         0.00000E+00
    0.00000E+00         0.00000E+00        -0.49222E+08
 
   -0.48979E+08         0.27835E+06         0.00000E+00
    0.27835E+06        -0.49965E+08         0.00000E+00
    0.00000E+00         0.00000E+00        -0.49222E+08
 
   -0.48987E+08         0.28950E+06         0.00000E+00
    0.28950E+06        -0.49962E+08         0.00000E+00
    0.00000E+00         0.00000E+00        -0.49222E+08
 
   -0.48994E+08         0.30059E+06         0.00000E+00
    0.30059E+06        -0.49959E+08         0.00000E+00
    0.00000E+00         0.00000E+00        -0.49222E+08
 
   -0.49002E+08         0.31163E+06         0.00000E+00
    0.31163E+06        -0.49956E+08         0.00000E+00
    0.00000E+00         0.00000E+00        -0.49222E+08
 
   -0.49010E+08         0.32261E+06         0.00000E+00
    0.32261E+06        -0.49952E+08         0.00000E+00
    0.00000E+00         0.00000E+00        -0.49222E+08
 
   -0.49018E+08         0.33353E+06         0.00000E+00
    0.33353E+06        -0.49949E+08         0.00000E+00
    0.00000E+00         0.00000E+00        -0.49222E+08
 
   -0.49026E+08         0.34439E+06         0.00000E+00
    0.34439E+06        -0.49946E+08         0.00000E+00
    0.00000E+00         0.00000E+00        -0.49222E+08
 
   -0.49035E+08         0.35519E+06         0.00000E+00
    0.35519E+06        -0.49942E+08         0.00000E+00
    0.00000E+00         0.00000E+00        -0.49222E+08
 
   -0.49043E+08         0.36593E+06         0.00000E+00
    0.36593E+06        -0.49938E+08         0.00000E+00
    0.00000E+00         0.00000E+00        -0.49223E+08
 
   -0.49052E+08         0.37662E+06         0.00000E+00
    0.37662E+06        -0.49934E+08         0.00000E+00
    0.00000E+00         0.00000E+00        -0.49223E+08
 
   -0.49061E+08         0.38724E+06         0.00000E+00
    0.38724E+06        -0.49931E+08         0.00000E+00
    0.00000E+00         0.00000E+00        -0.49223E+08
 
   -0.49070E+08         0.39781E+06         0.00000E+00
    0.39781E+06        -0.49927E+08         0.00000E+00
    0.00000E+00         0.00000E+00        -0.49223E+08
 
   -0.49079E+08         0.40831E+06         0.00000E+00
    0.40831E+06        -0.49922E+08         0.00000E+00
    0.00000E+00         0.00000E+00        -0.49223E+08
 
   -0.49088E+08         0.41875E+06         0.00000E+00
    0.41875E+06        -0.49918E+08         0.00000E+00
    0.00000E+00         0.00000E+00        -0.49223E+08
 
   -0.49097E+08         0.42913E+06         0.00000E+00
    0.42913E+06        -0.49914E+08         0.00000E+00
    0.00000E+00         0.00000E+00        -0.49223E+08
 
   -0.49107E+08         0.43944E+06         0.00000E+00
    0.43944E+06        -0.49910E+08         0.00000E+00
    0.00000E+00         0.00000E+00        -0.49223E+08
 
   -0.49116E+08         0.44969E+06         0.00000E+00
    0.44969E+06        -0.49905E+08         0.00000E+00
    0.00000E+00         0.00000E+00        -0.49223E+08
 
   -0.49126E+08         0.45988E+06         0.00000E+00
    0.45988E+06        -0.49901E+08         0.00000E+00
    0.00000E+00         0.00000E+00        -0.49223E+08
 
   -0.49136E+08         0.47000E+06         0.00000E+00
    0.47000E+06        -0.49896E+08         0.00000E+00
    0.00000E+00         0.00000E+00        -0.49223E+08
 
   -0.49146E+08         0.48006E+06         0.00000E+00
    0.48006E+06        -0.49891E+08         0.00000E+00
    0.00000E+00         0.00000E+00        -0.49223E+08
 
   -0.49156E+08         0.49005E+06         0.00000E+00
    0.49005E+06        -0.49886E+08         0.00000E+00
    0.00000E+00         0.00000E+00        -0.49223E+08
 
   -0.49166E+08         0.49997E+06         0.00000E+00
    0.49997E+06        -0.49882E+08         0.00000E+00
    0.00000E+00         0.00000E+00        -0.49224E+08
 
   -0.49176E+08         0.50982E+06         0.00000E+00
    0.50982E+06        -0.49877E+08         0.00000E+00
    0.00000E+00         0.00000E+00        -0.49224E+08
 
   -0.49187E+08         0.51961E+06         0.00000E+00
    0.51961E+06        -0.49871E+08         0.00000E+00
    0.00000E+00         0.00000E+00        -0.49224E+08
 
   -0.49197E+08         0.52932E+06         0.00000E+00
    0.52932E+06        -0.49866E+08         0.00000E+00
    0.00000E+00         0.00000E+00        -0.49224E+08
 
   -0.49208E+08         0.53897E+06         0.00000E+00
    0.53897E+06        -0.49861E+08         0.00000E+00
    0.00000E+00         0.00000E+00        -0.49224E+08
 
   -0.49218E+08         0.54854E+06         0.00000E+00
    0.54854E+06        -0.49856E+08         0.00000E+00
    0.00000E+00         0.00000E+00        -0.49224E+08
 
   -0.48790E+08         0.66451E+04         0.00000E+00
    0.66451E+04        -0.50000E+08         0.00000E+00
    0.00000E+00         0.00000E+00        -0.49172E+08
 
   -0.48794E+08         0.19767E+05         0.00000E+00
    0.19767E+05        -0.50000E+08         0.00000E+00
    0.00000E+00         0.00000E+00        -0.49172E+08
 
   -0.48798E+08         0.32827E+05         0.00000E+00
    0.32827E+05        -0.50000E+08         0.00000E+00
    0.00000E+00         0.00000E+00        -0.49172E+08
 
   -0.48802E+08         0.45826E+05         0.00000E+00
    0.45826E+05        -0.49999E+08         0.00000E+00
    0.00000E+00         0.00000E+00        -0.49172E+08
 
   -0.48806E+08         0.58765E+05         0.00000E+00
    0.58765E+05        -0.49999E+08         0.00000E+00
    0.00000E+00         0.00000E+00        -0.49172E+08
 
   -0.48811E+08         0.71642E+05         0.00000E+00
    0.71642E+05        -0.49998E+08         0.00000E+00
    0.00000E+00         0.00000E+00        -0.49172E+08
 
   -0.48815E+08         0.84458E+05         0.00000E+00
    0.84458E+05        -0.49997E+08         0.00000E+00
    0.00000E+00         0.00000E+00        -0.49172E+08
 
   -0.48820E+08         0.97214E+05         0.00000E+00
    0.97214E+05        -0.49996E+08         0.00000E+00
    0.00000E+00         0.00000E+00        -0.49172E+08
 
   -0.48825E+08         0.10991E+06         0.00000E+00
    0.10991E+06        -0.49995E+08         0.00000E+00
    0.00000E+00         0.00000E+00        -0.49172E+08
 
   -0.48830E+08         0.12254E+06         0.00000E+00
    0.12254E+06        -0.49994E+08         0.00000E+00
    0.00000E+00         0.00000E+00        -0.49172E+08
 
   -0.48836E+08         0.13512E+06         0.00000E+00
    0.13512E+06        -0.49993E+08         0.00000E+00
    0.00000E+00         0.00000E+00        -0.49172E+08
 
   -0.48841E+08         0.14763E+06         0.00000E+00
    0.14763E+06        -0.49991E+08         0.00000E+00
    0.00000E+00         0.00000E+00        -0.49172E+08
 
   -0.48847E+08         0.16008E+06         0.00000E+00
    0.16008E+06        -0.49990E+08         0.00000E+00
    0.00000E+00         0.00000E+00        -0.49172E+08
 
   -0.48853E+08         0.17247E+06         0.00000E+00
    0.17247E+06        -0.49988E+08         0.00000E+00
    0.00000E+00         0.00000E+00        -0.49172E+08
 
   -0.48859E+08         0.18480E+06         0.00000E+00
    0.18480E+06        -0.49986E+08         0.00000E+00
    0.00000E+00         0.00000E+00        -0.49172E+08
 
   -0.48865E+08         0.19707E+06         0.00000E+00
    0.19707E+06        -0.49984E+08         0.00000E+00
    0.00000E+00         0.00000E+00        -0.49172E+08
 
   -0.48872E+08         0.20928E+06         0.00000E+00
    0.20928E+06        -0.49982E+08         0.00000E+00
    0.00000E+00         0.00000E+00        -0.49172E+08
 
   -0.48878E+08         0.22143E+06         0.00000E+00
    0.22143E+06        -0.49980E+08         0.00000E+00
    0.00000E+00         0.00000E+00        -0.49173E+08
 
   -0.48885E+08         0.23351E+06         0.00000E+00
    0.23351E+06        -0.49978E+08         0.00000E+00
    0.00000E+00         0.00000E+00        -0.49173E+08
 
   -0.48892E+08         0.24554E+06         0.00000E+00
    0.24554E+06        -0.49975E+08         0.00000E+00
    0.00000E+00         0.00000E+00        -0.49173E+08
 
   -0.48899E+08         0.25750E+06         0.00000E+00
    0.25750E+06        -0.49973E+08         0.00000E+00
    0.00000E+00         0.00000E+00        -0.49173E+08
 
   -0.48907E+08         0.26940E+06         0.00000E+00
    0.26940E+06        -0.49970E+08         0.00000E+00
    0.00000E+00         0.00000E+00        -0.49173E+08
 
   -0.48914E+08         0.28124E+06         0.00000E+00
    0.28124E+06        -0.49967E+08         0.00000E+00
    0.00000E+00         0.00000E+00        -0.49173E+08
 
   -0.48922E+08         0.29302E+06         0.00000E+00
    0.29302E+06        -0.49964E+08         0.00000E+00
    0.00000E+00         0.00000E+00        -0.49173E+08
 
   -0.48930E+08         0.30473E+06         0.00000E+00
    0.30473E+06        -0.49961E+08         0.00000E+00
    0.00000E+00         0.00000E+00        -0.49173E+08
 
   -0.48938E+08         0.31638E+06         0.00000E+00
    0.31638E+06        -0.49958E+08         0.00000E+00
    0.00000E+00         0.00000E+00        -0.49173E+08
 
   -0.48946E+08         0.32796E+06         0.00000E+00
    0.32796E+06        -0.49955E+08         0.00000E+00
    0.00000E+00         0.00000E+00        -0.49173E+08
 
   -0.48954E+08         0.33949E+06         0.00000E+00
    0.33949E+06        -0.49952E+08         0.00000E+00
    0.00000E+00         0.00000E+00        -0.49174E+08
 
   -0.48962E+08         0.35094E+06         0.00000E+00
    0.35094E+06        -0.49948E+08         0.00000E+00
    0.00000E+00         0.00000E+00        -0.49174E+08
 
   -0.48971E+08         0.36234E+06         0.00000E+00
    0.36234E+06        -0.49944E+08         0.00000E+00
    0.00000E+00         0.00000E+00        -0.49174E+08
 
   -0.48980E+08         0.37366E+06         0.00000E+00
    0.37366E+06        -0.49941E+08         0.00000E+00
    0.00000E+00         0.00000E+00        -0.49174E+08
 
   -0.48989E+08         0.38493E+06         0.00000E+00
    0.38493E+06        -0.49937E+08         0.00000E+00
    0.00000E+00         0.00000E+00        -0.49174E+08
 
   -0.48998E+08         0.39612E+06         0.00000E+00
    0.39612E+06        -0.49933E+08         0.00000E+00
    0.00000E+00         0.00000E+00        -0.49174E+08
 
   -0.49007E+08         0.40725E+06         0.00000E+00
    0.40725E+06        -0.49929E+08         0.00000E+00
    0.00000E+00         0.00000E+00        -0.49174E+08
 
   -0.49016E+08         0.41831E+06         0.00000E+00
    0.41831E+06        -0.49925E+08         0.00000E+00
    0.00000E+00         0.00000E+00        -0.49174E+08
 
   -0.49025E+08         0.42930E+06         0.00000E+00
    0.42930E+06        -0.49921E+08         0.00000E+00
    0.00000E+00         0.00000E+00        -0.49174E+08
 
   -0.49035E+08         0.44023E+06         0.00000E+00
    0.44023E+06        -0.49916E+08         0.00000E+00
    0.00000E+00         0.00000E+00        -0.49175E+08
 
   -0.49045E+08         0.45108E+06         0.00000E+00
    0.45108E+06        -0.49912E+08         0.00000E+00
    0.00000E+00         0.00000E+00        -0.49175E+08
 
   -0.49054E+08         0.46186E+06         0.00000E+00
    0.46186E+06        -0.49908E+08         0.00000E+00
    0.00000E+00         0.00000E+00        -0.49175E+08
 
   -0.49064E+08         0.47258E+06         0.00000E+00
    0.47258E+06        -0.49903E+08         0.00000E+00
    0.00000E+00         0.00000E+00        -0.49175E+08
 
   -0.49074E+08         0.48322E+06         0.00000E+00
    0.48322E+06        -0.49898E+08         0.00000E+00
    0.00000E+00         0.00000E+00        -0.49175E+08
 
   -0.49084E+08         0.49379E+06         0.00000E+00
    0.49379E+06        -0.49894E+08         0.00000E+00
    0.00000E+00         0.00000E+00        -0.49175E+08
 
   -0.49095E+08         0.50429E+06         0.00000E+00
    0.50429E+06        -0.49889E+08         0.00000E+00
    0.00000E+00         0.00000E+00        -0.49175E+08
 
   -0.49105E+08         0.51471E+06         0.00000E+00
    0.51471E+06        -0.49884E+08         0.00000E+00
    0.00000E+00         0.00000E+00        -0.49175E+08
 
   -0.49116E+08         0.52506E+06         0.00000E+00
    0.52506E+06        -0.49879E+08         0.00000E+00
    0.00000E+00         0.00000E+00        -0.49175E+08
 
   -0.49126E+08         0.53533E+06         0.00000E+00
    0.53533E+06        -0.49873E+08         0.00000E+00
    0.00000E+00         0.00000E+00        -0.49175E+08
 
   -0.49137E+08         0.54553E+06         0.00000E+00
    0.54553E+06        -0.49868E+08         0.00000E+00
    0.00000E+00         0.00000E+00        -0.49175E+08
 
   -0.49148E+08         0.55565E+06         0.00000E+00
    0.55565E+06        -0.49863E+08         0.00000E+00
    0.00000E+00         0.00000E+00        -0.49175E+08
 
   -0.49159E+08         0.56569E+06         0.00000E+00
    0.56569E+06        -0.49858E+08         0.00000E+00
    0.00000E+00         0.00000E+00        -0.49175E+08
 
   -0.49170E+08         0.57566E+06         0.00000E+00
    0.57566E+06        -0.49852E+08         0.00000E+00
    0.00000E+00         0.00000E+00        -0.49175E+08
 
   -0.48723E+08         0.69814E+04         0.00000E+00
    0.69814E+04        -0.50000E+08         0.00000E+00
    0.00000E+00         0.00000E+00        -0.49121E+08
 
   -0.48727E+08         0.20773E+05         0.00000E+00
    0.20773E+05        -0.50000E+08         0.00000E+00
    0.00000E+00         0.00000E+00        -0.49121E+08
 
   -0.48731E+08         0.34503E+05         0.00000E+00
    0.34503E+05        -0.50000E+08         0.00000E+00
    0.00000E+00         0.00000E+00        -0.49121E+08
 
   -0.48735E+08         0.48170E+05         0.00000E+00
    0.48170E+05        -0.49999E+08         0.00000E+00
    0.00000E+00         0.00000E+00        -0.49121E+08
 
   -0.48740E+08         0.61774E+05         0.00000E+00
    0.61774E+05        -0.49999E+08         0.00000E+00
    0.00000E+00         0.00000E+00        -0.49121E+08
 
   -0.48745E+08         0.75316E+05         0.00000E+00
    0.75316E+05        -0.49998E+08         0.00000E+00
    0.00000E+00         0.00000E+00        -0.49121E+08
 
   -0.48750E+08         0.88794E+05         0.00000E+00
    0.88794E+05        -0.49997E+08         0.00000E+00
    0.00000E+00         0.00000E+00        -0.49121E+08
 
   -0.48755E+08         0.10221E+06         0.00000E+00
    0.10221E+06        -0.49996E+08         0.00000E+00
    0.00000E+00         0.00000E+00        -0.49121E+08
 
   -0.48760E+08         0.11556E+06         0.00000E+00
    0.11556E+06        -0.49995E+08         0.00000E+00
    0.00000E+00         0.00000E+00        -0.49121E+08
 
   -0.48766E+08         0.12885E+06         0.00000E+00
    0.12885E+06        -0.49994E+08         0.00000E+00
    0.00000E+00         0.00000E+00        -0.49121E+08
 
   -0.48771E+08         0.14207E+06         0.00000E+00
    0.14207E+06        -0.49993E+08         0.00000E+00
    0.00000E+00         0.00000E+00        -0.49121E+08
 
   -0.48777E+08         0.15523E+06         0.00000E+00
    0.15523E+06        -0.49991E+08         0.00000E+00
    0.00000E+00         0.00000E+00        -0.49121E+08
 
   -0.48783E+08         0.16832E+06         0.00000E+00
    0.16832E+06        -0.49989E+08         0.00000E+00
    0.00000E+00         0.00000E+00        -0.49122E+08
 
   -0.48790E+08         0.18135E+06         0.00000E+00
    0.18135E+06        -0.49988E+08         0.00000E+00
    0.00000E+00         0.00000E+00        -0.49122E+08
 
   -0.48796E+08         0.19432E+06         0.00000E+00
    0.19432E+06        -0.49986E+08         0.00000E+00
    0.00000E+00         0.00000E+00        -0.49122E+08
 
   -0.48803E+08         0.20722E+06         0.00000E+00
    0.20722E+06        -0.49984E+08         0.00000E+00
    0.00000E+00         0.00000E+00        -0.49122E+08
 
   -0.48809E+08         0.22005E+06         0.00000E+00
    0.22005E+06        -0.49982E+08         0.00000E+00
    0.00000E+00         0.00000E+00        -0.49122E+08
 
   -0.48816E+08         0.23282E+06         0.00000E+00
    0.23282E+06        -0.49980E+08         0.00000E+00
    0.00000E+00         0.00000E+00        -0.49122E+08
 
   -0.48823E+08         0.24552E+06         0.00000E+00
    0.24552E+06        -0.49977E+08         0.00000E+00
    0.00000E+00         0.00000E+00        -0.49122E+08
 
   -0.48831E+08         0.25816E+06         0.00000E+00
    0.25816E+06        -0.49975E+08         0.00000E+00
    0.00000E+00         0.00000E+00        -0.49122E+08
 
   -0.48838E+08         0.27073E+06         0.00000E+00
    0.27073E+06        -0.49972E+08         0.00000E+00
    0.00000E+00         0.00000E+00        -0.49122E+08
 
   -0.48846E+08         0.28323E+06         0.00000E+00
    0.28323E+06        -0.49969E+08         0.00000E+00
    0.00000E+00         0.00000E+00        -0.49122E+08
 
   -0.48854E+08         0.29566E+06         0.00000E+00
    0.29566E+06        -0.49966E+08         0.00000E+00
    0.00000E+00         0.00000E+00        -0.49123E+08
 
   -0.48862E+08         0.30802E+06         0.00000E+00
    0.30802E+06        -0.49963E+08         0.00000E+00
    0.00000E+00         0.00000E+00        -0.49123E+08
 
   -0.48870E+08         0.32032E+06         0.00000E+00
    0.32032E+06        -0.49960E+08         0.00000E+00
    0.00000E+00         0.00000E+00        -0.49123E+08
 
   -0.48878E+08         0.33255E+06         0.00000E+00
    0.33255E+06        -0.49957E+08         0.00000E+00
    0.00000E+00         0.00000E+00        -0.49123E+08
 
   -0.48887E+08         0.34471E+06         0.00000E+00
    0.34471E+06        -0.49954E+08         0.00000E+00
    0.00000E+00         0.00000E+00        -0.49123E+08
 
   -0.48895E+08         0.35679E+06         0.00000E+00
    0.35679E+06        -0.49950E+08         0.00000E+00
    0.00000E+00         0.00000E+00        -0.49123E+08
 
   -0.48904E+08         0.36881E+06         0.00000E+00
    0.36881E+06        -0.49947E+08         0.00000E+00
    0.00000E+00         0.00000E+00        -0.49123E+08
 
   -0.48913E+08         0.38076E+06         0.00000E+00
    0.38076E+06        -0.49943E+08         0.00000E+00
    0.00000E+00         0.00000E+00        -0.49123E+08
 
   -0.48922E+08         0.39263E+06         0.00000E+00
    0.39263E+06        -0.49939E+08         0.00000E+00
    0.00000E+00         0.00000E+00        -0.49123E+08
 
   -0.48931E+08         0.40443E+06         0.00000E+00
    0.40443E+06        -0.49935E+08         0.00000E+00
    0.00000E+00         0.00000E+00        -0.49124E+08
 
   -0.48940E+08         0.41616E+06         0.00000E+00
    0.41616E+06        -0.49931E+08         0.00000E+00
    0.00000E+00         0.00000E+00        -0.49124E+08
 
   -0.48950E+08         0.42782E+06         0.00000E+00
    0.42782E+06        -0.49927E+08         0.00000E+00
    0.00000E+00         0.00000E+00        -0.49124E+08
 
   -0.48960E+08         0.43940E+06         0.00000E+00
    0.43940E+06        -0.49923E+08         0.00000E+00
    0.00000E+00         0.00000E+00        -0.49124E+08
 
   -0.48969E+08         0.45091E+06         0.00000E+00
    0.45091E+06        -0.49919E+08         0.00000E+00
    0.00000E+00         0.00000E+00        -0.49124E+08
 
   -0.48979E+08         0.46234E+06         0.00000E+00
    0.46234E+06        -0.49914E+08         0.00000E+00
    0.00000E+00         0.00000E+00        -0.49124E+08
 
   -0.48989E+08         0.47370E+06         0.00000E+00
    0.47370E+06        -0.49910E+08         0.00000E+00
    0.00000E+00         0.00000E+00        -0.49124E+08
 
   -0.48999E+08         0.48497E+06         0.00000E+00
    0.48497E+06        -0.49905E+08         0.00000E+00
    0.00000E+00         0.00000E+00        -0.49124E+08
 
   -0.49010E+08         0.49618E+06         0.00000E+00
    0.49618E+06        -0.49900E+08         0.00000E+00
    0.00000E+00         0.00000E+00        -0.49124E+08
 
   -0.49020E+08         0.50730E+06         0.00000E+00
    0.50730E+06        -0.49896E+08         0.00000E+00
    0.00000E+00         0.00000E+00        -0.49124E+08
 
   -0.49031E+08         0.51834E+06         0.00000E+00
    0.51834E+06        -0.49891E+08         0.00000E+00
    0.00000E+00         0.00000E+00        -0.49124E+08
 
   -0.49041E+08         0.52931E+06         0.00000E+00
    0.52931E+06        -0.49886E+08         0.00000E+00
    0.00000E+00         0.00000E+00        -0.49125E+08
 
   -0.49052E+08         0.54019E+06         0.00000E+00
    0.54019E+06        -0.49880E+08         0.00000E+00
    0.00000E+00         0.00000E+00        -0.49125E+08
 
   -0.49063E+08         0.55099E+06         0.00000E+00
    0.55099E+06        -0.49875E+08         0.00000E+00
    0.00000E+00         0.00000E+00        -0.49125E+08
 
   -0.49074E+08         0.56171E+06         0.00000E+00
    0.56171E+06        -0.49870E+08         0.00000E+00
    0.00000E+00         0.00000E+00        -0.49125E+08
 
   -0.49085E+08         0.57235E+06         0.00000E+00
    0.57235E+06        -0.49864E+08         0.00000E+00
    0.00000E+00         0.00000E+00        -0.49125E+08
 
   -0.49096E+08         0.58290E+06         0.00000E+00
    0.58290E+06        -0.49859E+08         0.00000E+00
    0.00000E+00         0.00000E+00        -0.49125E+08
 
   -0.49108E+08         0.59337E+06         0.00000E+00
    0.59337E+06        -0.49853E+08         0.00000E+00
    0.00000E+00         0.00000E+00        -0.49125E+08
 
   -0.49119E+08         0.60375E+06         0.00000E+00
    0.60375E+06        -0.49848E+08         0.00000E+00
    0.00000E+00         0.00000E+00        -0.49125E+08
 
   -0.48652E+08         0.73256E+04         0.00000E+00
    0.73256E+04        -0.50000E+08         0.00000E+00
    0.00000E+00         0.00000E+00        -0.49068E+08
 
   -0.48656E+08         0.21804E+05         0.00000E+00
    0.21804E+05        -0.50000E+08         0.00000E+00
    0.00000E+00         0.00000E+00        -0.49068E+08
 
   -0.48661E+08         0.36218E+05         0.00000E+00
    0.36218E+05        -0.50000E+08         0.00000E+00
    0.00000E+00         0.00000E+00        -0.49068E+08
 
   -0.48665E+08         0.50569E+05         0.00000E+00
    0.50569E+05        -0.49999E+08         0.00000E+00
    0.00000E+00         0.00000E+00        -0.49068E+08
 
   -0.48670E+08         0.64855E+05         0.00000E+00
    0.64855E+05        -0.49999E+08         0.00000E+00
    0.00000E+00         0.00000E+00        -0.49068E+08
 
   -0.48675E+08         0.79076E+05         0.00000E+00
    0.79076E+05        -0.49998E+08         0.00000E+00
    0.00000E+00         0.00000E+00        -0.49068E+08
 
   -0.48681E+08         0.93232E+05         0.00000E+00
    0.93232E+05        -0.49997E+08         0.00000E+00
    0.00000E+00         0.00000E+00        -0.49068E+08
 
   -0.48686E+08         0.10732E+06         0.00000E+00
    0.10732E+06        -0.49996E+08         0.00000E+00
    0.00000E+00         0.00000E+00        -0.49069E+08
 
   -0.48692E+08         0.12135E+06         0.00000E+00
    0.12135E+06        -0.49995E+08         0.00000E+00
    0.00000E+00         0.00000E+00        -0.49069E+08
 
   -0.48698E+08         0.13530E+06         0.00000E+00
    0.13530E+06        -0.49994E+08         0.00000E+00
    0.00000E+00         0.00000E+00        -0.49069E+08
 
   -0.48704E+08         0.14919E+06         0.00000E+00
    0.14919E+06        -0.49992E+08         0.00000E+00
    0.00000E+00         0.00000E+00        -0.49069E+08
 
   -0.48710E+08         0.16301E+06         0.00000E+00
    0.16301E+06        -0.49991E+08         0.00000E+00
    0.00000E+00         0.00000E+00        -0.49069E+08
 
   -0.48716E+08         0.17677E+06         0.00000E+00
    0.17677E+06        -0.49989E+08         0.00000E+00
    0.00000E+00         0.00000E+00        -0.49069E+08
 
   -0.48723E+08         0.19046E+06         0.00000E+00
    0.19046E+06        -0.49987E+08         0.00000E+00
    0.00000E+00         0.00000E+00        -0.49069E+08
 
   -0.48730E+08         0.20407E+06         0.00000E+00
    0.20407E+06        -0.49986E+08         0.00000E+00
    0.00000E+00         0.00000E+00        -0.49069E+08
 
   -0.48737E+08         0.21762E+06         0.00000E+00
    0.21762E+06        -0.49983E+08         0.00000E+00
    0.00000E+00         0.00000E+00        -0.49069E+08
 
   -0.48744E+08         0.23110E+06         0.00000E+00
    0.23110E+06        -0.49981E+08         0.00000E+00
    0.00000E+00         0.00000E+00        -0.49069E+08
 
   -0.48751E+08         0.24451E+06         0.00000E+00
    0.24451E+06        -0.49979E+08         0.00000E+00
    0.00000E+00         0.00000E+00        -0.49069E+08
 
   -0.48759E+08         0.25784E+06         0.00000E+00
    0.25784E+06        -0.49977E+08         0.00000E+00
    0.00000E+00         0.00000E+00        -0.49069E+08
 
   -0.48766E+08         0.27111E+06         0.00000E+00
    0.27111E+06        -0.49974E+08         0.00000E+00
    0.00000E+00         0.00000E+00        -0.49070E+08
 
   -0.48774E+08         0.28430E+06         0.00000E+00
    0.28430E+06        -0.49971E+08         0.00000E+00
    0.00000E+00         0.00000E+00        -0.49070E+08
 
   -0.48782E+08         0.29742E+06         0.00000E+00
    0.29742E+06        -0.49968E+08         0.00000E+00
    0.00000E+00         0.00000E+00        -0.49070E+08
 
   -0.48790E+08         0.31047E+06         0.00000E+00
    0.31047E+06        -0.49966E+08         0.00000E+00
    0.00000E+00         0.00000E+00        -0.49070E+08
 
   -0.48799E+08         0.32345E+06         0.00000E+00
    0.32345E+06        -0.49962E+08         0.00000E+00
    0.00000E+00         0.00000E+00        -0.49070E+08
 
   -0.48807E+08         0.33635E+06         0.00000E+00
    0.33635E+06        -0.49959E+08         0.00000E+00
    0.00000E+00         0.00000E+00        -0.49070E+08
 
   -0.48816E+08         0.34918E+06         0.00000E+00
    0.34918E+06        -0.49956E+08         0.00000E+00
    0.00000E+00         0.00000E+00        -0.49070E+08
 
   -0.48824E+08         0.36193E+06         0.00000E+00
    0.36193E+06        -0.49953E+08         0.00000E+00
    0.00000E+00         0.00000E+00        -0.49070E+08
 
   -0.48833E+08         0.37460E+06         0.00000E+00
    0.37460E+06        -0.49949E+08         0.00000E+00
    0.00000E+00         0.00000E+00        -0.49070E+08
 
   -0.48843E+08         0.38720E+06         0.00000E+00
    0.38720E+06        -0.49945E+08         0.00000E+00
    0.00000E+00         0.00000E+00        -0.49071E+08
 
   -0.48852E+08         0.39973E+06         0.00000E+00
    0.39973E+06        -0.49942E+08         0.00000E+00
    0.00000E+00         0.00000E+00        -0.49071E+08
 
   -0.48861E+08         0.41217E+06         0.00000E+00
    0.41217E+06        -0.49938E+08         0.00000E+00
    0.00000E+00         0.00000E+00        -0.49071E+08
 
   -0.48871E+08         0.42454E+06         0.00000E+00
    0.42454E+06        -0.49934E+08         0.00000E+00
    0.00000E+00         0.00000E+00        -0.49071E+08
 
   -0.48881E+08         0.43683E+06         0.00000E+00
    0.43683E+06        -0.49929E+08         0.00000E+00
    0.00000E+00         0.00000E+00        -0.49071E+08
 
   -0.48890E+08         0.44904E+06         0.00000E+00
    0.44904E+06        -0.49925E+08         0.00000E+00
    0.00000E+00         0.00000E+00        -0.49071E+08
 
   -0.48900E+08         0.46116E+06         0.00000E+00
    0.46116E+06        -0.49921E+08         0.00000E+00
    0.00000E+00         0.00000E+00        -0.49071E+08
 
   -0.48911E+08         0.47321E+06         0.00000E+00
    0.47321E+06        -0.49916E+08         0.00000E+00
    0.00000E+00         0.00000E+00        -0.49071E+08
 
   -0.48921E+08         0.48517E+06         0.00000E+00
    0.48517E+06        -0.49912E+08         0.00000E+00
    0.00000E+00         0.00000E+00        -0.49071E+08
 
   -0.48931E+08         0.49706E+06         0.00000E+00
    0.49706E+06        -0.49907E+08         0.00000E+00
    0.00000E+00         0.00000E+00        -0.49072E+08
 
   -0.48942E+08         0.50886E+06         0.00000E+00
    0.50886E+06        -0.49902E+08         0.00000E+00
    0.00000E+00         0.00000E+00        -0.49072E+08
 
   -0.48953E+08         0.52057E+06         0.00000E+00
    0.52057E+06        -0.49897E+08         0.00000E+00
    0.00000E+00         0.00000E+00        -0.49072E+08
 
   -0.48963E+08         0.53220E+06         0.00000E+00
    0.53220E+06        -0.49892E+08         0.00000E+00
    0.00000E+00         0.00000E+00        -0.49072E+08
 
   -0.48974E+08         0.54375E+06         0.00000E+00
    0.54375E+06        -0.49887E+08         0.00000E+00
    0.00000E+00         0.00000E+00        -0.49072E+08
 
   -0.48985E+08         0.55520E+06         0.00000E+00
    0.55520E+06        -0.49882E+08         0.00000E+00
    0.00000E+00         0.00000E+00        -0.49072E+08
 
   -0.48997E+08         0.56657E+06         0.00000E+00
    0.56657E+06        -0.49877E+08         0.00000E+00
    0.00000E+00         0.00000E+00        -0.49072E+08
 
   -0.49008E+08         0.57786E+06         0.00000E+00
    0.57786E+06        -0.49871E+08         0.00000E+00
    0.00000E+00         0.00000E+00        -0.49072E+08
 
   -0.49019E+08         0.58905E+06         0.00000E+00
    0.58905E+06        -0.49866E+08         0.00000E+00
    0.00000E+00         0.00000E+00        -0.49072E+08
 
   -0.49031E+08         0.60015E+06         0.00000E+00
    0.60015E+06        -0.49860E+08         0.00000E+00
    0.00000E+00         0.00000E+00        -0.49072E+08
 
   -0.49043E+08         0.61117E+06         0.00000E+00
    0.61117E+06        -0.49854E+08         0.00000E+00
    0.00000E+00         0.00000E+00        -0.49072E+08
 
   -0.49054E+08         0.62209E+06         0.00000E+00
    0.62209E+06        -0.49849E+08         0.00000E+00
    0.00000E+00         0.00000E+00        -0.49072E+08
 
   -0.49066E+08         0.63292E+06         0.00000E+00
    0.63292E+06        -0.49843E+08         0.00000E+00
    0.00000E+00         0.00000E+00        -0.49072E+08
 
   -0.48578E+08         0.76796E+04         0.00000E+00
    0.76796E+04        -0.50000E+08         0.00000E+00
    0.00000E+00         0.00000E+00        -0.49013E+08
 
   -0.48582E+08         0.22863E+05         0.00000E+00
    0.22863E+05        -0.50000E+08         0.00000E+00
    0.00000E+00         0.00000E+00        -0.49013E+08
 
   -0.48587E+08         0.37982E+05         0.00000E+00
    0.37982E+05        -0.50000E+08         0.00000E+00
    0.00000E+00         0.00000E+00        -0.49013E+08
 
   -0.48592E+08         0.53035E+05         0.00000E+00
    0.53035E+05        -0.49999E+08         0.00000E+00
    0.00000E+00         0.00000E+00        -0.49013E+08
 
   -0.48597E+08         0.68022E+05         0.00000E+00
    0.68022E+05        -0.49999E+08         0.00000E+00
    0.00000E+00         0.00000E+00        -0.49013E+08
 
   -0.48603E+08         0.82942E+05         0.00000E+00
    0.82942E+05        -0.49998E+08         0.00000E+00
    0.00000E+00         0.00000E+00        -0.49013E+08
 
   -0.48608E+08         0.97795E+05         0.00000E+00
    0.97795E+05        -0.49997E+08         0.00000E+00
    0.00000E+00         0.00000E+00        -0.49014E+08
 
   -0.48614E+08         0.11258E+06         0.00000E+00
    0.11258E+06        -0.49996E+08         0.00000E+00
    0.00000E+00         0.00000E+00        -0.49014E+08
 
   -0.48620E+08         0.12729E+06         0.00000E+00
    0.12729E+06        -0.49995E+08         0.00000E+00
    0.00000E+00         0.00000E+00        -0.49014E+08
 
   -0.48626E+08         0.14194E+06         0.00000E+00
    0.14194E+06        -0.49994E+08         0.00000E+00
    0.00000E+00         0.00000E+00        -0.49014E+08
 
   -0.48633E+08         0.15652E+06         0.00000E+00
    0.15652E+06        -0.49992E+08         0.00000E+00
    0.00000E+00         0.00000E+00        -0.49014E+08
 
   -0.48639E+08         0.17102E+06         0.00000E+00
    0.17102E+06        -0.49991E+08         0.00000E+00
    0.00000E+00         0.00000E+00        -0.49014E+08
 
   -0.48646E+08         0.18546E+06         0.00000E+00
    0.18546E+06        -0.49989E+08         0.00000E+00
    0.00000E+00         0.00000E+00        -0.49014E+08
 
   -0.48653E+08         0.19982E+06         0.00000E+00
    0.19982E+06        -0.49987E+08         0.00000E+00
    0.00000E+00         0.00000E+00        -0.49014E+08
 
   -0.48660E+08         0.21411E+06         0.00000E+00
    0.21411E+06        -0.49985E+08         0.00000E+00
    0.00000E+00         0.00000E+00        -0.49014E+08
 
   -0.48667E+08         0.22833E+06         0.00000E+00
    0.22833E+06        -0.49983E+08         0.00000E+00
    0.00000E+00         0.00000E+00        -0.49014E+08
 
   -0.48675E+08         0.24247E+06         0.00000E+00
    0.24247E+06        -0.49981E+08         0.00000E+00
    0.00000E+00         0.00000E+00        -0.49014E+08
 
   -0.48683E+08         0.25654E+06         0.00000E+00
    0.25654E+06        -0.49978E+08         0.00000E+00
    0.00000E+00         0.00000E+00        -0.49014E+08
 
   -0.48690E+08         0.27053E+06         0.00000E+00
    0.27053E+06        -0.49976E+08         0.00000E+00
    0.00000E+00         0.00000E+00        -0.49015E+08
 
   -0.48698E+08         0.28445E+06         0.00000E+00
    0.28445E+06        -0.49973E+08         0.00000E+00
    0.00000E+00         0.00000E+00        -0.49015E+08
 
   -0.48707E+08         0.29829E+06         0.00000E+00
    0.29829E+06        -0.49970E+08         0.00000E+00
    0.00000E+00         0.00000E+00        -0.49015E+08
 
   -0.48715E+08         0.31205E+06         0.00000E+00
    0.31205E+06        -0.49968E+08         0.00000E+00
    0.00000E+00         0.00000E+00        -0.49015E+08
 
   -0.48724E+08         0.32574E+06         0.00000E+00
    0.32574E+06        -0.49964E+08         0.00000E+00
    0.00000E+00         0.00000E+00        -0.49015E+08
 
   -0.48732E+08         0.33935E+06         0.00000E+00
    0.33935E+06        -0.49961E+08         0.00000E+00
    0.00000E+00         0.00000E+00        -0.49015E+08
 
   -0.48741E+08         0.35288E+06         0.00000E+00
    0.35288E+06        -0.49958E+08         0.00000E+00
    0.00000E+00         0.00000E+00        -0.49015E+08
 
   -0.48750E+08         0.36633E+06         0.00000E+00
    0.36633E+06        -0.49955E+08         0.00000E+00
    0.00000E+00         0.00000E+00        -0.49015E+08
 
   -0.48759E+08         0.37970E+06         0.00000E+00
    0.37970E+06        -0.49951E+08         0.00000E+00
    0.00000E+00         0.00000E+00        -0.49015E+08
 
   -0.48769E+08         0.39298E+06         0.00000E+00
    0.39298E+06        -0.49947E+08         0.00000E+00
    0.00000E+00         0.00000E+00        -0.49016E+08
 
   -0.48778E+08         0.40619E+06         0.00000E+00
    0.40619E+06        -0.49944E+08         0.00000E+00
    0.00000E+00         0.00000E+00        -0.49016E+08
 
   -0.48788E+08         0.41931E+06         0.00000E+00
    0.41931E+06        -0.49940E+08         0.00000E+00
    0.00000E+00         0.00000E+00        -0.49016E+08
 
   -0.48798E+08         0.43235E+06         0.00000E+00
    0.43235E+06        -0.49936E+08         0.00000E+00
    0.00000E+00         0.00000E+00        -0.49016E+08
 
   -0.48808E+08         0.44531E+06         0.00000E+00
    0.44531E+06        -0.49931E+08         0.00000E+00
    0.00000E+00         0.00000E+00        -0.49016E+08
 
   -0.48818E+08         0.45818E+06         0.00000E+00
    0.45818E+06        -0.49927E+08         0.00000E+00
    0.00000E+00         0.00000E+00        -0.49016E+08
 
   -0.48828E+08         0.47097E+06         0.00000E+00
    0.47097E+06        -0.49923E+08         0.00000E+00
    0.00000E+00         0.00000E+00        -0.49016E+08
 
   -0.48839E+08         0.48367E+06         0.00000E+00
    0.48367E+06        -0.49918E+08         0.00000E+00
    0.00000E+00         0.00000E+00        -0.49016E+08
 
   -0.48849E+08         0.49628E+06         0.00000E+00
    0.49628E+06        -0.49914E+08         0.00000E+00
    0.00000E+00         0.00000E+00        -0.49016E+08
 
   -0.48860E+08         0.50881E+06         0.00000E+00
    0.50881E+06        -0.49909E+08         0.00000E+00
    0.00000E+00         0.00000E+00        -0.49017E+08
 
   -0.48871E+08         0.52124E+06         0.00000E+00
    0.52124E+06        -0.49904E+08         0.00000E+00
    0.00000E+00         0.00000E+00        -0.49017E+08
 
   -0.48882E+08         0.53359E+06         0.00000E+00
    0.53359E+06        -0.49899E+08         0.00000E+00
    0.00000E+00         0.00000E+00        -0.49017E+08
 
   -0.48893E+08         0.54584E+06         0.00000E+00
    0.54584E+06        -0.49894E+08         0.00000E+00
    0.00000E+00         0.00000E+00        -0.49017E+08
 
   -0.48904E+08         0.55801E+06         0.00000E+00
    0.55801E+06        -0.49889E+08         0.00000E+00
    0.00000E+00         0.00000E+00        -0.49017E+08
 
   -0.48916E+08         0.57008E+06         0.00000E+00
    0.57008E+06        -0.49883E+08         0.00000E+00
    0.00000E+00         0.00000E+00        -0.49017E+08
 
   -0.48927E+08         0.58206E+06         0.00000E+00
    0.58206E+06        -0.49878E+08         0.00000E+00
    0.00000E+00         0.00000E+00        -0.49017E+08
 
   -0.48939E+08         0.59395E+06         0.00000E+00
    0.59395E+06        -0.49872E+08         0.00000E+00
    0.00000E+00         0.00000E+00        -0.49017E+08
 
   -0.48950E+08         0.60574E+06         0.00000E+00
    0.60574E+06        -0.49867E+08         0.00000E+00
    0.00000E+00         0.00000E+00        -0.49017E+08
 
   -0.48962E+08         0.61743E+06         0.00000E+00
    0.61743E+06        -0.49861E+08         0.00000E+00
    0.00000E+00         0.00000E+00        -0.49017E+08
 
   -0.48974E+08         0.62903E+06         0.00000E+00
    0.62903E+06        -0.49855E+08         0.00000E+00
    0.00000E+00         0.00000E+00        -0.49017E+08
 
   -0.48987E+08         0.64053E+06         0.00000E+00
    0.64053E+06        -0.49849E+08         0.00000E+00
    0.00000E+00         0.00000E+00        -0.49017E+08
 
   -0.48999E+08         0.65194E+06         0.00000E+00
    0.65194E+06        -0.49843E+08         0.00000E+00
    0.00000E+00         0.00000E+00        -0.49017E+08
 
   -0.49011E+08         0.66324E+06         0.00000E+00
    0.66324E+06        -0.49837E+08         0.00000E+00
    0.00000E+00         0.00000E+00        -0.49017E+08
 
   -0.48500E+08         0.80451E+04         0.00000E+00
    0.80451E+04        -0.50000E+08         0.00000E+00
    0.00000E+00         0.00000E+00        -0.48956E+08
 
   -0.48505E+08         0.23957E+05         0.00000E+00
    0.23957E+05        -0.50000E+08         0.00000E+00
    0.00000E+00         0.00000E+00        -0.48956E+08
 
   -0.48510E+08         0.39802E+05         0.00000E+00
    0.39802E+05        -0.50000E+08         0.00000E+00
    0.00000E+00         0.00000E+00        -0.48956E+08
 
   -0.48515E+08         0.55580E+05         0.00000E+00
    0.55580E+05        -0.49999E+08         0.00000E+00
    0.00000E+00         0.00000E+00        -0.48956E+08
 
   -0.48521E+08         0.71290E+05         0.00000E+00
    0.71290E+05        -0.49998E+08         0.00000E+00
    0.00000E+00         0.00000E+00        -0.48956E+08
 
   -0.48527E+08         0.86931E+05         0.00000E+00
    0.86931E+05        -0.49998E+08         0.00000E+00
    0.00000E+00         0.00000E+00        -0.48956E+08
 
   -0.48532E+08         0.10250E+06         0.00000E+00
    0.10250E+06        -0.49997E+08         0.00000E+00
    0.00000E+00         0.00000E+00        -0.48956E+08
 
   -0.48539E+08         0.11800E+06         0.00000E+00
    0.11800E+06        -0.49996E+08         0.00000E+00
    0.00000E+00         0.00000E+00        -0.48956E+08
 
   -0.48545E+08         0.13343E+06         0.00000E+00
    0.13343E+06        -0.49995E+08         0.00000E+00
    0.00000E+00         0.00000E+00        -0.48956E+08
 
   -0.48552E+08         0.14879E+06         0.00000E+00
    0.14879E+06        -0.49993E+08         0.00000E+00
    0.00000E+00         0.00000E+00        -0.48956E+08
 
   -0.48558E+08         0.16407E+06         0.00000E+00
    0.16407E+06        -0.49992E+08         0.00000E+00
    0.00000E+00         0.00000E+00        -0.48956E+08
 
   -0.48565E+08         0.17929E+06         0.00000E+00
    0.17929E+06        -0.49990E+08         0.00000E+00
    0.00000E+00         0.00000E+00        -0.48957E+08
 
   -0.48572E+08         0.19442E+06         0.00000E+00
    0.19442E+06        -0.49989E+08         0.00000E+00
    0.00000E+00         0.00000E+00        -0.48957E+08
 
   -0.48580E+08         0.20948E+06         0.00000E+00
    0.20948E+06        -0.49987E+08         0.00000E+00
    0.00000E+00         0.00000E+00        -0.48957E+08
 
   -0.48587E+08         0.22447E+06         0.00000E+00
    0.22447E+06        -0.49985E+08         0.00000E+00
    0.00000E+00         0.00000E+00        -0.48957E+08
 
   -0.48595E+08         0.23938E+06         0.00000E+00
    0.23938E+06        -0.49982E+08         0.00000E+00
    0.00000E+00         0.00000E+00        -0.48957E+08
 
   -0.48603E+08         0.25421E+06         0.00000E+00
    0.25421E+06        -0.49980E+08         0.00000E+00
    0.00000E+00         0.00000E+00        -0.48957E+08
 
   -0.48611E+08         0.26896E+06         0.00000E+00
    0.26896E+06        -0.49978E+08         0.00000E+00
    0.00000E+00         0.00000E+00        -0.48957E+08
 
   -0.48619E+08         0.28363E+06         0.00000E+00
    0.28363E+06        -0.49975E+08         0.00000E+00
    0.00000E+00         0.00000E+00        -0.48957E+08
 
   -0.48627E+08         0.29823E+06         0.00000E+00
    0.29823E+06        -0.49972E+08         0.00000E+00
    0.00000E+00         0.00000E+00        -0.48957E+08
 
   -0.48636E+08         0.31274E+06         0.00000E+00
    0.31274E+06        -0.49969E+08         0.00000E+00
    0.00000E+00         0.00000E+00        -0.48957E+08
 
   -0.48645E+08         0.32717E+06         0.00000E+00
    0.32717E+06        -0.49966E+08         0.00000E+00
    0.00000E+00         0.00000E+00        -0.48958E+08
 
   -0.48654E+08         0.34152E+06         0.00000E+00
    0.34152E+06        -0.49963E+08         0.00000E+00
    0.00000E+00         0.00000E+00        -0.48958E+08
 
   -0.48663E+08         0.35578E+06         0.00000E+00
    0.35578E+06        -0.49960E+08         0.00000E+00
    0.00000E+00         0.00000E+00        -0.48958E+08
 
   -0.48672E+08         0.36996E+06         0.00000E+00
    0.36996E+06        -0.49957E+08         0.00000E+00
    0.00000E+00         0.00000E+00        -0.48958E+08
 
   -0.48682E+08         0.38406E+06         0.00000E+00
    0.38406E+06        -0.49953E+08         0.00000E+00
    0.00000E+00         0.00000E+00        -0.48958E+08
 
   -0.48691E+08         0.39807E+06         0.00000E+00
    0.39807E+06        -0.49949E+08         0.00000E+00
    0.00000E+00         0.00000E+00        -0.48958E+08
 
   -0.48701E+08         0.41200E+06         0.00000E+00
    0.41200E+06        -0.49946E+08         0.00000E+00
    0.00000E+00         0.00000E+00        -0.48958E+08
 
   -0.48711E+08         0.42584E+06         0.00000E+00
    0.42584E+06        -0.49942E+08         0.00000E+00
    0.00000E+00         0.00000E+00        -0.48958E+08
 
   -0.48721E+08         0.43959E+06         0.00000E+00
    0.43959E+06        -0.49938E+08         0.00000E+00
    0.00000E+00         0.00000E+00        -0.48959E+08
 
   -0.48731E+08         0.45325E+06         0.00000E+00
    0.45325E+06        -0.49933E+08         0.00000E+00
    0.00000E+00         0.00000E+00        -0.48959E+08
 
   -0.48742E+08         0.46682E+06         0.00000E+00
    0.46682E+06        -0.49929E+08         0.00000E+00
    0.00000E+00         0.00000E+00        -0.48959E+08
 
   -0.48752E+08         0.48030E+06         0.00000E+00
    0.48030E+06        -0.49925E+08         0.00000E+00
    0.00000E+00         0.00000E+00        -0.48959E+08
 
   -0.48763E+08         0.49369E+06         0.00000E+00
    0.49369E+06        -0.49920E+08         0.00000E+00
    0.00000E+00         0.00000E+00        -0.48959E+08
 
   -0.48774E+08         0.50699E+06         0.00000E+00
    0.50699E+06        -0.49915E+08         0.00000E+00
    0.00000E+00         0.00000E+00        -0.48959E+08
 
   -0.48785E+08         0.52020E+06         0.00000E+00
    0.52020E+06        -0.49911E+08         0.00000E+00
    0.00000E+00         0.00000E+00        -0.48959E+08
 
   -0.48796E+08         0.53331E+06         0.00000E+00
    0.53331E+06        -0.49906E+08         0.00000E+00
    0.00000E+00         0.00000E+00        -0.48959E+08
 
   -0.48807E+08         0.54633E+06         0.00000E+00
    0.54633E+06        -0.49901E+08         0.00000E+00
    0.00000E+00         0.00000E+00        -0.48959E+08
 
   -0.48819E+08         0.55925E+06         0.00000E+00
    0.55925E+06        -0.49895E+08         0.00000E+00
    0.00000E+00         0.00000E+00        -0.48960E+08
 
   -0.48830E+08         0.57207E+06         0.00000E+00
    0.57207E+06        -0.49890E+08         0.00000E+00
    0.00000E+00         0.00000E+00        -0.48960E+08
 
   -0.48842E+08         0.58480E+06         0.00000E+00
    0.58480E+06        -0.49885E+08         0.00000E+00
    0.00000E+00         0.00000E+00        -0.48960E+08
 
   -0.48854E+08         0.59743E+06         0.00000E+00
    0.59743E+06        -0.49879E+08         0.00000E+00
    0.00000E+00         0.00000E+00        -0.48960E+08
 
   -0.48866E+08         0.60996E+06         0.00000E+00
    0.60996E+06        -0.49874E+08         0.00000E+00
    0.00000E+00         0.00000E+00        -0.48960E+08
 
   -0.48878E+08         0.62239E+06         0.00000E+00
    0.62239E+06        -0.49868E+08         0.00000E+00
    0.00000E+00         0.00000E+00        -0.48960E+08
 
   -0.48890E+08         0.63471E+06         0.00000E+00
    0.63471E+06        -0.49862E+08         0.00000E+00
    0.00000E+00         0.00000E+00        -0.48960E+08
 
   -0.48903E+08         0.64694E+06         0.00000E+00
    0.64694E+06        -0.49856E+08         0.00000E+00
    0.00000E+00         0.00000E+00        -0.48960E+08
 
   -0.48915E+08         0.65906E+06         0.00000E+00
    0.65906E+06        -0.49850E+08         0.00000E+00
    0.00000E+00         0.00000E+00        -0.48960E+08
 
   -0.48928E+08         0.67108E+06         0.00000E+00
    0.67108E+06        -0.49844E+08         0.00000E+00
    0.00000E+00         0.00000E+00        -0.48960E+08
 
   -0.48941E+08         0.68300E+06         0.00000E+00
    0.68300E+06        -0.49837E+08         0.00000E+00
    0.00000E+00         0.00000E+00        -0.48960E+08
 
   -0.48954E+08         0.69480E+06         0.00000E+00
    0.69480E+06        -0.49831E+08         0.00000E+00
    0.00000E+00         0.00000E+00        -0.48960E+08
 
   -0.48418E+08         0.84236E+04         0.00000E+00
    0.84236E+04        -0.50000E+08         0.00000E+00
    0.00000E+00         0.00000E+00        -0.48896E+08
 
   -0.48423E+08         0.25088E+05         0.00000E+00
    0.25088E+05        -0.50000E+08         0.00000E+00
    0.00000E+00         0.00000E+00        -0.48896E+08
 
   -0.48429E+08         0.41685E+05         0.00000E+00
    0.41685E+05        -0.50000E+08         0.00000E+00
    0.00000E+00         0.00000E+00        -0.48896E+08
 
   -0.48435E+08         0.58213E+05         0.00000E+00
    0.58213E+05        -0.49999E+08         0.00000E+00
    0.00000E+00         0.00000E+00        -0.48896E+08
 
   -0.48441E+08         0.74671E+05         0.00000E+00
    0.74671E+05        -0.49998E+08         0.00000E+00
    0.00000E+00         0.00000E+00        -0.48896E+08
 
   -0.48447E+08         0.91058E+05         0.00000E+00
    0.91058E+05        -0.49998E+08         0.00000E+00
    0.00000E+00         0.00000E+00        -0.48896E+08
 
   -0.48453E+08         0.10737E+06         0.00000E+00
    0.10737E+06        -0.49997E+08         0.00000E+00
    0.00000E+00         0.00000E+00        -0.48896E+08
 
   -0.48459E+08         0.12362E+06         0.00000E+00
    0.12362E+06        -0.49996E+08         0.00000E+00
    0.00000E+00         0.00000E+00        -0.48896E+08
 
   -0.48466E+08         0.13978E+06         0.00000E+00
    0.13978E+06        -0.49994E+08         0.00000E+00
    0.00000E+00         0.00000E+00        -0.48896E+08
 
   -0.48473E+08         0.15588E+06         0.00000E+00
    0.15588E+06        -0.49993E+08         0.00000E+00
    0.00000E+00         0.00000E+00        -0.48896E+08
 
   -0.48480E+08         0.17189E+06         0.00000E+00
    0.17189E+06        -0.49992E+08         0.00000E+00
    0.00000E+00         0.00000E+00        -0.48897E+08
 
   -0.48488E+08         0.18784E+06         0.00000E+00
    0.18784E+06        -0.49990E+08         0.00000E+00
    0.00000E+00         0.00000E+00        -0.48897E+08
 
   -0.48495E+08         0.20370E+06         0.00000E+00
    0.20370E+06        -0.49988E+08         0.00000E+00
    0.00000E+00         0.00000E+00        -0.48897E+08
 
   -0.48503E+08         0.21948E+06         0.00000E+00
    0.21948E+06        -0.49986E+08         0.00000E+00
    0.00000E+00         0.00000E+00        -0.48897E+08
 
   -0.48511E+08         0.23519E+06         0.00000E+00
    0.23519E+06        -0.49984E+08         0.00000E+00
    0.00000E+00         0.00000E+00        -0.48897E+08
 
   -0.48519E+08         0.25081E+06         0.00000E+00
    0.25081E+06        -0.49982E+08         0.00000E+00
    0.00000E+00         0.00000E+00        -0.48897E+08
 
   -0.48527E+08         0.26636E+06         0.00000E+00
    0.26636E+06        -0.49979E+08         0.00000E+00
    0.00000E+00         0.00000E+00        -0.48897E+08
 
   -0.48535E+08         0.28182E+06         0.00000E+00
    0.28182E+06        -0.49977E+08         0.00000E+00
    0.00000E+00         0.00000E+00        -0.48897E+08
 
   -0.48544E+08         0.29720E+06         0.00000E+00
    0.29720E+06        -0.49974E+08         0.00000E+00
    0.00000E+00         0.00000E+00        -0.48897E+08
 
   -0.48553E+08         0.31249E+06         0.00000E+00
    0.31249E+06        -0.49971E+08         0.00000E+00
    0.00000E+00         0.00000E+00        -0.48897E+08
 
   -0.48562E+08         0.32770E+06         0.00000E+00
    0.32770E+06        -0.49968E+08         0.00000E+00
    0.00000E+00         0.00000E+00        -0.48898E+08
 
   -0.48571E+08         0.34282E+06         0.00000E+00
    0.34282E+06        -0.49965E+08         0.00000E+00
    0.00000E+00         0.00000E+00        -0.48898E+08
 
   -0.48580E+08         0.35786E+06         0.00000E+00
    0.35786E+06        -0.49962E+08         0.00000E+00
    0.00000E+00         0.00000E+00        -0.48898E+08
 
   -0.48590E+08         0.37281E+06         0.00000E+00
    0.37281E+06        -0.49959E+08         0.00000E+00
    0.00000E+00         0.00000E+00        -0.48898E+08
 
   -0.48600E+08         0.38767E+06         0.00000E+00
    0.38767E+06        -0.49955E+08         0.00000E+00
    0.00000E+00         0.00000E+00        -0.48898E+08
 
   -0.48610E+08         0.40244E+06         0.00000E+00
    0.40244E+06        -0.49951E+08         0.00000E+00
    0.00000E+00         0.00000E+00        -0.48898E+08
 
   -0.48620E+08         0.41712E+06         0.00000E+00
    0.41712E+06        -0.49948E+08         0.00000E+00
    0.00000E+00         0.00000E+00        -0.48898E+08
 
   -0.48630E+08         0.43171E+06         0.00000E+00
    0.43171E+06        -0.49944E+08         0.00000E+00
    0.00000E+00         0.00000E+00        -0.48898E+08
 
   -0.48640E+08         0.44621E+06         0.00000E+00
    0.44621E+06        -0.49940E+08         0.00000E+00
    0.00000E+00         0.00000E+00        -0.48899E+08
 
   -0.48651E+08         0.46061E+06         0.00000E+00
    0.46061E+06        -0.49935E+08         0.00000E+00
    0.00000E+00         0.00000E+00        -0.48899E+08
 
   -0.48662E+08         0.47492E+06         0.00000E+00
    0.47492E+06        -0.49931E+08         0.00000E+00
    0.00000E+00         0.00000E+00        -0.48899E+08
 
   -0.48672E+08         0.48914E+06         0.00000E+00
    0.48914E+06        -0.49926E+08         0.00000E+00
    0.00000E+00         0.00000E+00        -0.48899E+08
 
   -0.48683E+08         0.50326E+06         0.00000E+00
    0.50326E+06        -0.49922E+08         0.00000E+00
    0.00000E+00         0.00000E+00        -0.48899E+08
 
   -0.48695E+08         0.51728E+06         0.00000E+00
    0.51728E+06        -0.49917E+08         0.00000E+00
    0.00000E+00         0.00000E+00        -0.48899E+08
 
   -0.48706E+08         0.53120E+06         0.00000E+00
    0.53120E+06        -0.49912E+08         0.00000E+00
    0.00000E+00         0.00000E+00        -0.48899E+08
 
   -0.48718E+08         0.54503E+06         0.00000E+00
    0.54503E+06        -0.49907E+08         0.00000E+00
    0.00000E+00         0.00000E+00        -0.48899E+08
 
   -0.48729E+08         0.55876E+06         0.00000E+00
    0.55876E+06        -0.49902E+08         0.00000E+00
    0.00000E+00         0.00000E+00        -0.48899E+08
 
   -0.48741E+08         0.57238E+06         0.00000E+00
    0.57238E+06        -0.49897E+08         0.00000E+00
    0.00000E+00         0.00000E+00        -0.48900E+08
 
   -0.48753E+08         0.58591E+06         0.00000E+00
    0.58591E+06        -0.49891E+08         0.00000E+00
    0.00000E+00         0.00000E+00        -0.48900E+08
 
   -0.48765E+08         0.59933E+06         0.00000E+00
    0.59933E+06        -0.49886E+08         0.00000E+00
    0.00000E+00         0.00000E+00        -0.48900E+08
 
   -0.48777E+08         0.61265E+06         0.00000E+00
    0.61265E+06        -0.49880E+08         0.00000E+00
    0.00000E+00         0.00000E+00        -0.48900E+08
 
   -0.48790E+08         0.62586E+06         0.00000E+00
    0.62586E+06        -0.49875E+08         0.00000E+00
    0.00000E+00         0.00000E+00        -0.48900E+08
 
   -0.48802E+08         0.63897E+06         0.00000E+00
    0.63897E+06        -0.49869E+08         0.00000E+00
    0.00000E+00         0.00000E+00        -0.48900E+08
 
   -0.48815E+08         0.65197E+06         0.00000E+00
    0.65197E+06        -0.49863E+08         0.00000E+00
    0.00000E+00         0.00000E+00        -0.48900E+08
 
   -0.48828E+08         0.66487E+06         0.00000E+00
    0.66487E+06        -0.49857E+08         0.00000E+00
    0.00000E+00         0.00000E+00        -0.48900E+08
 
   -0.48841E+08         0.67765E+06         0.00000E+00
    0.67765E+06        -0.49850E+08         0.00000E+00
    0.00000E+00         0.00000E+00        -0.48900E+08
 
   -0.48854E+08         0.69033E+06         0.00000E+00
    0.69033E+06        -0.49844E+08         0.00000E+00
    0.00000E+00         0.00000E+00        -0.48900E+08
 
   -0.48867E+08         0.70290E+06         0.00000E+00
    0.70290E+06        -0.49838E+08         0.00000E+00
    0.00000E+00         0.00000E+00        -0.48900E+08
 
   -0.48880E+08         0.71535E+06         0.00000E+00
    0.71535E+06        -0.49831E+08         0.00000E+00
    0.00000E+00         0.00000E+00        -0.48900E+08
 
   -0.48893E+08         0.72770E+06         0.00000E+00
    0.72770E+06        -0.49824E+08         0.00000E+00
    0.00000E+00         0.00000E+00        -0.48900E+08
 
   -0.48333E+08         0.88163E+04         0.00000E+00
    0.88163E+04        -0.50000E+08         0.00000E+00
    0.00000E+00         0.00000E+00        -0.48833E+08
 
   -0.48338E+08         0.26262E+05         0.00000E+00
    0.26262E+05        -0.50000E+08         0.00000E+00
    0.00000E+00         0.00000E+00        -0.48833E+08
 
   -0.48344E+08         0.43638E+05         0.00000E+00
    0.43638E+05        -0.49999E+08         0.00000E+00
    0.00000E+00         0.00000E+00        -0.48833E+08
 
   -0.48350E+08         0.60944E+05         0.00000E+00
    0.60944E+05        -0.49999E+08         0.00000E+00
    0.00000E+00         0.00000E+00        -0.48833E+08
 
   -0.48356E+08         0.78177E+05         0.00000E+00
    0.78177E+05        -0.49998E+08         0.00000E+00
    0.00000E+00         0.00000E+00        -0.48834E+08
 
   -0.48363E+08         0.95337E+05         0.00000E+00
    0.95337E+05        -0.49998E+08         0.00000E+00
    0.00000E+00         0.00000E+00        -0.48834E+08
 
   -0.48370E+08         0.11242E+06         0.00000E+00
    0.11242E+06        -0.49997E+08         0.00000E+00
    0.00000E+00         0.00000E+00        -0.48834E+08
 
   -0.48377E+08         0.12943E+06         0.00000E+00
    0.12943E+06        -0.49996E+08         0.00000E+00
    0.00000E+00         0.00000E+00        -0.48834E+08
 
   -0.48384E+08         0.14637E+06         0.00000E+00
    0.14637E+06        -0.49994E+08         0.00000E+00
    0.00000E+00         0.00000E+00        -0.48834E+08
 
   -0.48391E+08         0.16322E+06         0.00000E+00
    0.16322E+06        -0.49993E+08         0.00000E+00
    0.00000E+00         0.00000E+00        -0.48834E+08
 
   -0.48398E+08         0.18000E+06         0.00000E+00
    0.18000E+06        -0.49991E+08         0.00000E+00
    0.00000E+00         0.00000E+00        -0.48834E+08
 
   -0.48406E+08         0.19670E+06         0.00000E+00
    0.19670E+06        -0.49990E+08         0.00000E+00
    0.00000E+00         0.00000E+00        -0.48834E+08
 
   -0.48414E+08         0.21332E+06         0.00000E+00
    0.21332E+06        -0.49988E+08         0.00000E+00
    0.00000E+00         0.00000E+00        -0.48834E+08
 
   -0.48422E+08         0.22985E+06         0.00000E+00
    0.22985E+06        -0.49986E+08         0.00000E+00
    0.00000E+00         0.00000E+00        -0.48834E+08
 
   -0.48430E+08         0.24631E+06         0.00000E+00
    0.24631E+06        -0.49983E+08         0.00000E+00
    0.00000E+00         0.00000E+00        -0.48834E+08
 
   -0.48439E+08         0.26267E+06         0.00000E+00
    0.26267E+06        -0.49981E+08         0.00000E+00
    0.00000E+00         0.00000E+00        -0.48834E+08
 
   -0.48448E+08         0.27896E+06         0.00000E+00
    0.27896E+06        -0.49979E+08         0.00000E+00
    0.00000E+00         0.00000E+00        -0.48835E+08
 
   -0.48456E+08         0.29515E+06         0.00000E+00
    0.29515E+06        -0.49976E+08         0.00000E+00
    0.00000E+00         0.00000E+00        -0.48835E+08
 
   -0.48466E+08         0.31126E+06         0.00000E+00
    0.31126E+06        -0.49973E+08         0.00000E+00
    0.00000E+00         0.00000E+00        -0.48835E+08
 
   -0.48475E+08         0.32729E+06         0.00000E+00
    0.32729E+06        -0.49970E+08         0.00000E+00
    0.00000E+00         0.00000E+00        -0.48835E+08
 
   -0.48484E+08         0.34322E+06         0.00000E+00
    0.34322E+06        -0.49967E+08         0.00000E+00
    0.00000E+00         0.00000E+00        -0.48835E+08
 
   -0.48494E+08         0.35906E+06         0.00000E+00
    0.35906E+06        -0.49964E+08         0.00000E+00
    0.00000E+00         0.00000E+00        -0.48835E+08
 
   -0.48504E+08         0.37482E+06         0.00000E+00
    0.37482E+06        -0.49961E+08         0.00000E+00
    0.00000E+00         0.00000E+00        -0.48835E+08
 
   -0.48514E+08         0.39048E+06         0.00000E+00
    0.39048E+06        -0.49957E+08         0.00000E+00
    0.00000E+00         0.00000E+00        -0.48835E+08
 
   -0.48524E+08         0.40604E+06         0.00000E+00
    0.40604E+06        -0.49953E+08         0.00000E+00
    0.00000E+00         0.00000E+00        -0.48835E+08
 
   -0.48534E+08         0.42151E+06         0.00000E+00
    0.42151E+06        -0.49949E+08         0.00000E+00
    0.00000E+00         0.00000E+00        -0.48836E+08
 
   -0.48545E+08         0.43689E+06         0.00000E+00
    0.43689E+06        -0.49946E+08         0.00000E+00
    0.00000E+00         0.00000E+00        -0.48836E+08
 
   -0.48555E+08         0.45217E+06         0.00000E+00
    0.45217E+06        -0.49941E+08         0.00000E+00
    0.00000E+00         0.00000E+00        -0.48836E+08
 
   -0.48566E+08         0.46736E+06         0.00000E+00
    0.46736E+06        -0.49937E+08         0.00000E+00
    0.00000E+00         0.00000E+00        -0.48836E+08
 
   -0.48577E+08         0.48245E+06         0.00000E+00
    0.48245E+06        -0.49933E+08         0.00000E+00
    0.00000E+00         0.00000E+00        -0.48836E+08
 
   -0.48589E+08         0.49743E+06         0.00000E+00
    0.49743E+06        -0.49928E+08         0.00000E+00
    0.00000E+00         0.00000E+00        -0.48836E+08
 
   -0.48600E+08         0.51232E+06         0.00000E+00
    0.51232E+06        -0.49924E+08         0.00000E+00
    0.00000E+00         0.00000E+00        -0.48836E+08
 
   -0.48611E+08         0.52711E+06         0.00000E+00
    0.52711E+06        -0.49919E+08         0.00000E+00
    0.00000E+00         0.00000E+00        -0.48836E+08
 
   -0.48623E+08         0.54179E+06         0.00000E+00
    0.54179E+06        -0.49914E+08         0.00000E+00
    0.00000E+00         0.00000E+00        -0.48837E+08
 
   -0.48635E+08         0.55637E+06         0.00000E+00
    0.55637E+06        -0.49909E+08         0.00000E+00
    0.00000E+00         0.00000E+00        -0.48837E+08
 
   -0.48647E+08         0.57085E+06         0.00000E+00
    0.57085E+06        -0.49904E+08         0.00000E+00
    0.00000E+00         0.00000E+00        -0.48837E+08
 
   -0.48659E+08         0.58522E+06         0.00000E+00
    0.58522E+06        -0.49898E+08         0.00000E+00
    0.00000E+00         0.00000E+00        -0.48837E+08
 
   -0.48672E+08         0.59948E+06         0.00000E+00
    0.59948E+06        -0.49893E+08         0.00000E+00
    0.00000E+00         0.00000E+00        -0.48837E+08
 
   -0.48684E+08         0.61364E+06         0.00000E+00
    0.61364E+06        -0.49887E+08         0.00000E+00
    0.00000E+00         0.00000E+00        -0.48837E+08
 
   -0.48697E+08         0.62769E+06         0.00000E+00
    0.62769E+06        -0.49882E+08         0.00000E+00
    0.00000E+00         0.00000E+00        -0.48837E+08
 
   -0.48709E+08         0.64163E+06         0.00000E+00
    0.64163E+06        -0.49876E+08         0.00000E+00
    0.00000E+00         0.00000E+00        -0.48837E+08
 
   -0.48722E+08         0.65546E+06         0.00000E+00
    0.65546E+06        -0.49870E+08         0.00000E+00
    0.00000E+00         0.00000E+00        -0.48837E+08
 
   -0.48735E+08         0.66918E+06         0.00000E+00
    0.66918E+06        -0.49864E+08         0.00000E+00
    0.00000E+00         0.00000E+00        -0.48837E+08
 
   -0.48749E+08         0.68278E+06         0.00000E+00
    0.68278E+06        -0.49857E+08         0.00000E+00
    0.00000E+00         0.00000E+00        -0.48837E+08
 
   -0.48762E+08         0.69628E+06         0.00000E+00
    0.69628E+06        -0.49851E+08         0.00000E+00
    0.00000E+00         0.00000E+00        -0.48838E+08
 
   -0.48775E+08         0.70965E+06         0.00000E+00
    0.70965E+06        -0.49845E+08         0.00000E+00
    0.00000E+00         0.00000E+00        -0.48838E+08
 
   -0.48789E+08         0.72292E+06         0.00000E+00
    0.72292E+06        -0.49838E+08         0.00000E+00
    0.00000E+00         0.00000E+00        -0.48838E+08
 
   -0.48803E+08         0.73606E+06         0.00000E+00
    0.73606E+06        -0.49831E+08         0.00000E+00
    0.00000E+00         0.00000E+00        -0.48838E+08
 
   -0.48817E+08         0.74909E+06         0.00000E+00
    0.74909E+06        -0.49824E+08         0.00000E+00
    0.00000E+00         0.00000E+00        -0.48838E+08
 
   -0.48831E+08         0.76200E+06         0.00000E+00
    0.76200E+06        -0.49817E+08         0.00000E+00
    0.00000E+00         0.00000E+00        -0.48838E+08
 
   -0.48243E+08         0.92246E+04         0.00000E+00
    0.92246E+04        -0.50000E+08         0.00000E+00
    0.00000E+00         0.00000E+00        -0.48768E+08
 
   -0.48249E+08         0.27482E+05         0.00000E+00
    0.27482E+05        -0.50000E+08         0.00000E+00
    0.00000E+00         0.00000E+00        -0.48768E+08
 
   -0.48255E+08         0.45668E+05         0.00000E+00
    0.45668E+05        -0.49999E+08         0.00000E+00
    0.00000E+00         0.00000E+00        -0.48768E+08
 
   -0.48262E+08         0.63781E+05         0.00000E+00
    0.63781E+05        -0.49999E+08         0.00000E+00
    0.00000E+00         0.00000E+00        -0.48768E+08
 
   -0.48268E+08         0.81819E+05         0.00000E+00
    0.81819E+05        -0.49998E+08         0.00000E+00
    0.00000E+00         0.00000E+00        -0.48768E+08
 
   -0.48275E+08         0.99782E+05         0.00000E+00
    0.99782E+05        -0.49997E+08         0.00000E+00
    0.00000E+00         0.00000E+00        -0.48768E+08
 
   -0.48282E+08         0.11767E+06         0.00000E+00
    0.11767E+06        -0.49996E+08         0.00000E+00
    0.00000E+00         0.00000E+00        -0.48768E+08
 
   -0.48290E+08         0.13548E+06         0.00000E+00
    0.13548E+06        -0.49995E+08         0.00000E+00
    0.00000E+00         0.00000E+00        -0.48768E+08
 
   -0.48297E+08         0.15321E+06         0.00000E+00
    0.15321E+06        -0.49994E+08         0.00000E+00
    0.00000E+00         0.00000E+00        -0.48768E+08
 
   -0.48305E+08         0.17086E+06         0.00000E+00
    0.17086E+06        -0.49993E+08         0.00000E+00
    0.00000E+00         0.00000E+00        -0.48768E+08
 
   -0.48313E+08         0.18842E+06         0.00000E+00
    0.18842E+06        -0.49991E+08         0.00000E+00
    0.00000E+00         0.00000E+00        -0.48768E+08
 
   -0.48321E+08         0.20591E+06         0.00000E+00
    0.20591E+06        -0.49989E+08         0.00000E+00
    0.00000E+00         0.00000E+00        -0.48768E+08
 
   -0.48329E+08         0.22331E+06         0.00000E+00
    0.22331E+06        -0.49987E+08         0.00000E+00
    0.00000E+00         0.00000E+00        -0.48769E+08
 
   -0.48338E+08         0.24062E+06         0.00000E+00
    0.24062E+06        -0.49985E+08         0.00000E+00
    0.00000E+00         0.00000E+00        -0.48769E+08
 
   -0.48346E+08         0.25785E+06         0.00000E+00
    0.25785E+06        -0.49983E+08         0.00000E+00
    0.00000E+00         0.00000E+00        -0.48769E+08
 
   -0.48355E+08         0.27499E+06         0.00000E+00
    0.27499E+06        -0.49980E+08         0.00000E+00
    0.00000E+00         0.00000E+00        -0.48769E+08
 
   -0.48364E+08         0.29204E+06         0.00000E+00
    0.29204E+06        -0.49978E+08         0.00000E+00
    0.00000E+00         0.00000E+00        -0.48769E+08
 
   -0.48374E+08         0.30901E+06         0.00000E+00
    0.30901E+06        -0.49975E+08         0.00000E+00
    0.00000E+00         0.00000E+00        -0.48769E+08
 
   -0.48383E+08         0.32588E+06         0.00000E+00
    0.32588E+06        -0.49972E+08         0.00000E+00
    0.00000E+00         0.00000E+00        -0.48769E+08
 
   -0.48393E+08         0.34266E+06         0.00000E+00
    0.34266E+06        -0.49969E+08         0.00000E+00
    0.00000E+00         0.00000E+00        -0.48769E+08
 
   -0.48403E+08         0.35934E+06         0.00000E+00
    0.35934E+06        -0.49966E+08         0.00000E+00
    0.00000E+00         0.00000E+00        -0.48770E+08
 
   -0.48413E+08         0.37594E+06         0.00000E+00
    0.37594E+06        -0.49962E+08         0.00000E+00
    0.00000E+00         0.00000E+00        -0.48770E+08
 
   -0.48423E+08         0.39243E+06         0.00000E+00
    0.39243E+06        -0.49959E+08         0.00000E+00
    0.00000E+00         0.00000E+00        -0.48770E+08
 
   -0.48434E+08         0.40883E+06         0.00000E+00
    0.40883E+06        -0.49955E+08         0.00000E+00
    0.00000E+00         0.00000E+00        -0.48770E+08
 
   -0.48444E+08         0.42514E+06         0.00000E+00
    0.42514E+06        -0.49951E+08         0.00000E+00
    0.00000E+00         0.00000E+00        -0.48770E+08
 
   -0.48455E+08         0.44134E+06         0.00000E+00
    0.44134E+06        -0.49948E+08         0.00000E+00
    0.00000E+00         0.00000E+00        -0.48770E+08
 
   -0.48466E+08         0.45744E+06         0.00000E+00
    0.45744E+06        -0.49943E+08         0.00000E+00
    0.00000E+00         0.00000E+00        -0.48770E+08
 
   -0.48477E+08         0.47345E+06         0.00000E+00
    0.47345E+06        -0.49939E+08         0.00000E+00
    0.00000E+00         0.00000E+00        -0.48770E+08
 
   -0.48489E+08         0.48935E+06         0.00000E+00
    0.48935E+06        -0.49935E+08         0.00000E+00
    0.00000E+00         0.00000E+00        -0.48771E+08
 
   -0.48500E+08         0.50515E+06         0.00000E+00
    0.50515E+06        -0.49930E+08         0.00000E+00
    0.00000E+00         0.00000E+00        -0.48771E+08
 
   -0.48512E+08         0.52084E+06         0.00000E+00
    0.52084E+06        -0.49925E+08         0.00000E+00
    0.00000E+00         0.00000E+00        -0.48771E+08
 
   -0.48524E+08         0.53643E+06         0.00000E+00
    0.53643E+06        -0.49921E+08         0.00000E+00
    0.00000E+00         0.00000E+00        -0.48771E+08
 
   -0.48536E+08         0.55191E+06         0.00000E+00
    0.55191E+06        -0.49916E+08         0.00000E+00
    0.00000E+00         0.00000E+00        -0.48771E+08
 
   -0.48548E+08         0.56729E+06         0.00000E+00
    0.56729E+06        -0.49910E+08         0.00000E+00
    0.00000E+00         0.00000E+00        -0.48771E+08
 
   -0.48561E+08         0.58256E+06         0.00000E+00
    0.58256E+06        -0.49905E+08         0.00000E+00
    0.00000E+00         0.00000E+00        -0.48771E+08
 
   -0.48573E+08         0.59771E+06         0.00000E+00
    0.59771E+06        -0.49900E+08         0.00000E+00
    0.00000E+00         0.00000E+00        -0.48771E+08
 
   -0.48586E+08         0.61276E+06         0.00000E+00
    0.61276E+06        -0.49894E+08         0.00000E+00
    0.00000E+00         0.00000E+00        -0.48771E+08
 
   -0.48599E+08         0.62770E+06         0.00000E+00
    0.62770E+06        -0.49889E+08         0.00000E+00
    0.00000E+00         0.00000E+00        -0.48772E+08
 
   -0.48612E+08         0.64252E+06         0.00000E+00
    0.64252E+06        -0.49883E+08         0.00000E+00
    0.00000E+00         0.00000E+00        -0.48772E+08
 
   -0.48625E+08         0.65723E+06         0.00000E+00
    0.65723E+06        -0.49877E+08         0.00000E+00
    0.00000E+00         0.00000E+00        -0.48772E+08
 
   -0.48638E+08         0.67182E+06         0.00000E+00
    0.67182E+06        -0.49871E+08         0.00000E+00
    0.00000E+00         0.00000E+00        -0.48772E+08
 
   -0.48652E+08         0.68629E+06         0.00000E+00
    0.68629E+06        -0.49864E+08         0.00000E+00
    0.00000E+00         0.00000E+00        -0.48772E+08
 
   -0.48666E+08         0.70065E+06         0.00000E+00
    0.70065E+06        -0.49858E+08         0.00000E+00
    0.00000E+00         0.00000E+00        -0.48772E+08
 
   -0.48679E+08         0.71489E+06         0.00000E+00
    0.71489E+06        -0.49852E+08         0.00000E+00
    0.00000E+00         0.00000E+00        -0.48772E+08
 
   -0.48693E+08         0.72902E+06         0.00000E+00
    0.72902E+06        -0.49845E+08         0.00000E+00
    0.00000E+00         0.00000E+00        -0.48772E+08
 
   -0.48707E+08         0.74302E+06         0.00000E+00
    0.74302E+06        -0.49838E+08         0.00000E+00
    0.00000E+00         0.00000E+00        -0.48772E+08
 
   -0.48721E+08         0.75689E+06         0.00000E+00
    0.75689E+06        -0.49831E+08         0.00000E+00
    0.00000E+00         0.00000E+00        -0.48772E+08
 
   -0.48736E+08         0.77065E+06         0.00000E+00
    0.77065E+06        -0.49824E+08         0.00000E+00
    0.00000E+00         0.00000E+00        -0.48772E+08
 
   -0.48750E+08         0.78428E+06         0.00000E+00
    0.78428E+06        -0.49817E+08         0.00000E+00
    0.00000E+00         0.00000E+00        -0.48772E+08
 
   -0.48765E+08         0.79779E+06         0.00000E+00
    0.79779E+06        -0.49810E+08         0.00000E+00
    0.00000E+00         0.00000E+00        -0.48772E+08
 
   -0.48150E+08         0.96494E+04         0.00000E+00
    0.96494E+04        -0.50000E+08         0.00000E+00
    0.00000E+00         0.00000E+00        -0.48699E+08
 
   -0.48156E+08         0.28751E+05         0.00000E+00
    0.28751E+05        -0.50000E+08         0.00000E+00
    0.00000E+00         0.00000E+00        -0.48699E+08
 
   -0.48163E+08         0.47779E+05         0.00000E+00
    0.47779E+05        -0.49999E+08         0.00000E+00
    0.00000E+00         0.00000E+00        -0.48699E+08
 
   -0.48169E+08         0.66731E+05         0.00000E+00
    0.66731E+05        -0.49999E+08         0.00000E+00
    0.00000E+00         0.00000E+00        -0.48699E+08
 
   -0.48176E+08         0.85607E+05         0.00000E+00
    0.85607E+05        -0.49998E+08         0.00000E+00
    0.00000E+00         0.00000E+00        -0.48699E+08
 
   -0.48184E+08         0.10440E+06         0.00000E+00
    0.10440E+06        -0.49997E+08         0.00000E+00
    0.00000E+00         0.00000E+00        -0.48699E+08
 
   -0.48191E+08         0.12312E+06         0.00000E+00
    0.12312E+06        -0.49996E+08         0.00000E+00
    0.00000E+00         0.00000E+00        -0.48700E+08
 
   -0.48199E+08         0.14176E+06         0.00000E+00
    0.14176E+06        -0.49995E+08         0.00000E+00
    0.00000E+00         0.00000E+00        -0.48700E+08
 
   -0.48207E+08         0.16032E+06         0.00000E+00
    0.16032E+06        -0.49994E+08         0.00000E+00
    0.00000E+00         0.00000E+00        -0.48700E+08
 
   -0.48215E+08         0.17879E+06         0.00000E+00
    0.17879E+06        -0.49992E+08         0.00000E+00
    0.00000E+00         0.00000E+00        -0.48700E+08
 
   -0.48223E+08         0.19718E+06         0.00000E+00
    0.19718E+06        -0.49991E+08         0.00000E+00
    0.00000E+00         0.00000E+00        -0.48700E+08
 
   -0.48232E+08         0.21548E+06         0.00000E+00
    0.21548E+06        -0.49989E+08         0.00000E+00
    0.00000E+00         0.00000E+00        -0.48700E+08
 
   -0.48240E+08         0.23369E+06         0.00000E+00
    0.23369E+06        -0.49987E+08         0.00000E+00
    0.00000E+00         0.00000E+00        -0.48700E+08
 
   -0.48249E+08         0.25182E+06         0.00000E+00
    0.25182E+06        -0.49984E+08         0.00000E+00
    0.00000E+00         0.00000E+00        -0.48700E+08
 
   -0.48258E+08         0.26985E+06         0.00000E+00
    0.26985E+06        -0.49982E+08         0.00000E+00
    0.00000E+00         0.00000E+00        -0.48700E+08
 
   -0.48268E+08         0.28780E+06         0.00000E+00
    0.28780E+06        -0.49980E+08         0.00000E+00
    0.00000E+00         0.00000E+00        -0.48700E+08
 
   -0.48277E+08         0.30565E+06         0.00000E+00
    0.30565E+06        -0.49977E+08         0.00000E+00
    0.00000E+00         0.00000E+00        -0.48700E+08
 
   -0.48287E+08         0.32341E+06         0.00000E+00
    0.32341E+06        -0.49974E+08         0.00000E+00
    0.00000E+00         0.00000E+00        -0.48701E+08
 
   -0.48297E+08         0.34107E+06         0.00000E+00
    0.34107E+06        -0.49971E+08         0.00000E+00
    0.00000E+00         0.00000E+00        -0.48701E+08
 
   -0.48307E+08         0.35864E+06         0.00000E+00
    0.35864E+06        -0.49968E+08         0.00000E+00
    0.00000E+00         0.00000E+00        -0.48701E+08
 
   -0.48318E+08         0.37611E+06         0.00000E+00
    0.37611E+06        -0.49964E+08         0.00000E+00
    0.00000E+00         0.00000E+00        -0.48701E+08
 
   -0.48328E+08         0.39348E+06         0.00000E+00
    0.39348E+06        -0.49961E+08         0.00000E+00
    0.00000E+00         0.00000E+00        -0.48701E+08
 
   -0.48339E+08         0.41076E+06         0.00000E+00
    0.41076E+06        -0.49957E+08         0.00000E+00
    0.00000E+00         0.00000E+00        -0.48701E+08
 
   -0.48350E+08         0.42793E+06         0.00000E+00
    0.42793E+06        -0.49953E+08         0.00000E+00
    0.00000E+00         0.00000E+00        -0.48701E+08
 
   -0.48361E+08         0.44500E+06         0.00000E+00
    0.44500E+06        -0.49950E+08         0.00000E+00
    0.00000E+00         0.00000E+00        -0.48702E+08
 
   -0.48373E+08         0.46196E+06         0.00000E+00
    0.46196E+06        -0.49945E+08         0.00000E+00
    0.00000E+00         0.00000E+00        -0.48702E+08
 
   -0.48384E+08         0.47883E+06         0.00000E+00
    0.47883E+06        -0.49941E+08         0.00000E+00
    0.00000E+00         0.00000E+00        -0.48702E+08
 
   -0.48396E+08         0.49558E+06         0.00000E+00
    0.49558E+06        -0.49937E+08         0.00000E+00
    0.00000E+00         0.00000E+00        -0.48702E+08
 
   -0.48408E+08         0.51223E+06         0.00000E+00
    0.51223E+06        -0.49932E+08         0.00000E+00
    0.00000E+00         0.00000E+00        -0.48702E+08
 
   -0.48420E+08         0.52877E+06         0.00000E+00
    0.52877E+06        -0.49927E+08         0.00000E+00
    0.00000E+00         0.00000E+00        -0.48702E+08
 
   -0.48432E+08         0.54521E+06         0.00000E+00
    0.54521E+06        -0.49922E+08         0.00000E+00
    0.00000E+00         0.00000E+00        -0.48702E+08
 
   -0.48444E+08         0.56153E+06         0.00000E+00
    0.56153E+06        -0.49917E+08         0.00000E+00
    0.00000E+00         0.00000E+00        -0.48702E+08
 
   -0.48457E+08         0.57774E+06         0.00000E+00
    0.57774E+06        -0.49912E+08         0.00000E+00
    0.00000E+00         0.00000E+00        -0.48703E+08
 
   -0.48470E+08         0.59384E+06         0.00000E+00
    0.59384E+06        -0.49907E+08         0.00000E+00
    0.00000E+00         0.00000E+00        -0.48703E+08
 
   -0.48483E+08         0.60983E+06         0.00000E+00
    0.60983E+06        -0.49901E+08         0.00000E+00
    0.00000E+00         0.00000E+00        -0.48703E+08
 
   -0.48496E+08         0.62570E+06         0.00000E+00
    0.62570E+06        -0.49896E+08         0.00000E+00
    0.00000E+00         0.00000E+00        -0.48703E+08
 
   -0.48509E+08         0.64145E+06         0.00000E+00
    0.64145E+06        -0.49890E+08         0.00000E+00
    0.00000E+00         0.00000E+00        -0.48703E+08
 
   -0.48523E+08         0.65709E+06         0.00000E+00
    0.65709E+06        -0.49884E+08         0.00000E+00
    0.00000E+00         0.00000E+00        -0.48703E+08
 
   -0.48536E+08         0.67260E+06         0.00000E+00
    0.67260E+06        -0.49878E+08         0.00000E+00
    0.00000E+00         0.00000E+00        -0.48703E+08
 
   -0.48550E+08         0.68800E+06         0.00000E+00
    0.68800E+06        -0.49872E+08         0.00000E+00
    0.00000E+00         0.00000E+00        -0.48703E+08
 
   -0.48564E+08         0.70328E+06         0.00000E+00
    0.70328E+06        -0.49865E+08         0.00000E+00
    0.00000E+00         0.00000E+00        -0.48703E+08
 
   -0.48578E+08         0.71844E+06         0.00000E+00
    0.71844E+06        -0.49859E+08         0.00000E+00
    0.00000E+00         0.00000E+00        -0.48703E+08
 
   -0.48592E+08         0.73347E+06         0.00000E+00
    0.73347E+06        -0.49852E+08         0.00000E+00
    0.00000E+00         0.00000E+00        -0.48704E+08
 
   -0.48607E+08         0.74838E+06         0.00000E+00
    0.74838E+06        -0.49845E+08         0.00000E+00
    0.00000E+00         0.00000E+00        -0.48704E+08
 
   -0.48621E+08         0.76316E+06         0.00000E+00
    0.76316E+06        -0.49839E+08         0.00000E+00
    0.00000E+00         0.00000E+00        -0.48704E+08
 
   -0.48636E+08         0.77782E+06         0.00000E+00
    0.77782E+06        -0.49832E+08         0.00000E+00
    0.00000E+00         0.00000E+00        -0.48704E+08
 
   -0.48651E+08         0.79235E+06         0.00000E+00
    0.79235E+06        -0.49824E+08         0.00000E+00
    0.00000E+00         0.00000E+00        -0.48704E+08
 
   -0.48666E+08         0.80674E+06         0.00000E+00
    0.80674E+06        -0.49817E+08         0.00000E+00
    0.00000E+00         0.00000E+00        -0.48704E+08
 
   -0.48681E+08         0.82101E+06         0.00000E+00
    0.82101E+06        -0.49810E+08         0.00000E+00
    0.00000E+00         0.00000E+00        -0.48704E+08
 
   -0.48696E+08         0.83515E+06         0.00000E+00
    0.83515E+06        -0.49802E+08         0.00000E+00
    0.00000E+00         0.00000E+00        -0.48704E+08
 
   -0.48052E+08         0.10092E+05         0.00000E+00
    0.10092E+05        -0.50000E+08         0.00000E+00
    0.00000E+00         0.00000E+00        -0.48628E+08
 
   -0.48058E+08         0.30072E+05         0.00000E+00
    0.30072E+05        -0.50000E+08         0.00000E+00
    0.00000E+00         0.00000E+00        -0.48628E+08
 
   -0.48065E+08         0.49976E+05         0.00000E+00
    0.49976E+05        -0.49999E+08         0.00000E+00
    0.00000E+00         0.00000E+00        -0.48628E+08
 
   -0.48073E+08         0.69802E+05         0.00000E+00
    0.69802E+05        -0.49999E+08         0.00000E+00
    0.00000E+00         0.00000E+00        -0.48628E+08
 
   -0.48080E+08         0.89549E+05         0.00000E+00
    0.89549E+05        -0.49998E+08         0.00000E+00
    0.00000E+00         0.00000E+00        -0.48628E+08
 
   -0.48088E+08         0.10922E+06         0.00000E+00
    0.10922E+06        -0.49997E+08         0.00000E+00
    0.00000E+00         0.00000E+00        -0.48628E+08
 
   -0.48096E+08         0.12880E+06         0.00000E+00
    0.12880E+06        -0.49996E+08         0.00000E+00
    0.00000E+00         0.00000E+00        -0.48628E+08
 
   -0.48104E+08         0.14830E+06         0.00000E+00
    0.14830E+06        -0.49995E+08         0.00000E+00
    0.00000E+00         0.00000E+00        -0.48628E+08
 
   -0.48112E+08         0.16772E+06         0.00000E+00
    0.16772E+06        -0.49994E+08         0.00000E+00
    0.00000E+00         0.00000E+00        -0.48628E+08
 
   -0.48120E+08         0.18704E+06         0.00000E+00
    0.18704E+06        -0.49992E+08         0.00000E+00
    0.00000E+00         0.00000E+00        -0.48628E+08
 
   -0.48129E+08         0.20629E+06         0.00000E+00
    0.20629E+06        -0.49990E+08         0.00000E+00
    0.00000E+00         0.00000E+00        -0.48628E+08
 
   -0.48138E+08         0.22544E+06         0.00000E+00
    0.22544E+06        -0.49988E+08         0.00000E+00
    0.00000E+00         0.00000E+00        -0.48628E+08
 
   -0.48147E+08         0.24450E+06         0.00000E+00
    0.24450E+06        -0.49986E+08         0.00000E+00
    0.00000E+00         0.00000E+00        -0.48628E+08
 
   -0.48157E+08         0.26347E+06         0.00000E+00
    0.26347E+06        -0.49984E+08         0.00000E+00
    0.00000E+00         0.00000E+00        -0.48628E+08
 
   -0.48166E+08         0.28234E+06         0.00000E+00
    0.28234E+06        -0.49981E+08         0.00000E+00
    0.00000E+00         0.00000E+00        -0.48629E+08
 
   -0.48176E+08         0.30112E+06         0.00000E+00
    0.30112E+06        -0.49979E+08         0.00000E+00
    0.00000E+00         0.00000E+00        -0.48629E+08
 
   -0.48186E+08         0.31981E+06         0.00000E+00
    0.31981E+06        -0.49976E+08         0.00000E+00
    0.00000E+00         0.00000E+00        -0.48629E+08
 
   -0.48197E+08         0.33840E+06         0.00000E+00
    0.33840E+06        -0.49973E+08         0.00000E+00
    0.00000E+00         0.00000E+00        -0.48629E+08
 
   -0.48207E+08         0.35688E+06         0.00000E+00
    0.35688E+06        -0.49970E+08         0.00000E+00
    0.00000E+00         0.00000E+00        -0.48629E+08
 
   -0.48218E+08         0.37527E+06         0.00000E+00
    0.37527E+06        -0.49966E+08         0.00000E+00
    0.00000E+00         0.00000E+00        -0.48629E+08
 
   -0.48229E+08         0.39356E+06         0.00000E+00
    0.39356E+06        -0.49963E+08         0.00000E+00
    0.00000E+00         0.00000E+00        -0.48629E+08
 
   -0.48240E+08         0.41175E+06         0.00000E+00
    0.41175E+06        -0.49959E+08         0.00000E+00
    0.00000E+00         0.00000E+00        -0.48629E+08
 
   -0.48251E+08         0.42983E+06         0.00000E+00
    0.42983E+06        -0.49956E+08         0.00000E+00
    0.00000E+00         0.00000E+00        -0.48630E+08
 
   -0.48262E+08         0.44780E+06         0.00000E+00
    0.44780E+06        -0.49952E+08         0.00000E+00
    0.00000E+00         0.00000E+00        -0.48630E+08
 
   -0.48274E+08         0.46567E+06         0.00000E+00
    0.46567E+06        -0.49947E+08         0.00000E+00
    0.00000E+00         0.00000E+00        -0.48630E+08
 
   -0.48286E+08         0.48343E+06         0.00000E+00
    0.48343E+06        -0.49943E+08         0.00000E+00
    0.00000E+00         0.00000E+00        -0.48630E+08
 
   -0.48298E+08         0.50109E+06         0.00000E+00
    0.50109E+06        -0.49939E+08         0.00000E+00
    0.00000E+00         0.00000E+00        -0.48630E+08
 
   -0.48310E+08         0.51863E+06         0.00000E+00
    0.51863E+06        -0.49934E+08         0.00000E+00
    0.00000E+00         0.00000E+00        -0.48630E+08
 
   -0.48323E+08         0.53606E+06         0.00000E+00
    0.53606E+06        -0.49929E+08         0.00000E+00
    0.00000E+00         0.00000E+00        -0.48630E+08
 
   -0.48335E+08         0.55338E+06         0.00000E+00
    0.55338E+06        -0.49924E+08         0.00000E+00
    0.00000E+00         0.00000E+00        -0.48630E+08
 
   -0.48348E+08         0.57058E+06         0.00000E+00
    0.57058E+06        -0.49919E+08         0.00000E+00
    0.00000E+00         0.00000E+00        -0.48631E+08
 
   -0.48361E+08         0.58767E+06         0.00000E+00
    0.58767E+06        -0.49914E+08         0.00000E+00
    0.00000E+00         0.00000E+00        -0.48631E+08
 
   -0.48374E+08         0.60465E+06         0.00000E+00
    0.60465E+06        -0.49909E+08         0.00000E+00
    0.00000E+00         0.00000E+00        -0.48631E+08
 
   -0.48388E+08         0.62150E+06         0.00000E+00
    0.62150E+06        -0.49903E+08         0.00000E+00
    0.00000E+00         0.00000E+00        -0.48631E+08
 
   -0.48401E+08         0.63824E+06         0.00000E+00
    0.63824E+06        -0.49897E+08         0.00000E+00
    0.00000E+00         0.00000E+00        -0.48631E+08
 
   -0.48415E+08         0.65485E+06         0.00000E+00
    0.65485E+06        -0.49891E+08         0.00000E+00
    0.00000E+00         0.00000E+00        -0.48631E+08
 
   -0.48429E+08         0.67135E+06         0.00000E+00
    0.67135E+06        -0.49885E+08         0.00000E+00
    0.00000E+00         0.00000E+00        -0.48631E+08
 
   -0.48443E+08         0.68772E+06         0.00000E+00
    0.68772E+06        -0.49879E+08         0.00000E+00
    0.00000E+00         0.00000E+00        -0.48631E+08
 
   -0.48457E+08         0.70397E+06         0.00000E+00
    0.70397E+06        -0.49873E+08         0.00000E+00
    0.00000E+00         0.00000E+00        -0.48632E+08
 
   -0.48472E+08         0.72009E+06         0.00000E+00
    0.72009E+06        -0.49866E+08         0.00000E+00
    0.00000E+00         0.00000E+00        -0.48632E+08
 
   -0.48486E+08         0.73609E+06         0.00000E+00
    0.73609E+06        -0.49860E+08         0.00000E+00
    0.00000E+00         0.00000E+00        -0.48632E+08
 
   -0.48501E+08         0.75196E+06         0.00000E+00
    0.75196E+06        -0.49853E+08         0.00000E+00
    0.00000E+00         0.00000E+00        -0.48632E+08
 
   -0.48516E+08         0.76770E+06         0.00000E+00
    0.76770E+06        -0.49846E+08         0.00000E+00
    0.00000E+00         0.00000E+00        -0.48632E+08
 
   -0.48531E+08         0.78331E+06         0.00000E+00
    0.78331E+06        -0.49839E+08         0.00000E+00
    0.00000E+00         0.00000E+00        -0.48632E+08
 
   -0.48546E+08         0.79879E+06         0.00000E+00
    0.79879E+06        -0.49832E+08         0.00000E+00
    0.00000E+00         0.00000E+00        -0.48632E+08
 
   -0.48561E+08         0.81413E+06         0.00000E+00
    0.81413E+06        -0.49824E+08         0.00000E+00
    0.00000E+00         0.00000E+00        -0.48632E+08
 
   -0.48577E+08         0.82934E+06         0.00000E+00
    0.82934E+06        -0.49817E+08         0.00000E+00
    0.00000E+00         0.00000E+00        -0.48632E+08
 
   -0.48592E+08         0.84442E+06         0.00000E+00
    0.84442E+06        -0.49809E+08         0.00000E+00
    0.00000E+00         0.00000E+00        -0.48632E+08
 
   -0.48608E+08         0.85936E+06         0.00000E+00
    0.85936E+06        -0.49802E+08         0.00000E+00
    0.00000E+00         0.00000E+00        -0.48632E+08
 
   -0.48624E+08         0.87416E+06         0.00000E+00
    0.87416E+06        -0.49794E+08         0.00000E+00
    0.00000E+00         0.00000E+00        -0.48632E+08
 
   -0.47949E+08         0.10553E+05         0.00000E+00
    0.10553E+05        -0.50000E+08         0.00000E+00
    0.00000E+00         0.00000E+00        -0.48552E+08
 
   -0.47957E+08         0.31448E+05         0.00000E+00
    0.31448E+05        -0.50000E+08         0.00000E+00
    0.00000E+00         0.00000E+00        -0.48552E+08
 
   -0.47964E+08         0.52265E+05         0.00000E+00
    0.52265E+05        -0.49999E+08         0.00000E+00
    0.00000E+00         0.00000E+00        -0.48552E+08
 
   -0.47971E+08         0.73001E+05         0.00000E+00
    0.73001E+05        -0.49999E+08         0.00000E+00
    0.00000E+00         0.00000E+00        -0.48552E+08
 
   -0.47979E+08         0.93655E+05         0.00000E+00
    0.93655E+05        -0.49998E+08         0.00000E+00
    0.00000E+00         0.00000E+00        -0.48553E+08
 
   -0.47987E+08         0.11422E+06         0.00000E+00
    0.11422E+06        -0.49997E+08         0.00000E+00
    0.00000E+00         0.00000E+00        -0.48553E+08
 
   -0.47996E+08         0.13471E+06         0.00000E+00
    0.13471E+06        -0.49996E+08         0.00000E+00
    0.00000E+00         0.00000E+00        -0.48553E+08
 
   -0.48004E+08         0.15511E+06         0.00000E+00
    0.15511E+06        -0.49995E+08         0.00000E+00
    0.00000E+00         0.00000E+00        -0.48553E+08
 
   -0.48013E+08         0.17542E+06         0.00000E+00
    0.17542E+06        -0.49993E+08         0.00000E+00
    0.00000E+00         0.00000E+00        -0.48553E+08
 
   -0.48022E+08         0.19564E+06         0.00000E+00
    0.19564E+06        -0.49992E+08         0.00000E+00
    0.00000E+00         0.00000E+00        -0.48553E+08
 
   -0.48031E+08         0.21577E+06         0.00000E+00
    0.21577E+06        -0.49990E+08         0.00000E+00
    0.00000E+00         0.00000E+00        -0.48553E+08
 
   -0.48040E+08         0.23581E+06         0.00000E+00
    0.23581E+06        -0.49988E+08         0.00000E+00
    0.00000E+00         0.00000E+00        -0.48553E+08
 
   -0.48050E+08         0.25575E+06         0.00000E+00
    0.25575E+06        -0.49986E+08         0.00000E+00
    0.00000E+00         0.00000E+00        -0.48553E+08
 
   -0.48060E+08         0.27560E+06         0.00000E+00
    0.27560E+06        -0.49983E+08         0.00000E+00
    0.00000E+00         0.00000E+00        -0.48553E+08
 
   -0.48070E+08         0.29535E+06         0.00000E+00
    0.29535E+06        -0.49981E+08         0.00000E+00
    0.00000E+00         0.00000E+00        -0.48553E+08
 
   -0.48080E+08         0.31500E+06         0.00000E+00
    0.31500E+06        -0.49978E+08         0.00000E+00
    0.00000E+00         0.00000E+00        -0.48554E+08
 
   -0.48091E+08         0.33455E+06         0.00000E+00
    0.33455E+06        -0.49975E+08         0.00000E+00
    0.00000E+00         0.00000E+00        -0.48554E+08
 
   -0.48102E+08         0.35400E+06         0.00000E+00
    0.35400E+06        -0.49972E+08         0.00000E+00
    0.00000E+00         0.00000E+00        -0.48554E+08
 
   -0.48113E+08         0.37335E+06         0.00000E+00
    0.37335E+06        -0.49969E+08         0.00000E+00
    0.00000E+00         0.00000E+00        -0.48554E+08
 
   -0.48124E+08         0.39259E+06         0.00000E+00
    0.39259E+06        -0.49965E+08         0.00000E+00
    0.00000E+00         0.00000E+00        -0.48554E+08
 
   -0.48135E+08         0.41173E+06         0.00000E+00
    0.41173E+06        -0.49961E+08         0.00000E+00
    0.00000E+00         0.00000E+00        -0.48554E+08
 
   -0.48147E+08         0.43076E+06         0.00000E+00
    0.43076E+06        -0.49958E+08         0.00000E+00
    0.00000E+00         0.00000E+00        -0.48554E+08
 
   -0.48159E+08         0.44968E+06         0.00000E+00
    0.44968E+06        -0.49954E+08         0.00000E+00
    0.00000E+00         0.00000E+00        -0.48554E+08
 
   -0.48171E+08         0.46850E+06         0.00000E+00
    0.46850E+06        -0.49950E+08         0.00000E+00
    0.00000E+00         0.00000E+00        -0.48555E+08
 
   -0.48183E+08         0.48720E+06         0.00000E+00
    0.48720E+06        -0.49945E+08         0.00000E+00
    0.00000E+00         0.00000E+00        -0.48555E+08
 
   -0.48195E+08         0.50579E+06         0.00000E+00
    0.50579E+06        -0.49941E+08         0.00000E+00
    0.00000E+00         0.00000E+00        -0.48555E+08
 
   -0.48208E+08         0.52427E+06         0.00000E+00
    0.52427E+06        -0.49936E+08         0.00000E+00
    0.00000E+00         0.00000E+00        -0.48555E+08
 
   -0.48221E+08         0.54263E+06         0.00000E+00
    0.54263E+06        -0.49931E+08         0.00000E+00
    0.00000E+00         0.00000E+00        -0.48555E+08
 
   -0.48234E+08         0.56088E+06         0.00000E+00
    0.56088E+06        -0.49926E+08         0.00000E+00
    0.00000E+00         0.00000E+00        -0.48555E+08
 
   -0.48247E+08         0.57901E+06         0.00000E+00
    0.57901E+06        -0.49921E+08         0.00000E+00
    0.00000E+00         0.00000E+00        -0.48555E+08
 
   -0.48260E+08         0.59702E+06         0.00000E+00
    0.59702E+06        -0.49916E+08         0.00000E+00
    0.00000E+00         0.00000E+00        -0.48556E+08
 
   -0.48274E+08         0.61491E+06         0.00000E+00
    0.61491E+06        -0.49910E+08         0.00000E+00
    0.00000E+00         0.00000E+00        -0.48556E+08
 
   -0.48288E+08         0.63268E+06         0.00000E+00
    0.63268E+06        -0.49905E+08         0.00000E+00
    0.00000E+00         0.00000E+00        -0.48556E+08
 
   -0.48302E+08         0.65033E+06         0.00000E+00
    0.65033E+06        -0.49899E+08         0.00000E+00
    0.00000E+00         0.00000E+00        -0.48556E+08
 
   -0.48316E+08         0.66785E+06         0.00000E+00
    0.66785E+06        -0.49893E+08         0.00000E+00
    0.00000E+00         0.00000E+00        -0.48556E+08
 
   -0.48330E+08         0.68524E+06         0.00000E+00
    0.68524E+06        -0.49887E+08         0.00000E+00
    0.00000E+00         0.00000E+00        -0.48556E+08
 
   -0.48345E+08         0.70252E+06         0.00000E+00
    0.70252E+06        -0.49881E+08         0.00000E+00
    0.00000E+00         0.00000E+00        -0.48556E+08
 
   -0.48359E+08         0.71966E+06         0.00000E+00
    0.71966E+06        -0.49874E+08         0.00000E+00
    0.00000E+00         0.00000E+00        -0.48556E+08
 
   -0.48374E+08         0.73667E+06         0.00000E+00
    0.73667E+06        -0.49868E+08         0.00000E+00
    0.00000E+00         0.00000E+00        -0.48556E+08
 
   -0.48389E+08         0.75355E+06         0.00000E+00
    0.75355E+06        -0.49861E+08         0.00000E+00
    0.00000E+00         0.00000E+00        -0.48557E+08
 
   -0.48405E+08         0.77030E+06         0.00000E+00
    0.77030E+06        -0.49854E+08         0.00000E+00
    0.00000E+00         0.00000E+00        -0.48557E+08
 
   -0.48420E+08         0.78692E+06         0.00000E+00
    0.78692E+06        -0.49847E+08         0.00000E+00
    0.00000E+00         0.00000E+00        -0.48557E+08
 
   -0.48436E+08         0.80340E+06         0.00000E+00
    0.80340E+06        -0.49840E+08         0.00000E+00
    0.00000E+00         0.00000E+00        -0.48557E+08
 
   -0.48451E+08         0.81975E+06         0.00000E+00
    0.81975E+06        -0.49832E+08         0.00000E+00
    0.00000E+00         0.00000E+00        -0.48557E+08
 
   -0.48467E+08         0.83596E+06         0.00000E+00
    0.83596E+06        -0.49825E+08         0.00000E+00
    0.00000E+00         0.00000E+00        -0.48557E+08
 
   -0.48483E+08         0.85203E+06         0.00000E+00
    0.85203E+06        -0.49817E+08         0.00000E+00
    0.00000E+00         0.00000E+00        -0.48557E+08
 
   -0.48499E+08         0.86796E+06         0.00000E+00
    0.86796E+06        -0.49809E+08         0.00000E+00
    0.00000E+00         0.00000E+00        -0.48557E+08
 
   -0.48516E+08         0.88375E+06         0.00000E+00
    0.88375E+06        -0.49801E+08         0.00000E+00
    0.00000E+00         0.00000E+00        -0.48557E+08
 
   -0.48532E+08         0.89940E+06         0.00000E+00
    0.89940E+06        -0.49793E+08         0.00000E+00
    0.00000E+00         0.00000E+00        -0.48557E+08
 
   -0.48549E+08         0.91490E+06         0.00000E+00
    0.91490E+06        -0.49785E+08         0.00000E+00
    0.00000E+00         0.00000E+00        -0.48557E+08
 
   -0.47842E+08         0.11033E+05         0.00000E+00
    0.11033E+05        -0.50000E+08         0.00000E+00
    0.00000E+00         0.00000E+00        -0.48474E+08
 
   -0.47850E+08         0.32882E+05         0.00000E+00
    0.32882E+05        -0.50000E+08         0.00000E+00
    0.00000E+00         0.00000E+00        -0.48474E+08
 
   -0.47858E+08         0.54649E+05         0.00000E+00
    0.54649E+05        -0.49999E+08         0.00000E+00
    0.00000E+00         0.00000E+00        -0.48474E+08
 
   -0.47866E+08         0.76332E+05         0.00000E+00
    0.76332E+05        -0.49999E+08         0.00000E+00
    0.00000E+00         0.00000E+00        -0.48474E+08
 
   -0.47874E+08         0.97931E+05         0.00000E+00
    0.97931E+05        -0.49998E+08         0.00000E+00
    0.00000E+00         0.00000E+00        -0.48474E+08
 
   -0.47882E+08         0.11944E+06         0.00000E+00
    0.11944E+06        -0.49997E+08         0.00000E+00
    0.00000E+00         0.00000E+00        -0.48474E+08
 
   -0.47891E+08         0.14087E+06         0.00000E+00
    0.14087E+06        -0.49996E+08         0.00000E+00
    0.00000E+00         0.00000E+00        -0.48474E+08
 
   -0.47900E+08         0.16220E+06         0.00000E+00
    0.16220E+06        -0.49995E+08         0.00000E+00
    0.00000E+00         0.00000E+00        -0.48474E+08
 
   -0.47909E+08         0.18344E+06         0.00000E+00
    0.18344E+06        -0.49993E+08         0.00000E+00
    0.00000E+00         0.00000E+00        -0.48474E+08
 
   -0.47919E+08         0.20459E+06         0.00000E+00
    0.20459E+06        -0.49991E+08         0.00000E+00
    0.00000E+00         0.00000E+00        -0.48474E+08
 
   -0.47928E+08         0.22565E+06         0.00000E+00
    0.22565E+06        -0.49989E+08         0.00000E+00
    0.00000E+00         0.00000E+00        -0.48474E+08
 
   -0.47938E+08         0.24660E+06         0.00000E+00
    0.24660E+06        -0.49987E+08         0.00000E+00
    0.00000E+00         0.00000E+00        -0.48474E+08
 
   -0.47948E+08         0.26746E+06         0.00000E+00
    0.26746E+06        -0.49985E+08         0.00000E+00
    0.00000E+00         0.00000E+00        -0.48474E+08
 
   -0.47959E+08         0.28823E+06         0.00000E+00
    0.28823E+06        -0.49982E+08         0.00000E+00
    0.00000E+00         0.00000E+00        -0.48475E+08
 
   -0.47969E+08         0.30889E+06         0.00000E+00
    0.30889E+06        -0.49980E+08         0.00000E+00
    0.00000E+00         0.00000E+00        -0.48475E+08
 
   -0.47980E+08         0.32944E+06         0.00000E+00
    0.32944E+06        -0.49977E+08         0.00000E+00
    0.00000E+00         0.00000E+00        -0.48475E+08
 
   -0.47991E+08         0.34990E+06         0.00000E+00
    0.34990E+06        -0.49974E+08         0.00000E+00
    0.00000E+00         0.00000E+00        -0.48475E+08
 
   -0.48003E+08         0.37025E+06         0.00000E+00
    0.37025E+06        -0.49971E+08         0.00000E+00
    0.00000E+00         0.00000E+00        -0.48475E+08
 
   -0.48014E+08         0.39049E+06         0.00000E+00
    0.39049E+06        -0.49967E+08         0.00000E+00
    0.00000E+00         0.00000E+00        -0.48475E+08
 
   -0.48026E+08         0.41063E+06         0.00000E+00
    0.41063E+06        -0.49964E+08         0.00000E+00
    0.00000E+00         0.00000E+00        -0.48475E+08
 
   -0.48038E+08         0.43065E+06         0.00000E+00
    0.43065E+06        -0.49960E+08         0.00000E+00
    0.00000E+00         0.00000E+00        -0.48476E+08
 
   -0.48050E+08         0.45057E+06         0.00000E+00
    0.45057E+06        -0.49956E+08         0.00000E+00
    0.00000E+00         0.00000E+00        -0.48476E+08
 
   -0.48062E+08         0.47037E+06         0.00000E+00
    0.47037E+06        -0.49952E+08         0.00000E+00
    0.00000E+00         0.00000E+00        -0.48476E+08
 
   -0.48075E+08         0.49006E+06         0.00000E+00
    0.49006E+06        -0.49947E+08         0.00000E+00
    0.00000E+00         0.00000E+00        -0.48476E+08
 
   -0.48088E+08         0.50963E+06         0.00000E+00
    0.50963E+06        -0.49943E+08         0.00000E+00
    0.00000E+00         0.00000E+00        -0.48476E+08
 
   -0.48101E+08         0.52908E+06         0.00000E+00
    0.52908E+06        -0.49938E+08         0.00000E+00
    0.00000E+00         0.00000E+00        -0.48476E+08
 
   -0.48114E+08         0.54842E+06         0.00000E+00
    0.54842E+06        -0.49933E+08         0.00000E+00
    0.00000E+00         0.00000E+00        -0.48476E+08
 
   -0.48127E+08         0.56764E+06         0.00000E+00
    0.56764E+06        -0.49928E+08         0.00000E+00
    0.00000E+00         0.00000E+00        -0.48476E+08
 
   -0.48141E+08         0.58674E+06         0.00000E+00
    0.58674E+06        -0.49923E+08         0.00000E+00
    0.00000E+00         0.00000E+00        -0.48477E+08
 
   -0.48155E+08         0.60572E+06         0.00000E+00
    0.60572E+06        -0.49918E+08         0.00000E+00
    0.00000E+00         0.00000E+00        -0.48477E+08
 
   -0.48169E+08         0.62457E+06         0.00000E+00
    0.62457E+06        -0.49912E+08         0.00000E+00
    0.00000E+00         0.00000E+00        -0.48477E+08
 
   -0.48183E+08         0.64330E+06         0.00000E+00
    0.64330E+06        -0.49907E+08         0.00000E+00
    0.00000E+00         0.00000E+00        -0.48477E+08
 
   -0.48197E+08         0.66190E+06         0.00000E+00
    0.66190E+06        -0.49901E+08         0.00000E+00
    0.00000E+00         0.00000E+00        -0.48477E+08
 
   -0.48212E+08         0.68037E+06         0.00000E+00
    0.68037E+06        -0.49895E+08         0.00000E+00
    0.00000E+00         0.00000E+00        -0.48477E+08
 
   -0.48227E+08         0.69872E+06         0.00000E+00
    0.69872E+06        -0.49889E+08         0.00000E+00
    0.00000E+00         0.00000E+00        -0.48477E+08
 
   -0.48242E+08         0.71693E+06         0.00000E+00
    0.71693E+06        -0.49882E+08         0.00000E+00
    0.00000E+00         0.00000E+00        -0.48478E+08
 
   -0.48257E+08         0.73501E+06         0.00000E+00
    0.73501E+06        -0.49876E+08         0.00000E+00
    0.00000E+00         0.00000E+00        -0.48478E+08
 
   -0.48272E+08         0.75296E+06         0.00000E+00
    0.75296E+06        -0.49869E+08         0.00000E+00
    0.00000E+00         0.00000E+00        -0.48478E+08
 
   -0.48288E+08         0.77077E+06         0.00000E+00
    0.77077E+06        -0.49862E+08         0.00000E+00
    0.00000E+00         0.00000E+00        -0.48478E+08
 
   -0.48303E+08         0.78845E+06         0.00000E+00
    0.78845E+06        -0.49855E+08         0.00000E+00
    0.00000E+00         0.00000E+00        -0.48478E+08
 
   -0.48319E+08         0.80599E+06         0.00000E+00
    0.80599E+06        -0.49848E+08         0.00000E+00
    0.00000E+00         0.00000E+00        -0.48478E+08
 
   -0.48335E+08         0.82339E+06         0.00000E+00
    0.82339E+06        -0.49840E+08         0.00000E+00
    0.00000E+00         0.00000E+00        -0.48478E+08
 
   -0.48351E+08         0.84066E+06         0.00000E+00
    0.84066E+06        -0.49833E+08         0.00000E+00
    0.00000E+00         0.00000E+00        -0.48478E+08
 
   -0.48368E+08         0.85778E+06         0.00000E+00
    0.85778E+06        -0.49825E+08         0.00000E+00
    0.00000E+00         0.00000E+00        -0.48478E+08
 
   -0.48384E+08         0.87475E+06         0.00000E+00
    0.87475E+06        -0.49817E+08         0.00000E+00
    0.00000E+00         0.00000E+00        -0.48478E+08
 
   -0.48401E+08         0.89159E+06         0.00000E+00
    0.89159E+06        -0.49809E+08         0.00000E+00
    0.00000E+00         0.00000E+00        -0.48478E+08
 
   -0.48418E+08         0.90827E+06         0.00000E+00
    0.90827E+06        -0.49801E+08         0.00000E+00
    0.00000E+00         0.00000E+00        -0.48478E+08
 
   -0.48435E+08         0.92481E+06         0.00000E+00
    0.92481E+06        -0.49793E+08         0.00000E+00
    0.00000E+00         0.00000E+00        -0.48478E+08
 
   -0.48452E+08         0.94121E+06         0.00000E+00
    0.94121E+06        -0.49784E+08         0.00000E+00
    0.00000E+00         0.00000E+00        -0.48478E+08
 
   -0.48470E+08         0.95745E+06         0.00000E+00
    0.95745E+06        -0.49776E+08         0.00000E+00
    0.00000E+00         0.00000E+00        -0.48478E+08
 
   -0.47730E+08         0.11534E+05         0.00000E+00
    0.11534E+05        -0.50000E+08         0.00000E+00
    0.00000E+00         0.00000E+00        -0.48391E+08
 
   -0.47738E+08         0.34376E+05         0.00000E+00
    0.34376E+05        -0.50000E+08         0.00000E+00
    0.00000E+00         0.00000E+00        -0.48391E+08
 
   -0.47747E+08         0.57133E+05         0.00000E+00
    0.57133E+05        -0.49999E+08         0.00000E+00
    0.00000E+00         0.00000E+00        -0.48391E+08
 
   -0.47755E+08         0.79803E+05         0.00000E+00
    0.79803E+05        -0.49999E+08         0.00000E+00
    0.00000E+00         0.00000E+00        -0.48391E+08
 
   -0.47764E+08         0.10239E+06         0.00000E+00
    0.10239E+06        -0.49998E+08         0.00000E+00
    0.00000E+00         0.00000E+00        -0.48391E+08
 
   -0.47773E+08         0.12488E+06         0.00000E+00
    0.12488E+06        -0.49997E+08         0.00000E+00
    0.00000E+00         0.00000E+00        -0.48391E+08
 
   -0.47782E+08         0.14728E+06         0.00000E+00
    0.14728E+06        -0.49996E+08         0.00000E+00
    0.00000E+00         0.00000E+00        -0.48392E+08
 
   -0.47791E+08         0.16959E+06         0.00000E+00
    0.16959E+06        -0.49994E+08         0.00000E+00
    0.00000E+00         0.00000E+00        -0.48392E+08
 
   -0.47801E+08         0.19180E+06         0.00000E+00
    0.19180E+06        -0.49993E+08         0.00000E+00
    0.00000E+00         0.00000E+00        -0.48392E+08
 
   -0.47811E+08         0.21391E+06         0.00000E+00
    0.21391E+06        -0.49991E+08         0.00000E+00
    0.00000E+00         0.00000E+00        -0.48392E+08
 
   -0.47821E+08         0.23593E+06         0.00000E+00
    0.23593E+06        -0.49989E+08         0.00000E+00
    0.00000E+00         0.00000E+00        -0.48392E+08
 
   -0.47831E+08         0.25785E+06         0.00000E+00
    0.25785E+06        -0.49987E+08         0.00000E+00
    0.00000E+00         0.00000E+00        -0.48392E+08
 
   -0.47842E+08         0.27967E+06         0.00000E+00
    0.27967E+06        -0.49984E+08         0.00000E+00
    0.00000E+00         0.00000E+00        -0.48392E+08
 
   -0.47853E+08         0.30138E+06         0.00000E+00
    0.30138E+06        -0.49982E+08         0.00000E+00
    0.00000E+00         0.00000E+00        -0.48392E+08
 
   -0.47864E+08         0.32299E+06         0.00000E+00
    0.32299E+06        -0.49979E+08         0.00000E+00
    0.00000E+00         0.00000E+00        -0.48392E+08
 
   -0.47875E+08         0.34449E+06         0.00000E+00
    0.34449E+06        -0.49976E+08         0.00000E+00
    0.00000E+00         0.00000E+00        -0.48392E+08
 
   -0.47887E+08         0.36589E+06         0.00000E+00
    0.36589E+06        -0.49973E+08         0.00000E+00
    0.00000E+00         0.00000E+00        -0.48393E+08
 
   -0.47899E+08         0.38717E+06         0.00000E+00
    0.38717E+06        -0.49969E+08         0.00000E+00
    0.00000E+00         0.00000E+00        -0.48393E+08
 
   -0.47911E+08         0.40835E+06         0.00000E+00
    0.40835E+06        -0.49966E+08         0.00000E+00
    0.00000E+00         0.00000E+00        -0.48393E+08
 
   -0.47923E+08         0.42941E+06         0.00000E+00
    0.42941E+06        -0.49962E+08         0.00000E+00
    0.00000E+00         0.00000E+00        -0.48393E+08
 
   -0.47936E+08         0.45036E+06         0.00000E+00
    0.45036E+06        -0.49958E+08         0.00000E+00
    0.00000E+00         0.00000E+00        -0.48393E+08
 
   -0.47948E+08         0.47119E+06         0.00000E+00
    0.47119E+06        -0.49954E+08         0.00000E+00
    0.00000E+00         0.00000E+00        -0.48393E+08
 
   -0.47961E+08         0.49191E+06         0.00000E+00
    0.49191E+06        -0.49950E+08         0.00000E+00
    0.00000E+00         0.00000E+00        -0.48393E+08
 
   -0.47974E+08         0.51251E+06         0.00000E+00
    0.51251E+06        -0.49945E+08         0.00000E+00
    0.00000E+00         0.00000E+00        -0.48394E+08
 
   -0.47988E+08         0.53299E+06         0.00000E+00
    0.53299E+06        -0.49941E+08         0.00000E+00
    0.00000E+00         0.00000E+00        -0.48394E+08
 
   -0.48001E+08         0.55335E+06         0.00000E+00
    0.55335E+06        -0.49936E+08         0.00000E+00
    0.00000E+00         0.00000E+00        -0.48394E+08
 
   -0.48015E+08         0.57359E+06         0.00000E+00
    0.57359E+06        -0.49931E+08         0.00000E+00
    0.00000E+00         0.00000E+00        -0.48394E+08
 
   -0.48029E+08         0.59370E+06         0.00000E+00
    0.59370E+06        -0.49925E+08         0.00000E+00
    0.00000E+00         0.00000E+00        -0.48394E+08
 
   -0.48043E+08         0.61369E+06         0.00000E+00
    0.61369E+06        -0.49920E+08         0.00000E+00
    0.00000E+00         0.00000E+00        -0.48394E+08
 
   -0.48058E+08         0.63355E+06         0.00000E+00
    0.63355E+06        -0.49914E+08         0.00000E+00
    0.00000E+00         0.00000E+00        -0.48394E+08
 
   -0.48073E+08         0.65328E+06         0.00000E+00
    0.65328E+06        -0.49909E+08         0.00000E+00
    0.00000E+00         0.00000E+00        -0.48395E+08
 
   -0.48087E+08         0.67288E+06         0.00000E+00
    0.67288E+06        -0.49903E+08         0.00000E+00
    0.00000E+00         0.00000E+00        -0.48395E+08
 
   -0.48102E+08         0.69235E+06         0.00000E+00
    0.69235E+06        -0.49897E+08         0.00000E+00
    0.00000E+00         0.00000E+00        -0.48395E+08
 
   -0.48118E+08         0.71169E+06         0.00000E+00
    0.71169E+06        -0.49890E+08         0.00000E+00
    0.00000E+00         0.00000E+00        -0.48395E+08
 
   -0.48133E+08         0.73089E+06         0.00000E+00
    0.73089E+06        -0.49884E+08         0.00000E+00
    0.00000E+00         0.00000E+00        -0.48395E+08
 
   -0.48149E+08         0.74996E+06         0.00000E+00
    0.74996E+06        -0.49877E+08         0.00000E+00
    0.00000E+00         0.00000E+00        -0.48395E+08
 
   -0.48165E+08         0.76889E+06         0.00000E+00
    0.76889E+06        -0.49870E+08         0.00000E+00
    0.00000E+00         0.00000E+00        -0.48395E+08
 
   -0.48181E+08         0.78769E+06         0.00000E+00
    0.78769E+06        -0.49863E+08         0.00000E+00
    0.00000E+00         0.00000E+00        -0.48395E+08
 
   -0.48197E+08         0.80634E+06         0.00000E+00
    0.80634E+06        -0.49856E+08         0.00000E+00
    0.00000E+00         0.00000E+00        -0.48395E+08
 
   -0.48213E+08         0.82485E+06         0.00000E+00
    0.82485E+06        -0.49849E+08         0.00000E+00
    0.00000E+00         0.00000E+00        -0.48396E+08
 
   -0.48230E+08         0.84322E+06         0.00000E+00
    0.84322E+06        -0.49841E+08         0.00000E+00
    0.00000E+00         0.00000E+00        -0.48396E+08
 
   -0.48247E+08         0.86144E+06         0.00000E+00
    0.86144E+06        -0.49834E+08         0.00000E+00
    0.00000E+00         0.00000E+00        -0.48396E+08
 
   -0.48264E+08         0.87952E+06         0.00000E+00
    0.87952E+06        -0.49826E+08         0.00000E+00
    0.00000E+00         0.00000E+00        -0.48396E+08
 
   -0.48281E+08         0.89745E+06         0.00000E+00
    0.89745E+06        -0.49818E+08         0.00000E+00
    0.00000E+00         0.00000E+00        -0.48396E+08
 
   -0.48298E+08         0.91524E+06         0.00000E+00
    0.91524E+06        -0.49810E+08         0.00000E+00
    0.00000E+00         0.00000E+00        -0.48396E+08
 
   -0.48315E+08         0.93287E+06         0.00000E+00
    0.93287E+06        -0.49801E+08         0.00000E+00
    0.00000E+00         0.00000E+00        -0.48396E+08
 
   -0.48333E+08         0.95035E+06         0.00000E+00
    0.95035E+06        -0.49793E+08         0.00000E+00
    0.00000E+00         0.00000E+00        -0.48396E+08
 
   -0.48351E+08         0.96768E+06         0.00000E+00
    0.96768E+06        -0.49784E+08         0.00000E+00
    0.00000E+00         0.00000E+00        -0.48396E+08
 
   -0.48369E+08         0.98486E+06         0.00000E+00
    0.98486E+06        -0.49775E+08         0.00000E+00
    0.00000E+00         0.00000E+00        -0.48396E+08
 
   -0.48387E+08         0.10019E+07         0.00000E+00
    0.10019E+07        -0.49766E+08         0.00000E+00
    0.00000E+00         0.00000E+00        -0.48396E+08
 
   -0.47613E+08         0.12056E+05         0.00000E+00
    0.12056E+05        -0.50000E+08         0.00000E+00
    0.00000E+00         0.00000E+00        -0.48305E+08
 
   -0.47622E+08         0.35932E+05         0.00000E+00
    0.35932E+05        -0.50000E+08         0.00000E+00
    0.00000E+00         0.00000E+00        -0.48305E+08
 
   -0.47630E+08         0.59720E+05         0.00000E+00
    0.59720E+05        -0.49999E+08         0.00000E+00
    0.00000E+00         0.00000E+00        -0.48305E+08
 
   -0.47639E+08         0.83419E+05         0.00000E+00
    0.83419E+05        -0.49999E+08         0.00000E+00
    0.00000E+00         0.00000E+00        -0.48305E+08
 
   -0.47648E+08         0.10703E+06         0.00000E+00
    0.10703E+06        -0.49998E+08         0.00000E+00
    0.00000E+00         0.00000E+00        -0.48305E+08
 
   -0.47658E+08         0.13054E+06         0.00000E+00
    0.13054E+06        -0.49997E+08         0.00000E+00
    0.00000E+00         0.00000E+00        -0.48305E+08
 
   -0.47667E+08         0.15396E+06         0.00000E+00
    0.15396E+06        -0.49996E+08         0.00000E+00
    0.00000E+00         0.00000E+00        -0.48305E+08
 
   -0.47677E+08         0.17728E+06         0.00000E+00
    0.17728E+06        -0.49994E+08         0.00000E+00
    0.00000E+00         0.00000E+00        -0.48305E+08
 
   -0.47687E+08         0.20050E+06         0.00000E+00
    0.20050E+06        -0.49992E+08         0.00000E+00
    0.00000E+00         0.00000E+00        -0.48305E+08
 
   -0.47698E+08         0.22362E+06         0.00000E+00
    0.22362E+06        -0.49991E+08         0.00000E+00
    0.00000E+00         0.00000E+00        -0.48305E+08
 
   -0.47709E+08         0.24664E+06         0.00000E+00
    0.24664E+06        -0.49988E+08         0.00000E+00
    0.00000E+00         0.00000E+00        -0.48305E+08
 
   -0.47719E+08         0.26956E+06         0.00000E+00
    0.26956E+06        -0.49986E+08         0.00000E+00
    0.00000E+00         0.00000E+00        -0.48306E+08
 
   -0.47731E+08         0.29237E+06         0.00000E+00
    0.29237E+06        -0.49984E+08         0.00000E+00
    0.00000E+00         0.00000E+00        -0.48306E+08
 
   -0.47742E+08         0.31508E+06         0.00000E+00
    0.31508E+06        -0.49981E+08         0.00000E+00
    0.00000E+00         0.00000E+00        -0.48306E+08
 
   -0.47754E+08         0.33767E+06         0.00000E+00
    0.33767E+06        -0.49978E+08         0.00000E+00
    0.00000E+00         0.00000E+00        -0.48306E+08
 
   -0.47766E+08         0.36016E+06         0.00000E+00
    0.36016E+06        -0.49975E+08         0.00000E+00
    0.00000E+00         0.00000E+00        -0.48306E+08
 
   -0.47778E+08         0.38254E+06         0.00000E+00
    0.38254E+06        -0.49972E+08         0.00000E+00
    0.00000E+00         0.00000E+00        -0.48306E+08
 
   -0.47790E+08         0.40480E+06         0.00000E+00
    0.40480E+06        -0.49968E+08         0.00000E+00
    0.00000E+00         0.00000E+00        -0.48306E+08
 
   -0.47803E+08         0.42694E+06         0.00000E+00
    0.42694E+06        -0.49964E+08         0.00000E+00
    0.00000E+00         0.00000E+00        -0.48306E+08
 
   -0.47816E+08         0.44897E+06         0.00000E+00
    0.44897E+06        -0.49961E+08         0.00000E+00
    0.00000E+00         0.00000E+00        -0.48307E+08
 
   -0.47829E+08         0.47089E+06         0.00000E+00
    0.47089E+06        -0.49956E+08         0.00000E+00
    0.00000E+00         0.00000E+00        -0.48307E+08
 
   -0.47842E+08         0.49268E+06         0.00000E+00
    0.49268E+06        -0.49952E+08         0.00000E+00
    0.00000E+00         0.00000E+00        -0.48307E+08
 
   -0.47856E+08         0.51435E+06         0.00000E+00
    0.51435E+06        -0.49948E+08         0.00000E+00
    0.00000E+00         0.00000E+00        -0.48307E+08
 
   -0.47869E+08         0.53590E+06         0.00000E+00
    0.53590E+06        -0.49943E+08         0.00000E+00
    0.00000E+00         0.00000E+00        -0.48307E+08
 
   -0.47883E+08         0.55733E+06         0.00000E+00
    0.55733E+06        -0.49938E+08         0.00000E+00
    0.00000E+00         0.00000E+00        -0.48307E+08
 
   -0.47898E+08         0.57863E+06         0.00000E+00
    0.57863E+06        -0.49933E+08         0.00000E+00
    0.00000E+00         0.00000E+00        -0.48307E+08
 
   -0.47912E+08         0.59980E+06         0.00000E+00
    0.59980E+06        -0.49928E+08         0.00000E+00
    0.00000E+00         0.00000E+00        -0.48308E+08
 
   -0.47927E+08         0.62085E+06         0.00000E+00
    0.62085E+06        -0.49922E+08         0.00000E+00
    0.00000E+00         0.00000E+00        -0.48308E+08
 
   -0.47942E+08         0.64176E+06         0.00000E+00
    0.64176E+06        -0.49917E+08         0.00000E+00
    0.00000E+00         0.00000E+00        -0.48308E+08
 
   -0.47957E+08         0.66254E+06         0.00000E+00
    0.66254E+06        -0.49911E+08         0.00000E+00
    0.00000E+00         0.00000E+00        -0.48308E+08
 
   -0.47972E+08         0.68319E+06         0.00000E+00
    0.68319E+06        -0.49905E+08         0.00000E+00
    0.00000E+00         0.00000E+00        -0.48308E+08
 
   -0.47987E+08         0.70371E+06         0.00000E+00
    0.70371E+06        -0.49899E+08         0.00000E+00
    0.00000E+00         0.00000E+00        -0.48308E+08
 
   -0.48003E+08         0.72409E+06         0.00000E+00
    0.72409E+06        -0.49892E+08         0.00000E+00
    0.00000E+00         0.00000E+00        -0.48308E+08
 
   -0.48019E+08         0.74433E+06         0.00000E+00
    0.74433E+06        -0.49886E+08         0.00000E+00
    0.00000E+00         0.00000E+00        -0.48309E+08
 
   -0.48035E+08         0.76443E+06         0.00000E+00
    0.76443E+06        -0.49879E+08         0.00000E+00
    0.00000E+00         0.00000E+00        -0.48309E+08
 
   -0.48052E+08         0.78440E+06         0.00000E+00
    0.78440E+06        -0.49872E+08         0.00000E+00
    0.00000E+00         0.00000E+00        -0.48309E+08
 
   -0.48068E+08         0.80422E+06         0.00000E+00
    0.80422E+06        -0.49865E+08         0.00000E+00
    0.00000E+00         0.00000E+00        -0.48309E+08
 
   -0.48085E+08         0.82389E+06         0.00000E+00
    0.82389E+06        -0.49858E+08         0.00000E+00
    0.00000E+00         0.00000E+00        -0.48309E+08
 
   -0.48102E+08         0.84342E+06         0.00000E+00
    0.84342E+06        -0.49850E+08         0.00000E+00
    0.00000E+00         0.00000E+00        -0.48309E+08
 
   -0.48119E+08         0.86281E+06         0.00000E+00
    0.86281E+06        -0.49843E+08         0.00000E+00
    0.00000E+00         0.00000E+00        -0.48309E+08
 
   -0.48136E+08         0.88204E+06         0.00000E+00
    0.88204E+06        -0.49835E+08         0.00000E+00
    0.00000E+00         0.00000E+00        -0.48309E+08
 
   -0.48154E+08         0.90113E+06         0.00000E+00
    0.90113E+06        -0.49827E+08         0.00000E+00
    0.00000E+00         0.00000E+00        -0.48309E+08
 
   -0.48171E+08         0.92007E+06         0.00000E+00
    0.92007E+06        -0.49818E+08         0.00000E+00
    0.00000E+00         0.00000E+00        -0.48310E+08
 
   -0.48189E+08         0.93885E+06         0.00000E+00
    0.93885E+06        -0.49810E+08         0.00000E+00
    0.00000E+00         0.00000E+00        -0.48310E+08
 
   -0.48207E+08         0.95748E+06         0.00000E+00
    0.95748E+06        -0.49802E+08         0.00000E+00
    0.00000E+00         0.00000E+00        -0.48310E+08
 
   -0.48226E+08         0.97595E+06         0.00000E+00
    0.97595E+06        -0.49793E+08         0.00000E+00
    0.00000E+00         0.00000E+00        -0.48310E+08
 
   -0.48244E+08         0.99427E+06         0.00000E+00
    0.99427E+06        -0.49784E+08         0.00000E+00
    0.00000E+00         0.00000E+00        -0.48310E+08
 
   -0.48263E+08         0.10124E+07         0.00000E+00
    0.10124E+07        -0.49775E+08         0.00000E+00
    0.00000E+00         0.00000E+00        -0.48310E+08
 
   -0.48281E+08         0.10304E+07         0.00000E+00
    0.10304E+07        -0.49766E+08         0.00000E+00
    0.00000E+00         0.00000E+00        -0.48310E+08
 
   -0.48300E+08         0.10483E+07         0.00000E+00
    0.10483E+07        -0.49756E+08         0.00000E+00
    0.00000E+00         0.00000E+00        -0.48310E+08
 
   -0.47491E+08         0.12599E+05         0.00000E+00
    0.12599E+05        -0.50000E+08         0.00000E+00
    0.00000E+00         0.00000E+00        -0.48214E+08
 
   -0.47500E+08         0.37553E+05         0.00000E+00
    0.37553E+05        -0.50000E+08         0.00000E+00
    0.00000E+00         0.00000E+00        -0.48214E+08
 
   -0.47509E+08         0.62415E+05         0.00000E+00
    0.62415E+05        -0.49999E+08         0.00000E+00
    0.00000E+00         0.00000E+00        -0.48214E+08
 
   -0.47518E+08         0.87183E+05         0.00000E+00
    0.87183E+05        -0.49999E+08         0.00000E+00
    0.00000E+00         0.00000E+00        -0.48214E+08
 
   -0.47528E+08         0.11186E+06         0.00000E+00
    0.11186E+06        -0.49998E+08         0.00000E+00
    0.00000E+00         0.00000E+00        -0.48214E+08
 
   -0.47538E+08         0.13643E+06         0.00000E+00
    0.13643E+06        -0.49997E+08         0.00000E+00
    0.00000E+00         0.00000E+00        -0.48215E+08
 
   -0.47548E+08         0.16091E+06         0.00000E+00
    0.16091E+06        -0.49995E+08         0.00000E+00
    0.00000E+00         0.00000E+00        -0.48215E+08
 
   -0.47558E+08         0.18529E+06         0.00000E+00
    0.18529E+06        -0.49994E+08         0.00000E+00
    0.00000E+00         0.00000E+00        -0.48215E+08
 
   -0.47569E+08         0.20956E+06         0.00000E+00
    0.20956E+06        -0.49992E+08         0.00000E+00
    0.00000E+00         0.00000E+00        -0.48215E+08
 
   -0.47580E+08         0.23373E+06         0.00000E+00
    0.23373E+06        -0.49990E+08         0.00000E+00
    0.00000E+00         0.00000E+00        -0.48215E+08
 
   -0.47591E+08         0.25780E+06         0.00000E+00
    0.25780E+06        -0.49988E+08         0.00000E+00
    0.00000E+00         0.00000E+00        -0.48215E+08
 
   -0.47603E+08         0.28175E+06         0.00000E+00
    0.28175E+06        -0.49986E+08         0.00000E+00
    0.00000E+00         0.00000E+00        -0.48215E+08
 
   -0.47614E+08         0.30560E+06         0.00000E+00
    0.30560E+06        -0.49983E+08         0.00000E+00
    0.00000E+00         0.00000E+00        -0.48215E+08
 
   -0.47626E+08         0.32934E+06         0.00000E+00
    0.32934E+06        -0.49980E+08         0.00000E+00
    0.00000E+00         0.00000E+00        -0.48215E+08
 
   -0.47638E+08         0.35296E+06         0.00000E+00
    0.35296E+06        -0.49977E+08         0.00000E+00
    0.00000E+00         0.00000E+00        -0.48215E+08
 
   -0.47651E+08         0.37648E+06         0.00000E+00
    0.37648E+06        -0.49974E+08         0.00000E+00
    0.00000E+00         0.00000E+00        -0.48216E+08
 
   -0.47664E+08         0.39987E+06         0.00000E+00
    0.39987E+06        -0.49971E+08         0.00000E+00
    0.00000E+00         0.00000E+00        -0.48216E+08
 
   -0.47677E+08         0.42315E+06         0.00000E+00
    0.42315E+06        -0.49967E+08         0.00000E+00
    0.00000E+00         0.00000E+00        -0.48216E+08
 
   -0.47690E+08         0.44631E+06         0.00000E+00
    0.44631E+06        -0.49963E+08         0.00000E+00
    0.00000E+00         0.00000E+00        -0.48216E+08
 
   -0.47703E+08         0.46935E+06         0.00000E+00
    0.46935E+06        -0.49959E+08         0.00000E+00
    0.00000E+00         0.00000E+00        -0.48216E+08
 
   -0.47717E+08         0.49226E+06         0.00000E+00
    0.49226E+06        -0.49955E+08         0.00000E+00
    0.00000E+00         0.00000E+00        -0.48216E+08
 
   -0.47731E+08         0.51505E+06         0.00000E+00
    0.51505E+06        -0.49950E+08         0.00000E+00
    0.00000E+00         0.00000E+00        -0.48216E+08
 
   -0.47745E+08         0.53772E+06         0.00000E+00
    0.53772E+06        -0.49946E+08         0.00000E+00
    0.00000E+00         0.00000E+00        -0.48217E+08
 
   -0.47759E+08         0.56026E+06         0.00000E+00
    0.56026E+06        -0.49941E+08         0.00000E+00
    0.00000E+00         0.00000E+00        -0.48217E+08
 
   -0.47774E+08         0.58267E+06         0.00000E+00
    0.58267E+06        -0.49936E+08         0.00000E+00
    0.00000E+00         0.00000E+00        -0.48217E+08
 
   -0.47789E+08         0.60496E+06         0.00000E+00
    0.60496E+06        -0.49930E+08         0.00000E+00
    0.00000E+00         0.00000E+00        -0.48217E+08
 
   -0.47804E+08         0.62711E+06         0.00000E+00
    0.62711E+06        -0.49925E+08         0.00000E+00
    0.00000E+00         0.00000E+00        -0.48217E+08
 
   -0.47819E+08         0.64912E+06         0.00000E+00
    0.64912E+06        -0.49919E+08         0.00000E+00
    0.00000E+00         0.00000E+00        -0.48217E+08
 
   -0.47835E+08         0.67101E+06         0.00000E+00
    0.67101E+06        -0.49913E+08         0.00000E+00
    0.00000E+00         0.00000E+00        -0.48217E+08
 
   -0.47851E+08         0.69275E+06         0.00000E+00
    0.69275E+06        -0.49907E+08         0.00000E+00
    0.00000E+00         0.00000E+00        -0.48218E+08
 
   -0.47867E+08         0.71436E+06         0.00000E+00
    0.71436E+06        -0.49901E+08         0.00000E+00
    0.00000E+00         0.00000E+00        -0.48218E+08
 
   -0.47883E+08         0.73583E+06         0.00000E+00
    0.73583E+06        -0.49895E+08         0.00000E+00
    0.00000E+00         0.00000E+00        -0.48218E+08
 
   -0.47899E+08         0.75716E+06         0.00000E+00
    0.75716E+06        -0.49888E+08         0.00000E+00
    0.00000E+00         0.00000E+00        -0.48218E+08
 
   -0.47916E+08         0.77835E+06         0.00000E+00
    0.77835E+06        -0.49881E+08         0.00000E+00
    0.00000E+00         0.00000E+00        -0.48218E+08
 
   -0.47933E+08         0.79939E+06         0.00000E+00
    0.79939E+06        -0.49874E+08         0.00000E+00
    0.00000E+00         0.00000E+00        -0.48218E+08
 
   -0.47950E+08         0.82028E+06         0.00000E+00
    0.82028E+06        -0.49867E+08         0.00000E+00
    0.00000E+00         0.00000E+00        -0.48218E+08
 
   -0.47967E+08         0.84103E+06         0.00000E+00
    0.84103E+06        -0.49859E+08         0.00000E+00
    0.00000E+00         0.00000E+00        -0.48218E+08
 
   -0.47984E+08         0.86163E+06         0.00000E+00
    0.86163E+06        -0.49852E+08         0.00000E+00
    0.00000E+00         0.00000E+00        -0.48219E+08
 
   -0.48002E+08         0.88208E+06         0.00000E+00
    0.88208E+06        -0.49844E+08         0.00000E+00
    0.00000E+00         0.00000E+00        -0.48219E+08
 
   -0.48020E+08         0.90238E+06         0.00000E+00
    0.90238E+06        -0.49836E+08         0.00000E+00
    0.00000E+00         0.00000E+00        -0.48219E+08
 
   -0.48038E+08         0.92253E+06         0.00000E+00
    0.92253E+06        -0.49828E+08         0.00000E+00
    0.00000E+00         0.00000E+00        -0.48219E+08
 
   -0.48056E+08         0.94252E+06         0.00000E+00
    0.94252E+06        -0.49819E+08         0.00000E+00
    0.00000E+00         0.00000E+00        -0.48219E+08
 
   -0.48075E+08         0.96235E+06         0.00000E+00
    0.96235E+06        -0.49811E+08         0.00000E+00
    0.00000E+00         0.00000E+00        -0.48219E+08
 
   -0.48093E+08         0.98203E+06         0.00000E+00
    0.98203E+06        -0.49802E+08         0.00000E+00
    0.00000E+00         0.00000E+00        -0.48219E+08
 
   -0.48112E+08         0.10015E+07         0.00000E+00
    0.10015E+07        -0.49793E+08         0.00000E+00
    0.00000E+00         0.00000E+00        -0.48219E+08
 
   -0.48131E+08         0.10209E+07         0.00000E+00
    0.10209E+07        -0.49784E+08         0.00000E+00
    0.00000E+00         0.00000E+00        -0.48219E+08
 
   -0.48151E+08         0.10401E+07         0.00000E+00
    0.10401E+07        -0.49775E+08         0.00000E+00
    0.00000E+00         0.00000E+00        -0.48219E+08
 
   -0.48170E+08         0.10591E+07         0.00000E+00
    0.10591E+07        -0.49765E+08         0.00000E+00
    0.00000E+00         0.00000E+00        -0.48219E+08
 
   -0.48190E+08         0.10780E+07         0.00000E+00
    0.10780E+07        -0.49756E+08         0.00000E+00
    0.00000E+00         0.00000E+00        -0.48219E+08
 
   -0.48209E+08         0.10967E+07         0.00000E+00
    0.10967E+07        -0.49746E+08         0.00000E+00
    0.00000E+00         0.00000E+00        -0.48219E+08
 
   -0.47363E+08         0.13165E+05         0.00000E+00
    0.13165E+05        -0.50000E+08         0.00000E+00
    0.00000E+00         0.00000E+00        -0.48119E+08
 
   -0.47373E+08         0.39240E+05         0.00000E+00
    0.39240E+05        -0.50000E+08         0.00000E+00
    0.00000E+00         0.00000E+00        -0.48119E+08
 
   -0.47382E+08         0.65220E+05         0.00000E+00
    0.65220E+05        -0.49999E+08         0.00000E+00
    0.00000E+00         0.00000E+00        -0.48119E+08
 
   -0.47392E+08         0.91103E+05         0.00000E+00
    0.91103E+05        -0.49999E+08         0.00000E+00
    0.00000E+00         0.00000E+00        -0.48120E+08
 
   -0.47402E+08         0.11689E+06         0.00000E+00
    0.11689E+06        -0.49998E+08         0.00000E+00
    0.00000E+00         0.00000E+00        -0.48120E+08
 
   -0.47412E+08         0.14257E+06         0.00000E+00
    0.14257E+06        -0.49997E+08         0.00000E+00
    0.00000E+00         0.00000E+00        -0.48120E+08
 
   -0.47423E+08         0.16815E+06         0.00000E+00
    0.16815E+06        -0.49995E+08         0.00000E+00
    0.00000E+00         0.00000E+00        -0.48120E+08
 
   -0.47434E+08         0.19362E+06         0.00000E+00
    0.19362E+06        -0.49994E+08         0.00000E+00
    0.00000E+00         0.00000E+00        -0.48120E+08
 
   -0.47445E+08         0.21899E+06         0.00000E+00
    0.21899E+06        -0.49992E+08         0.00000E+00
    0.00000E+00         0.00000E+00        -0.48120E+08
 
   -0.47457E+08         0.24425E+06         0.00000E+00
    0.24425E+06        -0.49990E+08         0.00000E+00
    0.00000E+00         0.00000E+00        -0.48120E+08
 
   -0.47468E+08         0.26941E+06         0.00000E+00
    0.26941E+06        -0.49987E+08         0.00000E+00
    0.00000E+00         0.00000E+00        -0.48120E+08
 
   -0.47480E+08         0.29445E+06         0.00000E+00
    0.29445E+06        -0.49985E+08         0.00000E+00
    0.00000E+00         0.00000E+00        -0.48120E+08
 
   -0.47493E+08         0.31937E+06         0.00000E+00
    0.31937E+06        -0.49982E+08         0.00000E+00
    0.00000E+00         0.00000E+00        -0.48120E+08
 
   -0.47505E+08         0.34418E+06         0.00000E+00
    0.34418E+06        -0.49979E+08         0.00000E+00
    0.00000E+00         0.00000E+00        -0.48120E+08
 
   -0.47518E+08         0.36888E+06         0.00000E+00
    0.36888E+06        -0.49976E+08         0.00000E+00
    0.00000E+00         0.00000E+00        -0.48121E+08
 
   -0.47531E+08         0.39346E+06         0.00000E+00
    0.39346E+06        -0.49973E+08         0.00000E+00
    0.00000E+00         0.00000E+00        -0.48121E+08
 
   -0.47544E+08         0.41791E+06         0.00000E+00
    0.41791E+06        -0.49969E+08         0.00000E+00
    0.00000E+00         0.00000E+00        -0.48121E+08
 
   -0.47558E+08         0.44225E+06         0.00000E+00
    0.44225E+06        -0.49966E+08         0.00000E+00
    0.00000E+00         0.00000E+00        -0.48121E+08
 
   -0.47572E+08         0.46646E+06         0.00000E+00
    0.46646E+06        -0.49962E+08         0.00000E+00
    0.00000E+00         0.00000E+00        -0.48121E+08
 
   -0.47586E+08         0.49055E+06         0.00000E+00
    0.49055E+06        -0.49957E+08         0.00000E+00
    0.00000E+00         0.00000E+00        -0.48121E+08
 
   -0.47600E+08         0.51451E+06         0.00000E+00
    0.51451E+06        -0.49953E+08         0.00000E+00
    0.00000E+00         0.00000E+00        -0.48121E+08
 
   -0.47615E+08         0.53835E+06         0.00000E+00
    0.53835E+06        -0.49948E+08         0.00000E+00
    0.00000E+00         0.00000E+00        -0.48121E+08
 
   -0.47629E+08         0.56205E+06         0.00000E+00
    0.56205E+06        -0.49943E+08         0.00000E+00
    0.00000E+00         0.00000E+00        -0.48122E+08
 
   -0.47644E+08         0.58562E+06         0.00000E+00
    0.58562E+06        -0.49938E+08         0.00000E+00
    0.00000E+00         0.00000E+00        -0.48122E+08
 
   -0.47660E+08         0.60906E+06         0.00000E+00
    0.60906E+06        -0.49933E+08         0.00000E+00
    0.00000E+00         0.00000E+00        -0.48122E+08
 
   -0.47675E+08         0.63237E+06         0.00000E+00
    0.63237E+06        -0.49928E+08         0.00000E+00
    0.00000E+00         0.00000E+00        -0.48122E+08
 
   -0.47691E+08         0.65554E+06         0.00000E+00
    0.65554E+06        -0.49922E+08         0.00000E+00
    0.00000E+00         0.00000E+00        -0.48122E+08
 
   -0.47707E+08         0.67857E+06         0.00000E+00
    0.67857E+06        -0.49916E+08         0.00000E+00
    0.00000E+00         0.00000E+00        -0.48122E+08
 
   -0.47723E+08         0.70146E+06         0.00000E+00
    0.70146E+06        -0.49910E+08         0.00000E+00
    0.00000E+00         0.00000E+00        -0.48123E+08
 
   -0.47740E+08         0.72422E+06         0.00000E+00
    0.72422E+06        -0.49903E+08         0.00000E+00
    0.00000E+00         0.00000E+00        -0.48123E+08
 
   -0.47756E+08         0.74682E+06         0.00000E+00
    0.74682E+06        -0.49897E+08         0.00000E+00
    0.00000E+00         0.00000E+00        -0.48123E+08
 
   -0.47773E+08         0.76929E+06         0.00000E+00
    0.76929E+06        -0.49890E+08         0.00000E+00
    0.00000E+00         0.00000E+00        -0.48123E+08
 
   -0.47790E+08         0.79161E+06         0.00000E+00
    0.79161E+06        -0.49883E+08         0.00000E+00
    0.00000E+00         0.00000E+00        -0.48123E+08
 
   -0.47808E+08         0.81378E+06         0.00000E+00
    0.81378E+06        -0.49876E+08         0.00000E+00
    0.00000E+00         0.00000E+00        -0.48123E+08
 
   -0.47825E+08         0.83580E+06         0.00000E+00
    0.83580E+06        -0.49869E+08         0.00000E+00
    0.00000E+00         0.00000E+00        -0.48123E+08
 
   -0.47843E+08         0.85768E+06         0.00000E+00
    0.85768E+06        -0.49861E+08         0.00000E+00
    0.00000E+00         0.00000E+00        -0.48123E+08
 
   -0.47861E+08         0.87940E+06         0.00000E+00
    0.87940E+06        -0.49854E+08         0.00000E+00
    0.00000E+00         0.00000E+00        -0.48124E+08
 
   -0.47879E+08         0.90096E+06         0.00000E+00
    0.90096E+06        -0.49846E+08         0.00000E+00
    0.00000E+00         0.00000E+00        -0.48124E+08
 
   -0.47898E+08         0.92238E+06         0.00000E+00
    0.92238E+06        -0.49838E+08         0.00000E+00
    0.00000E+00         0.00000E+00        -0.48124E+08
 
   -0.47917E+08         0.94363E+06         0.00000E+00
    0.94363E+06        -0.49829E+08         0.00000E+00
    0.00000E+00         0.00000E+00        -0.48124E+08
 
   -0.47935E+08         0.96473E+06         0.00000E+00
    0.96473E+06        -0.49821E+08         0.00000E+00
    0.00000E+00         0.00000E+00        -0.48124E+08
 
   -0.47954E+08         0.98566E+06         0.00000E+00
    0.98566E+06        -0.49812E+08         0.00000E+00
    0.00000E+00         0.00000E+00        -0.48124E+08
 
   -0.47974E+08         0.10064E+07         0.00000E+00
    0.10064E+07        -0.49803E+08         0.00000E+00
    0.00000E+00         0.00000E+00        -0.48124E+08
 
   -0.47993E+08         0.10270E+07         0.00000E+00
    0.10270E+07        -0.49794E+08         0.00000E+00
    0.00000E+00         0.00000E+00        -0.48124E+08
 
   -0.48013E+08         0.10475E+07         0.00000E+00
    0.10475E+07        -0.49785E+08         0.00000E+00
    0.00000E+00         0.00000E+00        -0.48124E+08
 
   -0.48033E+08         0.10678E+07         0.00000E+00
    0.10678E+07        -0.49775E+08         0.00000E+00
    0.00000E+00         0.00000E+00        -0.48124E+08
 
   -0.48053E+08         0.10879E+07         0.00000E+00
    0.10879E+07        -0.49766E+08         0.00000E+00
    0.00000E+00         0.00000E+00        -0.48124E+08
 
   -0.48073E+08         0.11078E+07         0.00000E+00
    0.11078E+07        -0.49756E+08         0.00000E+00
    0.00000E+00         0.00000E+00        -0.48124E+08
 
   -0.48093E+08         0.11276E+07         0.00000E+00
    0.11276E+07        -0.49746E+08         0.00000E+00
    0.00000E+00         0.00000E+00        -0.48124E+08
 
   -0.48114E+08         0.11472E+07         0.00000E+00
    0.11472E+07        -0.49735E+08         0.00000E+00
    0.00000E+00         0.00000E+00        -0.48124E+08
 
   -0.47230E+08         0.13754E+05         0.00000E+00
    0.13754E+05        -0.50000E+08         0.00000E+00
    0.00000E+00         0.00000E+00        -0.48020E+08
 
   -0.47240E+08         0.40996E+05         0.00000E+00
    0.40996E+05        -0.50000E+08         0.00000E+00
    0.00000E+00         0.00000E+00        -0.48020E+08
 
   -0.47250E+08         0.68139E+05         0.00000E+00
    0.68139E+05        -0.49999E+08         0.00000E+00
    0.00000E+00         0.00000E+00        -0.48020E+08
 
   -0.47260E+08         0.95180E+05         0.00000E+00
    0.95180E+05        -0.49999E+08         0.00000E+00
    0.00000E+00         0.00000E+00        -0.48020E+08
 
   -0.47270E+08         0.12212E+06         0.00000E+00
    0.12212E+06        -0.49998E+08         0.00000E+00
    0.00000E+00         0.00000E+00        -0.48020E+08
 
   -0.47281E+08         0.14895E+06         0.00000E+00
    0.14895E+06        -0.49996E+08         0.00000E+00
    0.00000E+00         0.00000E+00        -0.48020E+08
 
   -0.47293E+08         0.17568E+06         0.00000E+00
    0.17568E+06        -0.49995E+08         0.00000E+00
    0.00000E+00         0.00000E+00        -0.48020E+08
 
   -0.47304E+08         0.20230E+06         0.00000E+00
    0.20230E+06        -0.49993E+08         0.00000E+00
    0.00000E+00         0.00000E+00        -0.48020E+08
 
   -0.47316E+08         0.22880E+06         0.00000E+00
    0.22880E+06        -0.49991E+08         0.00000E+00
    0.00000E+00         0.00000E+00        -0.48020E+08
 
   -0.47328E+08         0.25520E+06         0.00000E+00
    0.25520E+06        -0.49989E+08         0.00000E+00
    0.00000E+00         0.00000E+00        -0.48020E+08
 
   -0.47340E+08         0.28148E+06         0.00000E+00
    0.28148E+06        -0.49987E+08         0.00000E+00
    0.00000E+00         0.00000E+00        -0.48021E+08
 
   -0.47353E+08         0.30765E+06         0.00000E+00
    0.30765E+06        -0.49984E+08         0.00000E+00
    0.00000E+00         0.00000E+00        -0.48021E+08
 
   -0.47365E+08         0.33370E+06         0.00000E+00
    0.33370E+06        -0.49982E+08         0.00000E+00
    0.00000E+00         0.00000E+00        -0.48021E+08
 
   -0.47379E+08         0.35963E+06         0.00000E+00
    0.35963E+06        -0.49979E+08         0.00000E+00
    0.00000E+00         0.00000E+00        -0.48021E+08
 
   -0.47392E+08         0.38544E+06         0.00000E+00
    0.38544E+06        -0.49975E+08         0.00000E+00
    0.00000E+00         0.00000E+00        -0.48021E+08
 
   -0.47406E+08         0.41113E+06         0.00000E+00
    0.41113E+06        -0.49972E+08         0.00000E+00
    0.00000E+00         0.00000E+00        -0.48021E+08
 
   -0.47420E+08         0.43669E+06         0.00000E+00
    0.43669E+06        -0.49968E+08         0.00000E+00
    0.00000E+00         0.00000E+00        -0.48021E+08
 
   -0.47434E+08         0.46213E+06         0.00000E+00
    0.46213E+06        -0.49964E+08         0.00000E+00
    0.00000E+00         0.00000E+00        -0.48021E+08
 
   -0.47448E+08         0.48744E+06         0.00000E+00
    0.48744E+06        -0.49960E+08         0.00000E+00
    0.00000E+00         0.00000E+00        -0.48022E+08
 
   -0.47463E+08         0.51262E+06         0.00000E+00
    0.51262E+06        -0.49956E+08         0.00000E+00
    0.00000E+00         0.00000E+00        -0.48022E+08
 
   -0.47478E+08         0.53767E+06         0.00000E+00
    0.53767E+06        -0.49951E+08         0.00000E+00
    0.00000E+00         0.00000E+00        -0.48022E+08
 
   -0.47493E+08         0.56259E+06         0.00000E+00
    0.56259E+06        -0.49946E+08         0.00000E+00
    0.00000E+00         0.00000E+00        -0.48022E+08
 
   -0.47509E+08         0.58737E+06         0.00000E+00
    0.58737E+06        -0.49941E+08         0.00000E+00
    0.00000E+00         0.00000E+00        -0.48022E+08
 
   -0.47524E+08         0.61202E+06         0.00000E+00
    0.61202E+06        -0.49936E+08         0.00000E+00
    0.00000E+00         0.00000E+00        -0.48022E+08
 
   -0.47540E+08         0.63653E+06         0.00000E+00
    0.63653E+06        -0.49930E+08         0.00000E+00
    0.00000E+00         0.00000E+00        -0.48022E+08
 
   -0.47556E+08         0.66090E+06         0.00000E+00
    0.66090E+06        -0.49925E+08         0.00000E+00
    0.00000E+00         0.00000E+00        -0.48023E+08
 
   -0.47573E+08         0.68513E+06         0.00000E+00
    0.68513E+06        -0.49919E+08         0.00000E+00
    0.00000E+00         0.00000E+00        -0.48023E+08
 
   -0.47590E+08         0.70922E+06         0.00000E+00
    0.70922E+06        -0.49913E+08         0.00000E+00
    0.00000E+00         0.00000E+00        -0.48023E+08
 
   -0.47607E+08         0.73317E+06         0.00000E+00
    0.73317E+06        -0.49906E+08         0.00000E+00
    0.00000E+00         0.00000E+00        -0.48023E+08
 
   -0.47624E+08         0.75697E+06         0.00000E+00
    0.75697E+06        -0.49900E+08         0.00000E+00
    0.00000E+00         0.00000E+00        -0.48023E+08
 
   -0.47641E+08         0.78062E+06         0.00000E+00
    0.78062E+06        -0.49893E+08         0.00000E+00
    0.00000E+00         0.00000E+00        -0.48023E+08
 
   -0.47659E+08         0.80413E+06         0.00000E+00
    0.80413E+06        -0.49886E+08         0.00000E+00
    0.00000E+00         0.00000E+00        -0.48024E+08
 
   -0.47677E+08         0.82748E+06         0.00000E+00
    0.82748E+06        -0.49879E+08         0.00000E+00
    0.00000E+00         0.00000E+00        -0.48024E+08
 
   -0.47695E+08         0.85068E+06         0.00000E+00
    0.85068E+06        -0.49871E+08         0.00000E+00
    0.00000E+00         0.00000E+00        -0.48024E+08
 
   -0.47713E+08         0.87373E+06         0.00000E+00
    0.87373E+06        -0.49864E+08         0.00000E+00
    0.00000E+00         0.00000E+00        -0.48024E+08
 
   -0.47732E+08         0.89662E+06         0.00000E+00
    0.89662E+06        -0.49856E+08         0.00000E+00
    0.00000E+00         0.00000E+00        -0.48024E+08
 
   -0.47750E+08         0.91936E+06         0.00000E+00
    0.91936E+06        -0.49848E+08         0.00000E+00
    0.00000E+00         0.00000E+00        -0.48024E+08
 
   -0.47769E+08         0.94194E+06         0.00000E+00
    0.94194E+06        -0.49839E+08         0.00000E+00
    0.00000E+00         0.00000E+00        -0.48024E+08
 
   -0.47789E+08         0.96435E+06         0.00000E+00
    0.96435E+06        -0.49831E+08         0.00000E+00
    0.00000E+00         0.00000E+00        -0.48024E+08
 
   -0.47808E+08         0.98661E+06         0.00000E+00
    0.98661E+06        -0.49822E+08         0.00000E+00
    0.00000E+00         0.00000E+00        -0.48024E+08
 
   -0.47828E+08         0.10087E+07         0.00000E+00
    0.10087E+07        -0.49813E+08         0.00000E+00
    0.00000E+00         0.00000E+00        -0.48025E+08
 
   -0.47848E+08         0.10306E+07         0.00000E+00
    0.10306E+07        -0.49804E+08         0.00000E+00
    0.00000E+00         0.00000E+00        -0.48025E+08
 
   -0.47868E+08         0.10524E+07         0.00000E+00
    0.10524E+07        -0.49795E+08         0.00000E+00
    0.00000E+00         0.00000E+00        -0.48025E+08
 
   -0.47888E+08         0.10740E+07         0.00000E+00
    0.10740E+07        -0.49786E+08         0.00000E+00
    0.00000E+00         0.00000E+00        -0.48025E+08
 
   -0.47909E+08         0.10954E+07         0.00000E+00
    0.10954E+07        -0.49776E+08         0.00000E+00
    0.00000E+00         0.00000E+00        -0.48025E+08
 
   -0.47929E+08         0.11166E+07         0.00000E+00
    0.11166E+07        -0.49766E+08         0.00000E+00
    0.00000E+00         0.00000E+00        -0.48025E+08
 
   -0.47950E+08         0.11377E+07         0.00000E+00
    0.11377E+07        -0.49756E+08         0.00000E+00
    0.00000E+00         0.00000E+00        -0.48025E+08
 
   -0.47971E+08         0.11586E+07         0.00000E+00
    0.11586E+07        -0.49746E+08         0.00000E+00
    0.00000E+00         0.00000E+00        -0.48025E+08
 
   -0.47993E+08         0.11793E+07         0.00000E+00
    0.11793E+07        -0.49735E+08         0.00000E+00
    0.00000E+00         0.00000E+00        -0.48025E+08
 
   -0.48014E+08         0.11999E+07         0.00000E+00
    0.11999E+07        -0.49724E+08         0.00000E+00
    0.00000E+00         0.00000E+00        -0.48025E+08
 
   -0.47090E+08         0.14367E+05         0.00000E+00
    0.14367E+05        -0.50000E+08         0.00000E+00
    0.00000E+00         0.00000E+00        -0.47916E+08
 
   -0.47101E+08         0.42822E+05         0.00000E+00
    0.42822E+05        -0.50000E+08         0.00000E+00
    0.00000E+00         0.00000E+00        -0.47916E+08
 
   -0.47111E+08         0.71174E+05         0.00000E+00
    0.71174E+05        -0.49999E+08         0.00000E+00
    0.00000E+00         0.00000E+00        -0.47916E+08
 
   -0.47122E+08         0.99421E+05         0.00000E+00
    0.99421E+05        -0.49998E+08         0.00000E+00
    0.00000E+00         0.00000E+00        -0.47916E+08
 
   -0.47133E+08         0.12756E+06         0.00000E+00
    0.12756E+06        -0.49997E+08         0.00000E+00
    0.00000E+00         0.00000E+00        -0.47916E+08
 
   -0.47144E+08         0.15559E+06         0.00000E+00
    0.15559E+06        -0.49996E+08         0.00000E+00
    0.00000E+00         0.00000E+00        -0.47916E+08
 
   -0.47156E+08         0.18351E+06         0.00000E+00
    0.18351E+06        -0.49995E+08         0.00000E+00
    0.00000E+00         0.00000E+00        -0.47916E+08
 
   -0.47168E+08         0.21132E+06         0.00000E+00
    0.21132E+06        -0.49993E+08         0.00000E+00
    0.00000E+00         0.00000E+00        -0.47916E+08
 
   -0.47181E+08         0.23901E+06         0.00000E+00
    0.23901E+06        -0.49991E+08         0.00000E+00
    0.00000E+00         0.00000E+00        -0.47916E+08
 
   -0.47193E+08         0.26658E+06         0.00000E+00
    0.26658E+06        -0.49989E+08         0.00000E+00
    0.00000E+00         0.00000E+00        -0.47916E+08
 
   -0.47206E+08         0.29404E+06         0.00000E+00
    0.29404E+06        -0.49986E+08         0.00000E+00
    0.00000E+00         0.00000E+00        -0.47916E+08
 
   -0.47219E+08         0.32138E+06         0.00000E+00
    0.32138E+06        -0.49984E+08         0.00000E+00
    0.00000E+00         0.00000E+00        -0.47916E+08
 
   -0.47233E+08         0.34860E+06         0.00000E+00
    0.34860E+06        -0.49981E+08         0.00000E+00
    0.00000E+00         0.00000E+00        -0.47917E+08
 
   -0.47246E+08         0.37569E+06         0.00000E+00
    0.37569E+06        -0.49978E+08         0.00000E+00
    0.00000E+00         0.00000E+00        -0.47917E+08
 
   -0.47260E+08         0.40266E+06         0.00000E+00
    0.40266E+06        -0.49974E+08         0.00000E+00
    0.00000E+00         0.00000E+00        -0.47917E+08
 
   -0.47275E+08         0.42950E+06         0.00000E+00
    0.42950E+06        -0.49971E+08         0.00000E+00
    0.00000E+00         0.00000E+00        -0.47917E+08
 
   -0.47289E+08         0.45621E+06         0.00000E+00
    0.45621E+06        -0.49967E+08         0.00000E+00
    0.00000E+00         0.00000E+00        -0.47917E+08
 
   -0.47304E+08         0.48280E+06         0.00000E+00
    0.48280E+06        -0.49963E+08         0.00000E+00
    0.00000E+00         0.00000E+00        -0.47917E+08
 
   -0.47319E+08         0.50925E+06         0.00000E+00
    0.50925E+06        -0.49958E+08         0.00000E+00
    0.00000E+00         0.00000E+00        -0.47917E+08
 
   -0.47334E+08         0.53557E+06         0.00000E+00
    0.53557E+06        -0.49954E+08         0.00000E+00
    0.00000E+00         0.00000E+00        -0.47917E+08
 
   -0.47350E+08         0.56175E+06         0.00000E+00
    0.56175E+06        -0.49949E+08         0.00000E+00
    0.00000E+00         0.00000E+00        -0.47918E+08
 
   -0.47366E+08         0.58780E+06         0.00000E+00
    0.58780E+06        -0.49944E+08         0.00000E+00
    0.00000E+00         0.00000E+00        -0.47918E+08
 
   -0.47382E+08         0.61371E+06         0.00000E+00
    0.61371E+06        -0.49939E+08         0.00000E+00
    0.00000E+00         0.00000E+00        -0.47918E+08
 
   -0.47399E+08         0.63947E+06         0.00000E+00
    0.63947E+06        -0.49933E+08         0.00000E+00
    0.00000E+00         0.00000E+00        -0.47918E+08
 
   -0.47415E+08         0.66510E+06         0.00000E+00
    0.66510E+06        -0.49928E+08         0.00000E+00
    0.00000E+00         0.00000E+00        -0.47918E+08
 
   -0.47432E+08         0.69058E+06         0.00000E+00
    0.69058E+06        -0.49922E+08         0.00000E+00
    0.00000E+00         0.00000E+00        -0.47918E+08
 
   -0.47449E+08         0.71592E+06         0.00000E+00
    0.71592E+06        -0.49915E+08         0.00000E+00
    0.00000E+00         0.00000E+00        -0.47919E+08
 
   -0.47467E+08         0.74111E+06         0.00000E+00
    0.74111E+06        -0.49909E+08         0.00000E+00
    0.00000E+00         0.00000E+00        -0.47919E+08
 
   -0.47484E+08         0.76616E+06         0.00000E+00
    0.76616E+06        -0.49902E+08         0.00000E+00
    0.00000E+00         0.00000E+00        -0.47919E+08
 
   -0.47502E+08         0.79105E+06         0.00000E+00
    0.79105E+06        -0.49896E+08         0.00000E+00
    0.00000E+00         0.00000E+00        -0.47919E+08
 
   -0.47521E+08         0.81579E+06         0.00000E+00
    0.81579E+06        -0.49889E+08         0.00000E+00
    0.00000E+00         0.00000E+00        -0.47919E+08
 
   -0.47539E+08         0.84038E+06         0.00000E+00
    0.84038E+06        -0.49881E+08         0.00000E+00
    0.00000E+00         0.00000E+00        -0.47919E+08
 
   -0.47558E+08         0.86482E+06         0.00000E+00
    0.86482E+06        -0.49874E+08         0.00000E+00
    0.00000E+00         0.00000E+00        -0.47919E+08
 
   -0.47576E+08         0.88909E+06         0.00000E+00
    0.88909E+06        -0.49866E+08         0.00000E+00
    0.00000E+00         0.00000E+00        -0.47920E+08
 
   -0.47596E+08         0.91321E+06         0.00000E+00
    0.91321E+06        -0.49858E+08         0.00000E+00
    0.00000E+00         0.00000E+00        -0.47920E+08
 
   -0.47615E+08         0.93717E+06         0.00000E+00
    0.93717E+06        -0.49850E+08         0.00000E+00
    0.00000E+00         0.00000E+00        -0.47920E+08
 
   -0.47635E+08         0.96097E+06         0.00000E+00
    0.96097E+06        -0.49842E+08         0.00000E+00
    0.00000E+00         0.00000E+00        -0.47920E+08
 
   -0.47654E+08         0.98460E+06         0.00000E+00
    0.98460E+06        -0.49833E+08         0.00000E+00
    0.00000E+00         0.00000E+00        -0.47920E+08
 
   -0.47674E+08         0.10081E+07         0.00000E+00
    0.10081E+07        -0.49824E+08         0.00000E+00
    0.00000E+00         0.00000E+00        -0.47920E+08
 
   -0.47695E+08         0.10314E+07         0.00000E+00
    0.10314E+07        -0.49815E+08         0.00000E+00
    0.00000E+00         0.00000E+00        -0.47920E+08
 
   -0.47715E+08         0.10545E+07         0.00000E+00
    0.10545E+07        -0.49806E+08         0.00000E+00
    0.00000E+00         0.00000E+00        -0.47920E+08
 
   -0.47736E+08         0.10775E+07         0.00000E+00
    0.10775E+07        -0.49796E+08         0.00000E+00
    0.00000E+00         0.00000E+00        -0.47920E+08
 
   -0.47757E+08         0.11003E+07         0.00000E+00
    0.11003E+07        -0.49787E+08         0.00000E+00
    0.00000E+00         0.00000E+00        -0.47920E+08
 
   -0.47778E+08         0.11229E+07         0.00000E+00
    0.11229E+07        -0.49777E+08         0.00000E+00
    0.00000E+00         0.00000E+00        -0.47921E+08
 
   -0.47799E+08         0.11453E+07         0.00000E+00
    0.11453E+07        -0.49767E+08         0.00000E+00
    0.00000E+00         0.00000E+00        -0.47921E+08
 
   -0.47821E+08         0.11676E+07         0.00000E+00
    0.11676E+07        -0.49756E+08         0.00000E+00
    0.00000E+00         0.00000E+00        -0.47921E+08
 
   -0.47843E+08         0.11897E+07         0.00000E+00
    0.11897E+07        -0.49746E+08         0.00000E+00
    0.00000E+00         0.00000E+00        -0.47921E+08
 
   -0.47865E+08         0.12116E+07         0.00000E+00
    0.12116E+07        -0.49735E+08         0.00000E+00
    0.00000E+00         0.00000E+00        -0.47921E+08
 
   -0.47887E+08         0.12333E+07         0.00000E+00
    0.12333E+07        -0.49724E+08         0.00000E+00
    0.00000E+00         0.00000E+00        -0.47921E+08
 
   -0.47909E+08         0.12548E+07         0.00000E+00
    0.12548E+07        -0.49713E+08         0.00000E+00
    0.00000E+00         0.00000E+00        -0.47921E+08
 
   -0.46945E+08         0.15003E+05         0.00000E+00
    0.15003E+05        -0.50000E+08         0.00000E+00
    0.00000E+00         0.00000E+00        -0.47806E+08
 
   -0.46955E+08         0.44720E+05         0.00000E+00
    0.44720E+05        -0.50000E+08         0.00000E+00
    0.00000E+00         0.00000E+00        -0.47806E+08
 
   -0.46966E+08         0.74329E+05         0.00000E+00
    0.74329E+05        -0.49999E+08         0.00000E+00
    0.00000E+00         0.00000E+00        -0.47806E+08
 
   -0.46978E+08         0.10383E+06         0.00000E+00
    0.10383E+06        -0.49998E+08         0.00000E+00
    0.00000E+00         0.00000E+00        -0.47806E+08
 
   -0.46990E+08         0.13321E+06         0.00000E+00
    0.13321E+06        -0.49997E+08         0.00000E+00
    0.00000E+00         0.00000E+00        -0.47806E+08
 
   -0.47002E+08         0.16249E+06         0.00000E+00
    0.16249E+06        -0.49996E+08         0.00000E+00
    0.00000E+00         0.00000E+00        -0.47807E+08
 
   -0.47014E+08         0.19165E+06         0.00000E+00
    0.19165E+06        -0.49995E+08         0.00000E+00
    0.00000E+00         0.00000E+00        -0.47807E+08
 
   -0.47026E+08         0.22069E+06         0.00000E+00
    0.22069E+06        -0.49993E+08         0.00000E+00
    0.00000E+00         0.00000E+00        -0.47807E+08
 
   -0.47039E+08         0.24961E+06         0.00000E+00
    0.24961E+06        -0.49991E+08         0.00000E+00
    0.00000E+00         0.00000E+00        -0.47807E+08
 
   -0.47053E+08         0.27841E+06         0.00000E+00
    0.27841E+06        -0.49988E+08         0.00000E+00
    0.00000E+00         0.00000E+00        -0.47807E+08
 
   -0.47066E+08         0.30709E+06         0.00000E+00
    0.30709E+06        -0.49986E+08         0.00000E+00
    0.00000E+00         0.00000E+00        -0.47807E+08
 
   -0.47080E+08         0.33565E+06         0.00000E+00
    0.33565E+06        -0.49983E+08         0.00000E+00
    0.00000E+00         0.00000E+00        -0.47807E+08
 
   -0.47094E+08         0.36408E+06         0.00000E+00
    0.36408E+06        -0.49980E+08         0.00000E+00
    0.00000E+00         0.00000E+00        -0.47807E+08
 
   -0.47108E+08         0.39238E+06         0.00000E+00
    0.39238E+06        -0.49977E+08         0.00000E+00
    0.00000E+00         0.00000E+00        -0.47807E+08
 
   -0.47123E+08         0.42055E+06         0.00000E+00
    0.42055E+06        -0.49973E+08         0.00000E+00
    0.00000E+00         0.00000E+00        -0.47807E+08
 
   -0.47138E+08         0.44859E+06         0.00000E+00
    0.44859E+06        -0.49970E+08         0.00000E+00
    0.00000E+00         0.00000E+00        -0.47808E+08
 
   -0.47153E+08         0.47650E+06         0.00000E+00
    0.47650E+06        -0.49966E+08         0.00000E+00
    0.00000E+00         0.00000E+00        -0.47808E+08
 
   -0.47168E+08         0.50428E+06         0.00000E+00
    0.50428E+06        -0.49961E+08         0.00000E+00
    0.00000E+00         0.00000E+00        -0.47808E+08
 
   -0.47184E+08         0.53192E+06         0.00000E+00
    0.53192E+06        -0.49957E+08         0.00000E+00
    0.00000E+00         0.00000E+00        -0.47808E+08
 
   -0.47200E+08         0.55942E+06         0.00000E+00
    0.55942E+06        -0.49952E+08         0.00000E+00
    0.00000E+00         0.00000E+00        -0.47808E+08
 
   -0.47217E+08         0.58678E+06         0.00000E+00
    0.58678E+06        -0.49947E+08         0.00000E+00
    0.00000E+00         0.00000E+00        -0.47808E+08
 
   -0.47233E+08         0.61400E+06         0.00000E+00
    0.61400E+06        -0.49942E+08         0.00000E+00
    0.00000E+00         0.00000E+00        -0.47808E+08
 
   -0.47250E+08         0.64108E+06         0.00000E+00
    0.64108E+06        -0.49936E+08         0.00000E+00
    0.00000E+00         0.00000E+00        -0.47809E+08
 
   -0.47267E+08         0.66802E+06         0.00000E+00
    0.66802E+06        -0.49931E+08         0.00000E+00
    0.00000E+00         0.00000E+00        -0.47809E+08
 
   -0.47285E+08         0.69481E+06         0.00000E+00
    0.69481E+06        -0.49925E+08         0.00000E+00
    0.00000E+00         0.00000E+00        -0.47809E+08
 
   -0.47302E+08         0.72145E+06         0.00000E+00
    0.72145E+06        -0.49919E+08         0.00000E+00
    0.00000E+00         0.00000E+00        -0.47809E+08
 
   -0.47320E+08         0.74794E+06         0.00000E+00
    0.74794E+06        -0.49912E+08         0.00000E+00
    0.00000E+00         0.00000E+00        -0.47809E+08
 
   -0.47338E+08         0.77428E+06         0.00000E+00
    0.77428E+06        -0.49905E+08         0.00000E+00
    0.00000E+00         0.00000E+00        -0.47809E+08
 
   -0.47357E+08         0.80047E+06         0.00000E+00
    0.80047E+06        -0.49899E+08         0.00000E+00
    0.00000E+00         0.00000E+00        -0.47809E+08
 
   -0.47375E+08         0.82650E+06         0.00000E+00
    0.82650E+06        -0.49891E+08         0.00000E+00
    0.00000E+00         0.00000E+00        -0.47810E+08
 
   -0.47394E+08         0.85238E+06         0.00000E+00
    0.85238E+06        -0.49884E+08         0.00000E+00
    0.00000E+00         0.00000E+00        -0.47810E+08
 
   -0.47414E+08         0.87810E+06         0.00000E+00
    0.87810E+06        -0.49877E+08         0.00000E+00
    0.00000E+00         0.00000E+00        -0.47810E+08
 
   -0.47433E+08         0.90366E+06         0.00000E+00
    0.90366E+06        -0.49869E+08         0.00000E+00
    0.00000E+00         0.00000E+00        -0.47810E+08
 
   -0.47453E+08         0.92905E+06         0.00000E+00
    0.92905E+06        -0.49861E+08         0.00000E+00
    0.00000E+00         0.00000E+00        -0.47810E+08
 
   -0.47473E+08         0.95429E+06         0.00000E+00
    0.95429E+06        -0.49852E+08         0.00000E+00
    0.00000E+00         0.00000E+00        -0.47810E+08
 
   -0.47493E+08         0.97936E+06         0.00000E+00
    0.97936E+06        -0.49844E+08         0.00000E+00
    0.00000E+00         0.00000E+00        -0.47810E+08
 
   -0.47513E+08         0.10043E+07         0.00000E+00
    0.10043E+07        -0.49835E+08         0.00000E+00
    0.00000E+00         0.00000E+00        -0.47811E+08
 
   -0.47534E+08         0.10290E+07         0.00000E+00
    0.10290E+07        -0.49826E+08         0.00000E+00
    0.00000E+00         0.00000E+00        -0.47811E+08
 
   -0.47555E+08         0.10536E+07         0.00000E+00
    0.10536E+07        -0.49817E+08         0.00000E+00
    0.00000E+00         0.00000E+00        -0.47811E+08
 
   -0.47576E+08         0.10780E+07         0.00000E+00
    0.10780E+07        -0.49808E+08         0.00000E+00
    0.00000E+00         0.00000E+00        -0.47811E+08
 
   -0.47597E+08         0.11022E+07         0.00000E+00
    0.11022E+07        -0.49798E+08         0.00000E+00
    0.00000E+00         0.00000E+00        -0.47811E+08
 
   -0.47619E+08         0.11262E+07         0.00000E+00
    0.11262E+07        -0.49788E+08         0.00000E+00
    0.00000E+00         0.00000E+00        -0.47811E+08
 
   -0.47641E+08         0.11501E+07         0.00000E+00
    0.11501E+07        -0.49778E+08         0.00000E+00
    0.00000E+00         0.00000E+00        -0.47811E+08
 
   -0.47663E+08         0.11738E+07         0.00000E+00
    0.11738E+07        -0.49768E+08         0.00000E+00
    0.00000E+00         0.00000E+00        -0.47811E+08
 
   -0.47685E+08         0.11973E+07         0.00000E+00
    0.11973E+07        -0.49757E+08         0.00000E+00
    0.00000E+00         0.00000E+00        -0.47811E+08
 
   -0.47707E+08         0.12206E+07         0.00000E+00
    0.12206E+07        -0.49747E+08         0.00000E+00
    0.00000E+00         0.00000E+00        -0.47811E+08
 
   -0.47730E+08         0.12438E+07         0.00000E+00
    0.12438E+07        -0.49736E+08         0.00000E+00
    0.00000E+00         0.00000E+00        -0.47811E+08
 
   -0.47753E+08         0.12667E+07         0.00000E+00
    0.12667E+07        -0.49725E+08         0.00000E+00
    0.00000E+00         0.00000E+00        -0.47811E+08
 
   -0.47776E+08         0.12895E+07         0.00000E+00
    0.12895E+07        -0.49713E+08         0.00000E+00
    0.00000E+00         0.00000E+00        -0.47811E+08
 
   -0.47800E+08         0.13121E+07         0.00000E+00
    0.13121E+07        -0.49702E+08         0.00000E+00
    0.00000E+00         0.00000E+00        -0.47811E+08
 
   -0.46793E+08         0.15665E+05         0.00000E+00
    0.15665E+05        -0.50000E+08         0.00000E+00
    0.00000E+00         0.00000E+00        -0.47692E+08
 
   -0.46804E+08         0.46691E+05         0.00000E+00
    0.46691E+05        -0.50000E+08         0.00000E+00
    0.00000E+00         0.00000E+00        -0.47692E+08
 
   -0.46815E+08         0.77605E+05         0.00000E+00
    0.77605E+05        -0.49999E+08         0.00000E+00
    0.00000E+00         0.00000E+00        -0.47692E+08
 
   -0.46827E+08         0.10840E+06         0.00000E+00
    0.10840E+06        -0.49998E+08         0.00000E+00
    0.00000E+00         0.00000E+00        -0.47692E+08
 
   -0.46840E+08         0.13909E+06         0.00000E+00
    0.13909E+06        -0.49997E+08         0.00000E+00
    0.00000E+00         0.00000E+00        -0.47692E+08
 
   -0.46852E+08         0.16965E+06         0.00000E+00
    0.16965E+06        -0.49996E+08         0.00000E+00
    0.00000E+00         0.00000E+00        -0.47692E+08
 
   -0.46865E+08         0.20010E+06         0.00000E+00
    0.20010E+06        -0.49994E+08         0.00000E+00
    0.00000E+00         0.00000E+00        -0.47692E+08
 
   -0.46878E+08         0.23042E+06         0.00000E+00
    0.23042E+06        -0.49993E+08         0.00000E+00
    0.00000E+00         0.00000E+00        -0.47692E+08
 
   -0.46892E+08         0.26062E+06         0.00000E+00
    0.26062E+06        -0.49990E+08         0.00000E+00
    0.00000E+00         0.00000E+00        -0.47692E+08
 
   -0.46906E+08         0.29070E+06         0.00000E+00
    0.29070E+06        -0.49988E+08         0.00000E+00
    0.00000E+00         0.00000E+00        -0.47692E+08
 
   -0.46920E+08         0.32064E+06         0.00000E+00
    0.32064E+06        -0.49985E+08         0.00000E+00
    0.00000E+00         0.00000E+00        -0.47692E+08
 
   -0.46934E+08         0.35046E+06         0.00000E+00
    0.35046E+06        -0.49982E+08         0.00000E+00
    0.00000E+00         0.00000E+00        -0.47692E+08
 
   -0.46949E+08         0.38015E+06         0.00000E+00
    0.38015E+06        -0.49979E+08         0.00000E+00
    0.00000E+00         0.00000E+00        -0.47693E+08
 
   -0.46964E+08         0.40971E+06         0.00000E+00
    0.40971E+06        -0.49976E+08         0.00000E+00
    0.00000E+00         0.00000E+00        -0.47693E+08
 
   -0.46979E+08         0.43914E+06         0.00000E+00
    0.43914E+06        -0.49972E+08         0.00000E+00
    0.00000E+00         0.00000E+00        -0.47693E+08
 
   -0.46995E+08         0.46843E+06         0.00000E+00
    0.46843E+06        -0.49968E+08         0.00000E+00
    0.00000E+00         0.00000E+00        -0.47693E+08
 
   -0.47011E+08         0.49758E+06         0.00000E+00
    0.49758E+06        -0.49964E+08         0.00000E+00
    0.00000E+00         0.00000E+00        -0.47693E+08
 
   -0.47027E+08         0.52659E+06         0.00000E+00
    0.52659E+06        -0.49960E+08         0.00000E+00
    0.00000E+00         0.00000E+00        -0.47693E+08
 
   -0.47043E+08         0.55547E+06         0.00000E+00
    0.55547E+06        -0.49955E+08         0.00000E+00
    0.00000E+00         0.00000E+00        -0.47693E+08
 
   -0.47060E+08         0.58420E+06         0.00000E+00
    0.58420E+06        -0.49950E+08         0.00000E+00
    0.00000E+00         0.00000E+00        -0.47694E+08
 
   -0.47077E+08         0.61279E+06         0.00000E+00
    0.61279E+06        -0.49945E+08         0.00000E+00
    0.00000E+00         0.00000E+00        -0.47694E+08
 
   -0.47094E+08         0.64123E+06         0.00000E+00
    0.64123E+06        -0.49940E+08         0.00000E+00
    0.00000E+00         0.00000E+00        -0.47694E+08
 
   -0.47112E+08         0.66953E+06         0.00000E+00
    0.66953E+06        -0.49934E+08         0.00000E+00
    0.00000E+00         0.00000E+00        -0.47694E+08
 
   -0.47130E+08         0.69767E+06         0.00000E+00
    0.69767E+06        -0.49928E+08         0.00000E+00
    0.00000E+00         0.00000E+00        -0.47694E+08
 
   -0.47148E+08         0.72567E+06         0.00000E+00
    0.72567E+06        -0.49922E+08         0.00000E+00
    0.00000E+00         0.00000E+00        -0.47694E+08
 
   -0.47166E+08         0.75352E+06         0.00000E+00
    0.75352E+06        -0.49915E+08         0.00000E+00
    0.00000E+00         0.00000E+00        -0.47694E+08
 
   -0.47185E+08         0.78121E+06         0.00000E+00
    0.78121E+06        -0.49909E+08         0.00000E+00
    0.00000E+00         0.00000E+00        -0.47695E+08
 
   -0.47204E+08         0.80874E+06         0.00000E+00
    0.80874E+06        -0.49902E+08         0.00000E+00
    0.00000E+00         0.00000E+00        -0.47695E+08
 
   -0.47223E+08         0.83612E+06         0.00000E+00
    0.83612E+06        -0.49895E+08         0.00000E+00
    0.00000E+00         0.00000E+00        -0.47695E+08
 
   -0.47243E+08         0.86334E+06         0.00000E+00
    0.86334E+06        -0.49887E+08         0.00000E+00
    0.00000E+00         0.00000E+00        -0.47695E+08
 
   -0.47262E+08         0.89040E+06         0.00000E+00
    0.89040E+06        -0.49880E+08         0.00000E+00
    0.00000E+00         0.00000E+00        -0.47695E+08
 
   -0.47282E+08         0.91730E+06         0.00000E+00
    0.91730E+06        -0.49872E+08         0.00000E+00
    0.00000E+00         0.00000E+00        -0.47695E+08
 
   -0.47303E+08         0.94404E+06         0.00000E+00
    0.94404E+06        -0.49864E+08         0.00000E+00
    0.00000E+00         0.00000E+00        -0.47695E+08
 
   -0.47323E+08         0.97061E+06         0.00000E+00
    0.97061E+06        -0.49855E+08         0.00000E+00
    0.00000E+00         0.00000E+00        -0.47696E+08
 
   -0.47344E+08         0.99701E+06         0.00000E+00
    0.99701E+06        -0.49847E+08         0.00000E+00
    0.00000E+00         0.00000E+00        -0.47696E+08
 
   -0.47365E+08         0.10232E+07         0.00000E+00
    0.10232E+07        -0.49838E+08         0.00000E+00
    0.00000E+00         0.00000E+00        -0.47696E+08
 
   -0.47386E+08         0.10493E+07         0.00000E+00
    0.10493E+07        -0.49829E+08         0.00000E+00
    0.00000E+00         0.00000E+00        -0.47696E+08
 
   -0.47408E+08         0.10752E+07         0.00000E+00
    0.10752E+07        -0.49820E+08         0.00000E+00
    0.00000E+00         0.00000E+00        -0.47696E+08
 
   -0.47430E+08         0.11009E+07         0.00000E+00
    0.11009E+07        -0.49810E+08         0.00000E+00
    0.00000E+00         0.00000E+00        -0.47696E+08
 
   -0.47452E+08         0.11264E+07         0.00000E+00
    0.11264E+07        -0.49800E+08         0.00000E+00
    0.00000E+00         0.00000E+00        -0.47696E+08
 
   -0.47474E+08         0.11518E+07         0.00000E+00
    0.11518E+07        -0.49790E+08         0.00000E+00
    0.00000E+00         0.00000E+00        -0.47696E+08
 
   -0.47496E+08         0.11770E+07         0.00000E+00
    0.11770E+07        -0.49780E+08         0.00000E+00
    0.00000E+00         0.00000E+00        -0.47696E+08
 
   -0.47519E+08         0.12020E+07         0.00000E+00
    0.12020E+07        -0.49770E+08         0.00000E+00
    0.00000E+00         0.00000E+00        -0.47696E+08
 
   -0.47542E+08         0.12268E+07         0.00000E+00
    0.12268E+07        -0.49759E+08         0.00000E+00
    0.00000E+00         0.00000E+00        -0.47697E+08
 
   -0.47565E+08         0.12514E+07         0.00000E+00
    0.12514E+07        -0.49748E+08         0.00000E+00
    0.00000E+00         0.00000E+00        -0.47697E+08
 
   -0.47589E+08         0.12759E+07         0.00000E+00
    0.12759E+07        -0.49737E+08         0.00000E+00
    0.00000E+00         0.00000E+00        -0.47697E+08
 
   -0.47612E+08         0.13001E+07         0.00000E+00
    0.13001E+07        -0.49725E+08         0.00000E+00
    0.00000E+00         0.00000E+00        -0.47697E+08
 
   -0.47636E+08         0.13242E+07         0.00000E+00
    0.13242E+07        -0.49714E+08         0.00000E+00
    0.00000E+00         0.00000E+00        -0.47697E+08
 
   -0.47660E+08         0.13480E+07         0.00000E+00
    0.13480E+07        -0.49702E+08         0.00000E+00
    0.00000E+00         0.00000E+00        -0.47697E+08
 
   -0.47685E+08         0.13717E+07         0.00000E+00
    0.13717E+07        -0.49690E+08         0.00000E+00
    0.00000E+00         0.00000E+00        -0.47697E+08
 
   -0.46634E+08         0.16351E+05         0.00000E+00
    0.16351E+05        -0.50000E+08         0.00000E+00
    0.00000E+00         0.00000E+00        -0.47572E+08
 
   -0.46646E+08         0.48736E+05         0.00000E+00
    0.48736E+05        -0.50000E+08         0.00000E+00
    0.00000E+00         0.00000E+00        -0.47572E+08
 
   -0.46658E+08         0.81004E+05         0.00000E+00
    0.81004E+05        -0.49999E+08         0.00000E+00
    0.00000E+00         0.00000E+00        -0.47572E+08
 
   -0.46670E+08         0.11315E+06         0.00000E+00
    0.11315E+06        -0.49998E+08         0.00000E+00
    0.00000E+00         0.00000E+00        -0.47572E+08
 
   -0.46683E+08         0.14518E+06         0.00000E+00
    0.14518E+06        -0.49997E+08         0.00000E+00
    0.00000E+00         0.00000E+00        -0.47572E+08
 
   -0.46696E+08         0.17708E+06         0.00000E+00
    0.17708E+06        -0.49996E+08         0.00000E+00
    0.00000E+00         0.00000E+00        -0.47572E+08
 
   -0.46710E+08         0.20887E+06         0.00000E+00
    0.20887E+06        -0.49994E+08         0.00000E+00
    0.00000E+00         0.00000E+00        -0.47572E+08
 
   -0.46724E+08         0.24052E+06         0.00000E+00
    0.24052E+06        -0.49992E+08         0.00000E+00
    0.00000E+00         0.00000E+00        -0.47572E+08
 
   -0.46738E+08         0.27205E+06         0.00000E+00
    0.27205E+06        -0.49990E+08         0.00000E+00
    0.00000E+00         0.00000E+00        -0.47572E+08
 
   -0.46752E+08         0.30344E+06         0.00000E+00
    0.30344E+06        -0.49988E+08         0.00000E+00
    0.00000E+00         0.00000E+00        -0.47572E+08
 
   -0.46767E+08         0.33471E+06         0.00000E+00
    0.33471E+06        -0.49985E+08         0.00000E+00
    0.00000E+00         0.00000E+00        -0.47572E+08
 
   -0.46782E+08         0.36584E+06         0.00000E+00
    0.36584E+06        -0.49982E+08         0.00000E+00
    0.00000E+00         0.00000E+00        -0.47572E+08
 
   -0.46797E+08         0.39684E+06         0.00000E+00
    0.39684E+06        -0.49979E+08         0.00000E+00
    0.00000E+00         0.00000E+00        -0.47572E+08
 
   -0.46813E+08         0.42770E+06         0.00000E+00
    0.42770E+06        -0.49975E+08         0.00000E+00
    0.00000E+00         0.00000E+00        -0.47573E+08
 
   -0.46829E+08         0.45843E+06         0.00000E+00
    0.45843E+06        -0.49971E+08         0.00000E+00
    0.00000E+00         0.00000E+00        -0.47573E+08
 
   -0.46845E+08         0.48901E+06         0.00000E+00
    0.48901E+06        -0.49967E+08         0.00000E+00
    0.00000E+00         0.00000E+00        -0.47573E+08
 
   -0.46862E+08         0.51945E+06         0.00000E+00
    0.51945E+06        -0.49963E+08         0.00000E+00
    0.00000E+00         0.00000E+00        -0.47573E+08
 
   -0.46879E+08         0.54975E+06         0.00000E+00
    0.54975E+06        -0.49958E+08         0.00000E+00
    0.00000E+00         0.00000E+00        -0.47573E+08
 
   -0.46896E+08         0.57991E+06         0.00000E+00
    0.57991E+06        -0.49953E+08         0.00000E+00
    0.00000E+00         0.00000E+00        -0.47573E+08
 
   -0.46914E+08         0.60992E+06         0.00000E+00
    0.60992E+06        -0.49948E+08         0.00000E+00
    0.00000E+00         0.00000E+00        -0.47573E+08
 
   -0.46931E+08         0.63978E+06         0.00000E+00
    0.63978E+06        -0.49943E+08         0.00000E+00
    0.00000E+00         0.00000E+00        -0.47573E+08
 
   -0.46949E+08         0.66949E+06         0.00000E+00
    0.66949E+06        -0.49937E+08         0.00000E+00
    0.00000E+00         0.00000E+00        -0.47574E+08
 
   -0.46968E+08         0.69906E+06         0.00000E+00
    0.69906E+06        -0.49931E+08         0.00000E+00
    0.00000E+00         0.00000E+00        -0.47574E+08
 
   -0.46986E+08         0.72847E+06         0.00000E+00
    0.72847E+06        -0.49925E+08         0.00000E+00
    0.00000E+00         0.00000E+00        -0.47574E+08
 
   -0.47005E+08         0.75772E+06         0.00000E+00
    0.75772E+06        -0.49919E+08         0.00000E+00
    0.00000E+00         0.00000E+00        -0.47574E+08
 
   -0.47024E+08         0.78682E+06         0.00000E+00
    0.78682E+06        -0.49912E+08         0.00000E+00
    0.00000E+00         0.00000E+00        -0.47574E+08
 
   -0.47044E+08         0.81576E+06         0.00000E+00
    0.81576E+06        -0.49905E+08         0.00000E+00
    0.00000E+00         0.00000E+00        -0.47574E+08
 
   -0.47064E+08         0.84454E+06         0.00000E+00
    0.84454E+06        -0.49898E+08         0.00000E+00
    0.00000E+00         0.00000E+00        -0.47575E+08
 
   -0.47084E+08         0.87316E+06         0.00000E+00
    0.87316E+06        -0.49891E+08         0.00000E+00
    0.00000E+00         0.00000E+00        -0.47575E+08
 
   -0.47104E+08         0.90162E+06         0.00000E+00
    0.90162E+06        -0.49883E+08         0.00000E+00
    0.00000E+00         0.00000E+00        -0.47575E+08
 
   -0.47124E+08         0.92991E+06         0.00000E+00
    0.92991E+06        -0.49875E+08         0.00000E+00
    0.00000E+00         0.00000E+00        -0.47575E+08
 
   -0.47145E+08         0.95804E+06         0.00000E+00
    0.95804E+06        -0.49867E+08         0.00000E+00
    0.00000E+00         0.00000E+00        -0.47575E+08
 
   -0.47166E+08         0.98599E+06         0.00000E+00
    0.98599E+06        -0.49859E+08         0.00000E+00
    0.00000E+00         0.00000E+00        -0.47575E+08
 
   -0.47188E+08         0.10138E+07         0.00000E+00
    0.10138E+07        -0.49850E+08         0.00000E+00
    0.00000E+00         0.00000E+00        -0.47575E+08
 
   -0.47209E+08         0.10414E+07         0.00000E+00
    0.10414E+07        -0.49841E+08         0.00000E+00
    0.00000E+00         0.00000E+00        -0.47575E+08
 
   -0.47231E+08         0.10688E+07         0.00000E+00
    0.10688E+07        -0.49832E+08         0.00000E+00
    0.00000E+00         0.00000E+00        -0.47576E+08
 
   -0.47253E+08         0.10961E+07         0.00000E+00
    0.10961E+07        -0.49822E+08         0.00000E+00
    0.00000E+00         0.00000E+00        -0.47576E+08
 
   -0.47276E+08         0.11232E+07         0.00000E+00
    0.11232E+07        -0.49813E+08         0.00000E+00
    0.00000E+00         0.00000E+00        -0.47576E+08
 
   -0.47298E+08         0.11501E+07         0.00000E+00
    0.11501E+07        -0.49803E+08         0.00000E+00
    0.00000E+00         0.00000E+00        -0.47576E+08
 
   -0.47321E+08         0.11768E+07         0.00000E+00
    0.11768E+07        -0.49793E+08         0.00000E+00
    0.00000E+00         0.00000E+00        -0.47576E+08
 
   -0.47344E+08         0.12034E+07         0.00000E+00
    0.12034E+07        -0.49782E+08         0.00000E+00
    0.00000E+00         0.00000E+00        -0.47576E+08
 
   -0.47368E+08         0.12298E+07         0.00000E+00
    0.12298E+07        -0.49772E+08         0.00000E+00
    0.00000E+00         0.00000E+00        -0.47576E+08
 
   -0.47391E+08         0.12559E+07         0.00000E+00
    0.12559E+07        -0.49761E+08         0.00000E+00
    0.00000E+00         0.00000E+00        -0.47576E+08
 
   -0.47415E+08         0.12819E+07         0.00000E+00
    0.12819E+07        -0.49750E+08         0.00000E+00
    0.00000E+00         0.00000E+00        -0.47576E+08
 
   -0.47440E+08         0.13077E+07         0.00000E+00
    0.13077E+07        -0.49738E+08         0.00000E+00
    0.00000E+00         0.00000E+00        -0.47576E+08
 
   -0.47464E+08         0.13333E+07         0.00000E+00
    0.13333E+07        -0.49727E+08         0.00000E+00
    0.00000E+00         0.00000E+00        -0.47576E+08
 
   -0.47489E+08         0.13588E+07         0.00000E+00
    0.13588E+07        -0.49715E+08         0.00000E+00
    0.00000E+00         0.00000E+00        -0.47576E+08
 
   -0.47513E+08         0.13840E+07         0.00000E+00
    0.13840E+07        -0.49703E+08         0.00000E+00
    0.00000E+00         0.00000E+00        -0.47576E+08
 
   -0.47538E+08         0.14090E+07         0.00000E+00
    0.14090E+07        -0.49690E+08         0.00000E+00
    0.00000E+00         0.00000E+00        -0.47577E+08
 
   -0.47564E+08         0.14338E+07         0.00000E+00
    0.14338E+07        -0.49678E+08         0.00000E+00
    0.00000E+00         0.00000E+00        -0.47577E+08
 
   -0.46468E+08         0.17062E+05         0.00000E+00
    0.17062E+05        -0.50000E+08         0.00000E+00
    0.00000E+00         0.00000E+00        -0.47446E+08
 
   -0.46480E+08         0.50856E+05         0.00000E+00
    0.50856E+05        -0.50000E+08         0.00000E+00
    0.00000E+00         0.00000E+00        -0.47446E+08
 
   -0.46493E+08         0.84528E+05         0.00000E+00
    0.84528E+05        -0.49999E+08         0.00000E+00
    0.00000E+00         0.00000E+00        -0.47446E+08
 
   -0.46506E+08         0.11808E+06         0.00000E+00
    0.11808E+06        -0.49998E+08         0.00000E+00
    0.00000E+00         0.00000E+00        -0.47446E+08
 
   -0.46520E+08         0.15150E+06         0.00000E+00
    0.15150E+06        -0.49997E+08         0.00000E+00
    0.00000E+00         0.00000E+00        -0.47446E+08
 
   -0.46534E+08         0.18479E+06         0.00000E+00
    0.18479E+06        -0.49996E+08         0.00000E+00
    0.00000E+00         0.00000E+00        -0.47446E+08
 
   -0.46548E+08         0.21796E+06         0.00000E+00
    0.21796E+06        -0.49994E+08         0.00000E+00
    0.00000E+00         0.00000E+00        -0.47446E+08
 
   -0.46562E+08         0.25099E+06         0.00000E+00
    0.25099E+06        -0.49992E+08         0.00000E+00
    0.00000E+00         0.00000E+00        -0.47446E+08
 
   -0.46577E+08         0.28389E+06         0.00000E+00
    0.28389E+06        -0.49990E+08         0.00000E+00
    0.00000E+00         0.00000E+00        -0.47446E+08
 
   -0.46592E+08         0.31666E+06         0.00000E+00
    0.31666E+06        -0.49987E+08         0.00000E+00
    0.00000E+00         0.00000E+00        -0.47446E+08
 
   -0.46608E+08         0.34929E+06         0.00000E+00
    0.34929E+06        -0.49984E+08         0.00000E+00
    0.00000E+00         0.00000E+00        -0.47446E+08
 
   -0.46623E+08         0.38178E+06         0.00000E+00
    0.38178E+06        -0.49981E+08         0.00000E+00
    0.00000E+00         0.00000E+00        -0.47446E+08
 
   -0.46639E+08         0.41414E+06         0.00000E+00
    0.41414E+06        -0.49978E+08         0.00000E+00
    0.00000E+00         0.00000E+00        -0.47446E+08
 
   -0.46656E+08         0.44635E+06         0.00000E+00
    0.44635E+06        -0.49974E+08         0.00000E+00
    0.00000E+00         0.00000E+00        -0.47447E+08
 
   -0.46673E+08         0.47843E+06         0.00000E+00
    0.47843E+06        -0.49970E+08         0.00000E+00
    0.00000E+00         0.00000E+00        -0.47447E+08
 
   -0.46690E+08         0.51035E+06         0.00000E+00
    0.51035E+06        -0.49966E+08         0.00000E+00
    0.00000E+00         0.00000E+00        -0.47447E+08
 
   -0.46707E+08         0.54214E+06         0.00000E+00
    0.54214E+06        -0.49962E+08         0.00000E+00
    0.00000E+00         0.00000E+00        -0.47447E+08
 
   -0.46724E+08         0.57377E+06         0.00000E+00
    0.57377E+06        -0.49957E+08         0.00000E+00
    0.00000E+00         0.00000E+00        -0.47447E+08
 
   -0.46742E+08         0.60526E+06         0.00000E+00
    0.60526E+06        -0.49952E+08         0.00000E+00
    0.00000E+00         0.00000E+00        -0.47447E+08
 
   -0.46761E+08         0.63660E+06         0.00000E+00
    0.63660E+06        -0.49946E+08         0.00000E+00
    0.00000E+00         0.00000E+00        -0.47447E+08
 
   -0.46779E+08         0.66778E+06         0.00000E+00
    0.66778E+06        -0.49941E+08         0.00000E+00
    0.00000E+00         0.00000E+00        -0.47447E+08
 
   -0.46798E+08         0.69882E+06         0.00000E+00
    0.69882E+06        -0.49935E+08         0.00000E+00
    0.00000E+00         0.00000E+00        -0.47448E+08
 
   -0.46817E+08         0.72969E+06         0.00000E+00
    0.72969E+06        -0.49929E+08         0.00000E+00
    0.00000E+00         0.00000E+00        -0.47448E+08
 
   -0.46836E+08         0.76041E+06         0.00000E+00
    0.76041E+06        -0.49923E+08         0.00000E+00
    0.00000E+00         0.00000E+00        -0.47448E+08
 
   -0.46856E+08         0.79097E+06         0.00000E+00
    0.79097E+06        -0.49916E+08         0.00000E+00
    0.00000E+00         0.00000E+00        -0.47448E+08
 
   -0.46876E+08         0.82137E+06         0.00000E+00
    0.82137E+06        -0.49909E+08         0.00000E+00
    0.00000E+00         0.00000E+00        -0.47448E+08
 
   -0.46896E+08         0.85161E+06         0.00000E+00
    0.85161E+06        -0.49902E+08         0.00000E+00
    0.00000E+00         0.00000E+00        -0.47448E+08
 
   -0.46917E+08         0.88169E+06         0.00000E+00
    0.88169E+06        -0.49894E+08         0.00000E+00
    0.00000E+00         0.00000E+00        -0.47448E+08
 
   -0.46938E+08         0.91160E+06         0.00000E+00
    0.91160E+06        -0.49887E+08         0.00000E+00
    0.00000E+00         0.00000E+00        -0.47449E+08
 
   -0.46959E+08         0.94134E+06         0.00000E+00
    0.94134E+06        -0.49879E+08         0.00000E+00
    0.00000E+00         0.00000E+00        -0.47449E+08
 
   -0.46980E+08         0.97092E+06         0.00000E+00
    0.97092E+06        -0.49871E+08         0.00000E+00
    0.00000E+00         0.00000E+00        -0.47449E+08
 
   -0.47002E+08         0.10003E+07         0.00000E+00
    0.10003E+07        -0.49862E+08         0.00000E+00
    0.00000E+00         0.00000E+00        -0.47449E+08
 
   -0.47024E+08         0.10296E+07         0.00000E+00
    0.10296E+07        -0.49853E+08         0.00000E+00
    0.00000E+00         0.00000E+00        -0.47449E+08
 
   -0.47046E+08         0.10586E+07         0.00000E+00
    0.10586E+07        -0.49844E+08         0.00000E+00
    0.00000E+00         0.00000E+00        -0.47449E+08
 
   -0.47069E+08         0.10875E+07         0.00000E+00
    0.10875E+07        -0.49835E+08         0.00000E+00
    0.00000E+00         0.00000E+00        -0.47449E+08
 
   -0.47091E+08         0.11162E+07         0.00000E+00
    0.11162E+07        -0.49826E+08         0.00000E+00
    0.00000E+00         0.00000E+00        -0.47450E+08
 
   -0.47114E+08         0.11447E+07         0.00000E+00
    0.11447E+07        -0.49816E+08         0.00000E+00
    0.00000E+00         0.00000E+00        -0.47450E+08
 
   -0.47138E+08         0.11731E+07         0.00000E+00
    0.11731E+07        -0.49806E+08         0.00000E+00
    0.00000E+00         0.00000E+00        -0.47450E+08
 
   -0.47161E+08         0.12012E+07         0.00000E+00
    0.12012E+07        -0.49795E+08         0.00000E+00
    0.00000E+00         0.00000E+00        -0.47450E+08
 
   -0.47185E+08         0.12292E+07         0.00000E+00
    0.12292E+07        -0.49785E+08         0.00000E+00
    0.00000E+00         0.00000E+00        -0.47450E+08
 
   -0.47209E+08         0.12570E+07         0.00000E+00
    0.12570E+07        -0.49774E+08         0.00000E+00
    0.00000E+00         0.00000E+00        -0.47450E+08
 
   -0.47233E+08         0.12846E+07         0.00000E+00
    0.12846E+07        -0.49763E+08         0.00000E+00
    0.00000E+00         0.00000E+00        -0.47450E+08
 
   -0.47258E+08         0.13120E+07         0.00000E+00
    0.13120E+07        -0.49752E+08         0.00000E+00
    0.00000E+00         0.00000E+00        -0.47450E+08
 
   -0.47283E+08         0.13392E+07         0.00000E+00
    0.13392E+07        -0.49740E+08         0.00000E+00
    0.00000E+00         0.00000E+00        -0.47450E+08
 
   -0.47308E+08         0.13663E+07         0.00000E+00
    0.13663E+07        -0.49728E+08         0.00000E+00
    0.00000E+00         0.00000E+00        -0.47450E+08
 
   -0.47333E+08         0.13931E+07         0.00000E+00
    0.13931E+07        -0.49716E+08         0.00000E+00
    0.00000E+00         0.00000E+00        -0.47450E+08
 
   -0.47359E+08         0.14197E+07         0.00000E+00
    0.14197E+07        -0.49704E+08         0.00000E+00
    0.00000E+00         0.00000E+00        -0.47450E+08
 
   -0.47385E+08         0.14462E+07         0.00000E+00
    0.14462E+07        -0.49691E+08         0.00000E+00
    0.00000E+00         0.00000E+00        -0.47450E+08
 
   -0.47411E+08         0.14724E+07         0.00000E+00
    0.14724E+07        -0.49679E+08         0.00000E+00
    0.00000E+00         0.00000E+00        -0.47450E+08
 
   -0.47437E+08         0.14984E+07         0.00000E+00
    0.14984E+07        -0.49666E+08         0.00000E+00
    0.00000E+00         0.00000E+00        -0.47450E+08
 
   -0.46295E+08         0.17799E+05         0.00000E+00
    0.17799E+05        -0.50000E+08         0.00000E+00
    0.00000E+00         0.00000E+00        -0.47314E+08
 
   -0.46308E+08         0.53053E+05         0.00000E+00
    0.53053E+05        -0.50000E+08         0.00000E+00
    0.00000E+00         0.00000E+00        -0.47314E+08
 
   -0.46322E+08         0.88178E+05         0.00000E+00
    0.88178E+05        -0.49999E+08         0.00000E+00
    0.00000E+00         0.00000E+00        -0.47314E+08
 
   -0.46335E+08         0.12317E+06         0.00000E+00
    0.12317E+06        -0.49998E+08         0.00000E+00
    0.00000E+00         0.00000E+00        -0.47314E+08
 
   -0.46350E+08         0.15804E+06         0.00000E+00
    0.15804E+06        -0.49997E+08         0.00000E+00
    0.00000E+00         0.00000E+00        -0.47314E+08
 
   -0.46364E+08         0.19277E+06         0.00000E+00
    0.19277E+06        -0.49995E+08         0.00000E+00
    0.00000E+00         0.00000E+00        -0.47314E+08
 
   -0.46379E+08         0.22737E+06         0.00000E+00
    0.22737E+06        -0.49994E+08         0.00000E+00
    0.00000E+00         0.00000E+00        -0.47314E+08
 
   -0.46394E+08         0.26184E+06         0.00000E+00
    0.26184E+06        -0.49992E+08         0.00000E+00
    0.00000E+00         0.00000E+00        -0.47314E+08
 
   -0.46409E+08         0.29616E+06         0.00000E+00
    0.29616E+06        -0.49989E+08         0.00000E+00
    0.00000E+00         0.00000E+00        -0.47314E+08
 
   -0.46425E+08         0.33035E+06         0.00000E+00
    0.33035E+06        -0.49987E+08         0.00000E+00
    0.00000E+00         0.00000E+00        -0.47314E+08
 
   -0.46441E+08         0.36440E+06         0.00000E+00
    0.36440E+06        -0.49984E+08         0.00000E+00
    0.00000E+00         0.00000E+00        -0.47314E+08
 
   -0.46458E+08         0.39830E+06         0.00000E+00
    0.39830E+06        -0.49981E+08         0.00000E+00
    0.00000E+00         0.00000E+00        -0.47314E+08
 
   -0.46475E+08         0.43206E+06         0.00000E+00
    0.43206E+06        -0.49977E+08         0.00000E+00
    0.00000E+00         0.00000E+00        -0.47314E+08
 
   -0.46492E+08         0.46568E+06         0.00000E+00
    0.46568E+06        -0.49973E+08         0.00000E+00
    0.00000E+00         0.00000E+00        -0.47314E+08
 
   -0.46509E+08         0.49915E+06         0.00000E+00
    0.49915E+06        -0.49969E+08         0.00000E+00
    0.00000E+00         0.00000E+00        -0.47315E+08
 
   -0.46527E+08         0.53247E+06         0.00000E+00
    0.53247E+06        -0.49965E+08         0.00000E+00
    0.00000E+00         0.00000E+00        -0.47315E+08
 
   -0.46545E+08         0.56564E+06         0.00000E+00
    0.56564E+06        -0.49960E+08         0.00000E+00
    0.00000E+00         0.00000E+00        -0.47315E+08
 
   -0.46563E+08         0.59866E+06         0.00000E+00
    0.59866E+06        -0.49955E+08         0.00000E+00
    0.00000E+00         0.00000E+00        -0.47315E+08
 
   -0.46582E+08         0.63153E+06         0.00000E+00
    0.63153E+06        -0.49950E+08         0.00000E+00
    0.00000E+00         0.00000E+00        -0.47315E+08
 
   -0.46601E+08         0.66425E+06         0.00000E+00
    0.66425E+06        -0.49945E+08         0.00000E+00
    0.00000E+00         0.00000E+00        -0.47315E+08
 
   -0.46620E+08         0.69680E+06         0.00000E+00
    0.69680E+06        -0.49939E+08         0.00000E+00
    0.00000E+00         0.00000E+00        -0.47315E+08
 
   -0.46640E+08         0.72921E+06         0.00000E+00
    0.72921E+06        -0.49933E+08         0.00000E+00
    0.00000E+00         0.00000E+00        -0.47316E+08
 
   -0.46660E+08         0.76145E+06         0.00000E+00
    0.76145E+06        -0.49926E+08         0.00000E+00
    0.00000E+00         0.00000E+00        -0.47316E+08
 
   -0.46680E+08         0.79353E+06         0.00000E+00
    0.79353E+06        -0.49920E+08         0.00000E+00
    0.00000E+00         0.00000E+00        -0.47316E+08
 
   -0.46700E+08         0.82545E+06         0.00000E+00
    0.82545E+06        -0.49913E+08         0.00000E+00
    0.00000E+00         0.00000E+00        -0.47316E+08
 
   -0.46721E+08         0.85720E+06         0.00000E+00
    0.85720E+06        -0.49906E+08         0.00000E+00
    0.00000E+00         0.00000E+00        -0.47316E+08
 
   -0.46742E+08         0.88879E+06         0.00000E+00
    0.88879E+06        -0.49898E+08         0.00000E+00
    0.00000E+00         0.00000E+00        -0.47316E+08
 
   -0.46764E+08         0.92021E+06         0.00000E+00
    0.92021E+06        -0.49891E+08         0.00000E+00
    0.00000E+00         0.00000E+00        -0.47316E+08
 
   -0.46785E+08         0.95146E+06         0.00000E+00
    0.95146E+06        -0.49883E+08         0.00000E+00
    0.00000E+00         0.00000E+00        -0.47316E+08
 
   -0.46807E+08         0.98255E+06         0.00000E+00
    0.98255E+06        -0.49874E+08         0.00000E+00
    0.00000E+00         0.00000E+00        -0.47317E+08
 
   -0.46829E+08         0.10135E+07         0.00000E+00
    0.10135E+07        -0.49866E+08         0.00000E+00
    0.00000E+00         0.00000E+00        -0.47317E+08
 
   -0.46852E+08         0.10442E+07         0.00000E+00
    0.10442E+07        -0.49857E+08         0.00000E+00
    0.00000E+00         0.00000E+00        -0.47317E+08
 
   -0.46875E+08         0.10748E+07         0.00000E+00
    0.10748E+07        -0.49848E+08         0.00000E+00
    0.00000E+00         0.00000E+00        -0.47317E+08
 
   -0.46898E+08         0.11051E+07         0.00000E+00
    0.11051E+07        -0.49839E+08         0.00000E+00
    0.00000E+00         0.00000E+00        -0.47317E+08
 
   -0.46921E+08         0.11353E+07         0.00000E+00
    0.11353E+07        -0.49829E+08         0.00000E+00
    0.00000E+00         0.00000E+00        -0.47317E+08
 
   -0.46945E+08         0.11654E+07         0.00000E+00
    0.11654E+07        -0.49819E+08         0.00000E+00
    0.00000E+00         0.00000E+00        -0.47317E+08
 
   -0.46969E+08         0.11952E+07         0.00000E+00
    0.11952E+07        -0.49809E+08         0.00000E+00
    0.00000E+00         0.00000E+00        -0.47317E+08
 
   -0.46993E+08         0.12249E+07         0.00000E+00
    0.12249E+07        -0.49799E+08         0.00000E+00
    0.00000E+00         0.00000E+00        -0.47318E+08
 
   -0.47018E+08         0.12543E+07         0.00000E+00
    0.12543E+07        -0.49788E+08         0.00000E+00
    0.00000E+00         0.00000E+00        -0.47318E+08
 
   -0.47042E+08         0.12836E+07         0.00000E+00
    0.12836E+07        -0.49777E+08         0.00000E+00
    0.00000E+00         0.00000E+00        -0.47318E+08
 
   -0.47067E+08         0.13127E+07         0.00000E+00
    0.13127E+07        -0.49766E+08         0.00000E+00
    0.00000E+00         0.00000E+00        -0.47318E+08
 
   -0.47093E+08         0.13416E+07         0.00000E+00
    0.13416E+07        -0.49754E+08         0.00000E+00
    0.00000E+00         0.00000E+00        -0.47318E+08
 
   -0.47118E+08         0.13703E+07         0.00000E+00
    0.13703E+07        -0.49743E+08         0.00000E+00
    0.00000E+00         0.00000E+00        -0.47318E+08
 
   -0.47144E+08         0.13988E+07         0.00000E+00
    0.13988E+07        -0.49731E+08         0.00000E+00
    0.00000E+00         0.00000E+00        -0.47318E+08
 
   -0.47170E+08         0.14271E+07         0.00000E+00
    0.14271E+07        -0.49718E+08         0.00000E+00
    0.00000E+00         0.00000E+00        -0.47318E+08
 
   -0.47196E+08         0.14552E+07         0.00000E+00
    0.14552E+07        -0.49706E+08         0.00000E+00
    0.00000E+00         0.00000E+00        -0.47318E+08
 
   -0.47223E+08         0.14831E+07         0.00000E+00
    0.14831E+07        -0.49693E+08         0.00000E+00
    0.00000E+00         0.00000E+00        -0.47318E+08
 
   -0.47250E+08         0.15108E+07         0.00000E+00
    0.15108E+07        -0.49680E+08         0.00000E+00
    0.00000E+00         0.00000E+00        -0.47318E+08
 
   -0.47277E+08         0.15383E+07         0.00000E+00
    0.15383E+07        -0.49667E+08         0.00000E+00
    0.00000E+00         0.00000E+00        -0.47318E+08
 
   -0.47304E+08         0.15656E+07         0.00000E+00
    0.15656E+07        -0.49653E+08         0.00000E+00
    0.00000E+00         0.00000E+00        -0.47318E+08
 
   -0.46115E+08         0.18562E+05         0.00000E+00
    0.18562E+05        -0.50000E+08         0.00000E+00
    0.00000E+00         0.00000E+00        -0.47175E+08
 
   -0.46128E+08         0.55325E+05         0.00000E+00
    0.55325E+05        -0.50000E+08         0.00000E+00
    0.00000E+00         0.00000E+00        -0.47175E+08
 
   -0.46143E+08         0.91955E+05         0.00000E+00
    0.91955E+05        -0.49999E+08         0.00000E+00
    0.00000E+00         0.00000E+00        -0.47175E+08
 
   -0.46157E+08         0.12845E+06         0.00000E+00
    0.12845E+06        -0.49998E+08         0.00000E+00
    0.00000E+00         0.00000E+00        -0.47175E+08
 
   -0.46172E+08         0.16481E+06         0.00000E+00
    0.16481E+06        -0.49997E+08         0.00000E+00
    0.00000E+00         0.00000E+00        -0.47175E+08
 
   -0.46187E+08         0.20103E+06         0.00000E+00
    0.20103E+06        -0.49995E+08         0.00000E+00
    0.00000E+00         0.00000E+00        -0.47175E+08
 
   -0.46202E+08         0.23712E+06         0.00000E+00
    0.23712E+06        -0.49994E+08         0.00000E+00
    0.00000E+00         0.00000E+00        -0.47175E+08
 
   -0.46218E+08         0.27306E+06         0.00000E+00
    0.27306E+06        -0.49991E+08         0.00000E+00
    0.00000E+00         0.00000E+00        -0.47175E+08
 
   -0.46234E+08         0.30886E+06         0.00000E+00
    0.30886E+06        -0.49989E+08         0.00000E+00
    0.00000E+00         0.00000E+00        -0.47175E+08
 
   -0.46251E+08         0.34452E+06         0.00000E+00
    0.34452E+06        -0.49986E+08         0.00000E+00
    0.00000E+00         0.00000E+00        -0.47176E+08
 
   -0.46268E+08         0.38003E+06         0.00000E+00
    0.38003E+06        -0.49983E+08         0.00000E+00
    0.00000E+00         0.00000E+00        -0.47176E+08
 
   -0.46285E+08         0.41539E+06         0.00000E+00
    0.41539E+06        -0.49980E+08         0.00000E+00
    0.00000E+00         0.00000E+00        -0.47176E+08
 
   -0.46302E+08         0.45061E+06         0.00000E+00
    0.45061E+06        -0.49976E+08         0.00000E+00
    0.00000E+00         0.00000E+00        -0.47176E+08
 
   -0.46320E+08         0.48568E+06         0.00000E+00
    0.48568E+06        -0.49972E+08         0.00000E+00
    0.00000E+00         0.00000E+00        -0.47176E+08
 
   -0.46338E+08         0.52060E+06         0.00000E+00
    0.52060E+06        -0.49968E+08         0.00000E+00
    0.00000E+00         0.00000E+00        -0.47176E+08
 
   -0.46357E+08         0.55536E+06         0.00000E+00
    0.55536E+06        -0.49964E+08         0.00000E+00
    0.00000E+00         0.00000E+00        -0.47176E+08
 
   -0.46376E+08         0.58998E+06         0.00000E+00
    0.58998E+06        -0.49959E+08         0.00000E+00
    0.00000E+00         0.00000E+00        -0.47176E+08
 
   -0.46395E+08         0.62443E+06         0.00000E+00
    0.62443E+06        -0.49954E+08         0.00000E+00
    0.00000E+00         0.00000E+00        -0.47176E+08
 
   -0.46414E+08         0.65873E+06         0.00000E+00
    0.65873E+06        -0.49948E+08         0.00000E+00
    0.00000E+00         0.00000E+00        -0.47177E+08
 
   -0.46434E+08         0.69287E+06         0.00000E+00
    0.69287E+06        -0.49943E+08         0.00000E+00
    0.00000E+00         0.00000E+00        -0.47177E+08
 
   -0.46454E+08         0.72686E+06         0.00000E+00
    0.72686E+06        -0.49937E+08         0.00000E+00
    0.00000E+00         0.00000E+00        -0.47177E+08
 
   -0.46475E+08         0.76068E+06         0.00000E+00
    0.76068E+06        -0.49930E+08         0.00000E+00
    0.00000E+00         0.00000E+00        -0.47177E+08
 
   -0.46495E+08         0.79433E+06         0.00000E+00
    0.79433E+06        -0.49924E+08         0.00000E+00
    0.00000E+00         0.00000E+00        -0.47177E+08
 
   -0.46516E+08         0.82783E+06         0.00000E+00
    0.82783E+06        -0.49917E+08         0.00000E+00
    0.00000E+00         0.00000E+00        -0.47177E+08
 
   -0.46538E+08         0.86115E+06         0.00000E+00
    0.86115E+06        -0.49910E+08         0.00000E+00
    0.00000E+00         0.00000E+00        -0.47177E+08
 
   -0.46559E+08         0.89431E+06         0.00000E+00
    0.89431E+06        -0.49902E+08         0.00000E+00
    0.00000E+00         0.00000E+00        -0.47178E+08
 
   -0.46581E+08         0.92730E+06         0.00000E+00
    0.92730E+06        -0.49895E+08         0.00000E+00
    0.00000E+00         0.00000E+00        -0.47178E+08
 
   -0.46603E+08         0.96012E+06         0.00000E+00
    0.96012E+06        -0.49887E+08         0.00000E+00
    0.00000E+00         0.00000E+00        -0.47178E+08
 
   -0.46626E+08         0.99277E+06         0.00000E+00
    0.99277E+06        -0.49879E+08         0.00000E+00
    0.00000E+00         0.00000E+00        -0.47178E+08
 
   -0.46649E+08         0.10252E+07         0.00000E+00
    0.10252E+07        -0.49870E+08         0.00000E+00
    0.00000E+00         0.00000E+00        -0.47178E+08
 
   -0.46672E+08         0.10575E+07         0.00000E+00
    0.10575E+07        -0.49861E+08         0.00000E+00
    0.00000E+00         0.00000E+00        -0.47178E+08
 
   -0.46695E+08         0.10897E+07         0.00000E+00
    0.10897E+07        -0.49852E+08         0.00000E+00
    0.00000E+00         0.00000E+00        -0.47178E+08
 
   -0.46719E+08         0.11216E+07         0.00000E+00
    0.11216E+07        -0.49843E+08         0.00000E+00
    0.00000E+00         0.00000E+00        -0.47178E+08
 
   -0.46743E+08         0.11534E+07         0.00000E+00
    0.11534E+07        -0.49833E+08         0.00000E+00
    0.00000E+00         0.00000E+00        -0.47179E+08
 
   -0.46767E+08         0.11849E+07         0.00000E+00
    0.11849E+07        -0.49823E+08         0.00000E+00
    0.00000E+00         0.00000E+00        -0.47179E+08
 
   -0.46792E+08         0.12163E+07         0.00000E+00
    0.12163E+07        -0.49813E+08         0.00000E+00
    0.00000E+00         0.00000E+00        -0.47179E+08
 
   -0.46817E+08         0.12475E+07         0.00000E+00
    0.12475E+07        -0.49802E+08         0.00000E+00
    0.00000E+00         0.00000E+00        -0.47179E+08
 
   -0.46842E+08         0.12786E+07         0.00000E+00
    0.12786E+07        -0.49791E+08         0.00000E+00
    0.00000E+00         0.00000E+00        -0.47179E+08
 
   -0.46867E+08         0.13094E+07         0.00000E+00
    0.13094E+07        -0.49780E+08         0.00000E+00
    0.00000E+00         0.00000E+00        -0.47179E+08
 
   -0.46893E+08         0.13400E+07         0.00000E+00
    0.13400E+07        -0.49769E+08         0.00000E+00
    0.00000E+00         0.00000E+00        -0.47179E+08
 
   -0.46919E+08         0.13705E+07         0.00000E+00
    0.13705E+07        -0.49757E+08         0.00000E+00
    0.00000E+00         0.00000E+00        -0.47179E+08
 
   -0.46945E+08         0.14007E+07         0.00000E+00
    0.14007E+07        -0.49745E+08         0.00000E+00
    0.00000E+00         0.00000E+00        -0.47179E+08
 
   -0.46972E+08         0.14307E+07         0.00000E+00
    0.14307E+07        -0.49733E+08         0.00000E+00
    0.00000E+00         0.00000E+00        -0.47179E+08
 
   -0.46999E+08         0.14606E+07         0.00000E+00
    0.14606E+07        -0.49721E+08         0.00000E+00
    0.00000E+00         0.00000E+00        -0.47179E+08
 
   -0.47026E+08         0.14902E+07         0.00000E+00
    0.14902E+07        -0.49708E+08         0.00000E+00
    0.00000E+00         0.00000E+00        -0.47179E+08
 
   -0.47053E+08         0.15197E+07         0.00000E+00
    0.15197E+07        -0.49695E+08         0.00000E+00
    0.00000E+00         0.00000E+00        -0.47180E+08
 
   -0.47081E+08         0.15489E+07         0.00000E+00
    0.15489E+07        -0.49682E+08         0.00000E+00
    0.00000E+00         0.00000E+00        -0.47180E+08
 
   -0.47109E+08         0.15779E+07         0.00000E+00
    0.15779E+07        -0.49668E+08         0.00000E+00
    0.00000E+00         0.00000E+00        -0.47180E+08
 
   -0.47137E+08         0.16068E+07         0.00000E+00
    0.16068E+07        -0.49654E+08         0.00000E+00
    0.00000E+00         0.00000E+00        -0.47180E+08
 
   -0.47165E+08         0.16354E+07         0.00000E+00
    0.16354E+07        -0.49640E+08         0.00000E+00
    0.00000E+00         0.00000E+00        -0.47180E+08
 
   -0.45927E+08         0.19350E+05         0.00000E+00
    0.19350E+05        -0.50000E+08         0.00000E+00
    0.00000E+00         0.00000E+00        -0.47030E+08
 
   -0.45941E+08         0.57674E+05         0.00000E+00
    0.57674E+05        -0.50000E+08         0.00000E+00
    0.00000E+00         0.00000E+00        -0.47030E+08
 
   -0.45956E+08         0.95859E+05         0.00000E+00
    0.95859E+05        -0.49999E+08         0.00000E+00
    0.00000E+00         0.00000E+00        -0.47030E+08
 
   -0.45971E+08         0.13390E+06         0.00000E+00
    0.13390E+06        -0.49998E+08         0.00000E+00
    0.00000E+00         0.00000E+00        -0.47030E+08
 
   -0.45986E+08         0.17181E+06         0.00000E+00
    0.17181E+06        -0.49997E+08         0.00000E+00
    0.00000E+00         0.00000E+00        -0.47030E+08
 
   -0.46002E+08         0.20957E+06         0.00000E+00
    0.20957E+06        -0.49995E+08         0.00000E+00
    0.00000E+00         0.00000E+00        -0.47030E+08
 
   -0.46019E+08         0.24719E+06         0.00000E+00
    0.24719E+06        -0.49993E+08         0.00000E+00
    0.00000E+00         0.00000E+00        -0.47030E+08
 
   -0.46035E+08         0.28466E+06         0.00000E+00
    0.28466E+06        -0.49991E+08         0.00000E+00
    0.00000E+00         0.00000E+00        -0.47030E+08
 
   -0.46052E+08         0.32198E+06         0.00000E+00
    0.32198E+06        -0.49989E+08         0.00000E+00
    0.00000E+00         0.00000E+00        -0.47030E+08
 
   -0.46069E+08         0.35916E+06         0.00000E+00
    0.35916E+06        -0.49986E+08         0.00000E+00
    0.00000E+00         0.00000E+00        -0.47030E+08
 
   -0.46087E+08         0.39619E+06         0.00000E+00
    0.39619E+06        -0.49983E+08         0.00000E+00
    0.00000E+00         0.00000E+00        -0.47030E+08
 
   -0.46105E+08         0.43307E+06         0.00000E+00
    0.43307E+06        -0.49979E+08         0.00000E+00
    0.00000E+00         0.00000E+00        -0.47031E+08
 
   -0.46123E+08         0.46979E+06         0.00000E+00
    0.46979E+06        -0.49975E+08         0.00000E+00
    0.00000E+00         0.00000E+00        -0.47031E+08
 
   -0.46142E+08         0.50636E+06         0.00000E+00
    0.50636E+06        -0.49971E+08         0.00000E+00
    0.00000E+00         0.00000E+00        -0.47031E+08
 
   -0.46161E+08         0.54278E+06         0.00000E+00
    0.54278E+06        -0.49967E+08         0.00000E+00
    0.00000E+00         0.00000E+00        -0.47031E+08
 
   -0.46180E+08         0.57904E+06         0.00000E+00
    0.57904E+06        -0.49962E+08         0.00000E+00
    0.00000E+00         0.00000E+00        -0.47031E+08
 
   -0.46199E+08         0.61514E+06         0.00000E+00
    0.61514E+06        -0.49957E+08         0.00000E+00
    0.00000E+00         0.00000E+00        -0.47031E+08
 
   -0.46219E+08         0.65108E+06         0.00000E+00
    0.65108E+06        -0.49952E+08         0.00000E+00
    0.00000E+00         0.00000E+00        -0.47031E+08
 
   -0.46240E+08         0.68686E+06         0.00000E+00
    0.68686E+06        -0.49947E+08         0.00000E+00
    0.00000E+00         0.00000E+00        -0.47031E+08
 
   -0.46260E+08         0.72248E+06         0.00000E+00
    0.72248E+06        -0.49941E+08         0.00000E+00
    0.00000E+00         0.00000E+00        -0.47031E+08
 
   -0.46281E+08         0.75794E+06         0.00000E+00
    0.75794E+06        -0.49935E+08         0.00000E+00
    0.00000E+00         0.00000E+00        -0.47032E+08
 
   -0.46302E+08         0.79323E+06         0.00000E+00
    0.79323E+06        -0.49928E+08         0.00000E+00
    0.00000E+00         0.00000E+00        -0.47032E+08
 
   -0.46324E+08         0.82836E+06         0.00000E+00
    0.82836E+06        -0.49921E+08         0.00000E+00
    0.00000E+00         0.00000E+00        -0.47032E+08
 
   -0.46346E+08         0.86332E+06         0.00000E+00
    0.86332E+06        -0.49914E+08         0.00000E+00
    0.00000E+00         0.00000E+00        -0.47032E+08
 
   -0.46368E+08         0.89811E+06         0.00000E+00
    0.89811E+06        -0.49907E+08         0.00000E+00
    0.00000E+00         0.00000E+00        -0.47032E+08
 
   -0.46390E+08         0.93272E+06         0.00000E+00
    0.93272E+06        -0.49899E+08         0.00000E+00
    0.00000E+00         0.00000E+00        -0.47032E+08
 
   -0.46413E+08         0.96717E+06         0.00000E+00
    0.96717E+06        -0.49891E+08         0.00000E+00
    0.00000E+00         0.00000E+00        -0.47032E+08
 
   -0.46436E+08         0.10014E+07         0.00000E+00
    0.10014E+07        -0.49883E+08         0.00000E+00
    0.00000E+00         0.00000E+00        -0.47033E+08
 
   -0.46460E+08         0.10355E+07         0.00000E+00
    0.10355E+07        -0.49874E+08         0.00000E+00
    0.00000E+00         0.00000E+00        -0.47033E+08
 
   -0.46483E+08         0.10695E+07         0.00000E+00
    0.10695E+07        -0.49866E+08         0.00000E+00
    0.00000E+00         0.00000E+00        -0.47033E+08
 
   -0.46507E+08         0.11032E+07         0.00000E+00
    0.11032E+07        -0.49856E+08         0.00000E+00
    0.00000E+00         0.00000E+00        -0.47033E+08
 
   -0.46532E+08         0.11368E+07         0.00000E+00
    0.11368E+07        -0.49847E+08         0.00000E+00
    0.00000E+00         0.00000E+00        -0.47033E+08
 
   -0.46556E+08         0.11701E+07         0.00000E+00
    0.11701E+07        -0.49837E+08         0.00000E+00
    0.00000E+00         0.00000E+00        -0.47033E+08
 
   -0.46581E+08         0.12033E+07         0.00000E+00
    0.12033E+07        -0.49827E+08         0.00000E+00
    0.00000E+00         0.00000E+00        -0.47033E+08
 
   -0.46606E+08         0.12363E+07         0.00000E+00
    0.12363E+07        -0.49817E+08         0.00000E+00
    0.00000E+00         0.00000E+00        -0.47033E+08
 
   -0.46632E+08         0.12691E+07         0.00000E+00
    0.12691E+07        -0.49806E+08         0.00000E+00
    0.00000E+00         0.00000E+00        -0.47033E+08
 
   -0.46658E+08         0.13018E+07         0.00000E+00
    0.13018E+07        -0.49795E+08         0.00000E+00
    0.00000E+00         0.00000E+00        -0.47034E+08
 
   -0.46684E+08         0.13342E+07         0.00000E+00
    0.13342E+07        -0.49784E+08         0.00000E+00
    0.00000E+00         0.00000E+00        -0.47034E+08
 
   -0.46710E+08         0.13665E+07         0.00000E+00
    0.13665E+07        -0.49773E+08         0.00000E+00
    0.00000E+00         0.00000E+00        -0.47034E+08
 
   -0.46737E+08         0.13985E+07         0.00000E+00
    0.13985E+07        -0.49761E+08         0.00000E+00
    0.00000E+00         0.00000E+00        -0.47034E+08
 
   -0.46764E+08         0.14304E+07         0.00000E+00
    0.14304E+07        -0.49749E+08         0.00000E+00
    0.00000E+00         0.00000E+00        -0.47034E+08
 
   -0.46791E+08         0.14620E+07         0.00000E+00
    0.14620E+07        -0.49737E+08         0.00000E+00
    0.00000E+00         0.00000E+00        -0.47034E+08
 
   -0.46819E+08         0.14935E+07         0.00000E+00
    0.14935E+07        -0.49724E+08         0.00000E+00
    0.00000E+00         0.00000E+00        -0.47034E+08
 
   -0.46846E+08         0.15247E+07         0.00000E+00
    0.15247E+07        -0.49711E+08         0.00000E+00
    0.00000E+00         0.00000E+00        -0.47034E+08
 
   -0.46875E+08         0.15558E+07         0.00000E+00
    0.15558E+07        -0.49698E+08         0.00000E+00
    0.00000E+00         0.00000E+00        -0.47034E+08
 
   -0.46903E+08         0.15866E+07         0.00000E+00
    0.15866E+07        -0.49684E+08         0.00000E+00
    0.00000E+00         0.00000E+00        -0.47034E+08
 
   -0.46932E+08         0.16172E+07         0.00000E+00
    0.16172E+07        -0.49671E+08         0.00000E+00
    0.00000E+00         0.00000E+00        -0.47034E+08
 
   -0.46961E+08         0.16476E+07         0.00000E+00
    0.16476E+07        -0.49657E+08         0.00000E+00
    0.00000E+00         0.00000E+00        -0.47034E+08
 
   -0.46990E+08         0.16778E+07         0.00000E+00
    0.16778E+07        -0.49642E+08         0.00000E+00
    0.00000E+00         0.00000E+00        -0.47034E+08
 
   -0.47019E+08         0.17078E+07         0.00000E+00
    0.17078E+07        -0.49628E+08         0.00000E+00
    0.00000E+00         0.00000E+00        -0.47034E+08
 
   -0.45731E+08         0.20164E+05         0.00000E+00
    0.20164E+05        -0.50000E+08         0.00000E+00
    0.00000E+00         0.00000E+00        -0.46878E+08
 
   -0.45746E+08         0.60099E+05         0.00000E+00
    0.60099E+05        -0.50000E+08         0.00000E+00
    0.00000E+00         0.00000E+00        -0.46878E+08
 
   -0.45761E+08         0.99890E+05         0.00000E+00
    0.99890E+05        -0.49999E+08         0.00000E+00
    0.00000E+00         0.00000E+00        -0.46878E+08
 
   -0.45777E+08         0.13953E+06         0.00000E+00
    0.13953E+06        -0.49998E+08         0.00000E+00
    0.00000E+00         0.00000E+00        -0.46878E+08
 
   -0.45793E+08         0.17903E+06         0.00000E+00
    0.17903E+06        -0.49997E+08         0.00000E+00
    0.00000E+00         0.00000E+00        -0.46878E+08
 
   -0.45810E+08         0.21838E+06         0.00000E+00
    0.21838E+06        -0.49995E+08         0.00000E+00
    0.00000E+00         0.00000E+00        -0.46878E+08
 
   -0.45827E+08         0.25759E+06         0.00000E+00
    0.25759E+06        -0.49993E+08         0.00000E+00
    0.00000E+00         0.00000E+00        -0.46878E+08
 
   -0.45844E+08         0.29664E+06         0.00000E+00
    0.29664E+06        -0.49991E+08         0.00000E+00
    0.00000E+00         0.00000E+00        -0.46878E+08
 
   -0.45862E+08         0.33554E+06         0.00000E+00
    0.33554E+06        -0.49988E+08         0.00000E+00
    0.00000E+00         0.00000E+00        -0.46878E+08
 
   -0.45880E+08         0.37428E+06         0.00000E+00
    0.37428E+06        -0.49985E+08         0.00000E+00
    0.00000E+00         0.00000E+00        -0.46878E+08
 
   -0.45898E+08         0.41288E+06         0.00000E+00
    0.41288E+06        -0.49982E+08         0.00000E+00
    0.00000E+00         0.00000E+00        -0.46878E+08
 
   -0.45917E+08         0.45132E+06         0.00000E+00
    0.45132E+06        -0.49979E+08         0.00000E+00
    0.00000E+00         0.00000E+00        -0.46878E+08
 
   -0.45936E+08         0.48960E+06         0.00000E+00
    0.48960E+06        -0.49975E+08         0.00000E+00
    0.00000E+00         0.00000E+00        -0.46878E+08
 
   -0.45955E+08         0.52772E+06         0.00000E+00
    0.52772E+06        -0.49970E+08         0.00000E+00
    0.00000E+00         0.00000E+00        -0.46879E+08
 
   -0.45975E+08         0.56569E+06         0.00000E+00
    0.56569E+06        -0.49966E+08         0.00000E+00
    0.00000E+00         0.00000E+00        -0.46879E+08
 
   -0.45995E+08         0.60349E+06         0.00000E+00
    0.60349E+06        -0.49961E+08         0.00000E+00
    0.00000E+00         0.00000E+00        -0.46879E+08
 
   -0.46015E+08         0.64113E+06         0.00000E+00
    0.64113E+06        -0.49956E+08         0.00000E+00
    0.00000E+00         0.00000E+00        -0.46879E+08
 
   -0.46036E+08         0.67861E+06         0.00000E+00
    0.67861E+06        -0.49951E+08         0.00000E+00
    0.00000E+00         0.00000E+00        -0.46879E+08
 
   -0.46057E+08         0.71593E+06         0.00000E+00
    0.71593E+06        -0.49945E+08         0.00000E+00
    0.00000E+00         0.00000E+00        -0.46879E+08
 
   -0.46079E+08         0.75308E+06         0.00000E+00
    0.75308E+06        -0.49939E+08         0.00000E+00
    0.00000E+00         0.00000E+00        -0.46879E+08
 
   -0.46100E+08         0.79007E+06         0.00000E+00
    0.79007E+06        -0.49932E+08         0.00000E+00
    0.00000E+00         0.00000E+00        -0.46879E+08
 
   -0.46122E+08         0.82688E+06         0.00000E+00
    0.82688E+06        -0.49926E+08         0.00000E+00
    0.00000E+00         0.00000E+00        -0.46879E+08
 
   -0.46145E+08         0.86353E+06         0.00000E+00
    0.86353E+06        -0.49919E+08         0.00000E+00
    0.00000E+00         0.00000E+00        -0.46880E+08
 
   -0.46167E+08         0.90000E+06         0.00000E+00
    0.90000E+06        -0.49911E+08         0.00000E+00
    0.00000E+00         0.00000E+00        -0.46880E+08
 
   -0.46190E+08         0.93631E+06         0.00000E+00
    0.93631E+06        -0.49904E+08         0.00000E+00
    0.00000E+00         0.00000E+00        -0.46880E+08
 
   -0.46214E+08         0.97244E+06         0.00000E+00
    0.97244E+06        -0.49896E+08         0.00000E+00
    0.00000E+00         0.00000E+00        -0.46880E+08
 
   -0.46237E+08         0.10084E+07         0.00000E+00
    0.10084E+07        -0.49888E+08         0.00000E+00
    0.00000E+00         0.00000E+00        -0.46880E+08
 
   -0.46261E+08         0.10442E+07         0.00000E+00
    0.10442E+07        -0.49879E+08         0.00000E+00
    0.00000E+00         0.00000E+00        -0.46880E+08
 
   -0.46286E+08         0.10798E+07         0.00000E+00
    0.10798E+07        -0.49870E+08         0.00000E+00
    0.00000E+00         0.00000E+00        -0.46880E+08
 
   -0.46310E+08         0.11152E+07         0.00000E+00
    0.11152E+07        -0.49861E+08         0.00000E+00
    0.00000E+00         0.00000E+00        -0.46880E+08
 
   -0.46335E+08         0.11504E+07         0.00000E+00
    0.11504E+07        -0.49852E+08         0.00000E+00
    0.00000E+00         0.00000E+00        -0.46881E+08
 
   -0.46361E+08         0.11855E+07         0.00000E+00
    0.11855E+07        -0.49842E+08         0.00000E+00
    0.00000E+00         0.00000E+00        -0.46881E+08
 
   -0.46386E+08         0.12203E+07         0.00000E+00
    0.12203E+07        -0.49832E+08         0.00000E+00
    0.00000E+00         0.00000E+00        -0.46881E+08
 
   -0.46412E+08         0.12550E+07         0.00000E+00
    0.12550E+07        -0.49822E+08         0.00000E+00
    0.00000E+00         0.00000E+00        -0.46881E+08
 
   -0.46438E+08         0.12895E+07         0.00000E+00
    0.12895E+07        -0.49811E+08         0.00000E+00
    0.00000E+00         0.00000E+00        -0.46881E+08
 
   -0.46465E+08         0.13238E+07         0.00000E+00
    0.13238E+07        -0.49800E+08         0.00000E+00
    0.00000E+00         0.00000E+00        -0.46881E+08
 
   -0.46491E+08         0.13579E+07         0.00000E+00
    0.13579E+07        -0.49789E+08         0.00000E+00
    0.00000E+00         0.00000E+00        -0.46881E+08
 
   -0.46518E+08         0.13918E+07         0.00000E+00
    0.13918E+07        -0.49777E+08         0.00000E+00
    0.00000E+00         0.00000E+00        -0.46881E+08
 
   -0.46546E+08         0.14256E+07         0.00000E+00
    0.14256E+07        -0.49765E+08         0.00000E+00
    0.00000E+00         0.00000E+00        -0.46881E+08
 
   -0.46573E+08         0.14591E+07         0.00000E+00
    0.14591E+07        -0.49753E+08         0.00000E+00
    0.00000E+00         0.00000E+00        -0.46881E+08
 
   -0.46601E+08         0.14924E+07         0.00000E+00
    0.14924E+07        -0.49741E+08         0.00000E+00
    0.00000E+00         0.00000E+00        -0.46881E+08
 
   -0.46630E+08         0.15255E+07         0.00000E+00
    0.15255E+07        -0.49728E+08         0.00000E+00
    0.00000E+00         0.00000E+00        -0.46882E+08
 
   -0.46658E+08         0.15585E+07         0.00000E+00
    0.15585E+07        -0.49715E+08         0.00000E+00
    0.00000E+00         0.00000E+00        -0.46882E+08
 
   -0.46687E+08         0.15912E+07         0.00000E+00
    0.15912E+07        -0.49701E+08         0.00000E+00
    0.00000E+00         0.00000E+00        -0.46882E+08
 
   -0.46716E+08         0.16237E+07         0.00000E+00
    0.16237E+07        -0.49688E+08         0.00000E+00
    0.00000E+00         0.00000E+00        -0.46882E+08
 
   -0.46746E+08         0.16560E+07         0.00000E+00
    0.16560E+07        -0.49674E+08         0.00000E+00
    0.00000E+00         0.00000E+00        -0.46882E+08
 
   -0.46775E+08         0.16880E+07         0.00000E+00
    0.16880E+07        -0.49659E+08         0.00000E+00
    0.00000E+00         0.00000E+00        -0.46882E+08
 
   -0.46805E+08         0.17199E+07         0.00000E+00
    0.17199E+07        -0.49645E+08         0.00000E+00
    0.00000E+00         0.00000E+00        -0.46882E+08
 
   -0.46836E+08         0.17516E+07         0.00000E+00
    0.17516E+07        -0.49630E+08         0.00000E+00
    0.00000E+00         0.00000E+00        -0.46882E+08
 
   -0.46866E+08         0.17830E+07         0.00000E+00
    0.17830E+07        -0.49615E+08         0.00000E+00
    0.00000E+00         0.00000E+00        -0.46882E+08
 
   -0.45527E+08         0.21002E+05         0.00000E+00
    0.21002E+05        -0.50000E+08         0.00000E+00
    0.00000E+00         0.00000E+00        -0.46718E+08
 
   -0.45542E+08         0.62599E+05         0.00000E+00
    0.62599E+05        -0.50000E+08         0.00000E+00
    0.00000E+00         0.00000E+00        -0.46718E+08
 
   -0.45559E+08         0.10405E+06         0.00000E+00
    0.10405E+06        -0.49999E+08         0.00000E+00
    0.00000E+00         0.00000E+00        -0.46718E+08
 
   -0.45575E+08         0.14534E+06         0.00000E+00
    0.14534E+06        -0.49998E+08         0.00000E+00
    0.00000E+00         0.00000E+00        -0.46718E+08
 
   -0.45592E+08         0.18648E+06         0.00000E+00
    0.18648E+06        -0.49997E+08         0.00000E+00
    0.00000E+00         0.00000E+00        -0.46718E+08
 
   -0.45609E+08         0.22747E+06         0.00000E+00
    0.22747E+06        -0.49995E+08         0.00000E+00
    0.00000E+00         0.00000E+00        -0.46718E+08
 
   -0.45627E+08         0.26831E+06         0.00000E+00
    0.26831E+06        -0.49993E+08         0.00000E+00
    0.00000E+00         0.00000E+00        -0.46718E+08
 
   -0.45645E+08         0.30899E+06         0.00000E+00
    0.30899E+06        -0.49991E+08         0.00000E+00
    0.00000E+00         0.00000E+00        -0.46718E+08
 
   -0.45664E+08         0.34952E+06         0.00000E+00
    0.34952E+06        -0.49988E+08         0.00000E+00
    0.00000E+00         0.00000E+00        -0.46719E+08
 
   -0.45682E+08         0.38988E+06         0.00000E+00
    0.38988E+06        -0.49985E+08         0.00000E+00
    0.00000E+00         0.00000E+00        -0.46719E+08
 
   -0.45702E+08         0.43009E+06         0.00000E+00
    0.43009E+06        -0.49982E+08         0.00000E+00
    0.00000E+00         0.00000E+00        -0.46719E+08
 
   -0.45721E+08         0.47014E+06         0.00000E+00
    0.47014E+06        -0.49978E+08         0.00000E+00
    0.00000E+00         0.00000E+00        -0.46719E+08
 
   -0.45741E+08         0.51003E+06         0.00000E+00
    0.51003E+06        -0.49974E+08         0.00000E+00
    0.00000E+00         0.00000E+00        -0.46719E+08
 
   -0.45761E+08         0.54976E+06         0.00000E+00
    0.54976E+06        -0.49970E+08         0.00000E+00
    0.00000E+00         0.00000E+00        -0.46719E+08
 
   -0.45782E+08         0.58932E+06         0.00000E+00
    0.58932E+06        -0.49965E+08         0.00000E+00
    0.00000E+00         0.00000E+00        -0.46719E+08
 
   -0.45802E+08         0.62872E+06         0.00000E+00
    0.62872E+06        -0.49960E+08         0.00000E+00
    0.00000E+00         0.00000E+00        -0.46719E+08
 
   -0.45824E+08         0.66796E+06         0.00000E+00
    0.66796E+06        -0.49955E+08         0.00000E+00
    0.00000E+00         0.00000E+00        -0.46719E+08
 
   -0.45845E+08         0.70703E+06         0.00000E+00
    0.70703E+06        -0.49949E+08         0.00000E+00
    0.00000E+00         0.00000E+00        -0.46719E+08
 
   -0.45867E+08         0.74593E+06         0.00000E+00
    0.74593E+06        -0.49943E+08         0.00000E+00
    0.00000E+00         0.00000E+00        -0.46720E+08
 
   -0.45889E+08         0.78466E+06         0.00000E+00
    0.78466E+06        -0.49937E+08         0.00000E+00
    0.00000E+00         0.00000E+00        -0.46720E+08
 
   -0.45912E+08         0.82323E+06         0.00000E+00
    0.82323E+06        -0.49930E+08         0.00000E+00
    0.00000E+00         0.00000E+00        -0.46720E+08
 
   -0.45935E+08         0.86162E+06         0.00000E+00
    0.86162E+06        -0.49923E+08         0.00000E+00
    0.00000E+00         0.00000E+00        -0.46720E+08
 
   -0.45958E+08         0.89984E+06         0.00000E+00
    0.89984E+06        -0.49916E+08         0.00000E+00
    0.00000E+00         0.00000E+00        -0.46720E+08
 
   -0.45982E+08         0.93788E+06         0.00000E+00
    0.93788E+06        -0.49909E+08         0.00000E+00
    0.00000E+00         0.00000E+00        -0.46720E+08
 
   -0.46006E+08         0.97575E+06         0.00000E+00
    0.97575E+06        -0.49901E+08         0.00000E+00
    0.00000E+00         0.00000E+00        -0.46720E+08
 
   -0.46030E+08         0.10134E+07         0.00000E+00
    0.10134E+07        -0.49893E+08         0.00000E+00
    0.00000E+00         0.00000E+00        -0.46720E+08
 
   -0.46054E+08         0.10510E+07         0.00000E+00
    0.10510E+07        -0.49884E+08         0.00000E+00
    0.00000E+00         0.00000E+00        -0.46720E+08
 
   -0.46079E+08         0.10883E+07         0.00000E+00
    0.10883E+07        -0.49875E+08         0.00000E+00
    0.00000E+00         0.00000E+00        -0.46721E+08
 
   -0.46104E+08         0.11255E+07         0.00000E+00
    0.11255E+07        -0.49866E+08         0.00000E+00
    0.00000E+00         0.00000E+00        -0.46721E+08
 
   -0.46130E+08         0.11624E+07         0.00000E+00
    0.11624E+07        -0.49857E+08         0.00000E+00
    0.00000E+00         0.00000E+00        -0.46721E+08
 
   -0.46156E+08         0.11992E+07         0.00000E+00
    0.11992E+07        -0.49847E+08         0.00000E+00
    0.00000E+00         0.00000E+00        -0.46721E+08
 
   -0.46182E+08         0.12358E+07         0.00000E+00
    0.12358E+07        -0.49837E+08         0.00000E+00
    0.00000E+00         0.00000E+00        -0.46721E+08
 
   -0.46208E+08         0.12722E+07         0.00000E+00
    0.12722E+07        -0.49827E+08         0.00000E+00
    0.00000E+00         0.00000E+00        -0.46721E+08
 
   -0.46235E+08         0.13085E+07         0.00000E+00
    0.13085E+07        -0.49816E+08         0.00000E+00
    0.00000E+00         0.00000E+00        -0.46721E+08
 
   -0.46262E+08         0.13445E+07         0.00000E+00
    0.13445E+07        -0.49805E+08         0.00000E+00
    0.00000E+00         0.00000E+00        -0.46721E+08
 
   -0.46290E+08         0.13804E+07         0.00000E+00
    0.13804E+07        -0.49793E+08         0.00000E+00
    0.00000E+00         0.00000E+00        -0.46721E+08
 
   -0.46317E+08         0.14160E+07         0.00000E+00
    0.14160E+07        -0.49782E+08         0.00000E+00
    0.00000E+00         0.00000E+00        -0.46721E+08
 
   -0.46345E+08         0.14515E+07         0.00000E+00
    0.14515E+07        -0.49770E+08         0.00000E+00
    0.00000E+00         0.00000E+00        -0.46721E+08
 
   -0.46374E+08         0.14867E+07         0.00000E+00
    0.14867E+07        -0.49758E+08         0.00000E+00
    0.00000E+00         0.00000E+00        -0.46722E+08
 
   -0.46402E+08         0.15218E+07         0.00000E+00
    0.15218E+07        -0.49745E+08         0.00000E+00
    0.00000E+00         0.00000E+00        -0.46722E+08
 
   -0.46431E+08         0.15566E+07         0.00000E+00
    0.15566E+07        -0.49732E+08         0.00000E+00
    0.00000E+00         0.00000E+00        -0.46722E+08
 
   -0.46461E+08         0.15913E+07         0.00000E+00
    0.15913E+07        -0.49719E+08         0.00000E+00
    0.00000E+00         0.00000E+00        -0.46722E+08
 
   -0.46490E+08         0.16257E+07         0.00000E+00
    0.16257E+07        -0.49705E+08         0.00000E+00
    0.00000E+00         0.00000E+00        -0.46722E+08
 
   -0.46520E+08         0.16600E+07         0.00000E+00
    0.16600E+07        -0.49691E+08         0.00000E+00
    0.00000E+00         0.00000E+00        -0.46722E+08
 
   -0.46550E+08         0.16940E+07         0.00000E+00
    0.16940E+07        -0.49677E+08         0.00000E+00
    0.00000E+00         0.00000E+00        -0.46722E+08
 
   -0.46581E+08         0.17278E+07         0.00000E+00
    0.17278E+07        -0.49663E+08         0.00000E+00
    0.00000E+00         0.00000E+00        -0.46722E+08
 
   -0.46612E+08         0.17614E+07         0.00000E+00
    0.17614E+07        -0.49648E+08         0.00000E+00
    0.00000E+00         0.00000E+00        -0.46722E+08
 
   -0.46643E+08         0.17948E+07         0.00000E+00
    0.17948E+07        -0.49633E+08         0.00000E+00
    0.00000E+00         0.00000E+00        -0.46722E+08
 
   -0.46674E+08         0.18280E+07         0.00000E+00
    0.18280E+07        -0.49618E+08         0.00000E+00
    0.00000E+00         0.00000E+00        -0.46722E+08
 
   -0.46706E+08         0.18609E+07         0.00000E+00
    0.18609E+07        -0.49602E+08         0.00000E+00
    0.00000E+00         0.00000E+00        -0.46722E+08
 
   -0.45314E+08         0.21866E+05         0.00000E+00
    0.21866E+05        -0.50000E+08         0.00000E+00
    0.00000E+00         0.00000E+00        -0.46551E+08
 
   -0.45330E+08         0.65173E+05         0.00000E+00
    0.65173E+05        -0.50000E+08         0.00000E+00
    0.00000E+00         0.00000E+00        -0.46551E+08
 
   -0.45347E+08         0.10832E+06         0.00000E+00
    0.10832E+06        -0.49999E+08         0.00000E+00
    0.00000E+00         0.00000E+00        -0.46551E+08
 
   -0.45365E+08         0.15132E+06         0.00000E+00
    0.15132E+06        -0.49998E+08         0.00000E+00
    0.00000E+00         0.00000E+00        -0.46551E+08
 
   -0.45383E+08         0.19416E+06         0.00000E+00
    0.19416E+06        -0.49996E+08         0.00000E+00
    0.00000E+00         0.00000E+00        -0.46551E+08
 
   -0.45401E+08         0.23683E+06         0.00000E+00
    0.23683E+06        -0.49995E+08         0.00000E+00
    0.00000E+00         0.00000E+00        -0.46551E+08
 
   -0.45419E+08         0.27935E+06         0.00000E+00
    0.27935E+06        -0.49993E+08         0.00000E+00
    0.00000E+00         0.00000E+00        -0.46551E+08
 
   -0.45438E+08         0.32171E+06         0.00000E+00
    0.32171E+06        -0.49990E+08         0.00000E+00
    0.00000E+00         0.00000E+00        -0.46551E+08
 
   -0.45457E+08         0.36391E+06         0.00000E+00
    0.36391E+06        -0.49987E+08         0.00000E+00
    0.00000E+00         0.00000E+00        -0.46551E+08
 
   -0.45477E+08         0.40595E+06         0.00000E+00
    0.40595E+06        -0.49984E+08         0.00000E+00
    0.00000E+00         0.00000E+00        -0.46551E+08
 
   -0.45497E+08         0.44782E+06         0.00000E+00
    0.44782E+06        -0.49981E+08         0.00000E+00
    0.00000E+00         0.00000E+00        -0.46551E+08
 
   -0.45517E+08         0.48953E+06         0.00000E+00
    0.48953E+06        -0.49977E+08         0.00000E+00
    0.00000E+00         0.00000E+00        -0.46552E+08
 
   -0.45538E+08         0.53108E+06         0.00000E+00
    0.53108E+06        -0.49973E+08         0.00000E+00
    0.00000E+00         0.00000E+00        -0.46552E+08
 
   -0.45559E+08         0.57246E+06         0.00000E+00
    0.57246E+06        -0.49969E+08         0.00000E+00
    0.00000E+00         0.00000E+00        -0.46552E+08
 
   -0.45580E+08         0.61367E+06         0.00000E+00
    0.61367E+06        -0.49964E+08         0.00000E+00
    0.00000E+00         0.00000E+00        -0.46552E+08
 
   -0.45602E+08         0.65472E+06         0.00000E+00
    0.65472E+06        -0.49959E+08         0.00000E+00
    0.00000E+00         0.00000E+00        -0.46552E+08
 
   -0.45624E+08         0.69560E+06         0.00000E+00
    0.69560E+06        -0.49953E+08         0.00000E+00
    0.00000E+00         0.00000E+00        -0.46552E+08
 
   -0.45646E+08         0.73631E+06         0.00000E+00
    0.73631E+06        -0.49948E+08         0.00000E+00
    0.00000E+00         0.00000E+00        -0.46552E+08
 
   -0.45669E+08         0.77685E+06         0.00000E+00
    0.77685E+06        -0.49941E+08         0.00000E+00
    0.00000E+00         0.00000E+00        -0.46552E+08
 
   -0.45692E+08         0.81722E+06         0.00000E+00
    0.81722E+06        -0.49935E+08         0.00000E+00
    0.00000E+00         0.00000E+00        -0.46552E+08
 
   -0.45715E+08         0.85741E+06         0.00000E+00
    0.85741E+06        -0.49928E+08         0.00000E+00
    0.00000E+00         0.00000E+00        -0.46552E+08
 
   -0.45739E+08         0.89743E+06         0.00000E+00
    0.89743E+06        -0.49921E+08         0.00000E+00
    0.00000E+00         0.00000E+00        -0.46553E+08
 
   -0.45763E+08         0.93728E+06         0.00000E+00
    0.93728E+06        -0.49914E+08         0.00000E+00
    0.00000E+00         0.00000E+00        -0.46553E+08
 
   -0.45788E+08         0.97695E+06         0.00000E+00
    0.97695E+06        -0.49906E+08         0.00000E+00
    0.00000E+00         0.00000E+00        -0.46553E+08
 
   -0.45813E+08         0.10164E+07         0.00000E+00
    0.10164E+07        -0.49898E+08         0.00000E+00
    0.00000E+00         0.00000E+00        -0.46553E+08
 
   -0.45838E+08         0.10558E+07         0.00000E+00
    0.10558E+07        -0.49889E+08         0.00000E+00
    0.00000E+00         0.00000E+00        -0.46553E+08
 
   -0.45863E+08         0.10949E+07         0.00000E+00
    0.10949E+07        -0.49881E+08         0.00000E+00
    0.00000E+00         0.00000E+00        -0.46553E+08
 
   -0.45889E+08         0.11338E+07         0.00000E+00
    0.11338E+07        -0.49872E+08         0.00000E+00
    0.00000E+00         0.00000E+00        -0.46553E+08
 
   -0.45915E+08         0.11726E+07         0.00000E+00
    0.11726E+07        -0.49862E+08         0.00000E+00
    0.00000E+00         0.00000E+00        -0.46553E+08
 
   -0.45941E+08         0.12112E+07         0.00000E+00
    0.12112E+07        -0.49852E+08         0.00000E+00
    0.00000E+00         0.00000E+00        -0.46553E+08
 
   -0.45968E+08         0.12496E+07         0.00000E+00
    0.12496E+07        -0.49842E+08         0.00000E+00
    0.00000E+00         0.00000E+00        -0.46553E+08
 
   -0.45995E+08         0.12878E+07         0.00000E+00
    0.12878E+07        -0.49832E+08         0.00000E+00
    0.00000E+00         0.00000E+00        -0.46554E+08
 
   -0.46023E+08         0.13258E+07         0.00000E+00
    0.13258E+07        -0.49821E+08         0.00000E+00
    0.00000E+00         0.00000E+00        -0.46554E+08
 
   -0.46050E+08         0.13637E+07         0.00000E+00
    0.13637E+07        -0.49810E+08         0.00000E+00
    0.00000E+00         0.00000E+00        -0.46554E+08
 
   -0.46078E+08         0.14013E+07         0.00000E+00
    0.14013E+07        -0.49799E+08         0.00000E+00
    0.00000E+00         0.00000E+00        -0.46554E+08
 
   -0.46107E+08         0.14388E+07         0.00000E+00
    0.14388E+07        -0.49787E+08         0.00000E+00
    0.00000E+00         0.00000E+00        -0.46554E+08
 
   -0.46136E+08         0.14760E+07         0.00000E+00
    0.14760E+07        -0.49775E+08         0.00000E+00
    0.00000E+00         0.00000E+00        -0.46554E+08
 
   -0.46165E+08         0.15131E+07         0.00000E+00
    0.15131E+07        -0.49763E+08         0.00000E+00
    0.00000E+00         0.00000E+00        -0.46554E+08
 
   -0.46194E+08         0.15499E+07         0.00000E+00
    0.15499E+07        -0.49750E+08         0.00000E+00
    0.00000E+00         0.00000E+00        -0.46554E+08
 
   -0.46224E+08         0.15866E+07         0.00000E+00
    0.15866E+07        -0.49737E+08         0.00000E+00
    0.00000E+00         0.00000E+00        -0.46554E+08
 
   -0.46254E+08         0.16230E+07         0.00000E+00
    0.16230E+07        -0.49724E+08         0.00000E+00
    0.00000E+00         0.00000E+00        -0.46554E+08
 
   -0.46284E+08         0.16593E+07         0.00000E+00
    0.16593E+07        -0.49710E+08         0.00000E+00
    0.00000E+00         0.00000E+00        -0.46554E+08
 
   -0.46315E+08         0.16953E+07         0.00000E+00
    0.16953E+07        -0.49696E+08         0.00000E+00
    0.00000E+00         0.00000E+00        -0.46554E+08
 
   -0.46346E+08         0.17312E+07         0.00000E+00
    0.17312E+07        -0.49682E+08         0.00000E+00
    0.00000E+00         0.00000E+00        -0.46554E+08
 
   -0.46377E+08         0.17668E+07         0.00000E+00
    0.17668E+07        -0.49667E+08         0.00000E+00
    0.00000E+00         0.00000E+00        -0.46554E+08
 
   -0.46408E+08         0.18022E+07         0.00000E+00
    0.18022E+07        -0.49652E+08         0.00000E+00
    0.00000E+00         0.00000E+00        -0.46554E+08
 
   -0.46440E+08         0.18374E+07         0.00000E+00
    0.18374E+07        -0.49637E+08         0.00000E+00
    0.00000E+00         0.00000E+00        -0.46554E+08
 
   -0.46473E+08         0.18723E+07         0.00000E+00
    0.18723E+07        -0.49621E+08         0.00000E+00
    0.00000E+00         0.00000E+00        -0.46554E+08
 
   -0.46505E+08         0.19071E+07         0.00000E+00
    0.19071E+07        -0.49605E+08         0.00000E+00
    0.00000E+00         0.00000E+00        -0.46554E+08
 
   -0.46538E+08         0.19416E+07         0.00000E+00
    0.19416E+07        -0.49589E+08         0.00000E+00
    0.00000E+00         0.00000E+00        -0.46554E+08
 
   -0.45093E+08         0.22754E+05         0.00000E+00
    0.22754E+05        -0.50000E+08         0.00000E+00
    0.00000E+00         0.00000E+00        -0.46376E+08
 
   -0.45110E+08         0.67820E+05         0.00000E+00
    0.67820E+05        -0.50000E+08         0.00000E+00
    0.00000E+00         0.00000E+00        -0.46376E+08
 
   -0.45128E+08         0.11272E+06         0.00000E+00
    0.11272E+06        -0.49999E+08         0.00000E+00
    0.00000E+00         0.00000E+00        -0.46376E+08
 
   -0.45146E+08         0.15747E+06         0.00000E+00
    0.15747E+06        -0.49998E+08         0.00000E+00
    0.00000E+00         0.00000E+00        -0.46376E+08
 
   -0.45164E+08         0.20204E+06         0.00000E+00
    0.20204E+06        -0.49996E+08         0.00000E+00
    0.00000E+00         0.00000E+00        -0.46376E+08
 
   -0.45183E+08         0.24646E+06         0.00000E+00
    0.24646E+06        -0.49995E+08         0.00000E+00
    0.00000E+00         0.00000E+00        -0.46376E+08
 
   -0.45203E+08         0.29071E+06         0.00000E+00
    0.29071E+06        -0.49992E+08         0.00000E+00
    0.00000E+00         0.00000E+00        -0.46376E+08
 
   -0.45222E+08         0.33480E+06         0.00000E+00
    0.33480E+06        -0.49990E+08         0.00000E+00
    0.00000E+00         0.00000E+00        -0.46376E+08
 
   -0.45242E+08         0.37872E+06         0.00000E+00
    0.37872E+06        -0.49987E+08         0.00000E+00
    0.00000E+00         0.00000E+00        -0.46376E+08
 
   -0.45263E+08         0.42247E+06         0.00000E+00
    0.42247E+06        -0.49984E+08         0.00000E+00
    0.00000E+00         0.00000E+00        -0.46376E+08
 
   -0.45283E+08         0.46606E+06         0.00000E+00
    0.46606E+06        -0.49980E+08         0.00000E+00
    0.00000E+00         0.00000E+00        -0.46376E+08
 
   -0.45305E+08         0.50948E+06         0.00000E+00
    0.50948E+06        -0.49977E+08         0.00000E+00
    0.00000E+00         0.00000E+00        -0.46376E+08
 
   -0.45326E+08         0.55274E+06         0.00000E+00
    0.55274E+06        -0.49972E+08         0.00000E+00
    0.00000E+00         0.00000E+00        -0.46376E+08
 
   -0.45348E+08         0.59582E+06         0.00000E+00
    0.59582E+06        -0.49968E+08         0.00000E+00
    0.00000E+00         0.00000E+00        -0.46376E+08
 
   -0.45370E+08         0.63873E+06         0.00000E+00
    0.63873E+06        -0.49963E+08         0.00000E+00
    0.00000E+00         0.00000E+00        -0.46377E+08
 
   -0.45393E+08         0.68148E+06         0.00000E+00
    0.68148E+06        -0.49958E+08         0.00000E+00
    0.00000E+00         0.00000E+00        -0.46377E+08
 
   -0.45416E+08         0.72405E+06         0.00000E+00
    0.72405E+06        -0.49952E+08         0.00000E+00
    0.00000E+00         0.00000E+00        -0.46377E+08
 
   -0.45439E+08         0.76645E+06         0.00000E+00
    0.76645E+06        -0.49946E+08         0.00000E+00
    0.00000E+00         0.00000E+00        -0.46377E+08
 
   -0.45462E+08         0.80868E+06         0.00000E+00
    0.80868E+06        -0.49940E+08         0.00000E+00
    0.00000E+00         0.00000E+00        -0.46377E+08
 
   -0.45486E+08         0.85073E+06         0.00000E+00
    0.85073E+06        -0.49933E+08         0.00000E+00
    0.00000E+00         0.00000E+00        -0.46377E+08
 
   -0.45511E+08         0.89261E+06         0.00000E+00
    0.89261E+06        -0.49926E+08         0.00000E+00
    0.00000E+00         0.00000E+00        -0.46377E+08
 
   -0.45535E+08         0.93432E+06         0.00000E+00
    0.93432E+06        -0.49919E+08         0.00000E+00
    0.00000E+00         0.00000E+00        -0.46377E+08
 
   -0.45560E+08         0.97584E+06         0.00000E+00
    0.97584E+06        -0.49911E+08         0.00000E+00
    0.00000E+00         0.00000E+00        -0.46377E+08
 
   -0.45586E+08         0.10172E+07         0.00000E+00
    0.10172E+07        -0.49903E+08         0.00000E+00
    0.00000E+00         0.00000E+00        -0.46377E+08
 
   -0.45611E+08         0.10584E+07         0.00000E+00
    0.10584E+07        -0.49895E+08         0.00000E+00
    0.00000E+00         0.00000E+00        -0.46377E+08
 
   -0.45637E+08         0.10993E+07         0.00000E+00
    0.10993E+07        -0.49886E+08         0.00000E+00
    0.00000E+00         0.00000E+00        -0.46378E+08
 
   -0.45664E+08         0.11402E+07         0.00000E+00
    0.11402E+07        -0.49877E+08         0.00000E+00
    0.00000E+00         0.00000E+00        -0.46378E+08
 
   -0.45690E+08         0.11808E+07         0.00000E+00
    0.11808E+07        -0.49868E+08         0.00000E+00
    0.00000E+00         0.00000E+00        -0.46378E+08
 
   -0.45717E+08         0.12212E+07         0.00000E+00
    0.12212E+07        -0.49858E+08         0.00000E+00
    0.00000E+00         0.00000E+00        -0.46378E+08
 
   -0.45745E+08         0.12615E+07         0.00000E+00
    0.12615E+07        -0.49848E+08         0.00000E+00
    0.00000E+00         0.00000E+00        -0.46378E+08
 
   -0.45772E+08         0.13015E+07         0.00000E+00
    0.13015E+07        -0.49838E+08         0.00000E+00
    0.00000E+00         0.00000E+00        -0.46378E+08
 
   -0.45801E+08         0.13414E+07         0.00000E+00
    0.13414E+07        -0.49827E+08         0.00000E+00
    0.00000E+00         0.00000E+00        -0.46378E+08
 
   -0.45829E+08         0.13811E+07         0.00000E+00
    0.13811E+07        -0.49816E+08         0.00000E+00
    0.00000E+00         0.00000E+00        -0.46378E+08
 
   -0.45858E+08         0.14206E+07         0.00000E+00
    0.14206E+07        -0.49805E+08         0.00000E+00
    0.00000E+00         0.00000E+00        -0.46378E+08
 
   -0.45887E+08         0.14599E+07         0.00000E+00
    0.14599E+07        -0.49793E+08         0.00000E+00
    0.00000E+00         0.00000E+00        -0.46378E+08
 
   -0.45916E+08         0.14990E+07         0.00000E+00
    0.14990E+07        -0.49781E+08         0.00000E+00
    0.00000E+00         0.00000E+00        -0.46378E+08
 
   -0.45946E+08         0.15380E+07         0.00000E+00
    0.15380E+07        -0.49768E+08         0.00000E+00
    0.00000E+00         0.00000E+00        -0.46378E+08
 
   -0.45976E+08         0.15767E+07         0.00000E+00
    0.15767E+07        -0.49756E+08         0.00000E+00
    0.00000E+00         0.00000E+00        -0.46378E+08
 
   -0.46006E+08         0.16152E+07         0.00000E+00
    0.16152E+07        -0.49743E+08         0.00000E+00
    0.00000E+00         0.00000E+00        -0.46378E+08
 
   -0.46037E+08         0.16535E+07         0.00000E+00
    0.16535E+07        -0.49729E+08         0.00000E+00
    0.00000E+00         0.00000E+00        -0.46379E+08
 
   -0.46068E+08         0.16916E+07         0.00000E+00
    0.16916E+07        -0.49715E+08         0.00000E+00
    0.00000E+00         0.00000E+00        -0.46379E+08
 
   -0.46099E+08         0.17295E+07         0.00000E+00
    0.17295E+07        -0.49701E+08         0.00000E+00
    0.00000E+00         0.00000E+00        -0.46379E+08
 
   -0.46131E+08         0.17672E+07         0.00000E+00
    0.17672E+07        -0.49687E+08         0.00000E+00
    0.00000E+00         0.00000E+00        -0.46379E+08
 
   -0.46163E+08         0.18047E+07         0.00000E+00
    0.18047E+07        -0.49672E+08         0.00000E+00
    0.00000E+00         0.00000E+00        -0.46379E+08
 
   -0.46195E+08         0.18420E+07         0.00000E+00
    0.18420E+07        -0.49657E+08         0.00000E+00
    0.00000E+00         0.00000E+00        -0.46379E+08
 
   -0.46228E+08         0.18791E+07         0.00000E+00
    0.18791E+07        -0.49641E+08         0.00000E+00
    0.00000E+00         0.00000E+00        -0.46379E+08
 
   -0.46261E+08         0.19159E+07         0.00000E+00
    0.19159E+07        -0.49626E+08         0.00000E+00
    0.00000E+00         0.00000E+00        -0.46379E+08
 
   -0.46294E+08         0.19525E+07         0.00000E+00
    0.19525E+07        -0.49610E+08         0.00000E+00
    0.00000E+00         0.00000E+00        -0.46379E+08
 
   -0.46328E+08         0.19889E+07         0.00000E+00
    0.19889E+07        -0.49593E+08         0.00000E+00
    0.00000E+00         0.00000E+00        -0.46379E+08
 
   -0.46362E+08         0.20251E+07         0.00000E+00
    0.20251E+07        -0.49576E+08         0.00000E+00
    0.00000E+00         0.00000E+00        -0.46379E+08
 
   -0.44862E+08         0.23665E+05         0.00000E+00
    0.23665E+05        -0.50000E+08         0.00000E+00
    0.00000E+00         0.00000E+00        -0.46192E+08
 
   -0.44881E+08         0.70537E+05         0.00000E+00
    0.70537E+05        -0.50000E+08         0.00000E+00
    0.00000E+00         0.00000E+00        -0.46192E+08
 
   -0.44899E+08         0.11724E+06         0.00000E+00
    0.11724E+06        -0.49999E+08         0.00000E+00
    0.00000E+00         0.00000E+00        -0.46192E+08
 
   -0.44918E+08         0.16378E+06         0.00000E+00
    0.16378E+06        -0.49998E+08         0.00000E+00
    0.00000E+00         0.00000E+00        -0.46192E+08
 
   -0.44937E+08         0.21014E+06         0.00000E+00
    0.21014E+06        -0.49996E+08         0.00000E+00
    0.00000E+00         0.00000E+00        -0.46192E+08
 
   -0.44957E+08         0.25634E+06         0.00000E+00
    0.25634E+06        -0.49994E+08         0.00000E+00
    0.00000E+00         0.00000E+00        -0.46192E+08
 
   -0.44977E+08         0.30237E+06         0.00000E+00
    0.30237E+06        -0.49992E+08         0.00000E+00
    0.00000E+00         0.00000E+00        -0.46192E+08
 
   -0.44998E+08         0.34823E+06         0.00000E+00
    0.34823E+06        -0.49990E+08         0.00000E+00
    0.00000E+00         0.00000E+00        -0.46192E+08
 
   -0.45019E+08         0.39392E+06         0.00000E+00
    0.39392E+06        -0.49987E+08         0.00000E+00
    0.00000E+00         0.00000E+00        -0.46192E+08
 
   -0.45040E+08         0.43945E+06         0.00000E+00
    0.43945E+06        -0.49984E+08         0.00000E+00
    0.00000E+00         0.00000E+00        -0.46192E+08
 
   -0.45062E+08         0.48480E+06         0.00000E+00
    0.48480E+06        -0.49980E+08         0.00000E+00
    0.00000E+00         0.00000E+00        -0.46193E+08
 
   -0.45084E+08         0.52998E+06         0.00000E+00
    0.52998E+06        -0.49976E+08         0.00000E+00
    0.00000E+00         0.00000E+00        -0.46193E+08
 
   -0.45106E+08         0.57498E+06         0.00000E+00
    0.57498E+06        -0.49972E+08         0.00000E+00
    0.00000E+00         0.00000E+00        -0.46193E+08
 
   -0.45129E+08         0.61982E+06         0.00000E+00
    0.61982E+06        -0.49967E+08         0.00000E+00
    0.00000E+00         0.00000E+00        -0.46193E+08
 
   -0.45152E+08         0.66448E+06         0.00000E+00
    0.66448E+06        -0.49962E+08         0.00000E+00
    0.00000E+00         0.00000E+00        -0.46193E+08
 
   -0.45175E+08         0.70898E+06         0.00000E+00
    0.70898E+06        -0.49957E+08         0.00000E+00
    0.00000E+00         0.00000E+00        -0.46193E+08
 
   -0.45199E+08         0.75329E+06         0.00000E+00
    0.75329E+06        -0.49951E+08         0.00000E+00
    0.00000E+00         0.00000E+00        -0.46193E+08
 
   -0.45223E+08         0.79743E+06         0.00000E+00
    0.79743E+06        -0.49945E+08         0.00000E+00
    0.00000E+00         0.00000E+00        -0.46193E+08
 
   -0.45247E+08         0.84140E+06         0.00000E+00
    0.84140E+06        -0.49938E+08         0.00000E+00
    0.00000E+00         0.00000E+00        -0.46193E+08
 
   -0.45272E+08         0.88519E+06         0.00000E+00
    0.88519E+06        -0.49931E+08         0.00000E+00
    0.00000E+00         0.00000E+00        -0.46193E+08
 
   -0.45297E+08         0.92881E+06         0.00000E+00
    0.92881E+06        -0.49924E+08         0.00000E+00
    0.00000E+00         0.00000E+00        -0.46193E+08
 
   -0.45323E+08         0.97225E+06         0.00000E+00
    0.97225E+06        -0.49917E+08         0.00000E+00
    0.00000E+00         0.00000E+00        -0.46193E+08
 
   -0.45349E+08         0.10155E+07         0.00000E+00
    0.10155E+07        -0.49909E+08         0.00000E+00
    0.00000E+00         0.00000E+00        -0.46193E+08
 
   -0.45375E+08         0.10586E+07         0.00000E+00
    0.10586E+07        -0.49901E+08         0.00000E+00
    0.00000E+00         0.00000E+00        -0.46194E+08
 
   -0.45402E+08         0.11015E+07         0.00000E+00
    0.11015E+07        -0.49892E+08         0.00000E+00
    0.00000E+00         0.00000E+00        -0.46194E+08
 
   -0.45429E+08         0.11442E+07         0.00000E+00
    0.11442E+07        -0.49883E+08         0.00000E+00
    0.00000E+00         0.00000E+00        -0.46194E+08
 
   -0.45456E+08         0.11867E+07         0.00000E+00
    0.11867E+07        -0.49874E+08         0.00000E+00
    0.00000E+00         0.00000E+00        -0.46194E+08
 
   -0.45483E+08         0.12291E+07         0.00000E+00
    0.12291E+07        -0.49864E+08         0.00000E+00
    0.00000E+00         0.00000E+00        -0.46194E+08
 
   -0.45511E+08         0.12713E+07         0.00000E+00
    0.12713E+07        -0.49854E+08         0.00000E+00
    0.00000E+00         0.00000E+00        -0.46194E+08
 
   -0.45540E+08         0.13132E+07         0.00000E+00
    0.13132E+07        -0.49844E+08         0.00000E+00
    0.00000E+00         0.00000E+00        -0.46194E+08
 
   -0.45568E+08         0.13550E+07         0.00000E+00
    0.13550E+07        -0.49833E+08         0.00000E+00
    0.00000E+00         0.00000E+00        -0.46194E+08
 
   -0.45597E+08         0.13966E+07         0.00000E+00
    0.13966E+07        -0.49822E+08         0.00000E+00
    0.00000E+00         0.00000E+00        -0.46194E+08
 
   -0.45627E+08         0.14381E+07         0.00000E+00
    0.14381E+07        -0.49811E+08         0.00000E+00
    0.00000E+00         0.00000E+00        -0.46194E+08
 
   -0.45656E+08         0.14793E+07         0.00000E+00
    0.14793E+07        -0.49799E+08         0.00000E+00
    0.00000E+00         0.00000E+00        -0.46194E+08
 
   -0.45686E+08         0.15203E+07         0.00000E+00
    0.15203E+07        -0.49787E+08         0.00000E+00
    0.00000E+00         0.00000E+00        -0.46194E+08
 
   -0.45717E+08         0.15612E+07         0.00000E+00
    0.15612E+07        -0.49775E+08         0.00000E+00
    0.00000E+00         0.00000E+00        -0.46194E+08
 
   -0.45747E+08         0.16018E+07         0.00000E+00
    0.16018E+07        -0.49762E+08         0.00000E+00
    0.00000E+00         0.00000E+00        -0.46194E+08
 
   -0.45778E+08         0.16422E+07         0.00000E+00
    0.16422E+07        -0.49749E+08         0.00000E+00
    0.00000E+00         0.00000E+00        -0.46194E+08
 
   -0.45810E+08         0.16825E+07         0.00000E+00
    0.16825E+07        -0.49735E+08         0.00000E+00
    0.00000E+00         0.00000E+00        -0.46194E+08
 
   -0.45841E+08         0.17225E+07         0.00000E+00
    0.17225E+07        -0.49721E+08         0.00000E+00
    0.00000E+00         0.00000E+00        -0.46194E+08
 
   -0.45873E+08         0.17624E+07         0.00000E+00
    0.17624E+07        -0.49707E+08         0.00000E+00
    0.00000E+00         0.00000E+00        -0.46195E+08
 
   -0.45906E+08         0.18020E+07         0.00000E+00
    0.18020E+07        -0.49693E+08         0.00000E+00
    0.00000E+00         0.00000E+00        -0.46195E+08
 
   -0.45939E+08         0.18414E+07         0.00000E+00
    0.18414E+07        -0.49678E+08         0.00000E+00
    0.00000E+00         0.00000E+00        -0.46195E+08
 
   -0.45972E+08         0.18806E+07         0.00000E+00
    0.18806E+07        -0.49663E+08         0.00000E+00
    0.00000E+00         0.00000E+00        -0.46195E+08
 
   -0.46005E+08         0.19197E+07         0.00000E+00
    0.19197E+07        -0.49647E+08         0.00000E+00
    0.00000E+00         0.00000E+00        -0.46195E+08
 
   -0.46039E+08         0.19584E+07         0.00000E+00
    0.19584E+07        -0.49631E+08         0.00000E+00
    0.00000E+00         0.00000E+00        -0.46195E+08
 
   -0.46073E+08         0.19970E+07         0.00000E+00
    0.19970E+07        -0.49615E+08         0.00000E+00
    0.00000E+00         0.00000E+00        -0.46195E+08
 
   -0.46107E+08         0.20354E+07         0.00000E+00
    0.20354E+07        -0.49598E+08         0.00000E+00
    0.00000E+00         0.00000E+00        -0.46195E+08
 
   -0.46142E+08         0.20735E+07         0.00000E+00
    0.20735E+07        -0.49581E+08         0.00000E+00
    0.00000E+00         0.00000E+00        -0.46195E+08
 
   -0.46177E+08         0.21114E+07         0.00000E+00
    0.21114E+07        -0.49564E+08         0.00000E+00
    0.00000E+00         0.00000E+00        -0.46195E+08
 
   -0.44623E+08         0.24599E+05         0.00000E+00
    0.24599E+05        -0.50000E+08         0.00000E+00
    0.00000E+00         0.00000E+00        -0.46000E+08
 
   -0.44642E+08         0.73321E+05         0.00000E+00
    0.73321E+05        -0.50000E+08         0.00000E+00
    0.00000E+00         0.00000E+00        -0.46000E+08
 
   -0.44661E+08         0.12187E+06         0.00000E+00
    0.12187E+06        -0.49999E+08         0.00000E+00
    0.00000E+00         0.00000E+00        -0.46000E+08
 
   -0.44681E+08         0.17024E+06         0.00000E+00
    0.17024E+06        -0.49998E+08         0.00000E+00
    0.00000E+00         0.00000E+00        -0.46000E+08
 
   -0.44701E+08         0.21845E+06         0.00000E+00
    0.21845E+06        -0.49996E+08         0.00000E+00
    0.00000E+00         0.00000E+00        -0.46000E+08
 
   -0.44722E+08         0.26647E+06         0.00000E+00
    0.26647E+06        -0.49994E+08         0.00000E+00
    0.00000E+00         0.00000E+00        -0.46000E+08
 
   -0.44743E+08         0.31433E+06         0.00000E+00
    0.31433E+06        -0.49992E+08         0.00000E+00
    0.00000E+00         0.00000E+00        -0.46000E+08
 
   -0.44764E+08         0.36201E+06         0.00000E+00
    0.36201E+06        -0.49989E+08         0.00000E+00
    0.00000E+00         0.00000E+00        -0.46000E+08
 
   -0.44786E+08         0.40952E+06         0.00000E+00
    0.40952E+06        -0.49987E+08         0.00000E+00
    0.00000E+00         0.00000E+00        -0.46000E+08
 
   -0.44808E+08         0.45685E+06         0.00000E+00
    0.45685E+06        -0.49983E+08         0.00000E+00
    0.00000E+00         0.00000E+00        -0.46000E+08
 
   -0.44831E+08         0.50401E+06         0.00000E+00
    0.50401E+06        -0.49979E+08         0.00000E+00
    0.00000E+00         0.00000E+00        -0.46000E+08
 
   -0.44854E+08         0.55099E+06         0.00000E+00
    0.55099E+06        -0.49975E+08         0.00000E+00
    0.00000E+00         0.00000E+00        -0.46000E+08
 
   -0.44877E+08         0.59781E+06         0.00000E+00
    0.59781E+06        -0.49971E+08         0.00000E+00
    0.00000E+00         0.00000E+00        -0.46000E+08
 
   -0.44900E+08         0.64444E+06         0.00000E+00
    0.64444E+06        -0.49966E+08         0.00000E+00
    0.00000E+00         0.00000E+00        -0.46000E+08
 
   -0.44924E+08         0.69090E+06         0.00000E+00
    0.69090E+06        -0.49961E+08         0.00000E+00
    0.00000E+00         0.00000E+00        -0.46000E+08
 
   -0.44949E+08         0.73719E+06         0.00000E+00
    0.73719E+06        -0.49955E+08         0.00000E+00
    0.00000E+00         0.00000E+00        -0.46000E+08
 
   -0.44973E+08         0.78330E+06         0.00000E+00
    0.78330E+06        -0.49950E+08         0.00000E+00
    0.00000E+00         0.00000E+00        -0.46000E+08
 
   -0.44998E+08         0.82923E+06         0.00000E+00
    0.82923E+06        -0.49943E+08         0.00000E+00
    0.00000E+00         0.00000E+00        -0.46001E+08
 
   -0.45024E+08         0.87499E+06         0.00000E+00
    0.87499E+06        -0.49937E+08         0.00000E+00
    0.00000E+00         0.00000E+00        -0.46001E+08
 
   -0.45049E+08         0.92057E+06         0.00000E+00
    0.92057E+06        -0.49930E+08         0.00000E+00
    0.00000E+00         0.00000E+00        -0.46001E+08
 
   -0.45075E+08         0.96597E+06         0.00000E+00
    0.96597E+06        -0.49922E+08         0.00000E+00
    0.00000E+00         0.00000E+00        -0.46001E+08
 
   -0.45102E+08         0.10112E+07         0.00000E+00
    0.10112E+07        -0.49915E+08         0.00000E+00
    0.00000E+00         0.00000E+00        -0.46001E+08
 
   -0.45129E+08         0.10562E+07         0.00000E+00
    0.10562E+07        -0.49907E+08         0.00000E+00
    0.00000E+00         0.00000E+00        -0.46001E+08
 
   -0.45156E+08         0.11011E+07         0.00000E+00
    0.11011E+07        -0.49898E+08         0.00000E+00
    0.00000E+00         0.00000E+00        -0.46001E+08
 
   -0.45183E+08         0.11458E+07         0.00000E+00
    0.11458E+07        -0.49889E+08         0.00000E+00
    0.00000E+00         0.00000E+00        -0.46001E+08
 
   -0.45211E+08         0.11903E+07         0.00000E+00
    0.11903E+07        -0.49880E+08         0.00000E+00
    0.00000E+00         0.00000E+00        -0.46001E+08
 
   -0.45239E+08         0.12346E+07         0.00000E+00
    0.12346E+07        -0.49871E+08         0.00000E+00
    0.00000E+00         0.00000E+00        -0.46001E+08
 
   -0.45268E+08         0.12787E+07         0.00000E+00
    0.12787E+07        -0.49861E+08         0.00000E+00
    0.00000E+00         0.00000E+00        -0.46001E+08
 
   -0.45297E+08         0.13227E+07         0.00000E+00
    0.13227E+07        -0.49851E+08         0.00000E+00
    0.00000E+00         0.00000E+00        -0.46001E+08
 
   -0.45326E+08         0.13665E+07         0.00000E+00
    0.13665E+07        -0.49840E+08         0.00000E+00
    0.00000E+00         0.00000E+00        -0.46001E+08
 
   -0.45355E+08         0.14100E+07         0.00000E+00
    0.14100E+07        -0.49829E+08         0.00000E+00
    0.00000E+00         0.00000E+00        -0.46001E+08
 
   -0.45385E+08         0.14534E+07         0.00000E+00
    0.14534E+07        -0.49818E+08         0.00000E+00
    0.00000E+00         0.00000E+00        -0.46001E+08
 
   -0.45416E+08         0.14966E+07         0.00000E+00
    0.14966E+07        -0.49806E+08         0.00000E+00
    0.00000E+00         0.00000E+00        -0.46001E+08
 
   -0.45446E+08         0.15397E+07         0.00000E+00
    0.15397E+07        -0.49794E+08         0.00000E+00
    0.00000E+00         0.00000E+00        -0.46001E+08
 
   -0.45477E+08         0.15825E+07         0.00000E+00
    0.15825E+07        -0.49781E+08         0.00000E+00
    0.00000E+00         0.00000E+00        -0.46001E+08
 
   -0.45508E+08         0.16251E+07         0.00000E+00
    0.16251E+07        -0.49769E+08         0.00000E+00
    0.00000E+00         0.00000E+00        -0.46001E+08
 
   -0.45540E+08         0.16675E+07         0.00000E+00
    0.16675E+07        -0.49756E+08         0.00000E+00
    0.00000E+00         0.00000E+00        -0.46002E+08
 
   -0.45572E+08         0.17098E+07         0.00000E+00
    0.17098E+07        -0.49742E+08         0.00000E+00
    0.00000E+00         0.00000E+00        -0.46002E+08
 
   -0.45604E+08         0.17518E+07         0.00000E+00
    0.17518E+07        -0.49728E+08         0.00000E+00
    0.00000E+00         0.00000E+00        -0.46002E+08
 
   -0.45637E+08         0.17936E+07         0.00000E+00
    0.17936E+07        -0.49714E+08         0.00000E+00
    0.00000E+00         0.00000E+00        -0.46002E+08
 
   -0.45670E+08         0.18353E+07         0.00000E+00
    0.18353E+07        -0.49699E+08         0.00000E+00
    0.00000E+00         0.00000E+00        -0.46002E+08
 
   -0.45704E+08         0.18767E+07         0.00000E+00
    0.18767E+07        -0.49684E+08         0.00000E+00
    0.00000E+00         0.00000E+00        -0.46002E+08
 
   -0.45737E+08         0.19179E+07         0.00000E+00
    0.19179E+07        -0.49669E+08         0.00000E+00
    0.00000E+00         0.00000E+00        -0.46002E+08
 
   -0.45772E+08         0.19589E+07         0.00000E+00
    0.19589E+07        -0.49653E+08         0.00000E+00
    0.00000E+00         0.00000E+00        -0.46002E+08
 
   -0.45806E+08         0.19998E+07         0.00000E+00
    0.19998E+07        -0.49637E+08         0.00000E+00
    0.00000E+00         0.00000E+00        -0.46002E+08
 
   -0.45841E+08         0.20403E+07         0.00000E+00
    0.20403E+07        -0.49621E+08         0.00000E+00
    0.00000E+00         0.00000E+00        -0.46002E+08
 
   -0.45876E+08         0.20807E+07         0.00000E+00
    0.20807E+07        -0.49604E+08         0.00000E+00
    0.00000E+00         0.00000E+00        -0.46002E+08
 
   -0.45911E+08         0.21209E+07         0.00000E+00
    0.21209E+07        -0.49587E+08         0.00000E+00
    0.00000E+00         0.00000E+00        -0.46002E+08
 
   -0.45947E+08         0.21608E+07         0.00000E+00
    0.21608E+07        -0.49569E+08         0.00000E+00
    0.00000E+00         0.00000E+00        -0.46002E+08
 
   -0.45984E+08         0.22005E+07         0.00000E+00
    0.22005E+07        -0.49551E+08         0.00000E+00
    0.00000E+00         0.00000E+00        -0.46002E+08
 
   -0.44374E+08         0.25554E+05         0.00000E+00
    0.25554E+05        -0.50000E+08         0.00000E+00
    0.00000E+00         0.00000E+00        -0.45798E+08
 
   -0.44394E+08         0.76169E+05         0.00000E+00
    0.76169E+05        -0.50000E+08         0.00000E+00
    0.00000E+00         0.00000E+00        -0.45798E+08
 
   -0.44414E+08         0.12660E+06         0.00000E+00
    0.12660E+06        -0.49999E+08         0.00000E+00
    0.00000E+00         0.00000E+00        -0.45798E+08
 
   -0.44435E+08         0.17686E+06         0.00000E+00
    0.17686E+06        -0.49998E+08         0.00000E+00
    0.00000E+00         0.00000E+00        -0.45798E+08
 
   -0.44456E+08         0.22694E+06         0.00000E+00
    0.22694E+06        -0.49996E+08         0.00000E+00
    0.00000E+00         0.00000E+00        -0.45798E+08
 
   -0.44478E+08         0.27684E+06         0.00000E+00
    0.27684E+06        -0.49994E+08         0.00000E+00
    0.00000E+00         0.00000E+00        -0.45798E+08
 
   -0.44500E+08         0.32656E+06         0.00000E+00
    0.32656E+06        -0.49992E+08         0.00000E+00
    0.00000E+00         0.00000E+00        -0.45798E+08
 
   -0.44522E+08         0.37611E+06         0.00000E+00
    0.37611E+06        -0.49989E+08         0.00000E+00
    0.00000E+00         0.00000E+00        -0.45798E+08
 
   -0.44544E+08         0.42548E+06         0.00000E+00
    0.42548E+06        -0.49986E+08         0.00000E+00
    0.00000E+00         0.00000E+00        -0.45798E+08
 
   -0.44567E+08         0.47467E+06         0.00000E+00
    0.47467E+06        -0.49983E+08         0.00000E+00
    0.00000E+00         0.00000E+00        -0.45798E+08
 
   -0.44591E+08         0.52368E+06         0.00000E+00
    0.52368E+06        -0.49979E+08         0.00000E+00
    0.00000E+00         0.00000E+00        -0.45798E+08
 
   -0.44614E+08         0.57251E+06         0.00000E+00
    0.57251E+06        -0.49975E+08         0.00000E+00
    0.00000E+00         0.00000E+00        -0.45799E+08
 
   -0.44639E+08         0.62117E+06         0.00000E+00
    0.62117E+06        -0.49970E+08         0.00000E+00
    0.00000E+00         0.00000E+00        -0.45799E+08
 
   -0.44663E+08         0.66966E+06         0.00000E+00
    0.66966E+06        -0.49965E+08         0.00000E+00
    0.00000E+00         0.00000E+00        -0.45799E+08
 
   -0.44688E+08         0.71796E+06         0.00000E+00
    0.71796E+06        -0.49960E+08         0.00000E+00
    0.00000E+00         0.00000E+00        -0.45799E+08
 
   -0.44713E+08         0.76609E+06         0.00000E+00
    0.76609E+06        -0.49954E+08         0.00000E+00
    0.00000E+00         0.00000E+00        -0.45799E+08
 
   -0.44738E+08         0.81404E+06         0.00000E+00
    0.81404E+06        -0.49948E+08         0.00000E+00
    0.00000E+00         0.00000E+00        -0.45799E+08
 
   -0.44764E+08         0.86181E+06         0.00000E+00
    0.86181E+06        -0.49942E+08         0.00000E+00
    0.00000E+00         0.00000E+00        -0.45799E+08
 
   -0.44791E+08         0.90941E+06         0.00000E+00
    0.90941E+06        -0.49935E+08         0.00000E+00
    0.00000E+00         0.00000E+00        -0.45799E+08
 
   -0.44817E+08         0.95683E+06         0.00000E+00
    0.95683E+06        -0.49928E+08         0.00000E+00
    0.00000E+00         0.00000E+00        -0.45799E+08
 
   -0.44844E+08         0.10041E+07         0.00000E+00
    0.10041E+07        -0.49921E+08         0.00000E+00
    0.00000E+00         0.00000E+00        -0.45799E+08
 
   -0.44871E+08         0.10511E+07         0.00000E+00
    0.10511E+07        -0.49913E+08         0.00000E+00
    0.00000E+00         0.00000E+00        -0.45799E+08
 
   -0.44899E+08         0.10980E+07         0.00000E+00
    0.10980E+07        -0.49904E+08         0.00000E+00
    0.00000E+00         0.00000E+00        -0.45799E+08
 
   -0.44927E+08         0.11447E+07         0.00000E+00
    0.11447E+07        -0.49896E+08         0.00000E+00
    0.00000E+00         0.00000E+00        -0.45799E+08
 
   -0.44956E+08         0.11912E+07         0.00000E+00
    0.11912E+07        -0.49887E+08         0.00000E+00
    0.00000E+00         0.00000E+00        -0.45799E+08
 
   -0.44984E+08         0.12376E+07         0.00000E+00
    0.12376E+07        -0.49877E+08         0.00000E+00
    0.00000E+00         0.00000E+00        -0.45799E+08
 
   -0.45013E+08         0.12837E+07         0.00000E+00
    0.12837E+07        -0.49868E+08         0.00000E+00
    0.00000E+00         0.00000E+00        -0.45799E+08
 
   -0.45043E+08         0.13297E+07         0.00000E+00
    0.13297E+07        -0.49857E+08         0.00000E+00
    0.00000E+00         0.00000E+00        -0.45799E+08
 
   -0.45073E+08         0.13755E+07         0.00000E+00
    0.13755E+07        -0.49847E+08         0.00000E+00
    0.00000E+00         0.00000E+00        -0.45799E+08
 
   -0.45103E+08         0.14211E+07         0.00000E+00
    0.14211E+07        -0.49836E+08         0.00000E+00
    0.00000E+00         0.00000E+00        -0.45799E+08
 
   -0.45133E+08         0.14665E+07         0.00000E+00
    0.14665E+07        -0.49825E+08         0.00000E+00
    0.00000E+00         0.00000E+00        -0.45799E+08
 
   -0.45164E+08         0.15118E+07         0.00000E+00
    0.15118E+07        -0.49813E+08         0.00000E+00
    0.00000E+00         0.00000E+00        -0.45799E+08
 
   -0.45195E+08         0.15568E+07         0.00000E+00
    0.15568E+07        -0.49801E+08         0.00000E+00
    0.00000E+00         0.00000E+00        -0.45799E+08
 
   -0.45227E+08         0.16017E+07         0.00000E+00
    0.16017E+07        -0.49789E+08         0.00000E+00
    0.00000E+00         0.00000E+00        -0.45799E+08
 
   -0.45259E+08         0.16464E+07         0.00000E+00
    0.16464E+07        -0.49776E+08         0.00000E+00
    0.00000E+00         0.00000E+00        -0.45799E+08
 
   -0.45291E+08         0.16908E+07         0.00000E+00
    0.16908E+07        -0.49763E+08         0.00000E+00
    0.00000E+00         0.00000E+00        -0.45799E+08
 
   -0.45324E+08         0.17351E+07         0.00000E+00
    0.17351E+07        -0.49749E+08         0.00000E+00
    0.00000E+00         0.00000E+00        -0.45799E+08
 
   -0.45357E+08         0.17792E+07         0.00000E+00
    0.17792E+07        -0.49735E+08         0.00000E+00
    0.00000E+00         0.00000E+00        -0.45799E+08
 
   -0.45390E+08         0.18231E+07         0.00000E+00
    0.18231E+07        -0.49721E+08         0.00000E+00
    0.00000E+00         0.00000E+00        -0.45800E+08
 
   -0.45424E+08         0.18668E+07         0.00000E+00
    0.18668E+07        -0.49707E+08         0.00000E+00
    0.00000E+00         0.00000E+00        -0.45800E+08
 
   -0.45458E+08         0.19103E+07         0.00000E+00
    0.19103E+07        -0.49692E+08         0.00000E+00
    0.00000E+00         0.00000E+00        -0.45800E+08
 
   -0.45492E+08         0.19536E+07         0.00000E+00
    0.19536E+07        -0.49676E+08         0.00000E+00
    0.00000E+00         0.00000E+00        -0.45800E+08
 
   -0.45527E+08         0.19967E+07         0.00000E+00
    0.19967E+07        -0.49660E+08         0.00000E+00
    0.00000E+00         0.00000E+00        -0.45800E+08
 
   -0.45562E+08         0.20396E+07         0.00000E+00
    0.20396E+07        -0.49644E+08         0.00000E+00
    0.00000E+00         0.00000E+00        -0.45800E+08
 
   -0.45598E+08         0.20823E+07         0.00000E+00
    0.20823E+07        -0.49628E+08         0.00000E+00
    0.00000E+00         0.00000E+00        -0.45800E+08
 
   -0.45634E+08         0.21247E+07         0.00000E+00
    0.21247E+07        -0.49611E+08         0.00000E+00
    0.00000E+00         0.00000E+00        -0.45800E+08
 
   -0.45670E+08         0.21670E+07         0.00000E+00
    0.21670E+07        -0.49593E+08         0.00000E+00
    0.00000E+00         0.00000E+00        -0.45800E+08
 
   -0.45707E+08         0.22090E+07         0.00000E+00
    0.22090E+07        -0.49576E+08         0.00000E+00
    0.00000E+00         0.00000E+00        -0.45800E+08
 
   -0.45744E+08         0.22508E+07         0.00000E+00
    0.22508E+07        -0.49558E+08         0.00000E+00
    0.00000E+00         0.00000E+00        -0.45800E+08
 
   -0.45781E+08         0.22924E+07         0.00000E+00
    0.22924E+07        -0.49539E+08         0.00000E+00
    0.00000E+00         0.00000E+00        -0.45800E+08
 
   -0.44116E+08         0.26529E+05         0.00000E+00
    0.26529E+05        -0.50000E+08         0.00000E+00
    0.00000E+00         0.00000E+00        -0.45587E+08
 
   -0.44137E+08         0.79077E+05         0.00000E+00
    0.79077E+05        -0.50000E+08         0.00000E+00
    0.00000E+00         0.00000E+00        -0.45587E+08
 
   -0.44158E+08         0.13144E+06         0.00000E+00
    0.13144E+06        -0.49999E+08         0.00000E+00
    0.00000E+00         0.00000E+00        -0.45587E+08
 
   -0.44179E+08         0.18362E+06         0.00000E+00
    0.18362E+06        -0.49998E+08         0.00000E+00
    0.00000E+00         0.00000E+00        -0.45587E+08
 
   -0.44201E+08         0.23562E+06         0.00000E+00
    0.23562E+06        -0.49996E+08         0.00000E+00
    0.00000E+00         0.00000E+00        -0.45587E+08
 
   -0.44224E+08         0.28743E+06         0.00000E+00
    0.28743E+06        -0.49994E+08         0.00000E+00
    0.00000E+00         0.00000E+00        -0.45587E+08
 
   -0.44247E+08         0.33906E+06         0.00000E+00
    0.33906E+06        -0.49992E+08         0.00000E+00
    0.00000E+00         0.00000E+00        -0.45587E+08
 
   -0.44270E+08         0.39051E+06         0.00000E+00
    0.39051E+06        -0.49989E+08         0.00000E+00
    0.00000E+00         0.00000E+00        -0.45587E+08
 
   -0.44293E+08         0.44178E+06         0.00000E+00
    0.44178E+06        -0.49986E+08         0.00000E+00
    0.00000E+00         0.00000E+00        -0.45587E+08
 
   -0.44317E+08         0.49287E+06         0.00000E+00
    0.49287E+06        -0.49982E+08         0.00000E+00
    0.00000E+00         0.00000E+00        -0.45587E+08
 
   -0.44341E+08         0.54378E+06         0.00000E+00
    0.54378E+06        -0.49979E+08         0.00000E+00
    0.00000E+00         0.00000E+00        -0.45587E+08
 
   -0.44366E+08         0.59451E+06         0.00000E+00
    0.59451E+06        -0.49974E+08         0.00000E+00
    0.00000E+00         0.00000E+00        -0.45587E+08
 
   -0.44391E+08         0.64506E+06         0.00000E+00
    0.64506E+06        -0.49970E+08         0.00000E+00
    0.00000E+00         0.00000E+00        -0.45587E+08
 
   -0.44416E+08         0.69543E+06         0.00000E+00
    0.69543E+06        -0.49965E+08         0.00000E+00
    0.00000E+00         0.00000E+00        -0.45587E+08
 
   -0.44442E+08         0.74563E+06         0.00000E+00
    0.74563E+06        -0.49959E+08         0.00000E+00
    0.00000E+00         0.00000E+00        -0.45587E+08
 
   -0.44468E+08         0.79564E+06         0.00000E+00
    0.79564E+06        -0.49953E+08         0.00000E+00
    0.00000E+00         0.00000E+00        -0.45587E+08
 
   -0.44494E+08         0.84548E+06         0.00000E+00
    0.84548E+06        -0.49947E+08         0.00000E+00
    0.00000E+00         0.00000E+00        -0.45587E+08
 
   -0.44521E+08         0.89514E+06         0.00000E+00
    0.89514E+06        -0.49941E+08         0.00000E+00
    0.00000E+00         0.00000E+00        -0.45587E+08
 
   -0.44548E+08         0.94462E+06         0.00000E+00
    0.94462E+06        -0.49934E+08         0.00000E+00
    0.00000E+00         0.00000E+00        -0.45587E+08
 
   -0.44576E+08         0.99393E+06         0.00000E+00
    0.99393E+06        -0.49927E+08         0.00000E+00
    0.00000E+00         0.00000E+00        -0.45588E+08
 
   -0.44604E+08         0.10431E+07         0.00000E+00
    0.10431E+07        -0.49919E+08         0.00000E+00
    0.00000E+00         0.00000E+00        -0.45588E+08
 
   -0.44632E+08         0.10920E+07         0.00000E+00
    0.10920E+07        -0.49911E+08         0.00000E+00
    0.00000E+00         0.00000E+00        -0.45588E+08
 
   -0.44660E+08         0.11408E+07         0.00000E+00
    0.11408E+07        -0.49902E+08         0.00000E+00
    0.00000E+00         0.00000E+00        -0.45588E+08
 
   -0.44689E+08         0.11894E+07         0.00000E+00
    0.11894E+07        -0.49893E+08         0.00000E+00
    0.00000E+00         0.00000E+00        -0.45588E+08
 
   -0.44719E+08         0.12378E+07         0.00000E+00
    0.12378E+07        -0.49884E+08         0.00000E+00
    0.00000E+00         0.00000E+00        -0.45588E+08
 
   -0.44748E+08         0.12860E+07         0.00000E+00
    0.12860E+07        -0.49875E+08         0.00000E+00
    0.00000E+00         0.00000E+00        -0.45588E+08
 
   -0.44778E+08         0.13341E+07         0.00000E+00
    0.13341E+07        -0.49865E+08         0.00000E+00
    0.00000E+00         0.00000E+00        -0.45588E+08
 
   -0.44809E+08         0.13819E+07         0.00000E+00
    0.13819E+07        -0.49854E+08         0.00000E+00
    0.00000E+00         0.00000E+00        -0.45588E+08
 
   -0.44839E+08         0.14296E+07         0.00000E+00
    0.14296E+07        -0.49844E+08         0.00000E+00
    0.00000E+00         0.00000E+00        -0.45588E+08
 
   -0.44870E+08         0.14771E+07         0.00000E+00
    0.14771E+07        -0.49832E+08         0.00000E+00
    0.00000E+00         0.00000E+00        -0.45588E+08
 
   -0.44902E+08         0.15245E+07         0.00000E+00
    0.15245E+07        -0.49821E+08         0.00000E+00
    0.00000E+00         0.00000E+00        -0.45588E+08
 
   -0.44934E+08         0.15716E+07         0.00000E+00
    0.15716E+07        -0.49809E+08         0.00000E+00
    0.00000E+00         0.00000E+00        -0.45588E+08
 
   -0.44966E+08         0.16186E+07         0.00000E+00
    0.16186E+07        -0.49797E+08         0.00000E+00
    0.00000E+00         0.00000E+00        -0.45588E+08
 
   -0.44998E+08         0.16653E+07         0.00000E+00
    0.16653E+07        -0.49784E+08         0.00000E+00
    0.00000E+00         0.00000E+00        -0.45588E+08
 
   -0.45031E+08         0.17119E+07         0.00000E+00
    0.17119E+07        -0.49771E+08         0.00000E+00
    0.00000E+00         0.00000E+00        -0.45588E+08
 
   -0.45064E+08         0.17583E+07         0.00000E+00
    0.17583E+07        -0.49757E+08         0.00000E+00
    0.00000E+00         0.00000E+00        -0.45588E+08
 
   -0.45098E+08         0.18045E+07         0.00000E+00
    0.18045E+07        -0.49744E+08         0.00000E+00
    0.00000E+00         0.00000E+00        -0.45588E+08
 
   -0.45132E+08         0.18505E+07         0.00000E+00
    0.18505E+07        -0.49729E+08         0.00000E+00
    0.00000E+00         0.00000E+00        -0.45588E+08
 
   -0.45166E+08         0.18963E+07         0.00000E+00
    0.18963E+07        -0.49715E+08         0.00000E+00
    0.00000E+00         0.00000E+00        -0.45588E+08
 
   -0.45201E+08         0.19420E+07         0.00000E+00
    0.19420E+07        -0.49700E+08         0.00000E+00
    0.00000E+00         0.00000E+00        -0.45588E+08
 
   -0.45236E+08         0.19874E+07         0.00000E+00
    0.19874E+07        -0.49684E+08         0.00000E+00
    0.00000E+00         0.00000E+00        -0.45588E+08
 
   -0.45272E+08         0.20326E+07         0.00000E+00
    0.20326E+07        -0.49668E+08         0.00000E+00
    0.00000E+00         0.00000E+00        -0.45588E+08
 
   -0.45307E+08         0.20777E+07         0.00000E+00
    0.20777E+07        -0.49652E+08         0.00000E+00
    0.00000E+00         0.00000E+00        -0.45588E+08
 
   -0.45344E+08         0.21225E+07         0.00000E+00
    0.21225E+07        -0.49636E+08         0.00000E+00
    0.00000E+00         0.00000E+00        -0.45588E+08
 
   -0.45380E+08         0.21671E+07         0.00000E+00
    0.21671E+07        -0.49619E+08         0.00000E+00
    0.00000E+00         0.00000E+00        -0.45588E+08
 
   -0.45417E+08         0.22115E+07         0.00000E+00
    0.22115E+07        -0.49601E+08         0.00000E+00
    0.00000E+00         0.00000E+00        -0.45588E+08
 
   -0.45454E+08         0.22558E+07         0.00000E+00
    0.22558E+07        -0.49583E+08         0.00000E+00
    0.00000E+00         0.00000E+00        -0.45588E+08
 
   -0.45492E+08         0.22998E+07         0.00000E+00
    0.22998E+07        -0.49565E+08         0.00000E+00
    0.00000E+00         0.00000E+00        -0.45588E+08
 
   -0.45530E+08         0.23435E+07         0.00000E+00
    0.23435E+07        -0.49547E+08         0.00000E+00
    0.00000E+00         0.00000E+00        -0.45588E+08
 
   -0.45568E+08         0.23871E+07         0.00000E+00
    0.23871E+07        -0.49528E+08         0.00000E+00
    0.00000E+00         0.00000E+00        -0.45588E+08
 
   -0.43848E+08         0.27522E+05         0.00000E+00
    0.27522E+05        -0.50000E+08         0.00000E+00
    0.00000E+00         0.00000E+00        -0.45366E+08
 
   -0.43869E+08         0.82040E+05         0.00000E+00
    0.82040E+05        -0.50000E+08         0.00000E+00
    0.00000E+00         0.00000E+00        -0.45366E+08
 
   -0.43892E+08         0.13637E+06         0.00000E+00
    0.13637E+06        -0.49999E+08         0.00000E+00
    0.00000E+00         0.00000E+00        -0.45366E+08
 
   -0.43914E+08         0.19051E+06         0.00000E+00
    0.19051E+06        -0.49998E+08         0.00000E+00
    0.00000E+00         0.00000E+00        -0.45366E+08
 
   -0.43937E+08         0.24446E+06         0.00000E+00
    0.24446E+06        -0.49996E+08         0.00000E+00
    0.00000E+00         0.00000E+00        -0.45366E+08
 
   -0.43960E+08         0.29822E+06         0.00000E+00
    0.29822E+06        -0.49994E+08         0.00000E+00
    0.00000E+00         0.00000E+00        -0.45366E+08
 
   -0.43984E+08         0.35180E+06         0.00000E+00
    0.35180E+06        -0.49992E+08         0.00000E+00
    0.00000E+00         0.00000E+00        -0.45366E+08
 
   -0.44008E+08         0.40519E+06         0.00000E+00
    0.40519E+06        -0.49989E+08         0.00000E+00
    0.00000E+00         0.00000E+00        -0.45366E+08
 
   -0.44033E+08         0.45840E+06         0.00000E+00
    0.45840E+06        -0.49986E+08         0.00000E+00
    0.00000E+00         0.00000E+00        -0.45366E+08
 
   -0.44057E+08         0.51143E+06         0.00000E+00
    0.51143E+06        -0.49982E+08         0.00000E+00
    0.00000E+00         0.00000E+00        -0.45366E+08
 
   -0.44082E+08         0.56428E+06         0.00000E+00
    0.56428E+06        -0.49978E+08         0.00000E+00
    0.00000E+00         0.00000E+00        -0.45366E+08
 
   -0.44108E+08         0.61694E+06         0.00000E+00
    0.61694E+06        -0.49974E+08         0.00000E+00
    0.00000E+00         0.00000E+00        -0.45366E+08
 
   -0.44134E+08         0.66942E+06         0.00000E+00
    0.66942E+06        -0.49969E+08         0.00000E+00
    0.00000E+00         0.00000E+00        -0.45366E+08
 
   -0.44160E+08         0.72173E+06         0.00000E+00
    0.72173E+06        -0.49964E+08         0.00000E+00
    0.00000E+00         0.00000E+00        -0.45366E+08
 
   -0.44187E+08         0.77385E+06         0.00000E+00
    0.77385E+06        -0.49959E+08         0.00000E+00
    0.00000E+00         0.00000E+00        -0.45366E+08
 
   -0.44214E+08         0.82580E+06         0.00000E+00
    0.82580E+06        -0.49953E+08         0.00000E+00
    0.00000E+00         0.00000E+00        -0.45366E+08
 
   -0.44241E+08         0.87757E+06         0.00000E+00
    0.87757E+06        -0.49946E+08         0.00000E+00
    0.00000E+00         0.00000E+00        -0.45366E+08
 
   -0.44269E+08         0.92916E+06         0.00000E+00
    0.92916E+06        -0.49940E+08         0.00000E+00
    0.00000E+00         0.00000E+00        -0.45366E+08
 
   -0.44297E+08         0.98058E+06         0.00000E+00
    0.98058E+06        -0.49933E+08         0.00000E+00
    0.00000E+00         0.00000E+00        -0.45366E+08
 
   -0.44325E+08         0.10318E+07         0.00000E+00
    0.10318E+07        -0.49925E+08         0.00000E+00
    0.00000E+00         0.00000E+00        -0.45366E+08
 
   -0.44354E+08         0.10829E+07         0.00000E+00
    0.10829E+07        -0.49917E+08         0.00000E+00
    0.00000E+00         0.00000E+00        -0.45366E+08
 
   -0.44383E+08         0.11338E+07         0.00000E+00
    0.11338E+07        -0.49909E+08         0.00000E+00
    0.00000E+00         0.00000E+00        -0.45366E+08
 
   -0.44412E+08         0.11845E+07         0.00000E+00
    0.11845E+07        -0.49900E+08         0.00000E+00
    0.00000E+00         0.00000E+00        -0.45366E+08
 
   -0.44442E+08         0.12350E+07         0.00000E+00
    0.12350E+07        -0.49891E+08         0.00000E+00
    0.00000E+00         0.00000E+00        -0.45366E+08
 
   -0.44472E+08         0.12853E+07         0.00000E+00
    0.12853E+07        -0.49882E+08         0.00000E+00
    0.00000E+00         0.00000E+00        -0.45366E+08
 
   -0.44503E+08         0.13355E+07         0.00000E+00
    0.13355E+07        -0.49872E+08         0.00000E+00
    0.00000E+00         0.00000E+00        -0.45366E+08
 
   -0.44534E+08         0.13855E+07         0.00000E+00
    0.13855E+07        -0.49862E+08         0.00000E+00
    0.00000E+00         0.00000E+00        -0.45366E+08
 
   -0.44565E+08         0.14353E+07         0.00000E+00
    0.14353E+07        -0.49851E+08         0.00000E+00
    0.00000E+00         0.00000E+00        -0.45366E+08
 
   -0.44597E+08         0.14850E+07         0.00000E+00
    0.14850E+07        -0.49840E+08         0.00000E+00
    0.00000E+00         0.00000E+00        -0.45366E+08
 
   -0.44628E+08         0.15345E+07         0.00000E+00
    0.15345E+07        -0.49829E+08         0.00000E+00
    0.00000E+00         0.00000E+00        -0.45366E+08
 
   -0.44661E+08         0.15837E+07         0.00000E+00
    0.15837E+07        -0.49817E+08         0.00000E+00
    0.00000E+00         0.00000E+00        -0.45366E+08
 
   -0.44694E+08         0.16328E+07         0.00000E+00
    0.16328E+07        -0.49805E+08         0.00000E+00
    0.00000E+00         0.00000E+00        -0.45366E+08
 
   -0.44727E+08         0.16818E+07         0.00000E+00
    0.16818E+07        -0.49792E+08         0.00000E+00
    0.00000E+00         0.00000E+00        -0.45366E+08
 
   -0.44760E+08         0.17305E+07         0.00000E+00
    0.17305E+07        -0.49779E+08         0.00000E+00
    0.00000E+00         0.00000E+00        -0.45366E+08
 
   -0.44794E+08         0.17791E+07         0.00000E+00
    0.17791E+07        -0.49766E+08         0.00000E+00
    0.00000E+00         0.00000E+00        -0.45366E+08
 
   -0.44828E+08         0.18274E+07         0.00000E+00
    0.18274E+07        -0.49752E+08         0.00000E+00
    0.00000E+00         0.00000E+00        -0.45366E+08
 
   -0.44863E+08         0.18756E+07         0.00000E+00
    0.18756E+07        -0.49738E+08         0.00000E+00
    0.00000E+00         0.00000E+00        -0.45366E+08
 
   -0.44897E+08         0.19236E+07         0.00000E+00
    0.19236E+07        -0.49723E+08         0.00000E+00
    0.00000E+00         0.00000E+00        -0.45366E+08
 
   -0.44933E+08         0.19714E+07         0.00000E+00
    0.19714E+07        -0.49708E+08         0.00000E+00
    0.00000E+00         0.00000E+00        -0.45366E+08
 
   -0.44968E+08         0.20191E+07         0.00000E+00
    0.20191E+07        -0.49693E+08         0.00000E+00
    0.00000E+00         0.00000E+00        -0.45366E+08
 
   -0.45004E+08         0.20665E+07         0.00000E+00
    0.20665E+07        -0.49677E+08         0.00000E+00
    0.00000E+00         0.00000E+00        -0.45366E+08
 
   -0.45041E+08         0.21137E+07         0.00000E+00
    0.21137E+07        -0.49661E+08         0.00000E+00
    0.00000E+00         0.00000E+00        -0.45366E+08
 
   -0.45078E+08         0.21608E+07         0.00000E+00
    0.21608E+07        -0.49644E+08         0.00000E+00
    0.00000E+00         0.00000E+00        -0.45366E+08
 
   -0.45115E+08         0.22076E+07         0.00000E+00
    0.22076E+07        -0.49627E+08         0.00000E+00
    0.00000E+00         0.00000E+00        -0.45366E+08
 
   -0.45152E+08         0.22543E+07         0.00000E+00
    0.22543E+07        -0.49610E+08         0.00000E+00
    0.00000E+00         0.00000E+00        -0.45366E+08
 
   -0.45190E+08         0.23007E+07         0.00000E+00
    0.23007E+07        -0.49592E+08         0.00000E+00
    0.00000E+00         0.00000E+00        -0.45366E+08
 
   -0.45229E+08         0.23470E+07         0.00000E+00
    0.23470E+07        -0.49574E+08         0.00000E+00
    0.00000E+00         0.00000E+00        -0.45366E+08
 
   -0.45267E+08         0.23930E+07         0.00000E+00
    0.23930E+07        -0.49555E+08         0.00000E+00
    0.00000E+00         0.00000E+00        -0.45366E+08
 
   -0.45307E+08         0.24389E+07         0.00000E+00
    0.24389E+07        -0.49536E+08         0.00000E+00
    0.00000E+00         0.00000E+00        -0.45366E+08
 
   -0.45346E+08         0.24845E+07         0.00000E+00
    0.24845E+07        -0.49516E+08         0.00000E+00
    0.00000E+00         0.00000E+00        -0.45366E+08
 
   -0.43570E+08         0.28531E+05         0.00000E+00
    0.28531E+05        -0.50000E+08         0.00000E+00
    0.00000E+00         0.00000E+00        -0.45134E+08
 
   -0.43592E+08         0.85051E+05         0.00000E+00
    0.85051E+05        -0.50000E+08         0.00000E+00
    0.00000E+00         0.00000E+00        -0.45134E+08
 
   -0.43615E+08         0.14138E+06         0.00000E+00
    0.14138E+06        -0.49999E+08         0.00000E+00
    0.00000E+00         0.00000E+00        -0.45134E+08
 
   -0.43639E+08         0.19751E+06         0.00000E+00
    0.19751E+06        -0.49997E+08         0.00000E+00
    0.00000E+00         0.00000E+00        -0.45134E+08
 
   -0.43663E+08         0.25345E+06         0.00000E+00
    0.25345E+06        -0.49996E+08         0.00000E+00
    0.00000E+00         0.00000E+00        -0.45134E+08
 
   -0.43687E+08         0.30919E+06         0.00000E+00
    0.30919E+06        -0.49994E+08         0.00000E+00
    0.00000E+00         0.00000E+00        -0.45134E+08
 
   -0.43712E+08         0.36475E+06         0.00000E+00
    0.36475E+06        -0.49991E+08         0.00000E+00
    0.00000E+00         0.00000E+00        -0.45134E+08
 
   -0.43737E+08         0.42013E+06         0.00000E+00
    0.42013E+06        -0.49989E+08         0.00000E+00
    0.00000E+00         0.00000E+00        -0.45134E+08
 
   -0.43762E+08         0.47531E+06         0.00000E+00
    0.47531E+06        -0.49985E+08         0.00000E+00
    0.00000E+00         0.00000E+00        -0.45134E+08
 
   -0.43788E+08         0.53032E+06         0.00000E+00
    0.53032E+06        -0.49982E+08         0.00000E+00
    0.00000E+00         0.00000E+00        -0.45134E+08
 
   -0.43814E+08         0.58513E+06         0.00000E+00
    0.58513E+06        -0.49978E+08         0.00000E+00
    0.00000E+00         0.00000E+00        -0.45134E+08
 
   -0.43840E+08         0.63977E+06         0.00000E+00
    0.63977E+06        -0.49973E+08         0.00000E+00
    0.00000E+00         0.00000E+00        -0.45134E+08
 
   -0.43867E+08         0.69423E+06         0.00000E+00
    0.69423E+06        -0.49969E+08         0.00000E+00
    0.00000E+00         0.00000E+00        -0.45134E+08
 
   -0.43894E+08         0.74850E+06         0.00000E+00
    0.74850E+06        -0.49963E+08         0.00000E+00
    0.00000E+00         0.00000E+00        -0.45134E+08
 
   -0.43922E+08         0.80260E+06         0.00000E+00
    0.80260E+06        -0.49958E+08         0.00000E+00
    0.00000E+00         0.00000E+00        -0.45134E+08
 
   -0.43949E+08         0.85652E+06         0.00000E+00
    0.85652E+06        -0.49952E+08         0.00000E+00
    0.00000E+00         0.00000E+00        -0.45134E+08
 
   -0.43978E+08         0.91026E+06         0.00000E+00
    0.91026E+06        -0.49945E+08         0.00000E+00
    0.00000E+00         0.00000E+00        -0.45134E+08
 
   -0.44006E+08         0.96382E+06         0.00000E+00
    0.96382E+06        -0.49939E+08         0.00000E+00
    0.00000E+00         0.00000E+00        -0.45134E+08
 
   -0.44035E+08         0.10172E+07         0.00000E+00
    0.10172E+07        -0.49931E+08         0.00000E+00
    0.00000E+00         0.00000E+00        -0.45134E+08
 
   -0.44064E+08         0.10704E+07         0.00000E+00
    0.10704E+07        -0.49924E+08         0.00000E+00
    0.00000E+00         0.00000E+00        -0.45134E+08
 
   -0.44094E+08         0.11235E+07         0.00000E+00
    0.11235E+07        -0.49916E+08         0.00000E+00
    0.00000E+00         0.00000E+00        -0.45134E+08
 
   -0.44124E+08         0.11763E+07         0.00000E+00
    0.11763E+07        -0.49907E+08         0.00000E+00
    0.00000E+00         0.00000E+00        -0.45134E+08
 
   -0.44154E+08         0.12290E+07         0.00000E+00
    0.12290E+07        -0.49899E+08         0.00000E+00
    0.00000E+00         0.00000E+00        -0.45134E+08
 
   -0.44185E+08         0.12815E+07         0.00000E+00
    0.12815E+07        -0.49889E+08         0.00000E+00
    0.00000E+00         0.00000E+00        -0.45134E+08
 
   -0.44216E+08         0.13339E+07         0.00000E+00
    0.13339E+07        -0.49880E+08         0.00000E+00
    0.00000E+00         0.00000E+00        -0.45134E+08
 
   -0.44247E+08         0.13861E+07         0.00000E+00
    0.13861E+07        -0.49870E+08         0.00000E+00
    0.00000E+00         0.00000E+00        -0.45134E+08
 
   -0.44279E+08         0.14381E+07         0.00000E+00
    0.14381E+07        -0.49859E+08         0.00000E+00
    0.00000E+00         0.00000E+00        -0.45134E+08
 
   -0.44311E+08         0.14899E+07         0.00000E+00
    0.14899E+07        -0.49849E+08         0.00000E+00
    0.00000E+00         0.00000E+00        -0.45134E+08
 
   -0.44344E+08         0.15415E+07         0.00000E+00
    0.15415E+07        -0.49837E+08         0.00000E+00
    0.00000E+00         0.00000E+00        -0.45134E+08
 
   -0.44377E+08         0.15930E+07         0.00000E+00
    0.15930E+07        -0.49826E+08         0.00000E+00
    0.00000E+00         0.00000E+00        -0.45134E+08
 
   -0.44410E+08         0.16443E+07         0.00000E+00
    0.16443E+07        -0.49814E+08         0.00000E+00
    0.00000E+00         0.00000E+00        -0.45134E+08
 
   -0.44443E+08         0.16954E+07         0.00000E+00
    0.16954E+07        -0.49801E+08         0.00000E+00
    0.00000E+00         0.00000E+00        -0.45134E+08
 
   -0.44477E+08         0.17464E+07         0.00000E+00
    0.17464E+07        -0.49789E+08         0.00000E+00
    0.00000E+00         0.00000E+00        -0.45134E+08
 
   -0.44512E+08         0.17972E+07         0.00000E+00
    0.17972E+07        -0.49775E+08         0.00000E+00
    0.00000E+00         0.00000E+00        -0.45134E+08
 
   -0.44546E+08         0.18478E+07         0.00000E+00
    0.18478E+07        -0.49762E+08         0.00000E+00
    0.00000E+00         0.00000E+00        -0.45134E+08
 
   -0.44581E+08         0.18982E+07         0.00000E+00
    0.18982E+07        -0.49747E+08         0.00000E+00
    0.00000E+00         0.00000E+00        -0.45134E+08
 
   -0.44617E+08         0.19484E+07         0.00000E+00
    0.19484E+07        -0.49733E+08         0.00000E+00
    0.00000E+00         0.00000E+00        -0.45134E+08
 
   -0.44653E+08         0.19985E+07         0.00000E+00
    0.19985E+07        -0.49718E+08         0.00000E+00
    0.00000E+00         0.00000E+00        -0.45134E+08
 
   -0.44689E+08         0.20483E+07         0.00000E+00
    0.20483E+07        -0.49703E+08         0.00000E+00
    0.00000E+00         0.00000E+00        -0.45134E+08
 
   -0.44726E+08         0.20980E+07         0.00000E+00
    0.20980E+07        -0.49687E+08         0.00000E+00
    0.00000E+00         0.00000E+00        -0.45134E+08
 
   -0.44763E+08         0.21475E+07         0.00000E+00
    0.21475E+07        -0.49671E+08         0.00000E+00
    0.00000E+00         0.00000E+00        -0.45134E+08
 
   -0.44800E+08         0.21969E+07         0.00000E+00
    0.21969E+07        -0.49654E+08         0.00000E+00
    0.00000E+00         0.00000E+00        -0.45134E+08
 
   -0.44838E+08         0.22460E+07         0.00000E+00
    0.22460E+07        -0.49637E+08         0.00000E+00
    0.00000E+00         0.00000E+00        -0.45134E+08
 
   -0.44876E+08         0.22949E+07         0.00000E+00
    0.22949E+07        -0.49620E+08         0.00000E+00
    0.00000E+00         0.00000E+00        -0.45134E+08
 
   -0.44914E+08         0.23437E+07         0.00000E+00
    0.23437E+07        -0.49602E+08         0.00000E+00
    0.00000E+00         0.00000E+00        -0.45134E+08
 
   -0.44953E+08         0.23923E+07         0.00000E+00
    0.23923E+07        -0.49583E+08         0.00000E+00
    0.00000E+00         0.00000E+00        -0.45134E+08
 
   -0.44993E+08         0.24406E+07         0.00000E+00
    0.24406E+07        -0.49565E+08         0.00000E+00
    0.00000E+00         0.00000E+00        -0.45134E+08
 
   -0.45032E+08         0.24888E+07         0.00000E+00
    0.24888E+07        -0.49546E+08         0.00000E+00
    0.00000E+00         0.00000E+00        -0.45134E+08
 
   -0.45073E+08         0.25367E+07         0.00000E+00
    0.25367E+07        -0.49526E+08         0.00000E+00
    0.00000E+00         0.00000E+00        -0.45134E+08
 
   -0.45113E+08         0.25845E+07         0.00000E+00
    0.25845E+07        -0.49506E+08         0.00000E+00
    0.00000E+00         0.00000E+00        -0.45134E+08
 
   -0.43281E+08         0.29554E+05         0.00000E+00
    0.29554E+05        -0.50000E+08         0.00000E+00
    0.00000E+00         0.00000E+00        -0.44892E+08
 
   -0.43305E+08         0.88104E+05         0.00000E+00
    0.88104E+05        -0.50000E+08         0.00000E+00
    0.00000E+00         0.00000E+00        -0.44892E+08
 
   -0.43329E+08         0.14645E+06         0.00000E+00
    0.14645E+06        -0.49999E+08         0.00000E+00
    0.00000E+00         0.00000E+00        -0.44892E+08
 
   -0.43354E+08         0.20461E+06         0.00000E+00
    0.20461E+06        -0.49997E+08         0.00000E+00
    0.00000E+00         0.00000E+00        -0.44892E+08
 
   -0.43379E+08         0.26256E+06         0.00000E+00
    0.26256E+06        -0.49996E+08         0.00000E+00
    0.00000E+00         0.00000E+00        -0.44892E+08
 
   -0.43404E+08         0.32033E+06         0.00000E+00
    0.32033E+06        -0.49994E+08         0.00000E+00
    0.00000E+00         0.00000E+00        -0.44892E+08
 
   -0.43429E+08         0.37790E+06         0.00000E+00
    0.37790E+06        -0.49991E+08         0.00000E+00
    0.00000E+00         0.00000E+00        -0.44892E+08
 
   -0.43455E+08         0.43528E+06         0.00000E+00
    0.43528E+06        -0.49989E+08         0.00000E+00
    0.00000E+00         0.00000E+00        -0.44892E+08
 
   -0.43481E+08         0.49248E+06         0.00000E+00
    0.49248E+06        -0.49985E+08         0.00000E+00
    0.00000E+00         0.00000E+00        -0.44892E+08
 
   -0.43508E+08         0.54949E+06         0.00000E+00
    0.54949E+06        -0.49982E+08         0.00000E+00
    0.00000E+00         0.00000E+00        -0.44892E+08
 
   -0.43535E+08         0.60631E+06         0.00000E+00
    0.60631E+06        -0.49978E+08         0.00000E+00
    0.00000E+00         0.00000E+00        -0.44892E+08
 
   -0.43562E+08         0.66296E+06         0.00000E+00
    0.66296E+06        -0.49973E+08         0.00000E+00
    0.00000E+00         0.00000E+00        -0.44892E+08
 
   -0.43590E+08         0.71942E+06         0.00000E+00
    0.71942E+06        -0.49968E+08         0.00000E+00
    0.00000E+00         0.00000E+00        -0.44892E+08
 
   -0.43618E+08         0.77570E+06         0.00000E+00
    0.77570E+06        -0.49963E+08         0.00000E+00
    0.00000E+00         0.00000E+00        -0.44892E+08
 
   -0.43646E+08         0.83180E+06         0.00000E+00
    0.83180E+06        -0.49957E+08         0.00000E+00
    0.00000E+00         0.00000E+00        -0.44892E+08
 
   -0.43675E+08         0.88773E+06         0.00000E+00
    0.88773E+06        -0.49951E+08         0.00000E+00
    0.00000E+00         0.00000E+00        -0.44892E+08
 
   -0.43704E+08         0.94348E+06         0.00000E+00
    0.94348E+06        -0.49945E+08         0.00000E+00
    0.00000E+00         0.00000E+00        -0.44892E+08
 
   -0.43734E+08         0.99906E+06         0.00000E+00
    0.99906E+06        -0.49938E+08         0.00000E+00
    0.00000E+00         0.00000E+00        -0.44892E+08
 
   -0.43763E+08         0.10545E+07         0.00000E+00
    0.10545E+07        -0.49930E+08         0.00000E+00
    0.00000E+00         0.00000E+00        -0.44892E+08
 
   -0.43794E+08         0.11097E+07         0.00000E+00
    0.11097E+07        -0.49923E+08         0.00000E+00
    0.00000E+00         0.00000E+00        -0.44892E+08
 
   -0.43824E+08         0.11648E+07         0.00000E+00
    0.11648E+07        -0.49915E+08         0.00000E+00
    0.00000E+00         0.00000E+00        -0.44892E+08
 
   -0.43855E+08         0.12197E+07         0.00000E+00
    0.12197E+07        -0.49906E+08         0.00000E+00
    0.00000E+00         0.00000E+00        -0.44891E+08
 
   -0.43886E+08         0.12744E+07         0.00000E+00
    0.12744E+07        -0.49897E+08         0.00000E+00
    0.00000E+00         0.00000E+00        -0.44891E+08
 
   -0.43918E+08         0.13289E+07         0.00000E+00
    0.13289E+07        -0.49888E+08         0.00000E+00
    0.00000E+00         0.00000E+00        -0.44891E+08
 
   -0.43950E+08         0.13833E+07         0.00000E+00
    0.13833E+07        -0.49878E+08         0.00000E+00
    0.00000E+00         0.00000E+00        -0.44891E+08
 
   -0.43982E+08         0.14375E+07         0.00000E+00
    0.14375E+07        -0.49868E+08         0.00000E+00
    0.00000E+00         0.00000E+00        -0.44891E+08
 
   -0.44014E+08         0.14916E+07         0.00000E+00
    0.14916E+07        -0.49857E+08         0.00000E+00
    0.00000E+00         0.00000E+00        -0.44891E+08
 
   -0.44047E+08         0.15454E+07         0.00000E+00
    0.15454E+07        -0.49846E+08         0.00000E+00
    0.00000E+00         0.00000E+00        -0.44891E+08
 
   -0.44081E+08         0.15992E+07         0.00000E+00
    0.15992E+07        -0.49835E+08         0.00000E+00
    0.00000E+00         0.00000E+00        -0.44891E+08
 
   -0.44114E+08         0.16527E+07         0.00000E+00
    0.16527E+07        -0.49823E+08         0.00000E+00
    0.00000E+00         0.00000E+00        -0.44891E+08
 
   -0.44149E+08         0.17061E+07         0.00000E+00
    0.17061E+07        -0.49811E+08         0.00000E+00
    0.00000E+00         0.00000E+00        -0.44891E+08
 
   -0.44183E+08         0.17593E+07         0.00000E+00
    0.17593E+07        -0.49798E+08         0.00000E+00
    0.00000E+00         0.00000E+00        -0.44891E+08
 
   -0.44218E+08         0.18123E+07         0.00000E+00
    0.18123E+07        -0.49785E+08         0.00000E+00
    0.00000E+00         0.00000E+00        -0.44891E+08
 
   -0.44253E+08         0.18652E+07         0.00000E+00
    0.18652E+07        -0.49771E+08         0.00000E+00
    0.00000E+00         0.00000E+00        -0.44891E+08
 
   -0.44289E+08         0.19179E+07         0.00000E+00
    0.19179E+07        -0.49758E+08         0.00000E+00
    0.00000E+00         0.00000E+00        -0.44891E+08
 
   -0.44325E+08         0.19704E+07         0.00000E+00
    0.19704E+07        -0.49743E+08         0.00000E+00
    0.00000E+00         0.00000E+00        -0.44891E+08
 
   -0.44361E+08         0.20227E+07         0.00000E+00
    0.20227E+07        -0.49728E+08         0.00000E+00
    0.00000E+00         0.00000E+00        -0.44891E+08
 
   -0.44398E+08         0.20749E+07         0.00000E+00
    0.20749E+07        -0.49713E+08         0.00000E+00
    0.00000E+00         0.00000E+00        -0.44891E+08
 
   -0.44435E+08         0.21269E+07         0.00000E+00
    0.21269E+07        -0.49697E+08         0.00000E+00
    0.00000E+00         0.00000E+00        -0.44891E+08
 
   -0.44472E+08         0.21788E+07         0.00000E+00
    0.21788E+07        -0.49681E+08         0.00000E+00
    0.00000E+00         0.00000E+00        -0.44891E+08
 
   -0.44510E+08         0.22304E+07         0.00000E+00
    0.22304E+07        -0.49665E+08         0.00000E+00
    0.00000E+00         0.00000E+00        -0.44890E+08
 
   -0.44548E+08         0.22819E+07         0.00000E+00
    0.22819E+07        -0.49648E+08         0.00000E+00
    0.00000E+00         0.00000E+00        -0.44890E+08
 
   -0.44587E+08         0.23332E+07         0.00000E+00
    0.23332E+07        -0.49630E+08         0.00000E+00
    0.00000E+00         0.00000E+00        -0.44890E+08
 
   -0.44626E+08         0.23843E+07         0.00000E+00
    0.23843E+07        -0.49613E+08         0.00000E+00
    0.00000E+00         0.00000E+00        -0.44890E+08
 
   -0.44666E+08         0.24352E+07         0.00000E+00
    0.24352E+07        -0.49594E+08         0.00000E+00
    0.00000E+00         0.00000E+00        -0.44890E+08
 
   -0.44706E+08         0.24860E+07         0.00000E+00
    0.24860E+07        -0.49576E+08         0.00000E+00
    0.00000E+00         0.00000E+00        -0.44890E+08
 
   -0.44746E+08         0.25365E+07         0.00000E+00
    0.25365E+07        -0.49556E+08         0.00000E+00
    0.00000E+00         0.00000E+00        -0.44890E+08
 
   -0.44787E+08         0.25869E+07         0.00000E+00
    0.25869E+07        -0.49537E+08         0.00000E+00
    0.00000E+00         0.00000E+00        -0.44890E+08
 
   -0.44828E+08         0.26371E+07         0.00000E+00
    0.26371E+07        -0.49517E+08         0.00000E+00
    0.00000E+00         0.00000E+00        -0.44890E+08
 
   -0.44869E+08         0.26871E+07         0.00000E+00
    0.26871E+07        -0.49496E+08         0.00000E+00
    0.00000E+00         0.00000E+00        -0.44890E+08
 
   -0.42983E+08         0.30588E+05         0.00000E+00
    0.30588E+05        -0.50000E+08         0.00000E+00
    0.00000E+00         0.00000E+00        -0.44638E+08
 
   -0.43008E+08         0.91191E+05         0.00000E+00
    0.91191E+05        -0.50000E+08         0.00000E+00
    0.00000E+00         0.00000E+00        -0.44638E+08
 
   -0.43033E+08         0.15159E+06         0.00000E+00
    0.15159E+06        -0.49999E+08         0.00000E+00
    0.00000E+00         0.00000E+00        -0.44638E+08
 
   -0.43058E+08         0.21179E+06         0.00000E+00
    0.21179E+06        -0.49997E+08         0.00000E+00
    0.00000E+00         0.00000E+00        -0.44638E+08
 
   -0.43084E+08         0.27179E+06         0.00000E+00
    0.27179E+06        -0.49996E+08         0.00000E+00
    0.00000E+00         0.00000E+00        -0.44638E+08
 
   -0.43110E+08         0.33159E+06         0.00000E+00
    0.33159E+06        -0.49994E+08         0.00000E+00
    0.00000E+00         0.00000E+00        -0.44638E+08
 
   -0.43137E+08         0.39120E+06         0.00000E+00
    0.39120E+06        -0.49991E+08         0.00000E+00
    0.00000E+00         0.00000E+00        -0.44638E+08
 
   -0.43164E+08         0.45062E+06         0.00000E+00
    0.45062E+06        -0.49988E+08         0.00000E+00
    0.00000E+00         0.00000E+00        -0.44638E+08
 
   -0.43191E+08         0.50985E+06         0.00000E+00
    0.50985E+06        -0.49985E+08         0.00000E+00
    0.00000E+00         0.00000E+00        -0.44638E+08
 
   -0.43218E+08         0.56890E+06         0.00000E+00
    0.56890E+06        -0.49981E+08         0.00000E+00
    0.00000E+00         0.00000E+00        -0.44638E+08
 
   -0.43246E+08         0.62776E+06         0.00000E+00
    0.62776E+06        -0.49977E+08         0.00000E+00
    0.00000E+00         0.00000E+00        -0.44638E+08
 
   -0.43275E+08         0.68644E+06         0.00000E+00
    0.68644E+06        -0.49973E+08         0.00000E+00
    0.00000E+00         0.00000E+00        -0.44638E+08
 
   -0.43303E+08         0.74494E+06         0.00000E+00
    0.74494E+06        -0.49968E+08         0.00000E+00
    0.00000E+00         0.00000E+00        -0.44638E+08
 
   -0.43332E+08         0.80326E+06         0.00000E+00
    0.80326E+06        -0.49963E+08         0.00000E+00
    0.00000E+00         0.00000E+00        -0.44638E+08
 
   -0.43361E+08         0.86140E+06         0.00000E+00
    0.86140E+06        -0.49957E+08         0.00000E+00
    0.00000E+00         0.00000E+00        -0.44638E+08
 
   -0.43391E+08         0.91937E+06         0.00000E+00
    0.91937E+06        -0.49951E+08         0.00000E+00
    0.00000E+00         0.00000E+00        -0.44638E+08
 
   -0.43421E+08         0.97717E+06         0.00000E+00
    0.97717E+06        -0.49944E+08         0.00000E+00
    0.00000E+00         0.00000E+00        -0.44638E+08
 
   -0.43451E+08         0.10348E+07         0.00000E+00
    0.10348E+07        -0.49937E+08         0.00000E+00
    0.00000E+00         0.00000E+00        -0.44638E+08
 
   -0.43482E+08         0.10923E+07         0.00000E+00
    0.10923E+07        -0.49930E+08         0.00000E+00
    0.00000E+00         0.00000E+00        -0.44638E+08
 
   -0.43513E+08         0.11495E+07         0.00000E+00
    0.11495E+07        -0.49922E+08         0.00000E+00
    0.00000E+00         0.00000E+00        -0.44638E+08
 
   -0.43544E+08         0.12067E+07         0.00000E+00
    0.12067E+07        -0.49914E+08         0.00000E+00
    0.00000E+00         0.00000E+00        -0.44637E+08
 
   -0.43576E+08         0.12636E+07         0.00000E+00
    0.12636E+07        -0.49905E+08         0.00000E+00
    0.00000E+00         0.00000E+00        -0.44637E+08
 
   -0.43608E+08         0.13204E+07         0.00000E+00
    0.13204E+07        -0.49896E+08         0.00000E+00
    0.00000E+00         0.00000E+00        -0.44637E+08
 
   -0.43640E+08         0.13770E+07         0.00000E+00
    0.13770E+07        -0.49886E+08         0.00000E+00
    0.00000E+00         0.00000E+00        -0.44637E+08
 
   -0.43673E+08         0.14335E+07         0.00000E+00
    0.14335E+07        -0.49877E+08         0.00000E+00
    0.00000E+00         0.00000E+00        -0.44637E+08
 
   -0.43706E+08         0.14898E+07         0.00000E+00
    0.14898E+07        -0.49866E+08         0.00000E+00
    0.00000E+00         0.00000E+00        -0.44637E+08
 
   -0.43739E+08         0.15460E+07         0.00000E+00
    0.15460E+07        -0.49855E+08         0.00000E+00
    0.00000E+00         0.00000E+00        -0.44637E+08
 
   -0.43773E+08         0.16019E+07         0.00000E+00
    0.16019E+07        -0.49844E+08         0.00000E+00
    0.00000E+00         0.00000E+00        -0.44637E+08
 
   -0.43807E+08         0.16578E+07         0.00000E+00
    0.16578E+07        -0.49833E+08         0.00000E+00
    0.00000E+00         0.00000E+00        -0.44637E+08
 
   -0.43842E+08         0.17134E+07         0.00000E+00
    0.17134E+07        -0.49821E+08         0.00000E+00
    0.00000E+00         0.00000E+00        -0.44637E+08
 
   -0.43877E+08         0.17689E+07         0.00000E+00
    0.17689E+07        -0.49808E+08         0.00000E+00
    0.00000E+00         0.00000E+00        -0.44637E+08
 
   -0.43912E+08         0.18243E+07         0.00000E+00
    0.18243E+07        -0.49795E+08         0.00000E+00
    0.00000E+00         0.00000E+00        -0.44637E+08
 
   -0.43948E+08         0.18794E+07         0.00000E+00
    0.18794E+07        -0.49782E+08         0.00000E+00
    0.00000E+00         0.00000E+00        -0.44636E+08
 
   -0.43984E+08         0.19344E+07         0.00000E+00
    0.19344E+07        -0.49768E+08         0.00000E+00
    0.00000E+00         0.00000E+00        -0.44636E+08
 
   -0.44020E+08         0.19893E+07         0.00000E+00
    0.19893E+07        -0.49754E+08         0.00000E+00
    0.00000E+00         0.00000E+00        -0.44636E+08
 
   -0.44057E+08         0.20440E+07         0.00000E+00
    0.20440E+07        -0.49739E+08         0.00000E+00
    0.00000E+00         0.00000E+00        -0.44636E+08
 
   -0.44094E+08         0.20985E+07         0.00000E+00
    0.20985E+07        -0.49724E+08         0.00000E+00
    0.00000E+00         0.00000E+00        -0.44636E+08
 
   -0.44132E+08         0.21529E+07         0.00000E+00
    0.21529E+07        -0.49709E+08         0.00000E+00
    0.00000E+00         0.00000E+00        -0.44636E+08
 
   -0.44170E+08         0.22071E+07         0.00000E+00
    0.22071E+07        -0.49693E+08         0.00000E+00
    0.00000E+00         0.00000E+00        -0.44636E+08
 
   -0.44208E+08         0.22611E+07         0.00000E+00
    0.22611E+07        -0.49676E+08         0.00000E+00
    0.00000E+00         0.00000E+00        -0.44636E+08
 
   -0.44247E+08         0.23150E+07         0.00000E+00
    0.23150E+07        -0.49660E+08         0.00000E+00
    0.00000E+00         0.00000E+00        -0.44636E+08
 
   -0.44286E+08         0.23687E+07         0.00000E+00
    0.23687E+07        -0.49642E+08         0.00000E+00
    0.00000E+00         0.00000E+00        -0.44636E+08
 
   -0.44325E+08         0.24222E+07         0.00000E+00
    0.24222E+07        -0.49625E+08         0.00000E+00
    0.00000E+00         0.00000E+00        -0.44636E+08
 
   -0.44365E+08         0.24756E+07         0.00000E+00
    0.24756E+07        -0.49606E+08         0.00000E+00
    0.00000E+00         0.00000E+00        -0.44636E+08
 
   -0.44406E+08         0.25288E+07         0.00000E+00
    0.25288E+07        -0.49588E+08         0.00000E+00
    0.00000E+00         0.00000E+00        -0.44636E+08
 
   -0.44447E+08         0.25818E+07         0.00000E+00
    0.25818E+07        -0.49569E+08         0.00000E+00
    0.00000E+00         0.00000E+00        -0.44636E+08
 
   -0.44488E+08         0.26347E+07         0.00000E+00
    0.26347E+07        -0.49549E+08         0.00000E+00
    0.00000E+00         0.00000E+00        -0.44636E+08
 
   -0.44530E+08         0.26873E+07         0.00000E+00
    0.26873E+07        -0.49529E+08         0.00000E+00
    0.00000E+00         0.00000E+00        -0.44636E+08
 
   -0.44572E+08         0.27398E+07         0.00000E+00
    0.27398E+07        -0.49508E+08         0.00000E+00
    0.00000E+00         0.00000E+00        -0.44636E+08
 
   -0.44614E+08         0.27921E+07         0.00000E+00
    0.27921E+07        -0.49487E+08         0.00000E+00
    0.00000E+00         0.00000E+00        -0.44636E+08
 
   -0.42674E+08         0.31629E+05         0.00000E+00
    0.31629E+05        -0.50000E+08         0.00000E+00
    0.00000E+00         0.00000E+00        -0.44373E+08
 
   -0.42700E+08         0.94304E+05         0.00000E+00
    0.94304E+05        -0.49999E+08         0.00000E+00
    0.00000E+00         0.00000E+00        -0.44373E+08
 
   -0.42726E+08         0.15677E+06         0.00000E+00
    0.15677E+06        -0.49999E+08         0.00000E+00
    0.00000E+00         0.00000E+00        -0.44373E+08
 
   -0.42753E+08         0.21903E+06         0.00000E+00
    0.21903E+06        -0.49997E+08         0.00000E+00
    0.00000E+00         0.00000E+00        -0.44373E+08
 
   -0.42779E+08         0.28110E+06         0.00000E+00
    0.28110E+06        -0.49996E+08         0.00000E+00
    0.00000E+00         0.00000E+00        -0.44373E+08
 
   -0.42807E+08         0.34296E+06         0.00000E+00
    0.34296E+06        -0.49994E+08         0.00000E+00
    0.00000E+00         0.00000E+00        -0.44373E+08
 
   -0.42834E+08         0.40463E+06         0.00000E+00
    0.40463E+06        -0.49991E+08         0.00000E+00
    0.00000E+00         0.00000E+00        -0.44373E+08
 
   -0.42862E+08         0.46611E+06         0.00000E+00
    0.46611E+06        -0.49988E+08         0.00000E+00
    0.00000E+00         0.00000E+00        -0.44373E+08
 
   -0.42890E+08         0.52739E+06         0.00000E+00
    0.52739E+06        -0.49985E+08         0.00000E+00
    0.00000E+00         0.00000E+00        -0.44373E+08
 
   -0.42919E+08         0.58850E+06         0.00000E+00
    0.58850E+06        -0.49981E+08         0.00000E+00
    0.00000E+00         0.00000E+00        -0.44373E+08
 
   -0.42947E+08         0.64942E+06         0.00000E+00
    0.64942E+06        -0.49977E+08         0.00000E+00
    0.00000E+00         0.00000E+00        -0.44373E+08
 
   -0.42976E+08         0.71016E+06         0.00000E+00
    0.71016E+06        -0.49973E+08         0.00000E+00
    0.00000E+00         0.00000E+00        -0.44372E+08
 
   -0.43006E+08         0.77072E+06         0.00000E+00
    0.77072E+06        -0.49968E+08         0.00000E+00
    0.00000E+00         0.00000E+00        -0.44372E+08
 
   -0.43036E+08         0.83110E+06         0.00000E+00
    0.83110E+06        -0.49962E+08         0.00000E+00
    0.00000E+00         0.00000E+00        -0.44372E+08
 
   -0.43066E+08         0.89132E+06         0.00000E+00
    0.89132E+06        -0.49956E+08         0.00000E+00
    0.00000E+00         0.00000E+00        -0.44372E+08
 
   -0.43096E+08         0.95136E+06         0.00000E+00
    0.95136E+06        -0.49950E+08         0.00000E+00
    0.00000E+00         0.00000E+00        -0.44372E+08
 
   -0.43127E+08         0.10112E+07         0.00000E+00
    0.10112E+07        -0.49944E+08         0.00000E+00
    0.00000E+00         0.00000E+00        -0.44372E+08
 
   -0.43158E+08         0.10709E+07         0.00000E+00
    0.10709E+07        -0.49936E+08         0.00000E+00
    0.00000E+00         0.00000E+00        -0.44372E+08
 
   -0.43190E+08         0.11305E+07         0.00000E+00
    0.11305E+07        -0.49929E+08         0.00000E+00
    0.00000E+00         0.00000E+00        -0.44372E+08
 
   -0.43221E+08         0.11899E+07         0.00000E+00
    0.11899E+07        -0.49921E+08         0.00000E+00
    0.00000E+00         0.00000E+00        -0.44372E+08
 
   -0.43254E+08         0.12491E+07         0.00000E+00
    0.12491E+07        -0.49913E+08         0.00000E+00
    0.00000E+00         0.00000E+00        -0.44372E+08
 
   -0.43286E+08         0.13081E+07         0.00000E+00
    0.13081E+07        -0.49904E+08         0.00000E+00
    0.00000E+00         0.00000E+00        -0.44371E+08
 
   -0.43319E+08         0.13670E+07         0.00000E+00
    0.13670E+07        -0.49895E+08         0.00000E+00
    0.00000E+00         0.00000E+00        -0.44371E+08
 
   -0.43352E+08         0.14258E+07         0.00000E+00
    0.14258E+07        -0.49885E+08         0.00000E+00
    0.00000E+00         0.00000E+00        -0.44371E+08
 
   -0.43386E+08         0.14844E+07         0.00000E+00
    0.14844E+07        -0.49875E+08         0.00000E+00
    0.00000E+00         0.00000E+00        -0.44371E+08
 
   -0.43419E+08         0.15428E+07         0.00000E+00
    0.15428E+07        -0.49865E+08         0.00000E+00
    0.00000E+00         0.00000E+00        -0.44371E+08
 
   -0.43454E+08         0.16011E+07         0.00000E+00
    0.16011E+07        -0.49854E+08         0.00000E+00
    0.00000E+00         0.00000E+00        -0.44371E+08
 
   -0.43488E+08         0.16592E+07         0.00000E+00
    0.16592E+07        -0.49843E+08         0.00000E+00
    0.00000E+00         0.00000E+00        -0.44371E+08
 
   -0.43523E+08         0.17172E+07         0.00000E+00
    0.17172E+07        -0.49831E+08         0.00000E+00
    0.00000E+00         0.00000E+00        -0.44371E+08
 
   -0.43559E+08         0.17750E+07         0.00000E+00
    0.17750E+07        -0.49819E+08         0.00000E+00
    0.00000E+00         0.00000E+00        -0.44371E+08
 
   -0.43594E+08         0.18327E+07         0.00000E+00
    0.18327E+07        -0.49806E+08         0.00000E+00
    0.00000E+00         0.00000E+00        -0.44370E+08
 
   -0.43630E+08         0.18902E+07         0.00000E+00
    0.18902E+07        -0.49793E+08         0.00000E+00
    0.00000E+00         0.00000E+00        -0.44370E+08
 
   -0.43667E+08         0.19476E+07         0.00000E+00
    0.19476E+07        -0.49780E+08         0.00000E+00
    0.00000E+00         0.00000E+00        -0.44370E+08
 
   -0.43704E+08         0.20048E+07         0.00000E+00
    0.20048E+07        -0.49766E+08         0.00000E+00
    0.00000E+00         0.00000E+00        -0.44370E+08
 
   -0.43741E+08         0.20619E+07         0.00000E+00
    0.20619E+07        -0.49751E+08         0.00000E+00
    0.00000E+00         0.00000E+00        -0.44370E+08
 
   -0.43778E+08         0.21188E+07         0.00000E+00
    0.21188E+07        -0.49736E+08         0.00000E+00
    0.00000E+00         0.00000E+00        -0.44370E+08
 
   -0.43816E+08         0.21756E+07         0.00000E+00
    0.21756E+07        -0.49721E+08         0.00000E+00
    0.00000E+00         0.00000E+00        -0.44370E+08
 
   -0.43855E+08         0.22322E+07         0.00000E+00
    0.22322E+07        -0.49705E+08         0.00000E+00
    0.00000E+00         0.00000E+00        -0.44370E+08
 
   -0.43893E+08         0.22887E+07         0.00000E+00
    0.22887E+07        -0.49689E+08         0.00000E+00
    0.00000E+00         0.00000E+00        -0.44370E+08
 
   -0.43933E+08         0.23450E+07         0.00000E+00
    0.23450E+07        -0.49672E+08         0.00000E+00
    0.00000E+00         0.00000E+00        -0.44369E+08
 
   -0.43972E+08         0.24012E+07         0.00000E+00
    0.24012E+07        -0.49655E+08         0.00000E+00
    0.00000E+00         0.00000E+00        -0.44369E+08
 
   -0.44012E+08         0.24572E+07         0.00000E+00
    0.24572E+07        -0.49638E+08         0.00000E+00
    0.00000E+00         0.00000E+00        -0.44369E+08
 
   -0.44052E+08         0.25130E+07         0.00000E+00
    0.25130E+07        -0.49619E+08         0.00000E+00
    0.00000E+00         0.00000E+00        -0.44369E+08
 
   -0.44093E+08         0.25687E+07         0.00000E+00
    0.25687E+07        -0.49601E+08         0.00000E+00
    0.00000E+00         0.00000E+00        -0.44369E+08
 
   -0.44134E+08         0.26242E+07         0.00000E+00
    0.26242E+07        -0.49582E+08         0.00000E+00
    0.00000E+00         0.00000E+00        -0.44369E+08
 
   -0.44176E+08         0.26796E+07         0.00000E+00
    0.26796E+07        -0.49562E+08         0.00000E+00
    0.00000E+00         0.00000E+00        -0.44369E+08
 
   -0.44218E+08         0.27348E+07         0.00000E+00
    0.27348E+07        -0.49542E+08         0.00000E+00
    0.00000E+00         0.00000E+00        -0.44369E+08
 
   -0.44261E+08         0.27898E+07         0.00000E+00
    0.27898E+07        -0.49522E+08         0.00000E+00
    0.00000E+00         0.00000E+00        -0.44369E+08
 
   -0.44304E+08         0.28447E+07         0.00000E+00
    0.28447E+07        -0.49501E+08         0.00000E+00
    0.00000E+00         0.00000E+00        -0.44369E+08
 
   -0.44347E+08         0.28994E+07         0.00000E+00
    0.28994E+07        -0.49480E+08         0.00000E+00
    0.00000E+00         0.00000E+00        -0.44369E+08
 
   -0.42355E+08         0.32676E+05         0.00000E+00
    0.32676E+05        -0.50000E+08         0.00000E+00
    0.00000E+00         0.00000E+00        -0.44095E+08
 
   -0.42382E+08         0.97432E+05         0.00000E+00
    0.97432E+05        -0.49999E+08         0.00000E+00
    0.00000E+00         0.00000E+00        -0.44095E+08
 
   -0.42409E+08         0.16198E+06         0.00000E+00
    0.16198E+06        -0.49999E+08         0.00000E+00
    0.00000E+00         0.00000E+00        -0.44095E+08
 
   -0.42437E+08         0.22632E+06         0.00000E+00
    0.22632E+06        -0.49997E+08         0.00000E+00
    0.00000E+00         0.00000E+00        -0.44095E+08
 
   -0.42464E+08         0.29045E+06         0.00000E+00
    0.29045E+06        -0.49996E+08         0.00000E+00
    0.00000E+00         0.00000E+00        -0.44095E+08
 
   -0.42493E+08         0.35439E+06         0.00000E+00
    0.35439E+06        -0.49994E+08         0.00000E+00
    0.00000E+00         0.00000E+00        -0.44095E+08
 
   -0.42521E+08         0.41813E+06         0.00000E+00
    0.41813E+06        -0.49991E+08         0.00000E+00
    0.00000E+00         0.00000E+00        -0.44095E+08
 
   -0.42550E+08         0.48168E+06         0.00000E+00
    0.48168E+06        -0.49988E+08         0.00000E+00
    0.00000E+00         0.00000E+00        -0.44095E+08
 
   -0.42579E+08         0.54504E+06         0.00000E+00
    0.54504E+06        -0.49985E+08         0.00000E+00
    0.00000E+00         0.00000E+00        -0.44095E+08
 
   -0.42608E+08         0.60822E+06         0.00000E+00
    0.60822E+06        -0.49981E+08         0.00000E+00
    0.00000E+00         0.00000E+00        -0.44095E+08
 
   -0.42638E+08         0.67122E+06         0.00000E+00
    0.67122E+06        -0.49977E+08         0.00000E+00
    0.00000E+00         0.00000E+00        -0.44095E+08
 
   -0.42668E+08         0.73404E+06         0.00000E+00
    0.73404E+06        -0.49972E+08         0.00000E+00
    0.00000E+00         0.00000E+00        -0.44095E+08
 
   -0.42698E+08         0.79668E+06         0.00000E+00
    0.79668E+06        -0.49967E+08         0.00000E+00
    0.00000E+00         0.00000E+00        -0.44095E+08
 
   -0.42729E+08         0.85916E+06         0.00000E+00
    0.85916E+06        -0.49962E+08         0.00000E+00
    0.00000E+00         0.00000E+00        -0.44094E+08
 
   -0.42760E+08         0.92146E+06         0.00000E+00
    0.92146E+06        -0.49956E+08         0.00000E+00
    0.00000E+00         0.00000E+00        -0.44094E+08
 
   -0.42791E+08         0.98360E+06         0.00000E+00
    0.98360E+06        -0.49950E+08         0.00000E+00
    0.00000E+00         0.00000E+00        -0.44094E+08
 
   -0.42823E+08         0.10456E+07         0.00000E+00
    0.10456E+07        -0.49943E+08         0.00000E+00
    0.00000E+00         0.00000E+00        -0.44094E+08
 
   -0.42855E+08         0.11074E+07         0.00000E+00
    0.11074E+07        -0.49936E+08         0.00000E+00
    0.00000E+00         0.00000E+00        -0.44094E+08
 
   -0.42887E+08         0.11690E+07         0.00000E+00
    0.11690E+07        -0.49929E+08         0.00000E+00
    0.00000E+00         0.00000E+00        -0.44094E+08
 
   -0.42920E+08         0.12306E+07         0.00000E+00
    0.12306E+07        -0.49921E+08         0.00000E+00
    0.00000E+00         0.00000E+00        -0.44094E+08
 
   -0.42953E+08         0.12919E+07         0.00000E+00
    0.12919E+07        -0.49912E+08         0.00000E+00
    0.00000E+00         0.00000E+00        -0.44093E+08
 
   -0.42986E+08         0.13531E+07         0.00000E+00
    0.13531E+07        -0.49903E+08         0.00000E+00
    0.00000E+00         0.00000E+00        -0.44093E+08
 
   -0.43019E+08         0.14141E+07         0.00000E+00
    0.14141E+07        -0.49894E+08         0.00000E+00
    0.00000E+00         0.00000E+00        -0.44093E+08
 
   -0.43053E+08         0.14750E+07         0.00000E+00
    0.14750E+07        -0.49885E+08         0.00000E+00
    0.00000E+00         0.00000E+00        -0.44093E+08
 
   -0.43088E+08         0.15358E+07         0.00000E+00
    0.15358E+07        -0.49874E+08         0.00000E+00
    0.00000E+00         0.00000E+00        -0.44093E+08
 
   -0.43122E+08         0.15964E+07         0.00000E+00
    0.15964E+07        -0.49864E+08         0.00000E+00
    0.00000E+00         0.00000E+00        -0.44093E+08
 
   -0.43157E+08         0.16569E+07         0.00000E+00
    0.16569E+07        -0.49853E+08         0.00000E+00
    0.00000E+00         0.00000E+00        -0.44093E+08
 
   -0.43193E+08         0.17172E+07         0.00000E+00
    0.17172E+07        -0.49842E+08         0.00000E+00
    0.00000E+00         0.00000E+00        -0.44092E+08
 
   -0.43228E+08         0.17774E+07         0.00000E+00
    0.17774E+07        -0.49830E+08         0.00000E+00
    0.00000E+00         0.00000E+00        -0.44092E+08
 
   -0.43264E+08         0.18374E+07         0.00000E+00
    0.18374E+07        -0.49817E+08         0.00000E+00
    0.00000E+00         0.00000E+00        -0.44092E+08
 
   -0.43301E+08         0.18973E+07         0.00000E+00
    0.18973E+07        -0.49805E+08         0.00000E+00
    0.00000E+00         0.00000E+00        -0.44092E+08
 
   -0.43337E+08         0.19571E+07         0.00000E+00
    0.19571E+07        -0.49791E+08         0.00000E+00
    0.00000E+00         0.00000E+00        -0.44092E+08
 
   -0.43375E+08         0.20167E+07         0.00000E+00
    0.20167E+07        -0.49778E+08         0.00000E+00
    0.00000E+00         0.00000E+00        -0.44092E+08
 
   -0.43412E+08         0.20762E+07         0.00000E+00
    0.20762E+07        -0.49764E+08         0.00000E+00
    0.00000E+00         0.00000E+00        -0.44092E+08
 
   -0.43450E+08         0.21355E+07         0.00000E+00
    0.21355E+07        -0.49749E+08         0.00000E+00
    0.00000E+00         0.00000E+00        -0.44091E+08
 
   -0.43488E+08         0.21948E+07         0.00000E+00
    0.21948E+07        -0.49734E+08         0.00000E+00
    0.00000E+00         0.00000E+00        -0.44091E+08
 
   -0.43527E+08         0.22538E+07         0.00000E+00
    0.22538E+07        -0.49718E+08         0.00000E+00
    0.00000E+00         0.00000E+00        -0.44091E+08
 
   -0.43566E+08         0.23128E+07         0.00000E+00
    0.23128E+07        -0.49702E+08         0.00000E+00
    0.00000E+00         0.00000E+00        -0.44091E+08
 
   -0.43606E+08         0.23716E+07         0.00000E+00
    0.23716E+07        -0.49686E+08         0.00000E+00
    0.00000E+00         0.00000E+00        -0.44091E+08
 
   -0.43645E+08         0.24302E+07         0.00000E+00
    0.24302E+07        -0.49669E+08         0.00000E+00
    0.00000E+00         0.00000E+00        -0.44091E+08
 
   -0.43686E+08         0.24887E+07         0.00000E+00
    0.24887E+07        -0.49652E+08         0.00000E+00
    0.00000E+00         0.00000E+00        -0.44091E+08
 
   -0.43726E+08         0.25471E+07         0.00000E+00
    0.25471E+07        -0.49634E+08         0.00000E+00
    0.00000E+00         0.00000E+00        -0.44091E+08
 
   -0.43768E+08         0.26053E+07         0.00000E+00
    0.26053E+07        -0.49615E+08         0.00000E+00
    0.00000E+00         0.00000E+00        -0.44090E+08
 
   -0.43809E+08         0.26634E+07         0.00000E+00
    0.26634E+07        -0.49597E+08         0.00000E+00
    0.00000E+00         0.00000E+00        -0.44090E+08
 
   -0.43851E+08         0.27214E+07         0.00000E+00
    0.27214E+07        -0.49577E+08         0.00000E+00
    0.00000E+00         0.00000E+00        -0.44090E+08
 
   -0.43894E+08         0.27792E+07         0.00000E+00
    0.27792E+07        -0.49557E+08         0.00000E+00
    0.00000E+00         0.00000E+00        -0.44090E+08
 
   -0.43937E+08         0.28368E+07         0.00000E+00
    0.28368E+07        -0.49537E+08         0.00000E+00
    0.00000E+00         0.00000E+00        -0.44090E+08
 
   -0.43980E+08         0.28943E+07         0.00000E+00
    0.28943E+07        -0.49516E+08         0.00000E+00
    0.00000E+00         0.00000E+00        -0.44090E+08
 
   -0.44024E+08         0.29517E+07         0.00000E+00
    0.29517E+07        -0.49495E+08         0.00000E+00
    0.00000E+00         0.00000E+00        -0.44090E+08
 
   -0.44068E+08         0.30089E+07         0.00000E+00
    0.30089E+07        -0.49473E+08         0.00000E+00
    0.00000E+00         0.00000E+00        -0.44090E+08
 
   -0.42026E+08         0.33722E+05         0.00000E+00
    0.33722E+05        -0.50000E+08         0.00000E+00
    0.00000E+00         0.00000E+00        -0.43805E+08
 
   -0.42053E+08         0.10056E+06         0.00000E+00
    0.10056E+06        -0.49999E+08         0.00000E+00
    0.00000E+00         0.00000E+00        -0.43805E+08
 
   -0.42082E+08         0.16719E+06         0.00000E+00
    0.16719E+06        -0.49999E+08         0.00000E+00
    0.00000E+00         0.00000E+00        -0.43805E+08
 
   -0.42110E+08         0.23361E+06         0.00000E+00
    0.23361E+06        -0.49997E+08         0.00000E+00
    0.00000E+00         0.00000E+00        -0.43805E+08
 
   -0.42139E+08         0.29983E+06         0.00000E+00
    0.29983E+06        -0.49996E+08         0.00000E+00
    0.00000E+00         0.00000E+00        -0.43805E+08
 
   -0.42168E+08         0.36584E+06         0.00000E+00
    0.36584E+06        -0.49994E+08         0.00000E+00
    0.00000E+00         0.00000E+00        -0.43805E+08
 
   -0.42198E+08         0.43167E+06         0.00000E+00
    0.43167E+06        -0.49991E+08         0.00000E+00
    0.00000E+00         0.00000E+00        -0.43805E+08
 
   -0.42227E+08         0.49730E+06         0.00000E+00
    0.49730E+06        -0.49988E+08         0.00000E+00
    0.00000E+00         0.00000E+00        -0.43804E+08
 
   -0.42257E+08         0.56275E+06         0.00000E+00
    0.56275E+06        -0.49985E+08         0.00000E+00
    0.00000E+00         0.00000E+00        -0.43804E+08
 
   -0.42288E+08         0.62801E+06         0.00000E+00
    0.62801E+06        -0.49981E+08         0.00000E+00
    0.00000E+00         0.00000E+00        -0.43804E+08
 
   -0.42318E+08         0.69310E+06         0.00000E+00
    0.69310E+06        -0.49977E+08         0.00000E+00
    0.00000E+00         0.00000E+00        -0.43804E+08
 
   -0.42349E+08         0.75801E+06         0.00000E+00
    0.75801E+06        -0.49972E+08         0.00000E+00
    0.00000E+00         0.00000E+00        -0.43804E+08
 
   -0.42380E+08         0.82275E+06         0.00000E+00
    0.82275E+06        -0.49967E+08         0.00000E+00
    0.00000E+00         0.00000E+00        -0.43804E+08
 
   -0.42412E+08         0.88733E+06         0.00000E+00
    0.88733E+06        -0.49962E+08         0.00000E+00
    0.00000E+00         0.00000E+00        -0.43804E+08
 
   -0.42444E+08         0.95174E+06         0.00000E+00
    0.95174E+06        -0.49956E+08         0.00000E+00
    0.00000E+00         0.00000E+00        -0.43804E+08
 
   -0.42476E+08         0.10160E+07         0.00000E+00
    0.10160E+07        -0.49950E+08         0.00000E+00
    0.00000E+00         0.00000E+00        -0.43803E+08
 
   -0.42508E+08         0.10801E+07         0.00000E+00
    0.10801E+07        -0.49943E+08         0.00000E+00
    0.00000E+00         0.00000E+00        -0.43803E+08
 
   -0.42541E+08         0.11440E+07         0.00000E+00
    0.11440E+07        -0.49936E+08         0.00000E+00
    0.00000E+00         0.00000E+00        -0.43803E+08
 
   -0.42574E+08         0.12078E+07         0.00000E+00
    0.12078E+07        -0.49928E+08         0.00000E+00
    0.00000E+00         0.00000E+00        -0.43803E+08
 
   -0.42607E+08         0.12715E+07         0.00000E+00
    0.12715E+07        -0.49920E+08         0.00000E+00
    0.00000E+00         0.00000E+00        -0.43803E+08
 
   -0.42641E+08         0.13350E+07         0.00000E+00
    0.13350E+07        -0.49912E+08         0.00000E+00
    0.00000E+00         0.00000E+00        -0.43803E+08
 
   -0.42675E+08         0.13983E+07         0.00000E+00
    0.13983E+07        -0.49903E+08         0.00000E+00
    0.00000E+00         0.00000E+00        -0.43802E+08
 
   -0.42709E+08         0.14616E+07         0.00000E+00
    0.14616E+07        -0.49894E+08         0.00000E+00
    0.00000E+00         0.00000E+00        -0.43802E+08
 
   -0.42744E+08         0.15246E+07         0.00000E+00
    0.15246E+07        -0.49884E+08         0.00000E+00
    0.00000E+00         0.00000E+00        -0.43802E+08
 
   -0.42779E+08         0.15876E+07         0.00000E+00
    0.15876E+07        -0.49874E+08         0.00000E+00
    0.00000E+00         0.00000E+00        -0.43802E+08
 
   -0.42814E+08         0.16504E+07         0.00000E+00
    0.16504E+07        -0.49863E+08         0.00000E+00
    0.00000E+00         0.00000E+00        -0.43802E+08
 
   -0.42850E+08         0.17131E+07         0.00000E+00
    0.17131E+07        -0.49852E+08         0.00000E+00
    0.00000E+00         0.00000E+00        -0.43801E+08
 
   -0.42886E+08         0.17756E+07         0.00000E+00
    0.17756E+07        -0.49841E+08         0.00000E+00
    0.00000E+00         0.00000E+00        -0.43801E+08
 
   -0.42922E+08         0.18381E+07         0.00000E+00
    0.18381E+07        -0.49829E+08         0.00000E+00
    0.00000E+00         0.00000E+00        -0.43801E+08
 
   -0.42959E+08         0.19004E+07         0.00000E+00
    0.19004E+07        -0.49816E+08         0.00000E+00
    0.00000E+00         0.00000E+00        -0.43801E+08
 
   -0.42996E+08         0.19625E+07         0.00000E+00
    0.19625E+07        -0.49804E+08         0.00000E+00
    0.00000E+00         0.00000E+00        -0.43801E+08
 
   -0.43033E+08         0.20246E+07         0.00000E+00
    0.20246E+07        -0.49790E+08         0.00000E+00
    0.00000E+00         0.00000E+00        -0.43801E+08
 
   -0.43071E+08         0.20865E+07         0.00000E+00
    0.20865E+07        -0.49777E+08         0.00000E+00
    0.00000E+00         0.00000E+00        -0.43800E+08
 
   -0.43109E+08         0.21483E+07         0.00000E+00
    0.21483E+07        -0.49762E+08         0.00000E+00
    0.00000E+00         0.00000E+00        -0.43800E+08
 
   -0.43148E+08         0.22100E+07         0.00000E+00
    0.22100E+07        -0.49748E+08         0.00000E+00
    0.00000E+00         0.00000E+00        -0.43800E+08
 
   -0.43187E+08         0.22716E+07         0.00000E+00
    0.22716E+07        -0.49732E+08         0.00000E+00
    0.00000E+00         0.00000E+00        -0.43800E+08
 
   -0.43226E+08         0.23330E+07         0.00000E+00
    0.23330E+07        -0.49717E+08         0.00000E+00
    0.00000E+00         0.00000E+00        -0.43800E+08
 
   -0.43266E+08         0.23943E+07         0.00000E+00
    0.23943E+07        -0.49700E+08         0.00000E+00
    0.00000E+00         0.00000E+00        -0.43799E+08
 
   -0.43306E+08         0.24555E+07         0.00000E+00
    0.24555E+07        -0.49684E+08         0.00000E+00
    0.00000E+00         0.00000E+00        -0.43799E+08
 
   -0.43346E+08         0.25166E+07         0.00000E+00
    0.25166E+07        -0.49667E+08         0.00000E+00
    0.00000E+00         0.00000E+00        -0.43799E+08
 
   -0.43387E+08         0.25775E+07         0.00000E+00
    0.25775E+07        -0.49649E+08         0.00000E+00
    0.00000E+00         0.00000E+00        -0.43799E+08
 
   -0.43429E+08         0.26383E+07         0.00000E+00
    0.26383E+07        -0.49631E+08         0.00000E+00
    0.00000E+00         0.00000E+00        -0.43799E+08
 
   -0.43471E+08         0.26990E+07         0.00000E+00
    0.26990E+07        -0.49612E+08         0.00000E+00
    0.00000E+00         0.00000E+00        -0.43799E+08
 
   -0.43513E+08         0.27596E+07         0.00000E+00
    0.27596E+07        -0.49593E+08         0.00000E+00
    0.00000E+00         0.00000E+00        -0.43799E+08
 
   -0.43556E+08         0.28200E+07         0.00000E+00
    0.28200E+07        -0.49574E+08         0.00000E+00
    0.00000E+00         0.00000E+00        -0.43799E+08
 
   -0.43599E+08         0.28803E+07         0.00000E+00
    0.28803E+07        -0.49554E+08         0.00000E+00
    0.00000E+00         0.00000E+00        -0.43799E+08
 
   -0.43642E+08         0.29405E+07         0.00000E+00
    0.29405E+07        -0.49533E+08         0.00000E+00
    0.00000E+00         0.00000E+00        -0.43799E+08
 
   -0.43686E+08         0.30006E+07         0.00000E+00
    0.30006E+07        -0.49512E+08         0.00000E+00
    0.00000E+00         0.00000E+00        -0.43798E+08
 
   -0.43731E+08         0.30605E+07         0.00000E+00
    0.30605E+07        -0.49490E+08         0.00000E+00
    0.00000E+00         0.00000E+00        -0.43798E+08
 
   -0.43776E+08         0.31203E+07         0.00000E+00
    0.31203E+07        -0.49468E+08         0.00000E+00
    0.00000E+00         0.00000E+00        -0.43798E+08
 
   -0.41686E+08         0.34766E+05         0.00000E+00
    0.34766E+05        -0.50000E+08         0.00000E+00
    0.00000E+00         0.00000E+00        -0.43501E+08
 
   -0.41715E+08         0.10369E+06         0.00000E+00
    0.10369E+06        -0.50000E+08         0.00000E+00
    0.00000E+00         0.00000E+00        -0.43501E+08
 
   -0.41744E+08         0.17239E+06         0.00000E+00
    0.17239E+06        -0.49999E+08         0.00000E+00
    0.00000E+00         0.00000E+00        -0.43501E+08
 
   -0.41773E+08         0.24089E+06         0.00000E+00
    0.24089E+06        -0.49997E+08         0.00000E+00
    0.00000E+00         0.00000E+00        -0.43501E+08
 
   -0.41803E+08         0.30918E+06         0.00000E+00
    0.30918E+06        -0.49996E+08         0.00000E+00
    0.00000E+00         0.00000E+00        -0.43501E+08
 
   -0.41833E+08         0.37728E+06         0.00000E+00
    0.37728E+06        -0.49994E+08         0.00000E+00
    0.00000E+00         0.00000E+00        -0.43501E+08
 
   -0.41864E+08         0.44518E+06         0.00000E+00
    0.44518E+06        -0.49991E+08         0.00000E+00
    0.00000E+00         0.00000E+00        -0.43501E+08
 
   -0.41894E+08         0.51290E+06         0.00000E+00
    0.51290E+06        -0.49988E+08         0.00000E+00
    0.00000E+00         0.00000E+00        -0.43501E+08
 
   -0.41925E+08         0.58043E+06         0.00000E+00
    0.58043E+06        -0.49985E+08         0.00000E+00
    0.00000E+00         0.00000E+00        -0.43501E+08
 
   -0.41956E+08         0.64778E+06         0.00000E+00
    0.64778E+06        -0.49981E+08         0.00000E+00
    0.00000E+00         0.00000E+00        -0.43501E+08
 
   -0.41988E+08         0.71496E+06         0.00000E+00
    0.71496E+06        -0.49977E+08         0.00000E+00
    0.00000E+00         0.00000E+00        -0.43500E+08
 
   -0.42020E+08         0.78198E+06         0.00000E+00
    0.78198E+06        -0.49973E+08         0.00000E+00
    0.00000E+00         0.00000E+00        -0.43500E+08
 
   -0.42052E+08         0.84882E+06         0.00000E+00
    0.84882E+06        -0.49968E+08         0.00000E+00
    0.00000E+00         0.00000E+00        -0.43500E+08
 
   -0.42084E+08         0.91551E+06         0.00000E+00
    0.91551E+06        -0.49962E+08         0.00000E+00
    0.00000E+00         0.00000E+00        -0.43500E+08
 
   -0.42117E+08         0.98204E+06         0.00000E+00
    0.98204E+06        -0.49956E+08         0.00000E+00
    0.00000E+00         0.00000E+00        -0.43500E+08
 
   -0.42149E+08         0.10484E+07         0.00000E+00
    0.10484E+07        -0.49950E+08         0.00000E+00
    0.00000E+00         0.00000E+00        -0.43500E+08
 
   -0.42183E+08         0.11147E+07         0.00000E+00
    0.11147E+07        -0.49943E+08         0.00000E+00
    0.00000E+00         0.00000E+00        -0.43499E+08
 
   -0.42216E+08         0.11807E+07         0.00000E+00
    0.11807E+07        -0.49936E+08         0.00000E+00
    0.00000E+00         0.00000E+00        -0.43499E+08
 
   -0.42250E+08         0.12467E+07         0.00000E+00
    0.12467E+07        -0.49929E+08         0.00000E+00
    0.00000E+00         0.00000E+00        -0.43499E+08
 
   -0.42284E+08         0.13125E+07         0.00000E+00
    0.13125E+07        -0.49921E+08         0.00000E+00
    0.00000E+00         0.00000E+00        -0.43499E+08
 
   -0.42318E+08         0.13782E+07         0.00000E+00
    0.13782E+07        -0.49912E+08         0.00000E+00
    0.00000E+00         0.00000E+00        -0.43499E+08
 
   -0.42353E+08         0.14437E+07         0.00000E+00
    0.14437E+07        -0.49903E+08         0.00000E+00
    0.00000E+00         0.00000E+00        -0.43498E+08
 
   -0.42388E+08         0.15092E+07         0.00000E+00
    0.15092E+07        -0.49894E+08         0.00000E+00
    0.00000E+00         0.00000E+00        -0.43498E+08
 
   -0.42423E+08         0.15744E+07         0.00000E+00
    0.15744E+07        -0.49884E+08         0.00000E+00
    0.00000E+00         0.00000E+00        -0.43498E+08
 
   -0.42459E+08         0.16396E+07         0.00000E+00
    0.16396E+07        -0.49874E+08         0.00000E+00
    0.00000E+00         0.00000E+00        -0.43498E+08
 
   -0.42495E+08         0.17047E+07         0.00000E+00
    0.17047E+07        -0.49863E+08         0.00000E+00
    0.00000E+00         0.00000E+00        -0.43497E+08
 
   -0.42531E+08         0.17696E+07         0.00000E+00
    0.17696E+07        -0.49852E+08         0.00000E+00
    0.00000E+00         0.00000E+00        -0.43497E+08
 
   -0.42567E+08         0.18344E+07         0.00000E+00
    0.18344E+07        -0.49841E+08         0.00000E+00
    0.00000E+00         0.00000E+00        -0.43497E+08
 
   -0.42604E+08         0.18991E+07         0.00000E+00
    0.18991E+07        -0.49829E+08         0.00000E+00
    0.00000E+00         0.00000E+00        -0.43497E+08
 
   -0.42642E+08         0.19637E+07         0.00000E+00
    0.19637E+07        -0.49816E+08         0.00000E+00
    0.00000E+00         0.00000E+00        -0.43496E+08
 
   -0.42679E+08         0.20282E+07         0.00000E+00
    0.20282E+07        -0.49803E+08         0.00000E+00
    0.00000E+00         0.00000E+00        -0.43496E+08
 
   -0.42717E+08         0.20926E+07         0.00000E+00
    0.20926E+07        -0.49790E+08         0.00000E+00
    0.00000E+00         0.00000E+00        -0.43496E+08
 
   -0.42756E+08         0.21569E+07         0.00000E+00
    0.21569E+07        -0.49776E+08         0.00000E+00
    0.00000E+00         0.00000E+00        -0.43496E+08
 
   -0.42795E+08         0.22210E+07         0.00000E+00
    0.22210E+07        -0.49762E+08         0.00000E+00
    0.00000E+00         0.00000E+00        -0.43496E+08
 
   -0.42834E+08         0.22851E+07         0.00000E+00
    0.22851E+07        -0.49747E+08         0.00000E+00
    0.00000E+00         0.00000E+00        -0.43495E+08
 
   -0.42873E+08         0.23490E+07         0.00000E+00
    0.23490E+07        -0.49732E+08         0.00000E+00
    0.00000E+00         0.00000E+00        -0.43495E+08
 
   -0.42913E+08         0.24129E+07         0.00000E+00
    0.24129E+07        -0.49716E+08         0.00000E+00
    0.00000E+00         0.00000E+00        -0.43495E+08
 
   -0.42953E+08         0.24766E+07         0.00000E+00
    0.24766E+07        -0.49700E+08         0.00000E+00
    0.00000E+00         0.00000E+00        -0.43495E+08
 
   -0.42994E+08         0.25403E+07         0.00000E+00
    0.25403E+07        -0.49683E+08         0.00000E+00
    0.00000E+00         0.00000E+00        -0.43495E+08
 
   -0.43035E+08         0.26038E+07         0.00000E+00
    0.26038E+07        -0.49666E+08         0.00000E+00
    0.00000E+00         0.00000E+00        -0.43494E+08
 
   -0.43077E+08         0.26673E+07         0.00000E+00
    0.26673E+07        -0.49648E+08         0.00000E+00
    0.00000E+00         0.00000E+00        -0.43494E+08
 
   -0.43119E+08         0.27306E+07         0.00000E+00
    0.27306E+07        -0.49629E+08         0.00000E+00
    0.00000E+00         0.00000E+00        -0.43494E+08
 
   -0.43161E+08         0.27938E+07         0.00000E+00
    0.27938E+07        -0.49611E+08         0.00000E+00
    0.00000E+00         0.00000E+00        -0.43494E+08
 
   -0.43204E+08         0.28570E+07         0.00000E+00
    0.28570E+07        -0.49591E+08         0.00000E+00
    0.00000E+00         0.00000E+00        -0.43494E+08
 
   -0.43247E+08         0.29200E+07         0.00000E+00
    0.29200E+07        -0.49572E+08         0.00000E+00
    0.00000E+00         0.00000E+00        -0.43494E+08
 
   -0.43291E+08         0.29829E+07         0.00000E+00
    0.29829E+07        -0.49551E+08         0.00000E+00
    0.00000E+00         0.00000E+00        -0.43494E+08
 
   -0.43335E+08         0.30457E+07         0.00000E+00
    0.30457E+07        -0.49530E+08         0.00000E+00
    0.00000E+00         0.00000E+00        -0.43494E+08
 
   -0.43380E+08         0.31084E+07         0.00000E+00
    0.31084E+07        -0.49509E+08         0.00000E+00
    0.00000E+00         0.00000E+00        -0.43494E+08
 
   -0.43425E+08         0.31709E+07         0.00000E+00
    0.31709E+07        -0.49487E+08         0.00000E+00
    0.00000E+00         0.00000E+00        -0.43494E+08
 
   -0.43471E+08         0.32334E+07         0.00000E+00
    0.32334E+07        -0.49464E+08         0.00000E+00
    0.00000E+00         0.00000E+00        -0.43494E+08
 
   -0.41335E+08         0.35801E+05         0.00000E+00
    0.35801E+05        -0.50000E+08         0.00000E+00
    0.00000E+00         0.00000E+00        -0.43184E+08
 
   -0.41365E+08         0.10679E+06         0.00000E+00
    0.10679E+06        -0.50000E+08         0.00000E+00
    0.00000E+00         0.00000E+00        -0.43184E+08
 
   -0.41396E+08         0.17756E+06         0.00000E+00
    0.17756E+06        -0.49999E+08         0.00000E+00
    0.00000E+00         0.00000E+00        -0.43184E+08
 
   -0.41426E+08         0.24812E+06         0.00000E+00
    0.24812E+06        -0.49997E+08         0.00000E+00
    0.00000E+00         0.00000E+00        -0.43184E+08
 
   -0.41457E+08         0.31848E+06         0.00000E+00
    0.31848E+06        -0.49996E+08         0.00000E+00
    0.00000E+00         0.00000E+00        -0.43184E+08
 
   -0.41488E+08         0.38865E+06         0.00000E+00
    0.38865E+06        -0.49994E+08         0.00000E+00
    0.00000E+00         0.00000E+00        -0.43184E+08
 
   -0.41519E+08         0.45862E+06         0.00000E+00
    0.45862E+06        -0.49991E+08         0.00000E+00
    0.00000E+00         0.00000E+00        -0.43184E+08
 
   -0.41551E+08         0.52841E+06         0.00000E+00
    0.52841E+06        -0.49988E+08         0.00000E+00
    0.00000E+00         0.00000E+00        -0.43184E+08
 
   -0.41583E+08         0.59802E+06         0.00000E+00
    0.59802E+06        -0.49985E+08         0.00000E+00
    0.00000E+00         0.00000E+00        -0.43183E+08
 
   -0.41615E+08         0.66746E+06         0.00000E+00
    0.66746E+06        -0.49981E+08         0.00000E+00
    0.00000E+00         0.00000E+00        -0.43183E+08
 
   -0.41647E+08         0.73673E+06         0.00000E+00
    0.73673E+06        -0.49977E+08         0.00000E+00
    0.00000E+00         0.00000E+00        -0.43183E+08
 
   -0.41680E+08         0.80584E+06         0.00000E+00
    0.80584E+06        -0.49973E+08         0.00000E+00
    0.00000E+00         0.00000E+00        -0.43183E+08
 
   -0.41713E+08         0.87479E+06         0.00000E+00
    0.87479E+06        -0.49968E+08         0.00000E+00
    0.00000E+00         0.00000E+00        -0.43183E+08
 
   -0.41746E+08         0.94359E+06         0.00000E+00
    0.94359E+06        -0.49962E+08         0.00000E+00
    0.00000E+00         0.00000E+00        -0.43182E+08
 
   -0.41779E+08         0.10122E+07         0.00000E+00
    0.10122E+07        -0.49957E+08         0.00000E+00
    0.00000E+00         0.00000E+00        -0.43182E+08
 
   -0.41812E+08         0.10808E+07         0.00000E+00
    0.10808E+07        -0.49950E+08         0.00000E+00
    0.00000E+00         0.00000E+00        -0.43182E+08
 
   -0.41846E+08         0.11491E+07         0.00000E+00
    0.11491E+07        -0.49944E+08         0.00000E+00
    0.00000E+00         0.00000E+00        -0.43182E+08
 
   -0.41880E+08         0.12174E+07         0.00000E+00
    0.12174E+07        -0.49937E+08         0.00000E+00
    0.00000E+00         0.00000E+00        -0.43182E+08
 
   -0.41915E+08         0.12855E+07         0.00000E+00
    0.12855E+07        -0.49929E+08         0.00000E+00
    0.00000E+00         0.00000E+00        -0.43181E+08
 
   -0.41950E+08         0.13535E+07         0.00000E+00
    0.13535E+07        -0.49921E+08         0.00000E+00
    0.00000E+00         0.00000E+00        -0.43181E+08
 
   -0.41985E+08         0.14213E+07         0.00000E+00
    0.14213E+07        -0.49913E+08         0.00000E+00
    0.00000E+00         0.00000E+00        -0.43181E+08
 
   -0.42020E+08         0.14891E+07         0.00000E+00
    0.14891E+07        -0.49904E+08         0.00000E+00
    0.00000E+00         0.00000E+00        -0.43180E+08
 
   -0.42055E+08         0.15567E+07         0.00000E+00
    0.15567E+07        -0.49895E+08         0.00000E+00
    0.00000E+00         0.00000E+00        -0.43180E+08
 
   -0.42091E+08         0.16243E+07         0.00000E+00
    0.16243E+07        -0.49885E+08         0.00000E+00
    0.00000E+00         0.00000E+00        -0.43180E+08
 
   -0.42127E+08         0.16917E+07         0.00000E+00
    0.16917E+07        -0.49875E+08         0.00000E+00
    0.00000E+00         0.00000E+00        -0.43180E+08
 
   -0.42164E+08         0.17590E+07         0.00000E+00
    0.17590E+07        -0.49864E+08         0.00000E+00
    0.00000E+00         0.00000E+00        -0.43179E+08
 
   -0.42201E+08         0.18262E+07         0.00000E+00
    0.18262E+07        -0.49853E+08         0.00000E+00
    0.00000E+00         0.00000E+00        -0.43179E+08
 
   -0.42238E+08         0.18933E+07         0.00000E+00
    0.18933E+07        -0.49841E+08         0.00000E+00
    0.00000E+00         0.00000E+00        -0.43179E+08
 
   -0.42275E+08         0.19603E+07         0.00000E+00
    0.19603E+07        -0.49829E+08         0.00000E+00
    0.00000E+00         0.00000E+00        -0.43179E+08
 
   -0.42313E+08         0.20273E+07         0.00000E+00
    0.20273E+07        -0.49817E+08         0.00000E+00
    0.00000E+00         0.00000E+00        -0.43178E+08
 
   -0.42351E+08         0.20941E+07         0.00000E+00
    0.20941E+07        -0.49804E+08         0.00000E+00
    0.00000E+00         0.00000E+00        -0.43178E+08
 
   -0.42390E+08         0.21609E+07         0.00000E+00
    0.21609E+07        -0.49791E+08         0.00000E+00
    0.00000E+00         0.00000E+00        -0.43178E+08
 
   -0.42429E+08         0.22275E+07         0.00000E+00
    0.22275E+07        -0.49777E+08         0.00000E+00
    0.00000E+00         0.00000E+00        -0.43177E+08
 
   -0.42468E+08         0.22941E+07         0.00000E+00
    0.22941E+07        -0.49762E+08         0.00000E+00
    0.00000E+00         0.00000E+00        -0.43177E+08
 
   -0.42508E+08         0.23606E+07         0.00000E+00
    0.23606E+07        -0.49747E+08         0.00000E+00
    0.00000E+00         0.00000E+00        -0.43177E+08
 
   -0.42548E+08         0.24270E+07         0.00000E+00
    0.24270E+07        -0.49732E+08         0.00000E+00
    0.00000E+00         0.00000E+00        -0.43177E+08
 
   -0.42588E+08         0.24933E+07         0.00000E+00
    0.24933E+07        -0.49716E+08         0.00000E+00
    0.00000E+00         0.00000E+00        -0.43177E+08
 
   -0.42629E+08         0.25595E+07         0.00000E+00
    0.25595E+07        -0.49700E+08         0.00000E+00
    0.00000E+00         0.00000E+00        -0.43176E+08
 
   -0.42670E+08         0.26257E+07         0.00000E+00
    0.26257E+07        -0.49683E+08         0.00000E+00
    0.00000E+00         0.00000E+00        -0.43176E+08
 
   -0.42711E+08         0.26918E+07         0.00000E+00
    0.26918E+07        -0.49666E+08         0.00000E+00
    0.00000E+00         0.00000E+00        -0.43176E+08
 
   -0.42753E+08         0.27578E+07         0.00000E+00
    0.27578E+07        -0.49648E+08         0.00000E+00
    0.00000E+00         0.00000E+00        -0.43176E+08
 
   -0.42796E+08         0.28237E+07         0.00000E+00
    0.28237E+07        -0.49629E+08         0.00000E+00
    0.00000E+00         0.00000E+00        -0.43176E+08
 
   -0.42839E+08         0.28895E+07         0.00000E+00
    0.28895E+07        -0.49610E+08         0.00000E+00
    0.00000E+00         0.00000E+00        -0.43175E+08
 
   -0.42882E+08         0.29552E+07         0.00000E+00
    0.29552E+07        -0.49591E+08         0.00000E+00
    0.00000E+00         0.00000E+00        -0.43175E+08
 
   -0.42926E+08         0.30209E+07         0.00000E+00
    0.30209E+07        -0.49571E+08         0.00000E+00
    0.00000E+00         0.00000E+00        -0.43175E+08
 
   -0.42970E+08         0.30865E+07         0.00000E+00
    0.30865E+07        -0.49550E+08         0.00000E+00
    0.00000E+00         0.00000E+00        -0.43175E+08
 
   -0.43015E+08         0.31520E+07         0.00000E+00
    0.31520E+07        -0.49529E+08         0.00000E+00
    0.00000E+00         0.00000E+00        -0.43175E+08
 
   -0.43060E+08         0.32174E+07         0.00000E+00
    0.32174E+07        -0.49508E+08         0.00000E+00
    0.00000E+00         0.00000E+00        -0.43175E+08
 
   -0.43106E+08         0.32827E+07         0.00000E+00
    0.32827E+07        -0.49485E+08         0.00000E+00
    0.00000E+00         0.00000E+00        -0.43175E+08
 
   -0.43152E+08         0.33479E+07         0.00000E+00
    0.33479E+07        -0.49463E+08         0.00000E+00
    0.00000E+00         0.00000E+00        -0.43175E+08
 
   -0.40975E+08         0.36822E+05         0.00000E+00
    0.36822E+05        -0.50000E+08         0.00000E+00
    0.00000E+00         0.00000E+00        -0.42853E+08
 
   -0.41006E+08         0.10985E+06         0.00000E+00
    0.10985E+06        -0.50000E+08         0.00000E+00
    0.00000E+00         0.00000E+00        -0.42853E+08
 
   -0.41037E+08         0.18266E+06         0.00000E+00
    0.18266E+06        -0.49999E+08         0.00000E+00
    0.00000E+00         0.00000E+00        -0.42853E+08
 
   -0.41069E+08         0.25527E+06         0.00000E+00
    0.25527E+06        -0.49997E+08         0.00000E+00
    0.00000E+00         0.00000E+00        -0.42853E+08
 
   -0.41101E+08         0.32767E+06         0.00000E+00
    0.32767E+06        -0.49996E+08         0.00000E+00
    0.00000E+00         0.00000E+00        -0.42852E+08
 
   -0.41133E+08         0.39988E+06         0.00000E+00
    0.39988E+06        -0.49994E+08         0.00000E+00
    0.00000E+00         0.00000E+00        -0.42852E+08
 
   -0.41165E+08         0.47191E+06         0.00000E+00
    0.47191E+06        -0.49991E+08         0.00000E+00
    0.00000E+00         0.00000E+00        -0.42852E+08
 
   -0.41197E+08         0.54376E+06         0.00000E+00
    0.54376E+06        -0.49989E+08         0.00000E+00
    0.00000E+00         0.00000E+00        -0.42852E+08
 
   -0.41230E+08         0.61543E+06         0.00000E+00
    0.61543E+06        -0.49985E+08         0.00000E+00
    0.00000E+00         0.00000E+00        -0.42852E+08
 
   -0.41263E+08         0.68694E+06         0.00000E+00
    0.68694E+06        -0.49982E+08         0.00000E+00
    0.00000E+00         0.00000E+00        -0.42852E+08
 
   -0.41296E+08         0.75829E+06         0.00000E+00
    0.75829E+06        -0.49978E+08         0.00000E+00
    0.00000E+00         0.00000E+00        -0.42851E+08
 
   -0.41329E+08         0.82949E+06         0.00000E+00
    0.82949E+06        -0.49973E+08         0.00000E+00
    0.00000E+00         0.00000E+00        -0.42851E+08
 
   -0.41363E+08         0.90054E+06         0.00000E+00
    0.90054E+06        -0.49968E+08         0.00000E+00
    0.00000E+00         0.00000E+00        -0.42851E+08
 
   -0.41397E+08         0.97144E+06         0.00000E+00
    0.97144E+06        -0.49963E+08         0.00000E+00
    0.00000E+00         0.00000E+00        -0.42851E+08
 
   -0.41431E+08         0.10422E+07         0.00000E+00
    0.10422E+07        -0.49957E+08         0.00000E+00
    0.00000E+00         0.00000E+00        -0.42851E+08
 
   -0.41465E+08         0.11129E+07         0.00000E+00
    0.11129E+07        -0.49951E+08         0.00000E+00
    0.00000E+00         0.00000E+00        -0.42850E+08
 
   -0.41499E+08         0.11834E+07         0.00000E+00
    0.11834E+07        -0.49944E+08         0.00000E+00
    0.00000E+00         0.00000E+00        -0.42850E+08
 
   -0.41534E+08         0.12538E+07         0.00000E+00
    0.12538E+07        -0.49937E+08         0.00000E+00
    0.00000E+00         0.00000E+00        -0.42850E+08
 
   -0.41569E+08         0.13240E+07         0.00000E+00
    0.13240E+07        -0.49930E+08         0.00000E+00
    0.00000E+00         0.00000E+00        -0.42849E+08
 
   -0.41604E+08         0.13942E+07         0.00000E+00
    0.13942E+07        -0.49922E+08         0.00000E+00
    0.00000E+00         0.00000E+00        -0.42849E+08
 
   -0.41640E+08         0.14643E+07         0.00000E+00
    0.14643E+07        -0.49914E+08         0.00000E+00
    0.00000E+00         0.00000E+00        -0.42849E+08
 
   -0.41676E+08         0.15342E+07         0.00000E+00
    0.15342E+07        -0.49905E+08         0.00000E+00
    0.00000E+00         0.00000E+00        -0.42848E+08
 
   -0.41712E+08         0.16041E+07         0.00000E+00
    0.16041E+07        -0.49896E+08         0.00000E+00
    0.00000E+00         0.00000E+00        -0.42848E+08
 
   -0.41748E+08         0.16739E+07         0.00000E+00
    0.16739E+07        -0.49886E+08         0.00000E+00
    0.00000E+00         0.00000E+00        -0.42848E+08
 
   -0.41785E+08         0.17435E+07         0.00000E+00
    0.17435E+07        -0.49876E+08         0.00000E+00
    0.00000E+00         0.00000E+00        -0.42848E+08
 
   -0.41822E+08         0.18131E+07         0.00000E+00
    0.18131E+07        -0.49865E+08         0.00000E+00
    0.00000E+00         0.00000E+00        -0.42847E+08
 
   -0.41859E+08         0.18827E+07         0.00000E+00
    0.18827E+07        -0.49854E+08         0.00000E+00
    0.00000E+00         0.00000E+00        -0.42847E+08
 
   -0.41897E+08         0.19521E+07         0.00000E+00
    0.19521E+07        -0.49843E+08         0.00000E+00
    0.00000E+00         0.00000E+00        -0.42847E+08
 
   -0.41935E+08         0.20214E+07         0.00000E+00
    0.20214E+07        -0.49831E+08         0.00000E+00
    0.00000E+00         0.00000E+00        -0.42846E+08
 
   -0.41973E+08         0.20907E+07         0.00000E+00
    0.20907E+07        -0.49818E+08         0.00000E+00
    0.00000E+00         0.00000E+00        -0.42846E+08
 
   -0.42011E+08         0.21600E+07         0.00000E+00
    0.21600E+07        -0.49805E+08         0.00000E+00
    0.00000E+00         0.00000E+00        -0.42846E+08
 
   -0.42050E+08         0.22291E+07         0.00000E+00
    0.22291E+07        -0.49792E+08         0.00000E+00
    0.00000E+00         0.00000E+00        -0.42845E+08
 
   -0.42090E+08         0.22982E+07         0.00000E+00
    0.22982E+07        -0.49778E+08         0.00000E+00
    0.00000E+00         0.00000E+00        -0.42845E+08
 
   -0.42129E+08         0.23672E+07         0.00000E+00
    0.23672E+07        -0.49764E+08         0.00000E+00
    0.00000E+00         0.00000E+00        -0.42845E+08
 
   -0.42169E+08         0.24362E+07         0.00000E+00
    0.24362E+07        -0.49749E+08         0.00000E+00
    0.00000E+00         0.00000E+00        -0.42844E+08
 
   -0.42209E+08         0.25051E+07         0.00000E+00
    0.25051E+07        -0.49734E+08         0.00000E+00
    0.00000E+00         0.00000E+00        -0.42844E+08
 
   -0.42250E+08         0.25739E+07         0.00000E+00
    0.25739E+07        -0.49718E+08         0.00000E+00
    0.00000E+00         0.00000E+00        -0.42844E+08
 
   -0.42291E+08         0.26427E+07         0.00000E+00
    0.26427E+07        -0.49701E+08         0.00000E+00
    0.00000E+00         0.00000E+00        -0.42844E+08
 
   -0.42333E+08         0.27114E+07         0.00000E+00
    0.27114E+07        -0.49684E+08         0.00000E+00
    0.00000E+00         0.00000E+00        -0.42843E+08
 
   -0.42375E+08         0.27801E+07         0.00000E+00
    0.27801E+07        -0.49667E+08         0.00000E+00
    0.00000E+00         0.00000E+00        -0.42843E+08
 
   -0.42417E+08         0.28487E+07         0.00000E+00
    0.28487E+07        -0.49649E+08         0.00000E+00
    0.00000E+00         0.00000E+00        -0.42843E+08
 
   -0.42460E+08         0.29172E+07         0.00000E+00
    0.29172E+07        -0.49631E+08         0.00000E+00
    0.00000E+00         0.00000E+00        -0.42843E+08
 
   -0.42503E+08         0.29857E+07         0.00000E+00
    0.29857E+07        -0.49612E+08         0.00000E+00
    0.00000E+00         0.00000E+00        -0.42843E+08
 
   -0.42547E+08         0.30542E+07         0.00000E+00
    0.30542E+07        -0.49592E+08         0.00000E+00
    0.00000E+00         0.00000E+00        -0.42842E+08
 
   -0.42591E+08         0.31226E+07         0.00000E+00
    0.31226E+07        -0.49572E+08         0.00000E+00
    0.00000E+00         0.00000E+00        -0.42842E+08
 
   -0.42635E+08         0.31909E+07         0.00000E+00
    0.31909E+07        -0.49551E+08         0.00000E+00
    0.00000E+00         0.00000E+00        -0.42842E+08
 
   -0.42680E+08         0.32592E+07         0.00000E+00
    0.32592E+07        -0.49530E+08         0.00000E+00
    0.00000E+00         0.00000E+00        -0.42842E+08
 
   -0.42726E+08         0.33274E+07         0.00000E+00
    0.33274E+07        -0.49508E+08         0.00000E+00
    0.00000E+00         0.00000E+00        -0.42842E+08
 
   -0.42772E+08         0.33955E+07         0.00000E+00
    0.33955E+07        -0.49486E+08         0.00000E+00
    0.00000E+00         0.00000E+00        -0.42842E+08
 
   -0.42819E+08         0.34636E+07         0.00000E+00
    0.34636E+07        -0.49463E+08         0.00000E+00
    0.00000E+00         0.00000E+00        -0.42842E+08
 
   -0.40604E+08         0.37824E+05         0.00000E+00
    0.37824E+05        -0.50000E+08         0.00000E+00
    0.00000E+00         0.00000E+00        -0.42507E+08
 
   -0.40636E+08         0.11286E+06         0.00000E+00
    0.11286E+06        -0.50000E+08         0.00000E+00
    0.00000E+00         0.00000E+00        -0.42507E+08
 
   -0.40669E+08         0.18767E+06         0.00000E+00
    0.18767E+06        -0.49999E+08         0.00000E+00
    0.00000E+00         0.00000E+00        -0.42507E+08
 
   -0.40701E+08         0.26229E+06         0.00000E+00
    0.26229E+06        -0.49998E+08         0.00000E+00
    0.00000E+00         0.00000E+00        -0.42507E+08
 
   -0.40734E+08         0.33671E+06         0.00000E+00
    0.33671E+06        -0.49996E+08         0.00000E+00
    0.00000E+00         0.00000E+00        -0.42506E+08
 
   -0.40767E+08         0.41094E+06         0.00000E+00
    0.41094E+06        -0.49994E+08         0.00000E+00
    0.00000E+00         0.00000E+00        -0.42506E+08
 
   -0.40800E+08         0.48499E+06         0.00000E+00
    0.48499E+06        -0.49992E+08         0.00000E+00
    0.00000E+00         0.00000E+00        -0.42506E+08
 
   -0.40833E+08         0.55886E+06         0.00000E+00
    0.55886E+06        -0.49989E+08         0.00000E+00
    0.00000E+00         0.00000E+00        -0.42506E+08
 
   -0.40867E+08         0.63258E+06         0.00000E+00
    0.63258E+06        -0.49986E+08         0.00000E+00
    0.00000E+00         0.00000E+00        -0.42506E+08
 
   -0.40901E+08         0.70613E+06         0.00000E+00
    0.70613E+06        -0.49982E+08         0.00000E+00
    0.00000E+00         0.00000E+00        -0.42506E+08
 
   -0.40934E+08         0.77953E+06         0.00000E+00
    0.77953E+06        -0.49978E+08         0.00000E+00
    0.00000E+00         0.00000E+00        -0.42505E+08
 
   -0.40969E+08         0.85280E+06         0.00000E+00
    0.85280E+06        -0.49974E+08         0.00000E+00
    0.00000E+00         0.00000E+00        -0.42505E+08
 
   -0.41003E+08         0.92592E+06         0.00000E+00
    0.92592E+06        -0.49969E+08         0.00000E+00
    0.00000E+00         0.00000E+00        -0.42505E+08
 
   -0.41037E+08         0.99891E+06         0.00000E+00
    0.99891E+06        -0.49964E+08         0.00000E+00
    0.00000E+00         0.00000E+00        -0.42505E+08
 
   -0.41072E+08         0.10718E+07         0.00000E+00
    0.10718E+07        -0.49958E+08         0.00000E+00
    0.00000E+00         0.00000E+00        -0.42504E+08
 
   -0.41107E+08         0.11445E+07         0.00000E+00
    0.11445E+07        -0.49952E+08         0.00000E+00
    0.00000E+00         0.00000E+00        -0.42504E+08
 
   -0.41142E+08         0.12172E+07         0.00000E+00
    0.12172E+07        -0.49945E+08         0.00000E+00
    0.00000E+00         0.00000E+00        -0.42504E+08
 
   -0.41177E+08         0.12897E+07         0.00000E+00
    0.12897E+07        -0.49938E+08         0.00000E+00
    0.00000E+00         0.00000E+00        -0.42503E+08
 
   -0.41213E+08         0.13622E+07         0.00000E+00
    0.13622E+07        -0.49931E+08         0.00000E+00
    0.00000E+00         0.00000E+00        -0.42503E+08
 
   -0.41248E+08         0.14345E+07         0.00000E+00
    0.14345E+07        -0.49923E+08         0.00000E+00
    0.00000E+00         0.00000E+00        -0.42503E+08
 
   -0.41284E+08         0.15068E+07         0.00000E+00
    0.15068E+07        -0.49915E+08         0.00000E+00
    0.00000E+00         0.00000E+00        -0.42502E+08
 
   -0.41321E+08         0.15789E+07         0.00000E+00
    0.15789E+07        -0.49906E+08         0.00000E+00
    0.00000E+00         0.00000E+00        -0.42502E+08
 
   -0.41357E+08         0.16510E+07         0.00000E+00
    0.16510E+07        -0.49897E+08         0.00000E+00
    0.00000E+00         0.00000E+00        -0.42501E+08
 
   -0.41394E+08         0.17230E+07         0.00000E+00
    0.17230E+07        -0.49888E+08         0.00000E+00
    0.00000E+00         0.00000E+00        -0.42501E+08
 
   -0.41431E+08         0.17950E+07         0.00000E+00
    0.17950E+07        -0.49878E+08         0.00000E+00
    0.00000E+00         0.00000E+00        -0.42501E+08
 
   -0.41468E+08         0.18669E+07         0.00000E+00
    0.18669E+07        -0.49867E+08         0.00000E+00
    0.00000E+00         0.00000E+00        -0.42500E+08
 
   -0.41506E+08         0.19387E+07         0.00000E+00
    0.19387E+07        -0.49856E+08         0.00000E+00
    0.00000E+00         0.00000E+00        -0.42500E+08
 
   -0.41544E+08         0.20105E+07         0.00000E+00
    0.20105E+07        -0.49845E+08         0.00000E+00
    0.00000E+00         0.00000E+00        -0.42500E+08
 
   -0.41582E+08         0.20822E+07         0.00000E+00
    0.20822E+07        -0.49833E+08         0.00000E+00
    0.00000E+00         0.00000E+00        -0.42499E+08
 
   -0.41621E+08         0.21539E+07         0.00000E+00
    0.21539E+07        -0.49821E+08         0.00000E+00
    0.00000E+00         0.00000E+00        -0.42499E+08
 
   -0.41659E+08         0.22255E+07         0.00000E+00
    0.22255E+07        -0.49808E+08         0.00000E+00
    0.00000E+00         0.00000E+00        -0.42499E+08
 
   -0.41699E+08         0.22971E+07         0.00000E+00
    0.22971E+07        -0.49795E+08         0.00000E+00
    0.00000E+00         0.00000E+00        -0.42498E+08
 
   -0.41738E+08         0.23686E+07         0.00000E+00
    0.23686E+07        -0.49781E+08         0.00000E+00
    0.00000E+00         0.00000E+00        -0.42498E+08
 
   -0.41778E+08         0.24401E+07         0.00000E+00
    0.24401E+07        -0.49767E+08         0.00000E+00
    0.00000E+00         0.00000E+00        -0.42498E+08
 
   -0.41818E+08         0.25116E+07         0.00000E+00
    0.25116E+07        -0.49752E+08         0.00000E+00
    0.00000E+00         0.00000E+00        -0.42497E+08
 
   -0.41859E+08         0.25830E+07         0.00000E+00
    0.25830E+07        -0.49736E+08         0.00000E+00
    0.00000E+00         0.00000E+00        -0.42497E+08
 
   -0.41900E+08         0.26544E+07         0.00000E+00
    0.26544E+07        -0.49721E+08         0.00000E+00
    0.00000E+00         0.00000E+00        -0.42497E+08
 
   -0.41941E+08         0.27258E+07         0.00000E+00
    0.27258E+07        -0.49704E+08         0.00000E+00
    0.00000E+00         0.00000E+00        -0.42496E+08
 
   -0.41983E+08         0.27971E+07         0.00000E+00
    0.27971E+07        -0.49688E+08         0.00000E+00
    0.00000E+00         0.00000E+00        -0.42496E+08
 
   -0.42025E+08         0.28684E+07         0.00000E+00
    0.28684E+07        -0.49670E+08         0.00000E+00
    0.00000E+00         0.00000E+00        -0.42496E+08
 
   -0.42067E+08         0.29397E+07         0.00000E+00
    0.29397E+07        -0.49652E+08         0.00000E+00
    0.00000E+00         0.00000E+00        -0.42496E+08
 
   -0.42110E+08         0.30109E+07         0.00000E+00
    0.30109E+07        -0.49634E+08         0.00000E+00
    0.00000E+00         0.00000E+00        -0.42495E+08
 
   -0.42154E+08         0.30822E+07         0.00000E+00
    0.30822E+07        -0.49615E+08         0.00000E+00
    0.00000E+00         0.00000E+00        -0.42495E+08
 
   -0.42198E+08         0.31534E+07         0.00000E+00
    0.31534E+07        -0.49595E+08         0.00000E+00
    0.00000E+00         0.00000E+00        -0.42495E+08
 
   -0.42242E+08         0.32246E+07         0.00000E+00
    0.32246E+07        -0.49575E+08         0.00000E+00
    0.00000E+00         0.00000E+00        -0.42495E+08
 
   -0.42287E+08         0.32957E+07         0.00000E+00
    0.32957E+07        -0.49554E+08         0.00000E+00
    0.00000E+00         0.00000E+00        -0.42495E+08
 
   -0.42332E+08         0.33668E+07         0.00000E+00
    0.33668E+07        -0.49533E+08         0.00000E+00
    0.00000E+00         0.00000E+00        -0.42495E+08
 
   -0.42378E+08         0.34379E+07         0.00000E+00
    0.34379E+07        -0.49511E+08         0.00000E+00
    0.00000E+00         0.00000E+00        -0.42495E+08
 
   -0.42424E+08         0.35090E+07         0.00000E+00
    0.35090E+07        -0.49489E+08         0.00000E+00
    0.00000E+00         0.00000E+00        -0.42494E+08
 
   -0.42471E+08         0.35800E+07         0.00000E+00
    0.35800E+07        -0.49466E+08         0.00000E+00
    0.00000E+00         0.00000E+00        -0.42494E+08
 
   -0.40223E+08         0.38799E+05         0.00000E+00
    0.38799E+05        -0.50000E+08         0.00000E+00
    0.00000E+00         0.00000E+00        -0.42146E+08
 
   -0.40257E+08         0.11579E+06         0.00000E+00
    0.11579E+06        -0.50000E+08         0.00000E+00
    0.00000E+00         0.00000E+00        -0.42146E+08
 
   -0.40290E+08         0.19256E+06         0.00000E+00
    0.19256E+06        -0.49999E+08         0.00000E+00
    0.00000E+00         0.00000E+00        -0.42146E+08
 
   -0.40324E+08         0.26914E+06         0.00000E+00
    0.26914E+06        -0.49998E+08         0.00000E+00
    0.00000E+00         0.00000E+00        -0.42145E+08
 
   -0.40357E+08         0.34553E+06         0.00000E+00
    0.34553E+06        -0.49996E+08         0.00000E+00
    0.00000E+00         0.00000E+00        -0.42145E+08
 
   -0.40391E+08         0.42173E+06         0.00000E+00
    0.42173E+06        -0.49994E+08         0.00000E+00
    0.00000E+00         0.00000E+00        -0.42145E+08
 
   -0.40425E+08         0.49776E+06         0.00000E+00
    0.49776E+06        -0.49992E+08         0.00000E+00
    0.00000E+00         0.00000E+00        -0.42145E+08
 
   -0.40459E+08         0.57363E+06         0.00000E+00
    0.57363E+06        -0.49989E+08         0.00000E+00
    0.00000E+00         0.00000E+00        -0.42145E+08
 
   -0.40494E+08         0.64934E+06         0.00000E+00
    0.64934E+06        -0.49986E+08         0.00000E+00
    0.00000E+00         0.00000E+00        -0.42145E+08
 
   -0.40528E+08         0.72491E+06         0.00000E+00
    0.72491E+06        -0.49982E+08         0.00000E+00
    0.00000E+00         0.00000E+00        -0.42144E+08
 
   -0.40563E+08         0.80033E+06         0.00000E+00
    0.80033E+06        -0.49979E+08         0.00000E+00
    0.00000E+00         0.00000E+00        -0.42144E+08
 
   -0.40597E+08         0.87562E+06         0.00000E+00
    0.87562E+06        -0.49974E+08         0.00000E+00
    0.00000E+00         0.00000E+00        -0.42144E+08
 
   -0.40632E+08         0.95079E+06         0.00000E+00
    0.95079E+06        -0.49970E+08         0.00000E+00
    0.00000E+00         0.00000E+00        -0.42143E+08
 
   -0.40667E+08         0.10258E+07         0.00000E+00
    0.10258E+07        -0.49964E+08         0.00000E+00
    0.00000E+00         0.00000E+00        -0.42143E+08
 
   -0.40703E+08         0.11008E+07         0.00000E+00
    0.11008E+07        -0.49959E+08         0.00000E+00
    0.00000E+00         0.00000E+00        -0.42143E+08
 
   -0.40738E+08         0.11756E+07         0.00000E+00
    0.11756E+07        -0.49953E+08         0.00000E+00
    0.00000E+00         0.00000E+00        -0.42142E+08
 
   -0.40774E+08         0.12504E+07         0.00000E+00
    0.12504E+07        -0.49947E+08         0.00000E+00
    0.00000E+00         0.00000E+00        -0.42142E+08
 
   -0.40809E+08         0.13250E+07         0.00000E+00
    0.13250E+07        -0.49940E+08         0.00000E+00
    0.00000E+00         0.00000E+00        -0.42142E+08
 
   -0.40845E+08         0.13996E+07         0.00000E+00
    0.13996E+07        -0.49933E+08         0.00000E+00
    0.00000E+00         0.00000E+00        -0.42141E+08
 
   -0.40881E+08         0.14741E+07         0.00000E+00
    0.14741E+07        -0.49925E+08         0.00000E+00
    0.00000E+00         0.00000E+00        -0.42141E+08
 
   -0.40918E+08         0.15486E+07         0.00000E+00
    0.15486E+07        -0.49917E+08         0.00000E+00
    0.00000E+00         0.00000E+00        -0.42141E+08
 
   -0.40954E+08         0.16229E+07         0.00000E+00
    0.16229E+07        -0.49908E+08         0.00000E+00
    0.00000E+00         0.00000E+00        -0.42140E+08
 
   -0.40991E+08         0.16973E+07         0.00000E+00
    0.16973E+07        -0.49900E+08         0.00000E+00
    0.00000E+00         0.00000E+00        -0.42140E+08
 
   -0.41028E+08         0.17715E+07         0.00000E+00
    0.17715E+07        -0.49890E+08         0.00000E+00
    0.00000E+00         0.00000E+00        -0.42139E+08
 
   -0.41066E+08         0.18458E+07         0.00000E+00
    0.18458E+07        -0.49880E+08         0.00000E+00
    0.00000E+00         0.00000E+00        -0.42139E+08
 
   -0.41103E+08         0.19199E+07         0.00000E+00
    0.19199E+07        -0.49870E+08         0.00000E+00
    0.00000E+00         0.00000E+00        -0.42138E+08
 
   -0.41141E+08         0.19941E+07         0.00000E+00
    0.19941E+07        -0.49859E+08         0.00000E+00
    0.00000E+00         0.00000E+00        -0.42138E+08
 
   -0.41179E+08         0.20682E+07         0.00000E+00
    0.20682E+07        -0.49848E+08         0.00000E+00
    0.00000E+00         0.00000E+00        -0.42138E+08
 
   -0.41218E+08         0.21423E+07         0.00000E+00
    0.21423E+07        -0.49836E+08         0.00000E+00
    0.00000E+00         0.00000E+00        -0.42137E+08
 
   -0.41256E+08         0.22163E+07         0.00000E+00
    0.22163E+07        -0.49824E+08         0.00000E+00
    0.00000E+00         0.00000E+00        -0.42137E+08
 
   -0.41295E+08         0.22904E+07         0.00000E+00
    0.22904E+07        -0.49812E+08         0.00000E+00
    0.00000E+00         0.00000E+00        -0.42136E+08
 
   -0.41335E+08         0.23644E+07         0.00000E+00
    0.23644E+07        -0.49798E+08         0.00000E+00
    0.00000E+00         0.00000E+00        -0.42136E+08
 
   -0.41374E+08         0.24384E+07         0.00000E+00
    0.24384E+07        -0.49785E+08         0.00000E+00
    0.00000E+00         0.00000E+00        -0.42136E+08
 
   -0.41414E+08         0.25124E+07         0.00000E+00
    0.25124E+07        -0.49771E+08         0.00000E+00
    0.00000E+00         0.00000E+00        -0.42135E+08
 
   -0.41455E+08         0.25864E+07         0.00000E+00
    0.25864E+07        -0.49756E+08         0.00000E+00
    0.00000E+00         0.00000E+00        -0.42135E+08
 
   -0.41495E+08         0.26604E+07         0.00000E+00
    0.26604E+07        -0.49741E+08         0.00000E+00
    0.00000E+00         0.00000E+00        -0.42135E+08
 
   -0.41536E+08         0.27344E+07         0.00000E+00
    0.27344E+07        -0.49725E+08         0.00000E+00
    0.00000E+00         0.00000E+00        -0.42134E+08
 
   -0.41578E+08         0.28084E+07         0.00000E+00
    0.28084E+07        -0.49709E+08         0.00000E+00
    0.00000E+00         0.00000E+00        -0.42134E+08
 
   -0.41619E+08         0.28824E+07         0.00000E+00
    0.28824E+07        -0.49692E+08         0.00000E+00
    0.00000E+00         0.00000E+00        -0.42134E+08
 
   -0.41662E+08         0.29564E+07         0.00000E+00
    0.29564E+07        -0.49675E+08         0.00000E+00
    0.00000E+00         0.00000E+00        -0.42133E+08
 
   -0.41704E+08         0.30304E+07         0.00000E+00
    0.30304E+07        -0.49657E+08         0.00000E+00
    0.00000E+00         0.00000E+00        -0.42133E+08
 
   -0.41747E+08         0.31044E+07         0.00000E+00
    0.31044E+07        -0.49639E+08         0.00000E+00
    0.00000E+00         0.00000E+00        -0.42133E+08
 
   -0.41791E+08         0.31785E+07         0.00000E+00
    0.31785E+07        -0.49620E+08         0.00000E+00
    0.00000E+00         0.00000E+00        -0.42133E+08
 
   -0.41835E+08         0.32525E+07         0.00000E+00
    0.32525E+07        -0.49600E+08         0.00000E+00
    0.00000E+00         0.00000E+00        -0.42132E+08
 
   -0.41879E+08         0.33265E+07         0.00000E+00
    0.33265E+07        -0.49580E+08         0.00000E+00
    0.00000E+00         0.00000E+00        -0.42132E+08
 
   -0.41924E+08         0.34006E+07         0.00000E+00
    0.34006E+07        -0.49560E+08         0.00000E+00
    0.00000E+00         0.00000E+00        -0.42132E+08
 
   -0.41969E+08         0.34746E+07         0.00000E+00
    0.34746E+07        -0.49538E+08         0.00000E+00
    0.00000E+00         0.00000E+00        -0.42132E+08
 
   -0.42015E+08         0.35487E+07         0.00000E+00
    0.35487E+07        -0.49516E+08         0.00000E+00
    0.00000E+00         0.00000E+00        -0.42132E+08
 
   -0.42061E+08         0.36228E+07         0.00000E+00
    0.36228E+07        -0.49494E+08         0.00000E+00
    0.00000E+00         0.00000E+00        -0.42132E+08
 
   -0.42108E+08         0.36969E+07         0.00000E+00
    0.36969E+07        -0.49471E+08         0.00000E+00
    0.00000E+00         0.00000E+00        -0.42132E+08
 
   -0.39833E+08         0.39742E+05         0.00000E+00
    0.39742E+05        -0.50000E+08         0.00000E+00
    0.00000E+00         0.00000E+00        -0.41769E+08
 
   -0.39867E+08         0.11862E+06         0.00000E+00
    0.11862E+06        -0.50000E+08         0.00000E+00
    0.00000E+00         0.00000E+00        -0.41769E+08
 
   -0.39902E+08         0.19730E+06         0.00000E+00
    0.19730E+06        -0.49999E+08         0.00000E+00
    0.00000E+00         0.00000E+00        -0.41769E+08
 
   -0.39937E+08         0.27578E+06         0.00000E+00
    0.27578E+06        -0.49998E+08         0.00000E+00
    0.00000E+00         0.00000E+00        -0.41769E+08
 
   -0.39971E+08         0.35408E+06         0.00000E+00
    0.35408E+06        -0.49996E+08         0.00000E+00
    0.00000E+00         0.00000E+00        -0.41769E+08
 
   -0.40006E+08         0.43220E+06         0.00000E+00
    0.43220E+06        -0.49994E+08         0.00000E+00
    0.00000E+00         0.00000E+00        -0.41768E+08
 
   -0.40041E+08         0.51016E+06         0.00000E+00
    0.51016E+06        -0.49992E+08         0.00000E+00
    0.00000E+00         0.00000E+00        -0.41768E+08
 
   -0.40076E+08         0.58796E+06         0.00000E+00
    0.58796E+06        -0.49989E+08         0.00000E+00
    0.00000E+00         0.00000E+00        -0.41768E+08
 
   -0.40111E+08         0.66562E+06         0.00000E+00
    0.66562E+06        -0.49986E+08         0.00000E+00
    0.00000E+00         0.00000E+00        -0.41768E+08
 
   -0.40146E+08         0.74314E+06         0.00000E+00
    0.74314E+06        -0.49983E+08         0.00000E+00
    0.00000E+00         0.00000E+00        -0.41768E+08
 
   -0.40181E+08         0.82054E+06         0.00000E+00
    0.82054E+06        -0.49979E+08         0.00000E+00
    0.00000E+00         0.00000E+00        -0.41767E+08
 
   -0.40216E+08         0.89782E+06         0.00000E+00
    0.89782E+06        -0.49975E+08         0.00000E+00
    0.00000E+00         0.00000E+00        -0.41767E+08
 
   -0.40252E+08         0.97500E+06         0.00000E+00
    0.97500E+06        -0.49971E+08         0.00000E+00
    0.00000E+00         0.00000E+00        -0.41767E+08
 
   -0.40287E+08         0.10521E+07         0.00000E+00
    0.10521E+07        -0.49966E+08         0.00000E+00
    0.00000E+00         0.00000E+00        -0.41766E+08
 
   -0.40323E+08         0.11290E+07         0.00000E+00
    0.11290E+07        -0.49960E+08         0.00000E+00
    0.00000E+00         0.00000E+00        -0.41766E+08
 
   -0.40359E+08         0.12059E+07         0.00000E+00
    0.12059E+07        -0.49954E+08         0.00000E+00
    0.00000E+00         0.00000E+00        -0.41765E+08
 
   -0.40395E+08         0.12828E+07         0.00000E+00
    0.12828E+07        -0.49948E+08         0.00000E+00
    0.00000E+00         0.00000E+00        -0.41765E+08
 
   -0.40431E+08         0.13595E+07         0.00000E+00
    0.13595E+07        -0.49942E+08         0.00000E+00
    0.00000E+00         0.00000E+00        -0.41765E+08
 
   -0.40467E+08         0.14362E+07         0.00000E+00
    0.14362E+07        -0.49935E+08         0.00000E+00
    0.00000E+00         0.00000E+00        -0.41764E+08
 
   -0.40504E+08         0.15129E+07         0.00000E+00
    0.15129E+07        -0.49927E+08         0.00000E+00
    0.00000E+00         0.00000E+00        -0.41764E+08
 
   -0.40540E+08         0.15895E+07         0.00000E+00
    0.15895E+07        -0.49919E+08         0.00000E+00
    0.00000E+00         0.00000E+00        -0.41763E+08
 
   -0.40577E+08         0.16660E+07         0.00000E+00
    0.16660E+07        -0.49911E+08         0.00000E+00
    0.00000E+00         0.00000E+00        -0.41763E+08
 
   -0.40614E+08         0.17425E+07         0.00000E+00
    0.17425E+07        -0.49902E+08         0.00000E+00
    0.00000E+00         0.00000E+00        -0.41762E+08
 
   -0.40652E+08         0.18190E+07         0.00000E+00
    0.18190E+07        -0.49893E+08         0.00000E+00
    0.00000E+00         0.00000E+00        -0.41762E+08
 
   -0.40689E+08         0.18955E+07         0.00000E+00
    0.18955E+07        -0.49884E+08         0.00000E+00
    0.00000E+00         0.00000E+00        -0.41761E+08
 
   -0.40727E+08         0.19720E+07         0.00000E+00
    0.19720E+07        -0.49874E+08         0.00000E+00
    0.00000E+00         0.00000E+00        -0.41761E+08
 
   -0.40765E+08         0.20484E+07         0.00000E+00
    0.20484E+07        -0.49863E+08         0.00000E+00
    0.00000E+00         0.00000E+00        -0.41760E+08
 
   -0.40803E+08         0.21249E+07         0.00000E+00
    0.21249E+07        -0.49852E+08         0.00000E+00
    0.00000E+00         0.00000E+00        -0.41760E+08
 
   -0.40841E+08         0.22014E+07         0.00000E+00
    0.22014E+07        -0.49841E+08         0.00000E+00
    0.00000E+00         0.00000E+00        -0.41760E+08
 
   -0.40880E+08         0.22778E+07         0.00000E+00
    0.22778E+07        -0.49829E+08         0.00000E+00
    0.00000E+00         0.00000E+00        -0.41759E+08
 
   -0.40919E+08         0.23543E+07         0.00000E+00
    0.23543E+07        -0.49816E+08         0.00000E+00
    0.00000E+00         0.00000E+00        -0.41759E+08
 
   -0.40958E+08         0.24308E+07         0.00000E+00
    0.24308E+07        -0.49803E+08         0.00000E+00
    0.00000E+00         0.00000E+00        -0.41758E+08
 
   -0.40998E+08         0.25073E+07         0.00000E+00
    0.25073E+07        -0.49790E+08         0.00000E+00
    0.00000E+00         0.00000E+00        -0.41758E+08
 
   -0.41038E+08         0.25838E+07         0.00000E+00
    0.25838E+07        -0.49776E+08         0.00000E+00
    0.00000E+00         0.00000E+00        -0.41757E+08
 
   -0.41078E+08         0.26604E+07         0.00000E+00
    0.26604E+07        -0.49762E+08         0.00000E+00
    0.00000E+00         0.00000E+00        -0.41757E+08
 
   -0.41119E+08         0.27370E+07         0.00000E+00
    0.27370E+07        -0.49747E+08         0.00000E+00
    0.00000E+00         0.00000E+00        -0.41757E+08
 
   -0.41160E+08         0.28136E+07         0.00000E+00
    0.28136E+07        -0.49731E+08         0.00000E+00
    0.00000E+00         0.00000E+00        -0.41756E+08
 
   -0.41201E+08         0.28903E+07         0.00000E+00
    0.28903E+07        -0.49715E+08         0.00000E+00
    0.00000E+00         0.00000E+00        -0.41756E+08
 
   -0.41243E+08         0.29670E+07         0.00000E+00
    0.29670E+07        -0.49699E+08         0.00000E+00
    0.00000E+00         0.00000E+00        -0.41755E+08
 
   -0.41285E+08         0.30437E+07         0.00000E+00
    0.30437E+07        -0.49682E+08         0.00000E+00
    0.00000E+00         0.00000E+00        -0.41755E+08
 
   -0.41327E+08         0.31205E+07         0.00000E+00
    0.31205E+07        -0.49664E+08         0.00000E+00
    0.00000E+00         0.00000E+00        -0.41755E+08
 
   -0.41370E+08         0.31973E+07         0.00000E+00
    0.31973E+07        -0.49646E+08         0.00000E+00
    0.00000E+00         0.00000E+00        -0.41755E+08
 
   -0.41413E+08         0.32742E+07         0.00000E+00
    0.32742E+07        -0.49627E+08         0.00000E+00
    0.00000E+00         0.00000E+00        -0.41754E+08
 
   -0.41457E+08         0.33511E+07         0.00000E+00
    0.33511E+07        -0.49608E+08         0.00000E+00
    0.00000E+00         0.00000E+00        -0.41754E+08
 
   -0.41501E+08         0.34281E+07         0.00000E+00
    0.34281E+07        -0.49588E+08         0.00000E+00
    0.00000E+00         0.00000E+00        -0.41754E+08
 
   -0.41546E+08         0.35051E+07         0.00000E+00
    0.35051E+07        -0.49567E+08         0.00000E+00
    0.00000E+00         0.00000E+00        -0.41754E+08
 
   -0.41591E+08         0.35821E+07         0.00000E+00
    0.35821E+07        -0.49546E+08         0.00000E+00
    0.00000E+00         0.00000E+00        -0.41754E+08
 
   -0.41637E+08         0.36592E+07         0.00000E+00
    0.36592E+07        -0.49524E+08         0.00000E+00
    0.00000E+00         0.00000E+00        -0.41754E+08
 
   -0.41683E+08         0.37364E+07         0.00000E+00
    0.37364E+07        -0.49502E+08         0.00000E+00
    0.00000E+00         0.00000E+00        -0.41753E+08
 
   -0.41730E+08         0.38136E+07         0.00000E+00
    0.38136E+07        -0.49479E+08         0.00000E+00
    0.00000E+00         0.00000E+00        -0.41753E+08
 
   -0.39433E+08         0.40643E+05         0.00000E+00
    0.40643E+05        -0.50000E+08         0.00000E+00
    0.00000E+00         0.00000E+00        -0.41376E+08
 
   -0.39469E+08         0.12134E+06         0.00000E+00
    0.12134E+06        -0.50000E+08         0.00000E+00
    0.00000E+00         0.00000E+00        -0.41376E+08
 
   -0.39504E+08         0.20183E+06         0.00000E+00
    0.20183E+06        -0.49999E+08         0.00000E+00
    0.00000E+00         0.00000E+00        -0.41376E+08
 
   -0.39540E+08         0.28214E+06         0.00000E+00
    0.28214E+06        -0.49998E+08         0.00000E+00
    0.00000E+00         0.00000E+00        -0.41376E+08
 
   -0.39575E+08         0.36228E+06         0.00000E+00
    0.36228E+06        -0.49996E+08         0.00000E+00
    0.00000E+00         0.00000E+00        -0.41376E+08
 
   -0.39611E+08         0.44225E+06         0.00000E+00
    0.44225E+06        -0.49995E+08         0.00000E+00
    0.00000E+00         0.00000E+00        -0.41376E+08
 
   -0.39647E+08         0.52206E+06         0.00000E+00
    0.52206E+06        -0.49992E+08         0.00000E+00
    0.00000E+00         0.00000E+00        -0.41376E+08
 
   -0.39682E+08         0.60174E+06         0.00000E+00
    0.60174E+06        -0.49990E+08         0.00000E+00
    0.00000E+00         0.00000E+00        -0.41375E+08
 
   -0.39718E+08         0.68128E+06         0.00000E+00
    0.68128E+06        -0.49987E+08         0.00000E+00
    0.00000E+00         0.00000E+00        -0.41375E+08
 
   -0.39754E+08         0.76070E+06         0.00000E+00
    0.76070E+06        -0.49984E+08         0.00000E+00
    0.00000E+00         0.00000E+00        -0.41375E+08
 
   -0.39789E+08         0.84001E+06         0.00000E+00
    0.84001E+06        -0.49980E+08         0.00000E+00
    0.00000E+00         0.00000E+00        -0.41374E+08
 
   -0.39825E+08         0.91922E+06         0.00000E+00
    0.91922E+06        -0.49976E+08         0.00000E+00
    0.00000E+00         0.00000E+00        -0.41374E+08
 
   -0.39861E+08         0.99834E+06         0.00000E+00
    0.99834E+06        -0.49972E+08         0.00000E+00
    0.00000E+00         0.00000E+00        -0.41374E+08
 
   -0.39897E+08         0.10774E+07         0.00000E+00
    0.10774E+07        -0.49967E+08         0.00000E+00
    0.00000E+00         0.00000E+00        -0.41373E+08
 
   -0.39933E+08         0.11563E+07         0.00000E+00
    0.11563E+07        -0.49962E+08         0.00000E+00
    0.00000E+00         0.00000E+00        -0.41373E+08
 
   -0.39969E+08         0.12352E+07         0.00000E+00
    0.12352E+07        -0.49956E+08         0.00000E+00
    0.00000E+00         0.00000E+00        -0.41372E+08
 
   -0.40006E+08         0.13141E+07         0.00000E+00
    0.13141E+07        -0.49950E+08         0.00000E+00
    0.00000E+00         0.00000E+00        -0.41372E+08
 
   -0.40042E+08         0.13929E+07         0.00000E+00
    0.13929E+07        -0.49944E+08         0.00000E+00
    0.00000E+00         0.00000E+00        -0.41371E+08
 
   -0.40079E+08         0.14717E+07         0.00000E+00
    0.14717E+07        -0.49937E+08         0.00000E+00
    0.00000E+00         0.00000E+00        -0.41371E+08
 
   -0.40115E+08         0.15504E+07         0.00000E+00
    0.15504E+07        -0.49930E+08         0.00000E+00
    0.00000E+00         0.00000E+00        -0.41370E+08
 
   -0.40152E+08         0.16291E+07         0.00000E+00
    0.16291E+07        -0.49923E+08         0.00000E+00
    0.00000E+00         0.00000E+00        -0.41370E+08
 
   -0.40189E+08         0.17078E+07         0.00000E+00
    0.17078E+07        -0.49915E+08         0.00000E+00
    0.00000E+00         0.00000E+00        -0.41369E+08
 
   -0.40226E+08         0.17866E+07         0.00000E+00
    0.17866E+07        -0.49906E+08         0.00000E+00
    0.00000E+00         0.00000E+00        -0.41369E+08
 
   -0.40263E+08         0.18653E+07         0.00000E+00
    0.18653E+07        -0.49897E+08         0.00000E+00
    0.00000E+00         0.00000E+00        -0.41368E+08
 
   -0.40301E+08         0.19440E+07         0.00000E+00
    0.19440E+07        -0.49888E+08         0.00000E+00
    0.00000E+00         0.00000E+00        -0.41368E+08
 
   -0.40339E+08         0.20227E+07         0.00000E+00
    0.20227E+07        -0.49878E+08         0.00000E+00
    0.00000E+00         0.00000E+00        -0.41367E+08
 
   -0.40377E+08         0.21015E+07         0.00000E+00
    0.21015E+07        -0.49868E+08         0.00000E+00
    0.00000E+00         0.00000E+00        -0.41367E+08
 
   -0.40415E+08         0.21802E+07         0.00000E+00
    0.21802E+07        -0.49857E+08         0.00000E+00
    0.00000E+00         0.00000E+00        -0.41366E+08
 
   -0.40453E+08         0.22591E+07         0.00000E+00
    0.22591E+07        -0.49846E+08         0.00000E+00
    0.00000E+00         0.00000E+00        -0.41366E+08
 
   -0.40492E+08         0.23379E+07         0.00000E+00
    0.23379E+07        -0.49835E+08         0.00000E+00
    0.00000E+00         0.00000E+00        -0.41365E+08
 
   -0.40530E+08         0.24168E+07         0.00000E+00
    0.24168E+07        -0.49822E+08         0.00000E+00
    0.00000E+00         0.00000E+00        -0.41365E+08
 
   -0.40570E+08         0.24958E+07         0.00000E+00
    0.24958E+07        -0.49810E+08         0.00000E+00
    0.00000E+00         0.00000E+00        -0.41364E+08
 
   -0.40609E+08         0.25748E+07         0.00000E+00
    0.25748E+07        -0.49797E+08         0.00000E+00
    0.00000E+00         0.00000E+00        -0.41364E+08
 
   -0.40649E+08         0.26539E+07         0.00000E+00
    0.26539E+07        -0.49783E+08         0.00000E+00
    0.00000E+00         0.00000E+00        -0.41363E+08
 
   -0.40689E+08         0.27330E+07         0.00000E+00
    0.27330E+07        -0.49769E+08         0.00000E+00
    0.00000E+00         0.00000E+00        -0.41363E+08
 
   -0.40729E+08         0.28122E+07         0.00000E+00
    0.28122E+07        -0.49754E+08         0.00000E+00
    0.00000E+00         0.00000E+00        -0.41363E+08
 
   -0.40770E+08         0.28915E+07         0.00000E+00
    0.28915E+07        -0.49739E+08         0.00000E+00
    0.00000E+00         0.00000E+00        -0.41362E+08
 
   -0.40811E+08         0.29708E+07         0.00000E+00
    0.29708E+07        -0.49724E+08         0.00000E+00
    0.00000E+00         0.00000E+00        -0.41362E+08
 
   -0.40852E+08         0.30503E+07         0.00000E+00
    0.30503E+07        -0.49707E+08         0.00000E+00
    0.00000E+00         0.00000E+00        -0.41361E+08
 
   -0.40894E+08         0.31298E+07         0.00000E+00
    0.31298E+07        -0.49691E+08         0.00000E+00
    0.00000E+00         0.00000E+00        -0.41361E+08
 
   -0.40936E+08         0.32094E+07         0.00000E+00
    0.32094E+07        -0.49673E+08         0.00000E+00
    0.00000E+00         0.00000E+00        -0.41361E+08
 
   -0.40979E+08         0.32890E+07         0.00000E+00
    0.32890E+07        -0.49655E+08         0.00000E+00
    0.00000E+00         0.00000E+00        -0.41360E+08
 
   -0.41022E+08         0.33688E+07         0.00000E+00
    0.33688E+07        -0.49637E+08         0.00000E+00
    0.00000E+00         0.00000E+00        -0.41360E+08
 
   -0.41065E+08         0.34487E+07         0.00000E+00
    0.34487E+07        -0.49618E+08         0.00000E+00
    0.00000E+00         0.00000E+00        -0.41360E+08
 
   -0.41109E+08         0.35286E+07         0.00000E+00
    0.35286E+07        -0.49598E+08         0.00000E+00
    0.00000E+00         0.00000E+00        -0.41360E+08
 
   -0.41153E+08         0.36086E+07         0.00000E+00
    0.36086E+07        -0.49578E+08         0.00000E+00
    0.00000E+00         0.00000E+00        -0.41359E+08
 
   -0.41198E+08         0.36888E+07         0.00000E+00
    0.36888E+07        -0.49557E+08         0.00000E+00
    0.00000E+00         0.00000E+00        -0.41359E+08
 
   -0.41244E+08         0.37690E+07         0.00000E+00
    0.37690E+07        -0.49535E+08         0.00000E+00
    0.00000E+00         0.00000E+00        -0.41359E+08
 
   -0.41289E+08         0.38493E+07         0.00000E+00
    0.38493E+07        -0.49513E+08         0.00000E+00
    0.00000E+00         0.00000E+00        -0.41359E+08
 
   -0.41336E+08         0.39297E+07         0.00000E+00
    0.39297E+07        -0.49490E+08         0.00000E+00
    0.00000E+00         0.00000E+00        -0.41359E+08
 
   -0.39025E+08         0.41494E+05         0.00000E+00
    0.41494E+05        -0.50000E+08         0.00000E+00
    0.00000E+00         0.00000E+00        -0.40967E+08
 
   -0.39062E+08         0.12391E+06         0.00000E+00
    0.12391E+06        -0.50000E+08         0.00000E+00
    0.00000E+00         0.00000E+00        -0.40967E+08
 
   -0.39098E+08         0.20613E+06         0.00000E+00
    0.20613E+06        -0.49999E+08         0.00000E+00
    0.00000E+00         0.00000E+00        -0.40967E+08
 
   -0.39134E+08         0.28818E+06         0.00000E+00
    0.28818E+06        -0.49998E+08         0.00000E+00
    0.00000E+00         0.00000E+00        -0.40967E+08
 
   -0.39171E+08         0.37006E+06         0.00000E+00
    0.37006E+06        -0.49997E+08         0.00000E+00
    0.00000E+00         0.00000E+00        -0.40967E+08
 
   -0.39207E+08         0.45179E+06         0.00000E+00
    0.45179E+06        -0.49995E+08         0.00000E+00
    0.00000E+00         0.00000E+00        -0.40967E+08
 
   -0.39243E+08         0.53337E+06         0.00000E+00
    0.53337E+06        -0.49993E+08         0.00000E+00
    0.00000E+00         0.00000E+00        -0.40966E+08
 
   -0.39280E+08         0.61483E+06         0.00000E+00
    0.61483E+06        -0.49991E+08         0.00000E+00
    0.00000E+00         0.00000E+00        -0.40966E+08
 
   -0.39316E+08         0.69618E+06         0.00000E+00
    0.69618E+06        -0.49988E+08         0.00000E+00
    0.00000E+00         0.00000E+00        -0.40966E+08
 
   -0.39352E+08         0.77741E+06         0.00000E+00
    0.77741E+06        -0.49985E+08         0.00000E+00
    0.00000E+00         0.00000E+00        -0.40966E+08
 
   -0.39388E+08         0.85856E+06         0.00000E+00
    0.85856E+06        -0.49981E+08         0.00000E+00
    0.00000E+00         0.00000E+00        -0.40965E+08
 
   -0.39425E+08         0.93962E+06         0.00000E+00
    0.93962E+06        -0.49978E+08         0.00000E+00
    0.00000E+00         0.00000E+00        -0.40965E+08
 
   -0.39461E+08         0.10206E+07         0.00000E+00
    0.10206E+07        -0.49973E+08         0.00000E+00
    0.00000E+00         0.00000E+00        -0.40964E+08
 
   -0.39497E+08         0.11016E+07         0.00000E+00
    0.11016E+07        -0.49969E+08         0.00000E+00
    0.00000E+00         0.00000E+00        -0.40964E+08
 
   -0.39534E+08         0.11824E+07         0.00000E+00
    0.11824E+07        -0.49964E+08         0.00000E+00
    0.00000E+00         0.00000E+00        -0.40963E+08
 
   -0.39570E+08         0.12633E+07         0.00000E+00
    0.12633E+07        -0.49959E+08         0.00000E+00
    0.00000E+00         0.00000E+00        -0.40963E+08
 
   -0.39607E+08         0.13441E+07         0.00000E+00
    0.13441E+07        -0.49953E+08         0.00000E+00
    0.00000E+00         0.00000E+00        -0.40962E+08
 
   -0.39643E+08         0.14249E+07         0.00000E+00
    0.14249E+07        -0.49947E+08         0.00000E+00
    0.00000E+00         0.00000E+00        -0.40962E+08
 
   -0.39680E+08         0.15057E+07         0.00000E+00
    0.15057E+07        -0.49941E+08         0.00000E+00
    0.00000E+00         0.00000E+00        -0.40961E+08
 
   -0.39716E+08         0.15865E+07         0.00000E+00
    0.15865E+07        -0.49934E+08         0.00000E+00
    0.00000E+00         0.00000E+00        -0.40961E+08
 
   -0.39753E+08         0.16673E+07         0.00000E+00
    0.16673E+07        -0.49926E+08         0.00000E+00
    0.00000E+00         0.00000E+00        -0.40960E+08
 
   -0.39790E+08         0.17481E+07         0.00000E+00
    0.17481E+07        -0.49919E+08         0.00000E+00
    0.00000E+00         0.00000E+00        -0.40960E+08
 
   -0.39827E+08         0.18289E+07         0.00000E+00
    0.18289E+07        -0.49911E+08         0.00000E+00
    0.00000E+00         0.00000E+00        -0.40959E+08
 
   -0.39864E+08         0.19098E+07         0.00000E+00
    0.19098E+07        -0.49902E+08         0.00000E+00
    0.00000E+00         0.00000E+00        -0.40959E+08
 
   -0.39902E+08         0.19907E+07         0.00000E+00
    0.19907E+07        -0.49893E+08         0.00000E+00
    0.00000E+00         0.00000E+00        -0.40958E+08
 
   -0.39939E+08         0.20717E+07         0.00000E+00
    0.20717E+07        -0.49884E+08         0.00000E+00
    0.00000E+00         0.00000E+00        -0.40957E+08
 
   -0.39977E+08         0.21527E+07         0.00000E+00
    0.21527E+07        -0.49874E+08         0.00000E+00
    0.00000E+00         0.00000E+00        -0.40957E+08
 
   -0.40015E+08         0.22338E+07         0.00000E+00
    0.22338E+07        -0.49864E+08         0.00000E+00
    0.00000E+00         0.00000E+00        -0.40956E+08
 
   -0.40053E+08         0.23150E+07         0.00000E+00
    0.23150E+07        -0.49853E+08         0.00000E+00
    0.00000E+00         0.00000E+00        -0.40956E+08
 
   -0.40091E+08         0.23962E+07         0.00000E+00
    0.23962E+07        -0.49842E+08         0.00000E+00
    0.00000E+00         0.00000E+00        -0.40955E+08
 
   -0.40130E+08         0.24776E+07         0.00000E+00
    0.24776E+07        -0.49830E+08         0.00000E+00
    0.00000E+00         0.00000E+00        -0.40955E+08
 
   -0.40168E+08         0.25590E+07         0.00000E+00
    0.25590E+07        -0.49818E+08         0.00000E+00
    0.00000E+00         0.00000E+00        -0.40954E+08
 
   -0.40207E+08         0.26405E+07         0.00000E+00
    0.26405E+07        -0.49805E+08         0.00000E+00
    0.00000E+00         0.00000E+00        -0.40954E+08
 
   -0.40247E+08         0.27221E+07         0.00000E+00
    0.27221E+07        -0.49792E+08         0.00000E+00
    0.00000E+00         0.00000E+00        -0.40953E+08
 
   -0.40286E+08         0.28038E+07         0.00000E+00
    0.28038E+07        -0.49778E+08         0.00000E+00
    0.00000E+00         0.00000E+00        -0.40953E+08
 
   -0.40326E+08         0.28856E+07         0.00000E+00
    0.28856E+07        -0.49764E+08         0.00000E+00
    0.00000E+00         0.00000E+00        -0.40952E+08
 
   -0.40366E+08         0.29676E+07         0.00000E+00
    0.29676E+07        -0.49749E+08         0.00000E+00
    0.00000E+00         0.00000E+00        -0.40952E+08
 
   -0.40407E+08         0.30496E+07         0.00000E+00
    0.30496E+07        -0.49734E+08         0.00000E+00
    0.00000E+00         0.00000E+00        -0.40951E+08
 
   -0.40448E+08         0.31318E+07         0.00000E+00
    0.31318E+07        -0.49718E+08         0.00000E+00
    0.00000E+00         0.00000E+00        -0.40951E+08
 
   -0.40489E+08         0.32141E+07         0.00000E+00
    0.32141E+07        -0.49702E+08         0.00000E+00
    0.00000E+00         0.00000E+00        -0.40950E+08
 
   -0.40531E+08         0.32966E+07         0.00000E+00
    0.32966E+07        -0.49685E+08         0.00000E+00
    0.00000E+00         0.00000E+00        -0.40950E+08
 
   -0.40573E+08         0.33791E+07         0.00000E+00
    0.33791E+07        -0.49667E+08         0.00000E+00
    0.00000E+00         0.00000E+00        -0.40950E+08
 
   -0.40615E+08         0.34618E+07         0.00000E+00
    0.34618E+07        -0.49649E+08         0.00000E+00
    0.00000E+00         0.00000E+00        -0.40949E+08
 
   -0.40658E+08         0.35447E+07         0.00000E+00
    0.35447E+07        -0.49631E+08         0.00000E+00
    0.00000E+00         0.00000E+00        -0.40949E+08
 
   -0.40701E+08         0.36277E+07         0.00000E+00
    0.36277E+07        -0.49611E+08         0.00000E+00
    0.00000E+00         0.00000E+00        -0.40949E+08
 
   -0.40745E+08         0.37108E+07         0.00000E+00
    0.37108E+07        -0.49591E+08         0.00000E+00
    0.00000E+00         0.00000E+00        -0.40949E+08
 
   -0.40789E+08         0.37940E+07         0.00000E+00
    0.37940E+07        -0.49571E+08         0.00000E+00
    0.00000E+00         0.00000E+00        -0.40949E+08
 
   -0.40834E+08         0.38774E+07         0.00000E+00
    0.38774E+07        -0.49550E+08         0.00000E+00
    0.00000E+00         0.00000E+00        -0.40948E+08
 
   -0.40879E+08         0.39610E+07         0.00000E+00
    0.39610E+07        -0.49528E+08         0.00000E+00
    0.00000E+00         0.00000E+00        -0.40948E+08
 
   -0.40925E+08         0.40446E+07         0.00000E+00
    0.40446E+07        -0.49505E+08         0.00000E+00
    0.00000E+00         0.00000E+00        -0.40948E+08
 
   -0.38608E+08         0.42287E+05         0.00000E+00
    0.42287E+05        -0.50000E+08         0.00000E+00
    0.00000E+00         0.00000E+00        -0.40542E+08
 
   -0.38646E+08         0.12631E+06         0.00000E+00
    0.12631E+06        -0.50000E+08         0.00000E+00
    0.00000E+00         0.00000E+00        -0.40541E+08
 
   -0.38683E+08         0.21015E+06         0.00000E+00
    0.21015E+06        -0.49999E+08         0.00000E+00
    0.00000E+00         0.00000E+00        -0.40541E+08
 
   -0.38720E+08         0.29382E+06         0.00000E+00
    0.29382E+06        -0.49998E+08         0.00000E+00
    0.00000E+00         0.00000E+00        -0.40541E+08
 
   -0.38758E+08         0.37733E+06         0.00000E+00
    0.37733E+06        -0.49997E+08         0.00000E+00
    0.00000E+00         0.00000E+00        -0.40541E+08
 
   -0.38795E+08         0.46071E+06         0.00000E+00
    0.46071E+06        -0.49995E+08         0.00000E+00
    0.00000E+00         0.00000E+00        -0.40541E+08
 
   -0.38832E+08         0.54397E+06         0.00000E+00
    0.54397E+06        -0.49993E+08         0.00000E+00
    0.00000E+00         0.00000E+00        -0.40541E+08
 
   -0.38868E+08         0.62711E+06         0.00000E+00
    0.62711E+06        -0.49991E+08         0.00000E+00
    0.00000E+00         0.00000E+00        -0.40540E+08
 
   -0.38905E+08         0.71016E+06         0.00000E+00
    0.71016E+06        -0.49989E+08         0.00000E+00
    0.00000E+00         0.00000E+00        -0.40540E+08
 
   -0.38942E+08         0.79312E+06         0.00000E+00
    0.79312E+06        -0.49986E+08         0.00000E+00
    0.00000E+00         0.00000E+00        -0.40539E+08
 
   -0.38978E+08         0.87600E+06         0.00000E+00
    0.87600E+06        -0.49983E+08         0.00000E+00
    0.00000E+00         0.00000E+00        -0.40539E+08
 
   -0.39015E+08         0.95883E+06         0.00000E+00
    0.95883E+06        -0.49979E+08         0.00000E+00
    0.00000E+00         0.00000E+00        -0.40539E+08
 
   -0.39052E+08         0.10416E+07         0.00000E+00
    0.10416E+07        -0.49975E+08         0.00000E+00
    0.00000E+00         0.00000E+00        -0.40538E+08
 
   -0.39088E+08         0.11244E+07         0.00000E+00
    0.11244E+07        -0.49971E+08         0.00000E+00
    0.00000E+00         0.00000E+00        -0.40538E+08
 
   -0.39125E+08         0.12071E+07         0.00000E+00
    0.12071E+07        -0.49966E+08         0.00000E+00
    0.00000E+00         0.00000E+00        -0.40537E+08
 
   -0.39161E+08         0.12898E+07         0.00000E+00
    0.12898E+07        -0.49961E+08         0.00000E+00
    0.00000E+00         0.00000E+00        -0.40537E+08
 
   -0.39198E+08         0.13725E+07         0.00000E+00
    0.13725E+07        -0.49956E+08         0.00000E+00
    0.00000E+00         0.00000E+00        -0.40536E+08
 
   -0.39234E+08         0.14552E+07         0.00000E+00
    0.14552E+07        -0.49950E+08         0.00000E+00
    0.00000E+00         0.00000E+00        -0.40536E+08
 
   -0.39271E+08         0.15380E+07         0.00000E+00
    0.15380E+07        -0.49944E+08         0.00000E+00
    0.00000E+00         0.00000E+00        -0.40535E+08
 
   -0.39307E+08         0.16207E+07         0.00000E+00
    0.16207E+07        -0.49938E+08         0.00000E+00
    0.00000E+00         0.00000E+00        -0.40534E+08
 
   -0.39344E+08         0.17036E+07         0.00000E+00
    0.17036E+07        -0.49931E+08         0.00000E+00
    0.00000E+00         0.00000E+00        -0.40534E+08
 
   -0.39381E+08         0.17864E+07         0.00000E+00
    0.17864E+07        -0.49924E+08         0.00000E+00
    0.00000E+00         0.00000E+00        -0.40533E+08
 
   -0.39418E+08         0.18694E+07         0.00000E+00
    0.18694E+07        -0.49916E+08         0.00000E+00
    0.00000E+00         0.00000E+00        -0.40532E+08
 
   -0.39455E+08         0.19524E+07         0.00000E+00
    0.19524E+07        -0.49908E+08         0.00000E+00
    0.00000E+00         0.00000E+00        -0.40532E+08
 
   -0.39492E+08         0.20354E+07         0.00000E+00
    0.20354E+07        -0.49900E+08         0.00000E+00
    0.00000E+00         0.00000E+00        -0.40531E+08
 
   -0.39529E+08         0.21186E+07         0.00000E+00
    0.21186E+07        -0.49891E+08         0.00000E+00
    0.00000E+00         0.00000E+00        -0.40531E+08
 
   -0.39566E+08         0.22019E+07         0.00000E+00
    0.22019E+07        -0.49881E+08         0.00000E+00
    0.00000E+00         0.00000E+00        -0.40530E+08
 
   -0.39603E+08         0.22852E+07         0.00000E+00
    0.22852E+07        -0.49872E+08         0.00000E+00
    0.00000E+00         0.00000E+00        -0.40529E+08
 
   -0.39641E+08         0.23687E+07         0.00000E+00
    0.23687E+07        -0.49861E+08         0.00000E+00
    0.00000E+00         0.00000E+00        -0.40529E+08
 
   -0.39679E+08         0.24523E+07         0.00000E+00
    0.24523E+07        -0.49851E+08         0.00000E+00
    0.00000E+00         0.00000E+00        -0.40528E+08
 
   -0.39717E+08         0.25360E+07         0.00000E+00
    0.25360E+07        -0.49839E+08         0.00000E+00
    0.00000E+00         0.00000E+00        -0.40528E+08
 
   -0.39755E+08         0.26199E+07         0.00000E+00
    0.26199E+07        -0.49828E+08         0.00000E+00
    0.00000E+00         0.00000E+00        -0.40527E+08
 
   -0.39793E+08         0.27039E+07         0.00000E+00
    0.27039E+07        -0.49816E+08         0.00000E+00
    0.00000E+00         0.00000E+00        -0.40526E+08
 
   -0.39832E+08         0.27880E+07         0.00000E+00
    0.27880E+07        -0.49803E+08         0.00000E+00
    0.00000E+00         0.00000E+00        -0.40526E+08
 
   -0.39871E+08         0.28723E+07         0.00000E+00
    0.28723E+07        -0.49790E+08         0.00000E+00
    0.00000E+00         0.00000E+00        -0.40525E+08
 
   -0.39910E+08         0.29568E+07         0.00000E+00
    0.29568E+07        -0.49776E+08         0.00000E+00
    0.00000E+00         0.00000E+00        -0.40525E+08
 
   -0.39950E+08         0.30414E+07         0.00000E+00
    0.30414E+07        -0.49762E+08         0.00000E+00
    0.00000E+00         0.00000E+00        -0.40524E+08
 
   -0.39989E+08         0.31262E+07         0.00000E+00
    0.31262E+07        -0.49747E+08         0.00000E+00
    0.00000E+00         0.00000E+00        -0.40524E+08
 
   -0.40030E+08         0.32111E+07         0.00000E+00
    0.32111E+07        -0.49732E+08         0.00000E+00
    0.00000E+00         0.00000E+00        -0.40523E+08
 
   -0.40070E+08         0.32962E+07         0.00000E+00
    0.32962E+07        -0.49716E+08         0.00000E+00
    0.00000E+00         0.00000E+00        -0.40523E+08
 
   -0.40111E+08         0.33815E+07         0.00000E+00
    0.33815E+07        -0.49699E+08         0.00000E+00
    0.00000E+00         0.00000E+00        -0.40523E+08
 
   -0.40152E+08         0.34670E+07         0.00000E+00
    0.34670E+07        -0.49682E+08         0.00000E+00
    0.00000E+00         0.00000E+00        -0.40522E+08
 
   -0.40194E+08         0.35527E+07         0.00000E+00
    0.35527E+07        -0.49665E+08         0.00000E+00
    0.00000E+00         0.00000E+00        -0.40522E+08
 
   -0.40236E+08         0.36385E+07         0.00000E+00
    0.36385E+07        -0.49647E+08         0.00000E+00
    0.00000E+00         0.00000E+00        -0.40522E+08
 
   -0.40278E+08         0.37246E+07         0.00000E+00
    0.37246E+07        -0.49628E+08         0.00000E+00
    0.00000E+00         0.00000E+00        -0.40521E+08
 
   -0.40321E+08         0.38108E+07         0.00000E+00
    0.38108E+07        -0.49608E+08         0.00000E+00
    0.00000E+00         0.00000E+00        -0.40521E+08
 
   -0.40365E+08         0.38973E+07         0.00000E+00
    0.38973E+07        -0.49588E+08         0.00000E+00
    0.00000E+00         0.00000E+00        -0.40521E+08
 
   -0.40409E+08         0.39839E+07         0.00000E+00
    0.39839E+07        -0.49568E+08         0.00000E+00
    0.00000E+00         0.00000E+00        -0.40521E+08
 
   -0.40453E+08         0.40707E+07         0.00000E+00
    0.40707E+07        -0.49546E+08         0.00000E+00
    0.00000E+00         0.00000E+00        -0.40521E+08
 
   -0.40498E+08         0.41578E+07         0.00000E+00
    0.41578E+07        -0.49524E+08         0.00000E+00
    0.00000E+00         0.00000E+00        -0.40521E+08
 
   -0.38184E+08         0.43009E+05         0.00000E+00
    0.43009E+05        -0.50000E+08         0.00000E+00
    0.00000E+00         0.00000E+00        -0.40098E+08
 
   -0.38223E+08         0.12850E+06         0.00000E+00
    0.12850E+06        -0.50000E+08         0.00000E+00
    0.00000E+00         0.00000E+00        -0.40098E+08
 
   -0.38261E+08         0.21382E+06         0.00000E+00
    0.21382E+06        -0.49999E+08         0.00000E+00
    0.00000E+00         0.00000E+00        -0.40098E+08
 
   -0.38299E+08         0.29898E+06         0.00000E+00
    0.29898E+06        -0.49998E+08         0.00000E+00
    0.00000E+00         0.00000E+00        -0.40098E+08
 
   -0.38336E+08         0.38401E+06         0.00000E+00
    0.38401E+06        -0.49997E+08         0.00000E+00
    0.00000E+00         0.00000E+00        -0.40098E+08
 
   -0.38374E+08         0.46892E+06         0.00000E+00
    0.46892E+06        -0.49996E+08         0.00000E+00
    0.00000E+00         0.00000E+00        -0.40098E+08
 
   -0.38412E+08         0.55371E+06         0.00000E+00
    0.55371E+06        -0.49994E+08         0.00000E+00
    0.00000E+00         0.00000E+00        -0.40097E+08
 
   -0.38449E+08         0.63842E+06         0.00000E+00
    0.63842E+06        -0.49992E+08         0.00000E+00
    0.00000E+00         0.00000E+00        -0.40097E+08
 
   -0.38486E+08         0.72305E+06         0.00000E+00
    0.72305E+06        -0.49990E+08         0.00000E+00
    0.00000E+00         0.00000E+00        -0.40097E+08
 
   -0.38523E+08         0.80761E+06         0.00000E+00
    0.80761E+06        -0.49987E+08         0.00000E+00
    0.00000E+00         0.00000E+00        -0.40096E+08
 
   -0.38560E+08         0.89213E+06         0.00000E+00
    0.89213E+06        -0.49984E+08         0.00000E+00
    0.00000E+00         0.00000E+00        -0.40096E+08
 
   -0.38597E+08         0.97661E+06         0.00000E+00
    0.97661E+06        -0.49981E+08         0.00000E+00
    0.00000E+00         0.00000E+00        -0.40095E+08
 
   -0.38634E+08         0.10611E+07         0.00000E+00
    0.10611E+07        -0.49977E+08         0.00000E+00
    0.00000E+00         0.00000E+00        -0.40095E+08
 
   -0.38670E+08         0.11455E+07         0.00000E+00
    0.11455E+07        -0.49974E+08         0.00000E+00
    0.00000E+00         0.00000E+00        -0.40094E+08
 
   -0.38707E+08         0.12300E+07         0.00000E+00
    0.12300E+07        -0.49969E+08         0.00000E+00
    0.00000E+00         0.00000E+00        -0.40094E+08
 
   -0.38743E+08         0.13145E+07         0.00000E+00
    0.13145E+07        -0.49965E+08         0.00000E+00
    0.00000E+00         0.00000E+00        -0.40093E+08
 
   -0.38780E+08         0.13990E+07         0.00000E+00
    0.13990E+07        -0.49960E+08         0.00000E+00
    0.00000E+00         0.00000E+00        -0.40093E+08
 
   -0.38816E+08         0.14835E+07         0.00000E+00
    0.14835E+07        -0.49955E+08         0.00000E+00
    0.00000E+00         0.00000E+00        -0.40092E+08
 
   -0.38852E+08         0.15681E+07         0.00000E+00
    0.15681E+07        -0.49949E+08         0.00000E+00
    0.00000E+00         0.00000E+00        -0.40091E+08
 
   -0.38889E+08         0.16528E+07         0.00000E+00
    0.16528E+07        -0.49943E+08         0.00000E+00
    0.00000E+00         0.00000E+00        -0.40091E+08
 
   -0.38925E+08         0.17376E+07         0.00000E+00
    0.17376E+07        -0.49937E+08         0.00000E+00
    0.00000E+00         0.00000E+00        -0.40090E+08
 
   -0.38961E+08         0.18224E+07         0.00000E+00
    0.18224E+07        -0.49930E+08         0.00000E+00
    0.00000E+00         0.00000E+00        -0.40089E+08
 
   -0.38998E+08         0.19074E+07         0.00000E+00
    0.19074E+07        -0.49923E+08         0.00000E+00
    0.00000E+00         0.00000E+00        -0.40089E+08
 
   -0.39034E+08         0.19924E+07         0.00000E+00
    0.19924E+07        -0.49915E+08         0.00000E+00
    0.00000E+00         0.00000E+00        -0.40088E+08
 
   -0.39071E+08         0.20776E+07         0.00000E+00
    0.20776E+07        -0.49907E+08         0.00000E+00
    0.00000E+00         0.00000E+00        -0.40087E+08
 
   -0.39107E+08         0.21629E+07         0.00000E+00
    0.21629E+07        -0.49899E+08         0.00000E+00
    0.00000E+00         0.00000E+00        -0.40087E+08
 
   -0.39144E+08         0.22483E+07         0.00000E+00
    0.22483E+07        -0.49890E+08         0.00000E+00
    0.00000E+00         0.00000E+00        -0.40086E+08
 
   -0.39181E+08         0.23339E+07         0.00000E+00
    0.23339E+07        -0.49881E+08         0.00000E+00
    0.00000E+00         0.00000E+00        -0.40085E+08
 
   -0.39218E+08         0.24197E+07         0.00000E+00
    0.24197E+07        -0.49871E+08         0.00000E+00
    0.00000E+00         0.00000E+00        -0.40085E+08
 
   -0.39255E+08         0.25056E+07         0.00000E+00
    0.25056E+07        -0.49861E+08         0.00000E+00
    0.00000E+00         0.00000E+00        -0.40084E+08
 
   -0.39292E+08         0.25917E+07         0.00000E+00
    0.25917E+07        -0.49851E+08         0.00000E+00
    0.00000E+00         0.00000E+00        -0.40083E+08
 
   -0.39329E+08         0.26779E+07         0.00000E+00
    0.26779E+07        -0.49840E+08         0.00000E+00
    0.00000E+00         0.00000E+00        -0.40083E+08
 
   -0.39367E+08         0.27644E+07         0.00000E+00
    0.27644E+07        -0.49828E+08         0.00000E+00
    0.00000E+00         0.00000E+00        -0.40082E+08
 
   -0.39405E+08         0.28511E+07         0.00000E+00
    0.28511E+07        -0.49816E+08         0.00000E+00
    0.00000E+00         0.00000E+00        -0.40081E+08
 
   -0.39443E+08         0.29379E+07         0.00000E+00
    0.29379E+07        -0.49803E+08         0.00000E+00
    0.00000E+00         0.00000E+00        -0.40081E+08
 
   -0.39481E+08         0.30250E+07         0.00000E+00
    0.30250E+07        -0.49790E+08         0.00000E+00
    0.00000E+00         0.00000E+00        -0.40080E+08
 
   -0.39519E+08         0.31122E+07         0.00000E+00
    0.31122E+07        -0.49777E+08         0.00000E+00
    0.00000E+00         0.00000E+00        -0.40080E+08
 
   -0.39558E+08         0.31997E+07         0.00000E+00
    0.31997E+07        -0.49763E+08         0.00000E+00
    0.00000E+00         0.00000E+00        -0.40079E+08
 
   -0.39597E+08         0.32875E+07         0.00000E+00
    0.32875E+07        -0.49748E+08         0.00000E+00
    0.00000E+00         0.00000E+00        -0.40079E+08
 
   -0.39637E+08         0.33754E+07         0.00000E+00
    0.33754E+07        -0.49733E+08         0.00000E+00
    0.00000E+00         0.00000E+00        -0.40078E+08
 
   -0.39677E+08         0.34636E+07         0.00000E+00
    0.34636E+07        -0.49717E+08         0.00000E+00
    0.00000E+00         0.00000E+00        -0.40078E+08
 
   -0.39717E+08         0.35520E+07         0.00000E+00
    0.35520E+07        -0.49701E+08         0.00000E+00
    0.00000E+00         0.00000E+00        -0.40078E+08
 
   -0.39757E+08         0.36407E+07         0.00000E+00
    0.36407E+07        -0.49684E+08         0.00000E+00
    0.00000E+00         0.00000E+00        -0.40077E+08
 
   -0.39798E+08         0.37296E+07         0.00000E+00
    0.37296E+07        -0.49666E+08         0.00000E+00
    0.00000E+00         0.00000E+00        -0.40077E+08
 
   -0.39840E+08         0.38188E+07         0.00000E+00
    0.38188E+07        -0.49648E+08         0.00000E+00
    0.00000E+00         0.00000E+00        -0.40077E+08
 
   -0.39882E+08         0.39082E+07         0.00000E+00
    0.39082E+07        -0.49629E+08         0.00000E+00
    0.00000E+00         0.00000E+00        -0.40076E+08
 
   -0.39924E+08         0.39978E+07         0.00000E+00
    0.39978E+07        -0.49610E+08         0.00000E+00
    0.00000E+00         0.00000E+00        -0.40076E+08
 
   -0.39967E+08         0.40878E+07         0.00000E+00
    0.40878E+07        -0.49589E+08         0.00000E+00
    0.00000E+00         0.00000E+00        -0.40076E+08
 
   -0.40010E+08         0.41779E+07         0.00000E+00
    0.41779E+07        -0.49569E+08         0.00000E+00
    0.00000E+00         0.00000E+00        -0.40076E+08
 
   -0.40054E+08         0.42684E+07         0.00000E+00
    0.42684E+07        -0.49547E+08         0.00000E+00
    0.00000E+00         0.00000E+00        -0.40076E+08
 
   -0.37753E+08         0.43648E+05         0.00000E+00
    0.43648E+05        -0.50000E+08         0.00000E+00
    0.00000E+00         0.00000E+00        -0.39638E+08
 
   -0.37792E+08         0.13045E+06         0.00000E+00
    0.13045E+06        -0.50000E+08         0.00000E+00
    0.00000E+00         0.00000E+00        -0.39638E+08
 
   -0.37831E+08         0.21709E+06         0.00000E+00
    0.21709E+06        -0.49999E+08         0.00000E+00
    0.00000E+00         0.00000E+00        -0.39638E+08
 
   -0.37870E+08         0.30360E+06         0.00000E+00
    0.30360E+06        -0.49999E+08         0.00000E+00
    0.00000E+00         0.00000E+00        -0.39638E+08
 
   -0.37908E+08         0.38998E+06         0.00000E+00
    0.38998E+06        -0.49998E+08         0.00000E+00
    0.00000E+00         0.00000E+00        -0.39637E+08
 
   -0.37946E+08         0.47627E+06         0.00000E+00
    0.47627E+06        -0.49996E+08         0.00000E+00
    0.00000E+00         0.00000E+00        -0.39637E+08
 
   -0.37984E+08         0.56246E+06         0.00000E+00
    0.56246E+06        -0.49995E+08         0.00000E+00
    0.00000E+00         0.00000E+00        -0.39637E+08
 
   -0.38022E+08         0.64858E+06         0.00000E+00
    0.64858E+06        -0.49993E+08         0.00000E+00
    0.00000E+00         0.00000E+00        -0.39636E+08
 
   -0.38059E+08         0.73465E+06         0.00000E+00
    0.73465E+06        -0.49991E+08         0.00000E+00
    0.00000E+00         0.00000E+00        -0.39636E+08
 
   -0.38097E+08         0.82069E+06         0.00000E+00
    0.82069E+06        -0.49989E+08         0.00000E+00
    0.00000E+00         0.00000E+00        -0.39635E+08
 
   -0.38134E+08         0.90670E+06         0.00000E+00
    0.90670E+06        -0.49986E+08         0.00000E+00
    0.00000E+00         0.00000E+00        -0.39635E+08
 
   -0.38171E+08         0.99270E+06         0.00000E+00
    0.99270E+06        -0.49983E+08         0.00000E+00
    0.00000E+00         0.00000E+00        -0.39634E+08
 
   -0.38207E+08         0.10787E+07         0.00000E+00
    0.10787E+07        -0.49980E+08         0.00000E+00
    0.00000E+00         0.00000E+00        -0.39634E+08
 
   -0.38244E+08         0.11648E+07         0.00000E+00
    0.11648E+07        -0.49976E+08         0.00000E+00
    0.00000E+00         0.00000E+00        -0.39633E+08
 
   -0.38280E+08         0.12508E+07         0.00000E+00
    0.12508E+07        -0.49973E+08         0.00000E+00
    0.00000E+00         0.00000E+00        -0.39633E+08
 
   -0.38316E+08         0.13370E+07         0.00000E+00
    0.13370E+07        -0.49969E+08         0.00000E+00
    0.00000E+00         0.00000E+00        -0.39632E+08
 
   -0.38353E+08         0.14232E+07         0.00000E+00
    0.14232E+07        -0.49964E+08         0.00000E+00
    0.00000E+00         0.00000E+00        -0.39631E+08
 
   -0.38389E+08         0.15094E+07         0.00000E+00
    0.15094E+07        -0.49959E+08         0.00000E+00
    0.00000E+00         0.00000E+00        -0.39631E+08
 
   -0.38425E+08         0.15958E+07         0.00000E+00
    0.15958E+07        -0.49954E+08         0.00000E+00
    0.00000E+00         0.00000E+00        -0.39630E+08
 
   -0.38460E+08         0.16823E+07         0.00000E+00
    0.16823E+07        -0.49949E+08         0.00000E+00
    0.00000E+00         0.00000E+00        -0.39629E+08
 
   -0.38496E+08         0.17689E+07         0.00000E+00
    0.17689E+07        -0.49943E+08         0.00000E+00
    0.00000E+00         0.00000E+00        -0.39629E+08
 
   -0.38532E+08         0.18556E+07         0.00000E+00
    0.18556E+07        -0.49937E+08         0.00000E+00
    0.00000E+00         0.00000E+00        -0.39628E+08
 
   -0.38568E+08         0.19425E+07         0.00000E+00
    0.19425E+07        -0.49930E+08         0.00000E+00
    0.00000E+00         0.00000E+00        -0.39627E+08
 
   -0.38604E+08         0.20295E+07         0.00000E+00
    0.20295E+07        -0.49924E+08         0.00000E+00
    0.00000E+00         0.00000E+00        -0.39626E+08
 
   -0.38639E+08         0.21167E+07         0.00000E+00
    0.21167E+07        -0.49916E+08         0.00000E+00
    0.00000E+00         0.00000E+00        -0.39626E+08
 
   -0.38675E+08         0.22041E+07         0.00000E+00
    0.22041E+07        -0.49909E+08         0.00000E+00
    0.00000E+00         0.00000E+00        -0.39625E+08
 
   -0.38711E+08         0.22916E+07         0.00000E+00
    0.22916E+07        -0.49900E+08         0.00000E+00
    0.00000E+00         0.00000E+00        -0.39624E+08
 
   -0.38747E+08         0.23794E+07         0.00000E+00
    0.23794E+07        -0.49892E+08         0.00000E+00
    0.00000E+00         0.00000E+00        -0.39624E+08
 
   -0.38783E+08         0.24674E+07         0.00000E+00
    0.24674E+07        -0.49883E+08         0.00000E+00
    0.00000E+00         0.00000E+00        -0.39623E+08
 
   -0.38819E+08         0.25555E+07         0.00000E+00
    0.25555E+07        -0.49874E+08         0.00000E+00
    0.00000E+00         0.00000E+00        -0.39622E+08
 
   -0.38855E+08         0.26439E+07         0.00000E+00
    0.26439E+07        -0.49864E+08         0.00000E+00
    0.00000E+00         0.00000E+00        -0.39621E+08
 
   -0.38891E+08         0.27326E+07         0.00000E+00
    0.27326E+07        -0.49853E+08         0.00000E+00
    0.00000E+00         0.00000E+00        -0.39621E+08
 
   -0.38928E+08         0.28215E+07         0.00000E+00
    0.28215E+07        -0.49843E+08         0.00000E+00
    0.00000E+00         0.00000E+00        -0.39620E+08
 
   -0.38965E+08         0.29106E+07         0.00000E+00
    0.29106E+07        -0.49831E+08         0.00000E+00
    0.00000E+00         0.00000E+00        -0.39620E+08
 
   -0.39001E+08         0.30000E+07         0.00000E+00
    0.30000E+07        -0.49820E+08         0.00000E+00
    0.00000E+00         0.00000E+00        -0.39619E+08
 
   -0.39038E+08         0.30896E+07         0.00000E+00
    0.30896E+07        -0.49807E+08         0.00000E+00
    0.00000E+00         0.00000E+00        -0.39618E+08
 
   -0.39076E+08         0.31796E+07         0.00000E+00
    0.31796E+07        -0.49795E+08         0.00000E+00
    0.00000E+00         0.00000E+00        -0.39618E+08
 
   -0.39113E+08         0.32698E+07         0.00000E+00
    0.32698E+07        -0.49781E+08         0.00000E+00
    0.00000E+00         0.00000E+00        -0.39617E+08
 
   -0.39151E+08         0.33602E+07         0.00000E+00
    0.33602E+07        -0.49767E+08         0.00000E+00
    0.00000E+00         0.00000E+00        -0.39617E+08
 
   -0.39189E+08         0.34510E+07         0.00000E+00
    0.34510E+07        -0.49753E+08         0.00000E+00
    0.00000E+00         0.00000E+00        -0.39616E+08
 
   -0.39228E+08         0.35421E+07         0.00000E+00
    0.35421E+07        -0.49738E+08         0.00000E+00
    0.00000E+00         0.00000E+00        -0.39616E+08
 
   -0.39267E+08         0.36335E+07         0.00000E+00
    0.36335E+07        -0.49722E+08         0.00000E+00
    0.00000E+00         0.00000E+00        -0.39615E+08
 
   -0.39306E+08         0.37251E+07         0.00000E+00
    0.37251E+07        -0.49706E+08         0.00000E+00
    0.00000E+00         0.00000E+00        -0.39615E+08
 
   -0.39345E+08         0.38171E+07         0.00000E+00
    0.38171E+07        -0.49689E+08         0.00000E+00
    0.00000E+00         0.00000E+00        -0.39615E+08
 
   -0.39385E+08         0.39094E+07         0.00000E+00
    0.39094E+07        -0.49672E+08         0.00000E+00
    0.00000E+00         0.00000E+00        -0.39614E+08
 
   -0.39426E+08         0.40020E+07         0.00000E+00
    0.40020E+07        -0.49654E+08         0.00000E+00
    0.00000E+00         0.00000E+00        -0.39614E+08
 
   -0.39467E+08         0.40950E+07         0.00000E+00
    0.40950E+07        -0.49635E+08         0.00000E+00
    0.00000E+00         0.00000E+00        -0.39614E+08
 
   -0.39508E+08         0.41882E+07         0.00000E+00
    0.41882E+07        -0.49616E+08         0.00000E+00
    0.00000E+00         0.00000E+00        -0.39614E+08
 
   -0.39550E+08         0.42818E+07         0.00000E+00
    0.42818E+07        -0.49596E+08         0.00000E+00
    0.00000E+00         0.00000E+00        -0.39614E+08
 
   -0.39592E+08         0.43757E+07         0.00000E+00
    0.43757E+07        -0.49575E+08         0.00000E+00
    0.00000E+00         0.00000E+00        -0.39614E+08
 
   -0.37316E+08         0.44193E+05         0.00000E+00
    0.44193E+05        -0.50000E+08         0.00000E+00
    0.00000E+00         0.00000E+00        -0.39159E+08
 
   -0.37356E+08         0.13212E+06         0.00000E+00
    0.13212E+06        -0.50000E+08         0.00000E+00
    0.00000E+00         0.00000E+00        -0.39159E+08
 
   -0.37395E+08         0.21991E+06         0.00000E+00
    0.21991E+06        -0.49999E+08         0.00000E+00
    0.00000E+00         0.00000E+00        -0.39159E+08
 
   -0.37435E+08         0.30757E+06         0.00000E+00
    0.30757E+06        -0.49999E+08         0.00000E+00
    0.00000E+00         0.00000E+00        -0.39159E+08
 
   -0.37473E+08         0.39514E+06         0.00000E+00
    0.39514E+06        -0.49998E+08         0.00000E+00
    0.00000E+00         0.00000E+00        -0.39159E+08
 
   -0.37512E+08         0.48262E+06         0.00000E+00
    0.48262E+06        -0.49997E+08         0.00000E+00
    0.00000E+00         0.00000E+00        -0.39158E+08
 
   -0.37550E+08         0.57004E+06         0.00000E+00
    0.57004E+06        -0.49996E+08         0.00000E+00
    0.00000E+00         0.00000E+00        -0.39158E+08
 
   -0.37588E+08         0.65741E+06         0.00000E+00
    0.65741E+06        -0.49994E+08         0.00000E+00
    0.00000E+00         0.00000E+00        -0.39158E+08
 
   -0.37626E+08         0.74476E+06         0.00000E+00
    0.74476E+06        -0.49992E+08         0.00000E+00
    0.00000E+00         0.00000E+00        -0.39157E+08
 
   -0.37663E+08         0.83210E+06         0.00000E+00
    0.83210E+06        -0.49990E+08         0.00000E+00
    0.00000E+00         0.00000E+00        -0.39157E+08
 
   -0.37700E+08         0.91945E+06         0.00000E+00
    0.91945E+06        -0.49988E+08         0.00000E+00
    0.00000E+00         0.00000E+00        -0.39156E+08
 
   -0.37737E+08         0.10068E+07         0.00000E+00
    0.10068E+07        -0.49986E+08         0.00000E+00
    0.00000E+00         0.00000E+00        -0.39156E+08
 
   -0.37773E+08         0.10942E+07         0.00000E+00
    0.10942E+07        -0.49983E+08         0.00000E+00
    0.00000E+00         0.00000E+00        -0.39155E+08
 
   -0.37810E+08         0.11817E+07         0.00000E+00
    0.11817E+07        -0.49980E+08         0.00000E+00
    0.00000E+00         0.00000E+00        -0.39154E+08
 
   -0.37846E+08         0.12693E+07         0.00000E+00
    0.12693E+07        -0.49977E+08         0.00000E+00
    0.00000E+00         0.00000E+00        -0.39154E+08
 
   -0.37882E+08         0.13569E+07         0.00000E+00
    0.13569E+07        -0.49973E+08         0.00000E+00
    0.00000E+00         0.00000E+00        -0.39153E+08
 
   -0.37917E+08         0.14447E+07         0.00000E+00
    0.14447E+07        -0.49969E+08         0.00000E+00
    0.00000E+00         0.00000E+00        -0.39152E+08
 
   -0.37953E+08         0.15325E+07         0.00000E+00
    0.15325E+07        -0.49965E+08         0.00000E+00
    0.00000E+00         0.00000E+00        -0.39152E+08
 
   -0.37988E+08         0.16206E+07         0.00000E+00
    0.16206E+07        -0.49961E+08         0.00000E+00
    0.00000E+00         0.00000E+00        -0.39151E+08
 
   -0.38023E+08         0.17087E+07         0.00000E+00
    0.17087E+07        -0.49956E+08         0.00000E+00
    0.00000E+00         0.00000E+00        -0.39150E+08
 
   -0.38058E+08         0.17970E+07         0.00000E+00
    0.17970E+07        -0.49951E+08         0.00000E+00
    0.00000E+00         0.00000E+00        -0.39150E+08
 
   -0.38093E+08         0.18855E+07         0.00000E+00
    0.18855E+07        -0.49945E+08         0.00000E+00
    0.00000E+00         0.00000E+00        -0.39149E+08
 
   -0.38128E+08         0.19742E+07         0.00000E+00
    0.19742E+07        -0.49939E+08         0.00000E+00
    0.00000E+00         0.00000E+00        -0.39148E+08
 
   -0.38163E+08         0.20631E+07         0.00000E+00
    0.20631E+07        -0.49933E+08         0.00000E+00
    0.00000E+00         0.00000E+00        -0.39147E+08
 
   -0.38198E+08         0.21523E+07         0.00000E+00
    0.21523E+07        -0.49927E+08         0.00000E+00
    0.00000E+00         0.00000E+00        -0.39146E+08
 
   -0.38233E+08         0.22416E+07         0.00000E+00
    0.22416E+07        -0.49920E+08         0.00000E+00
    0.00000E+00         0.00000E+00        -0.39146E+08
 
   -0.38267E+08         0.23312E+07         0.00000E+00
    0.23312E+07        -0.49913E+08         0.00000E+00
    0.00000E+00         0.00000E+00        -0.39145E+08
 
   -0.38302E+08         0.24210E+07         0.00000E+00
    0.24210E+07        -0.49905E+08         0.00000E+00
    0.00000E+00         0.00000E+00        -0.39144E+08
 
   -0.38337E+08         0.25111E+07         0.00000E+00
    0.25111E+07        -0.49897E+08         0.00000E+00
    0.00000E+00         0.00000E+00        -0.39143E+08
 
   -0.38372E+08         0.26015E+07         0.00000E+00
    0.26015E+07        -0.49888E+08         0.00000E+00
    0.00000E+00         0.00000E+00        -0.39143E+08
 
   -0.38407E+08         0.26922E+07         0.00000E+00
    0.26922E+07        -0.49879E+08         0.00000E+00
    0.00000E+00         0.00000E+00        -0.39142E+08
 
   -0.38442E+08         0.27831E+07         0.00000E+00
    0.27831E+07        -0.49870E+08         0.00000E+00
    0.00000E+00         0.00000E+00        -0.39141E+08
 
   -0.38477E+08         0.28744E+07         0.00000E+00
    0.28744E+07        -0.49860E+08         0.00000E+00
    0.00000E+00         0.00000E+00        -0.39140E+08
 
   -0.38512E+08         0.29660E+07         0.00000E+00
    0.29660E+07        -0.49850E+08         0.00000E+00
    0.00000E+00         0.00000E+00        -0.39140E+08
 
   -0.38547E+08         0.30578E+07         0.00000E+00
    0.30578E+07        -0.49839E+08         0.00000E+00
    0.00000E+00         0.00000E+00        -0.39139E+08
 
   -0.38583E+08         0.31500E+07         0.00000E+00
    0.31500E+07        -0.49827E+08         0.00000E+00
    0.00000E+00         0.00000E+00        -0.39138E+08
 
   -0.38619E+08         0.32426E+07         0.00000E+00
    0.32426E+07        -0.49815E+08         0.00000E+00
    0.00000E+00         0.00000E+00        -0.39138E+08
 
   -0.38655E+08         0.33355E+07         0.00000E+00
    0.33355E+07        -0.49803E+08         0.00000E+00
    0.00000E+00         0.00000E+00        -0.39137E+08
 
   -0.38691E+08         0.34287E+07         0.00000E+00
    0.34287E+07        -0.49790E+08         0.00000E+00
    0.00000E+00         0.00000E+00        -0.39137E+08
 
   -0.38728E+08         0.35223E+07         0.00000E+00
    0.35223E+07        -0.49777E+08         0.00000E+00
    0.00000E+00         0.00000E+00        -0.39136E+08
 
   -0.38764E+08         0.36163E+07         0.00000E+00
    0.36163E+07        -0.49763E+08         0.00000E+00
    0.00000E+00         0.00000E+00        -0.39136E+08
 
   -0.38802E+08         0.37106E+07         0.00000E+00
    0.37106E+07        -0.49748E+08         0.00000E+00
    0.00000E+00         0.00000E+00        -0.39135E+08
 
   -0.38839E+08         0.38053E+07         0.00000E+00
    0.38053E+07        -0.49733E+08         0.00000E+00
    0.00000E+00         0.00000E+00        -0.39135E+08
 
   -0.38877E+08         0.39003E+07         0.00000E+00
    0.39003E+07        -0.49717E+08         0.00000E+00
    0.00000E+00         0.00000E+00        -0.39135E+08
 
   -0.38915E+08         0.39958E+07         0.00000E+00
    0.39958E+07        -0.49700E+08         0.00000E+00
    0.00000E+00         0.00000E+00        -0.39134E+08
 
   -0.38954E+08         0.40916E+07         0.00000E+00
    0.40916E+07        -0.49683E+08         0.00000E+00
    0.00000E+00         0.00000E+00        -0.39134E+08
 
   -0.38993E+08         0.41879E+07         0.00000E+00
    0.41879E+07        -0.49665E+08         0.00000E+00
    0.00000E+00         0.00000E+00        -0.39134E+08
 
   -0.39032E+08         0.42845E+07         0.00000E+00
    0.42845E+07        -0.49647E+08         0.00000E+00
    0.00000E+00         0.00000E+00        -0.39134E+08
 
   -0.39073E+08         0.43815E+07         0.00000E+00
    0.43815E+07        -0.49628E+08         0.00000E+00
    0.00000E+00         0.00000E+00        -0.39134E+08
 
   -0.39113E+08         0.44789E+07         0.00000E+00
    0.44789E+07        -0.49608E+08         0.00000E+00
    0.00000E+00         0.00000E+00        -0.39134E+08
 
   -0.36873E+08         0.44627E+05         0.00000E+00
    0.44627E+05        -0.50000E+08         0.00000E+00
    0.00000E+00         0.00000E+00        -0.38663E+08
 
   -0.36914E+08         0.13347E+06         0.00000E+00
    0.13347E+06        -0.50000E+08         0.00000E+00
    0.00000E+00         0.00000E+00        -0.38663E+08
 
   -0.36954E+08         0.22218E+06         0.00000E+00
    0.22218E+06        -0.50000E+08         0.00000E+00
    0.00000E+00         0.00000E+00        -0.38663E+08
 
   -0.36994E+08         0.31080E+06         0.00000E+00
    0.31080E+06        -0.49999E+08         0.00000E+00
    0.00000E+00         0.00000E+00        -0.38662E+08
 
   -0.37033E+08         0.39934E+06         0.00000E+00
    0.39934E+06        -0.49998E+08         0.00000E+00
    0.00000E+00         0.00000E+00        -0.38662E+08
 
   -0.37072E+08         0.48782E+06         0.00000E+00
    0.48782E+06        -0.49998E+08         0.00000E+00
    0.00000E+00         0.00000E+00        -0.38662E+08
 
   -0.37111E+08         0.57627E+06         0.00000E+00
    0.57627E+06        -0.49997E+08         0.00000E+00
    0.00000E+00         0.00000E+00        -0.38661E+08
 
   -0.37149E+08         0.66470E+06         0.00000E+00
    0.66470E+06        -0.49995E+08         0.00000E+00
    0.00000E+00         0.00000E+00        -0.38661E+08
 
   -0.37186E+08         0.75313E+06         0.00000E+00
    0.75313E+06        -0.49994E+08         0.00000E+00
    0.00000E+00         0.00000E+00        -0.38660E+08
 
   -0.37224E+08         0.84159E+06         0.00000E+00
    0.84159E+06        -0.49992E+08         0.00000E+00
    0.00000E+00         0.00000E+00        -0.38660E+08
 
   -0.37260E+08         0.93009E+06         0.00000E+00
    0.93009E+06        -0.49991E+08         0.00000E+00
    0.00000E+00         0.00000E+00        -0.38659E+08
 
   -0.37297E+08         0.10187E+07         0.00000E+00
    0.10187E+07        -0.49989E+08         0.00000E+00
    0.00000E+00         0.00000E+00        -0.38659E+08
 
   -0.37333E+08         0.11073E+07         0.00000E+00
    0.11073E+07        -0.49986E+08         0.00000E+00
    0.00000E+00         0.00000E+00        -0.38658E+08
 
   -0.37369E+08         0.11961E+07         0.00000E+00
    0.11961E+07        -0.49984E+08         0.00000E+00
    0.00000E+00         0.00000E+00        -0.38658E+08
 
   -0.37404E+08         0.12849E+07         0.00000E+00
    0.12849E+07        -0.49981E+08         0.00000E+00
    0.00000E+00         0.00000E+00        -0.38657E+08
 
   -0.37440E+08         0.13739E+07         0.00000E+00
    0.13739E+07        -0.49978E+08         0.00000E+00
    0.00000E+00         0.00000E+00        -0.38656E+08
 
   -0.37475E+08         0.14631E+07         0.00000E+00
    0.14631E+07        -0.49975E+08         0.00000E+00
    0.00000E+00         0.00000E+00        -0.38655E+08
 
   -0.37509E+08         0.15524E+07         0.00000E+00
    0.15524E+07        -0.49972E+08         0.00000E+00
    0.00000E+00         0.00000E+00        -0.38655E+08
 
   -0.37544E+08         0.16419E+07         0.00000E+00
    0.16419E+07        -0.49968E+08         0.00000E+00
    0.00000E+00         0.00000E+00        -0.38654E+08
 
   -0.37578E+08         0.17316E+07         0.00000E+00
    0.17316E+07        -0.49964E+08         0.00000E+00
    0.00000E+00         0.00000E+00        -0.38653E+08
 
   -0.37612E+08         0.18215E+07         0.00000E+00
    0.18215E+07        -0.49959E+08         0.00000E+00
    0.00000E+00         0.00000E+00        -0.38652E+08
 
   -0.37646E+08         0.19117E+07         0.00000E+00
    0.19117E+07        -0.49955E+08         0.00000E+00
    0.00000E+00         0.00000E+00        -0.38651E+08
 
   -0.37680E+08         0.20021E+07         0.00000E+00
    0.20021E+07        -0.49950E+08         0.00000E+00
    0.00000E+00         0.00000E+00        -0.38651E+08
 
   -0.37714E+08         0.20927E+07         0.00000E+00
    0.20927E+07        -0.49945E+08         0.00000E+00
    0.00000E+00         0.00000E+00        -0.38650E+08
 
   -0.37747E+08         0.21837E+07         0.00000E+00
    0.21837E+07        -0.49939E+08         0.00000E+00
    0.00000E+00         0.00000E+00        -0.38649E+08
 
   -0.37781E+08         0.22749E+07         0.00000E+00
    0.22749E+07        -0.49933E+08         0.00000E+00
    0.00000E+00         0.00000E+00        -0.38648E+08
 
   -0.37814E+08         0.23664E+07         0.00000E+00
    0.23664E+07        -0.49927E+08         0.00000E+00
    0.00000E+00         0.00000E+00        -0.38647E+08
 
   -0.37847E+08         0.24582E+07         0.00000E+00
    0.24582E+07        -0.49920E+08         0.00000E+00
    0.00000E+00         0.00000E+00        -0.38647E+08
 
   -0.37880E+08         0.25504E+07         0.00000E+00
    0.25504E+07        -0.49913E+08         0.00000E+00
    0.00000E+00         0.00000E+00        -0.38646E+08
 
   -0.37914E+08         0.26429E+07         0.00000E+00
    0.26429E+07        -0.49905E+08         0.00000E+00
    0.00000E+00         0.00000E+00        -0.38645E+08
 
   -0.37947E+08         0.27357E+07         0.00000E+00
    0.27357E+07        -0.49897E+08         0.00000E+00
    0.00000E+00         0.00000E+00        -0.38644E+08
 
   -0.37980E+08         0.28289E+07         0.00000E+00
    0.28289E+07        -0.49889E+08         0.00000E+00
    0.00000E+00         0.00000E+00        -0.38643E+08
 
   -0.38014E+08         0.29225E+07         0.00000E+00
    0.29225E+07        -0.49880E+08         0.00000E+00
    0.00000E+00         0.00000E+00        -0.38643E+08
 
   -0.38047E+08         0.30164E+07         0.00000E+00
    0.30164E+07        -0.49871E+08         0.00000E+00
    0.00000E+00         0.00000E+00        -0.38642E+08
 
   -0.38081E+08         0.31107E+07         0.00000E+00
    0.31107E+07        -0.49861E+08         0.00000E+00
    0.00000E+00         0.00000E+00        -0.38641E+08
 
   -0.38115E+08         0.32055E+07         0.00000E+00
    0.32055E+07        -0.49850E+08         0.00000E+00
    0.00000E+00         0.00000E+00        -0.38641E+08
 
   -0.38149E+08         0.33006E+07         0.00000E+00
    0.33006E+07        -0.49840E+08         0.00000E+00
    0.00000E+00         0.00000E+00        -0.38640E+08
 
   -0.38183E+08         0.33961E+07         0.00000E+00
    0.33961E+07        -0.49828E+08         0.00000E+00
    0.00000E+00         0.00000E+00        -0.38639E+08
 
   -0.38217E+08         0.34921E+07         0.00000E+00
    0.34921E+07        -0.49817E+08         0.00000E+00
    0.00000E+00         0.00000E+00        -0.38639E+08
 
   -0.38252E+08         0.35885E+07         0.00000E+00
    0.35885E+07        -0.49804E+08         0.00000E+00
    0.00000E+00         0.00000E+00        -0.38638E+08
 
   -0.38287E+08         0.36853E+07         0.00000E+00
    0.36853E+07        -0.49791E+08         0.00000E+00
    0.00000E+00         0.00000E+00        -0.38638E+08
 
   -0.38322E+08         0.37825E+07         0.00000E+00
    0.37825E+07        -0.49778E+08         0.00000E+00
    0.00000E+00         0.00000E+00        -0.38637E+08
 
   -0.38357E+08         0.38802E+07         0.00000E+00
    0.38802E+07        -0.49764E+08         0.00000E+00
    0.00000E+00         0.00000E+00        -0.38637E+08
 
   -0.38393E+08         0.39784E+07         0.00000E+00
    0.39784E+07        -0.49749E+08         0.00000E+00
    0.00000E+00         0.00000E+00        -0.38637E+08
 
   -0.38429E+08         0.40770E+07         0.00000E+00
    0.40770E+07        -0.49734E+08         0.00000E+00
    0.00000E+00         0.00000E+00        -0.38636E+08
 
   -0.38465E+08         0.41761E+07         0.00000E+00
    0.41761E+07        -0.49718E+08         0.00000E+00
    0.00000E+00         0.00000E+00        -0.38636E+08
 
   -0.38502E+08         0.42756E+07         0.00000E+00
    0.42756E+07        -0.49701E+08         0.00000E+00
    0.00000E+00         0.00000E+00        -0.38636E+08
 
   -0.38540E+08         0.43756E+07         0.00000E+00
    0.43756E+07        -0.49684E+08         0.00000E+00
    0.00000E+00         0.00000E+00        -0.38636E+08
 
   -0.38578E+08         0.44761E+07         0.00000E+00
    0.44761E+07        -0.49666E+08         0.00000E+00
    0.00000E+00         0.00000E+00        -0.38635E+08
 
   -0.38616E+08         0.45770E+07         0.00000E+00
    0.45770E+07        -0.49647E+08         0.00000E+00
    0.00000E+00         0.00000E+00        -0.38635E+08
 
   -0.36427E+08         0.44933E+05         0.00000E+00
    0.44933E+05        -0.50000E+08         0.00000E+00
    0.00000E+00         0.00000E+00        -0.38148E+08
 
   -0.36468E+08         0.13444E+06         0.00000E+00
    0.13444E+06        -0.50000E+08         0.00000E+00
    0.00000E+00         0.00000E+00        -0.38148E+08
 
   -0.36509E+08         0.22384E+06         0.00000E+00
    0.22384E+06        -0.50000E+08         0.00000E+00
    0.00000E+00         0.00000E+00        -0.38148E+08
 
   -0.36549E+08         0.31317E+06         0.00000E+00
    0.31317E+06        -0.49999E+08         0.00000E+00
    0.00000E+00         0.00000E+00        -0.38147E+08
 
   -0.36589E+08         0.40244E+06         0.00000E+00
    0.40244E+06        -0.49999E+08         0.00000E+00
    0.00000E+00         0.00000E+00        -0.38147E+08
 
   -0.36628E+08         0.49169E+06         0.00000E+00
    0.49169E+06        -0.49998E+08         0.00000E+00
    0.00000E+00         0.00000E+00        -0.38147E+08
 
   -0.36666E+08         0.58093E+06         0.00000E+00
    0.58093E+06        -0.49998E+08         0.00000E+00
    0.00000E+00         0.00000E+00        -0.38146E+08
 
   -0.36704E+08         0.67019E+06         0.00000E+00
    0.67019E+06        -0.49997E+08         0.00000E+00
    0.00000E+00         0.00000E+00        -0.38146E+08
 
   -0.36742E+08         0.75950E+06         0.00000E+00
    0.75950E+06        -0.49996E+08         0.00000E+00
    0.00000E+00         0.00000E+00        -0.38145E+08
 
   -0.36779E+08         0.84886E+06         0.00000E+00
    0.84886E+06        -0.49995E+08         0.00000E+00
    0.00000E+00         0.00000E+00        -0.38145E+08
 
   -0.36815E+08         0.93830E+06         0.00000E+00
    0.93830E+06        -0.49993E+08         0.00000E+00
    0.00000E+00         0.00000E+00        -0.38144E+08
 
   -0.36851E+08         0.10279E+07         0.00000E+00
    0.10279E+07        -0.49992E+08         0.00000E+00
    0.00000E+00         0.00000E+00        -0.38144E+08
 
   -0.36887E+08         0.11175E+07         0.00000E+00
    0.11175E+07        -0.49990E+08         0.00000E+00
    0.00000E+00         0.00000E+00        -0.38143E+08
 
   -0.36922E+08         0.12073E+07         0.00000E+00
    0.12073E+07        -0.49989E+08         0.00000E+00
    0.00000E+00         0.00000E+00        -0.38142E+08
 
   -0.36957E+08         0.12973E+07         0.00000E+00
    0.12973E+07        -0.49986E+08         0.00000E+00
    0.00000E+00         0.00000E+00        -0.38142E+08
 
   -0.36991E+08         0.13875E+07         0.00000E+00
    0.13875E+07        -0.49984E+08         0.00000E+00
    0.00000E+00         0.00000E+00        -0.38141E+08
 
   -0.37025E+08         0.14779E+07         0.00000E+00
    0.14779E+07        -0.49982E+08         0.00000E+00
    0.00000E+00         0.00000E+00        -0.38140E+08
 
   -0.37059E+08         0.15685E+07         0.00000E+00
    0.15685E+07        -0.49979E+08         0.00000E+00
    0.00000E+00         0.00000E+00        -0.38139E+08
 
   -0.37092E+08         0.16593E+07         0.00000E+00
    0.16593E+07        -0.49976E+08         0.00000E+00
    0.00000E+00         0.00000E+00        -0.38138E+08
 
   -0.37126E+08         0.17504E+07         0.00000E+00
    0.17504E+07        -0.49973E+08         0.00000E+00
    0.00000E+00         0.00000E+00        -0.38138E+08
 
   -0.37158E+08         0.18418E+07         0.00000E+00
    0.18418E+07        -0.49970E+08         0.00000E+00
    0.00000E+00         0.00000E+00        -0.38137E+08
 
   -0.37191E+08         0.19334E+07         0.00000E+00
    0.19334E+07        -0.49966E+08         0.00000E+00
    0.00000E+00         0.00000E+00        -0.38136E+08
 
   -0.37223E+08         0.20254E+07         0.00000E+00
    0.20254E+07        -0.49962E+08         0.00000E+00
    0.00000E+00         0.00000E+00        -0.38135E+08
 
   -0.37255E+08         0.21176E+07         0.00000E+00
    0.21176E+07        -0.49957E+08         0.00000E+00
    0.00000E+00         0.00000E+00        -0.38134E+08
 
   -0.37287E+08         0.22103E+07         0.00000E+00
    0.22103E+07        -0.49953E+08         0.00000E+00
    0.00000E+00         0.00000E+00        -0.38133E+08
 
   -0.37319E+08         0.23032E+07         0.00000E+00
    0.23032E+07        -0.49948E+08         0.00000E+00
    0.00000E+00         0.00000E+00        -0.38132E+08
 
   -0.37351E+08         0.23966E+07         0.00000E+00
    0.23966E+07        -0.49943E+08         0.00000E+00
    0.00000E+00         0.00000E+00        -0.38132E+08
 
   -0.37382E+08         0.24903E+07         0.00000E+00
    0.24903E+07        -0.49937E+08         0.00000E+00
    0.00000E+00         0.00000E+00        -0.38131E+08
 
   -0.37414E+08         0.25844E+07         0.00000E+00
    0.25844E+07        -0.49931E+08         0.00000E+00
    0.00000E+00         0.00000E+00        -0.38130E+08
 
   -0.37445E+08         0.26789E+07         0.00000E+00
    0.26789E+07        -0.49925E+08         0.00000E+00
    0.00000E+00         0.00000E+00        -0.38129E+08
 
   -0.37477E+08         0.27738E+07         0.00000E+00
    0.27738E+07        -0.49918E+08         0.00000E+00
    0.00000E+00         0.00000E+00        -0.38128E+08
 
   -0.37508E+08         0.28691E+07         0.00000E+00
    0.28691E+07        -0.49910E+08         0.00000E+00
    0.00000E+00         0.00000E+00        -0.38127E+08
 
   -0.37539E+08         0.29649E+07         0.00000E+00
    0.29649E+07        -0.49903E+08         0.00000E+00
    0.00000E+00         0.00000E+00        -0.38127E+08
 
   -0.37571E+08         0.30612E+07         0.00000E+00
    0.30612E+07        -0.49895E+08         0.00000E+00
    0.00000E+00         0.00000E+00        -0.38126E+08
 
   -0.37602E+08         0.31579E+07         0.00000E+00
    0.31579E+07        -0.49886E+08         0.00000E+00
    0.00000E+00         0.00000E+00        -0.38125E+08
 
   -0.37634E+08         0.32550E+07         0.00000E+00
    0.32550E+07        -0.49877E+08         0.00000E+00
    0.00000E+00         0.00000E+00        -0.38125E+08
 
   -0.37666E+08         0.33527E+07         0.00000E+00
    0.33527E+07        -0.49868E+08         0.00000E+00
    0.00000E+00         0.00000E+00        -0.38124E+08
 
   -0.37697E+08         0.34508E+07         0.00000E+00
    0.34508E+07        -0.49858E+08         0.00000E+00
    0.00000E+00         0.00000E+00        -0.38123E+08
 
   -0.37729E+08         0.35494E+07         0.00000E+00
    0.35494E+07        -0.49847E+08         0.00000E+00
    0.00000E+00         0.00000E+00        -0.38123E+08
 
   -0.37762E+08         0.36486E+07         0.00000E+00
    0.36486E+07        -0.49836E+08         0.00000E+00
    0.00000E+00         0.00000E+00        -0.38122E+08
 
   -0.37794E+08         0.37482E+07         0.00000E+00
    0.37482E+07        -0.49824E+08         0.00000E+00
    0.00000E+00         0.00000E+00        -0.38122E+08
 
   -0.37827E+08         0.38484E+07         0.00000E+00
    0.38484E+07        -0.49812E+08         0.00000E+00
    0.00000E+00         0.00000E+00        -0.38121E+08
 
   -0.37860E+08         0.39491E+07         0.00000E+00
    0.39491E+07        -0.49799E+08         0.00000E+00
    0.00000E+00         0.00000E+00        -0.38121E+08
 
   -0.37893E+08         0.40503E+07         0.00000E+00
    0.40503E+07        -0.49786E+08         0.00000E+00
    0.00000E+00         0.00000E+00        -0.38120E+08
 
   -0.37927E+08         0.41521E+07         0.00000E+00
    0.41521E+07        -0.49772E+08         0.00000E+00
    0.00000E+00         0.00000E+00        -0.38120E+08
 
   -0.37961E+08         0.42544E+07         0.00000E+00
    0.42544E+07        -0.49757E+08         0.00000E+00
    0.00000E+00         0.00000E+00        -0.38120E+08
 
   -0.37995E+08         0.43572E+07         0.00000E+00
    0.43572E+07        -0.49742E+08         0.00000E+00
    0.00000E+00         0.00000E+00        -0.38119E+08
 
   -0.38030E+08         0.44606E+07         0.00000E+00
    0.44606E+07        -0.49726E+08         0.00000E+00
    0.00000E+00         0.00000E+00        -0.38119E+08
 
   -0.38065E+08         0.45646E+07         0.00000E+00
    0.45646E+07        -0.49709E+08         0.00000E+00
    0.00000E+00         0.00000E+00        -0.38119E+08
 
   -0.38101E+08         0.46691E+07         0.00000E+00
    0.46691E+07        -0.49692E+08         0.00000E+00
    0.00000E+00         0.00000E+00        -0.38119E+08
 
   -0.35978E+08         0.45093E+05         0.00000E+00
    0.45093E+05        -0.50000E+08         0.00000E+00
    0.00000E+00         0.00000E+00        -0.37614E+08
 
   -0.36020E+08         0.13498E+06         0.00000E+00
    0.13498E+06        -0.50000E+08         0.00000E+00
    0.00000E+00         0.00000E+00        -0.37614E+08
 
   -0.36061E+08         0.22479E+06         0.00000E+00
    0.22479E+06        -0.50000E+08         0.00000E+00
    0.00000E+00         0.00000E+00        -0.37614E+08
 
   -0.36101E+08         0.31455E+06         0.00000E+00
    0.31455E+06        -0.50000E+08         0.00000E+00
    0.00000E+00         0.00000E+00        -0.37614E+08
 
   -0.36141E+08         0.40429E+06         0.00000E+00
    0.40429E+06        -0.50000E+08         0.00000E+00
    0.00000E+00         0.00000E+00        -0.37614E+08
 
   -0.36180E+08         0.49403E+06         0.00000E+00
    0.49403E+06        -0.49999E+08         0.00000E+00
    0.00000E+00         0.00000E+00        -0.37613E+08
 
   -0.36219E+08         0.58381E+06         0.00000E+00
    0.58381E+06        -0.49999E+08         0.00000E+00
    0.00000E+00         0.00000E+00        -0.37613E+08
 
   -0.36256E+08         0.67364E+06         0.00000E+00
    0.67364E+06        -0.49999E+08         0.00000E+00
    0.00000E+00         0.00000E+00        -0.37612E+08
 
   -0.36293E+08         0.76356E+06         0.00000E+00
    0.76356E+06        -0.49998E+08         0.00000E+00
    0.00000E+00         0.00000E+00        -0.37612E+08
 
   -0.36330E+08         0.85357E+06         0.00000E+00
    0.85357E+06        -0.49997E+08         0.00000E+00
    0.00000E+00         0.00000E+00        -0.37611E+08
 
   -0.36366E+08         0.94372E+06         0.00000E+00
    0.94372E+06        -0.49997E+08         0.00000E+00
    0.00000E+00         0.00000E+00        -0.37611E+08
 
   -0.36401E+08         0.10340E+07         0.00000E+00
    0.10340E+07        -0.49996E+08         0.00000E+00
    0.00000E+00         0.00000E+00        -0.37610E+08
 
   -0.36436E+08         0.11245E+07         0.00000E+00
    0.11245E+07        -0.49995E+08         0.00000E+00
    0.00000E+00         0.00000E+00        -0.37609E+08
 
   -0.36470E+08         0.12152E+07         0.00000E+00
    0.12152E+07        -0.49994E+08         0.00000E+00
    0.00000E+00         0.00000E+00        -0.37609E+08
 
   -0.36504E+08         0.13060E+07         0.00000E+00
    0.13060E+07        -0.49993E+08         0.00000E+00
    0.00000E+00         0.00000E+00        -0.37608E+08
 
   -0.36537E+08         0.13972E+07         0.00000E+00
    0.13972E+07        -0.49991E+08         0.00000E+00
    0.00000E+00         0.00000E+00        -0.37607E+08
 
   -0.36570E+08         0.14886E+07         0.00000E+00
    0.14886E+07        -0.49989E+08         0.00000E+00
    0.00000E+00         0.00000E+00        -0.37606E+08
 
   -0.36603E+08         0.15802E+07         0.00000E+00
    0.15802E+07        -0.49988E+08         0.00000E+00
    0.00000E+00         0.00000E+00        -0.37605E+08
 
   -0.36635E+08         0.16722E+07         0.00000E+00
    0.16722E+07        -0.49986E+08         0.00000E+00
    0.00000E+00         0.00000E+00        -0.37604E+08
 
   -0.36666E+08         0.17645E+07         0.00000E+00
    0.17645E+07        -0.49984E+08         0.00000E+00
    0.00000E+00         0.00000E+00        -0.37604E+08
 
   -0.36697E+08         0.18571E+07         0.00000E+00
    0.18571E+07        -0.49981E+08         0.00000E+00
    0.00000E+00         0.00000E+00        -0.37603E+08
 
   -0.36728E+08         0.19501E+07         0.00000E+00
    0.19501E+07        -0.49978E+08         0.00000E+00
    0.00000E+00         0.00000E+00        -0.37602E+08
 
   -0.36759E+08         0.20434E+07         0.00000E+00
    0.20434E+07        -0.49976E+08         0.00000E+00
    0.00000E+00         0.00000E+00        -0.37601E+08
 
   -0.36789E+08         0.21372E+07         0.00000E+00
    0.21372E+07        -0.49972E+08         0.00000E+00
    0.00000E+00         0.00000E+00        -0.37600E+08
 
   -0.36819E+08         0.22313E+07         0.00000E+00
    0.22313E+07        -0.49969E+08         0.00000E+00
    0.00000E+00         0.00000E+00        -0.37599E+08
 
   -0.36849E+08         0.23259E+07         0.00000E+00
    0.23259E+07        -0.49965E+08         0.00000E+00
    0.00000E+00         0.00000E+00        -0.37598E+08
 
   -0.36879E+08         0.24209E+07         0.00000E+00
    0.24209E+07        -0.49961E+08         0.00000E+00
    0.00000E+00         0.00000E+00        -0.37597E+08
 
   -0.36908E+08         0.25164E+07         0.00000E+00
    0.25164E+07        -0.49957E+08         0.00000E+00
    0.00000E+00         0.00000E+00        -0.37596E+08
 
   -0.36938E+08         0.26123E+07         0.00000E+00
    0.26123E+07        -0.49952E+08         0.00000E+00
    0.00000E+00         0.00000E+00        -0.37596E+08
 
   -0.36967E+08         0.27087E+07         0.00000E+00
    0.27087E+07        -0.49947E+08         0.00000E+00
    0.00000E+00         0.00000E+00        -0.37595E+08
 
   -0.36996E+08         0.28056E+07         0.00000E+00
    0.28056E+07        -0.49941E+08         0.00000E+00
    0.00000E+00         0.00000E+00        -0.37594E+08
 
   -0.37025E+08         0.29030E+07         0.00000E+00
    0.29030E+07        -0.49935E+08         0.00000E+00
    0.00000E+00         0.00000E+00        -0.37593E+08
 
   -0.37054E+08         0.30009E+07         0.00000E+00
    0.30009E+07        -0.49929E+08         0.00000E+00
    0.00000E+00         0.00000E+00        -0.37592E+08
 
   -0.37083E+08         0.30994E+07         0.00000E+00
    0.30994E+07        -0.49922E+08         0.00000E+00
    0.00000E+00         0.00000E+00        -0.37591E+08
 
   -0.37112E+08         0.31983E+07         0.00000E+00
    0.31983E+07        -0.49915E+08         0.00000E+00
    0.00000E+00         0.00000E+00        -0.37591E+08
 
   -0.37141E+08         0.32979E+07         0.00000E+00
    0.32979E+07        -0.49908E+08         0.00000E+00
    0.00000E+00         0.00000E+00        -0.37590E+08
 
   -0.37170E+08         0.33980E+07         0.00000E+00
    0.33980E+07        -0.49900E+08         0.00000E+00
    0.00000E+00         0.00000E+00        -0.37589E+08
 
   -0.37199E+08         0.34986E+07         0.00000E+00
    0.34986E+07        -0.49891E+08         0.00000E+00
    0.00000E+00         0.00000E+00        -0.37589E+08
 
   -0.37228E+08         0.35999E+07         0.00000E+00
    0.35999E+07        -0.49882E+08         0.00000E+00
    0.00000E+00         0.00000E+00        -0.37588E+08
 
   -0.37258E+08         0.37017E+07         0.00000E+00
    0.37017E+07        -0.49872E+08         0.00000E+00
    0.00000E+00         0.00000E+00        -0.37587E+08
 
   -0.37287E+08         0.38042E+07         0.00000E+00
    0.38042E+07        -0.49862E+08         0.00000E+00
    0.00000E+00         0.00000E+00        -0.37587E+08
 
   -0.37317E+08         0.39072E+07         0.00000E+00
    0.39072E+07        -0.49852E+08         0.00000E+00
    0.00000E+00         0.00000E+00        -0.37586E+08
 
   -0.37348E+08         0.40109E+07         0.00000E+00
    0.40109E+07        -0.49840E+08         0.00000E+00
    0.00000E+00         0.00000E+00        -0.37586E+08
 
   -0.37378E+08         0.41151E+07         0.00000E+00
    0.41151E+07        -0.49828E+08         0.00000E+00
    0.00000E+00         0.00000E+00        -0.37586E+08
 
   -0.37409E+08         0.42200E+07         0.00000E+00
    0.42200E+07        -0.49816E+08         0.00000E+00
    0.00000E+00         0.00000E+00        -0.37585E+08
 
   -0.37440E+08         0.43255E+07         0.00000E+00
    0.43255E+07        -0.49803E+08         0.00000E+00
    0.00000E+00         0.00000E+00        -0.37585E+08
 
   -0.37471E+08         0.44317E+07         0.00000E+00
    0.44317E+07        -0.49789E+08         0.00000E+00
    0.00000E+00         0.00000E+00        -0.37585E+08
 
   -0.37503E+08         0.45385E+07         0.00000E+00
    0.45385E+07        -0.49775E+08         0.00000E+00
    0.00000E+00         0.00000E+00        -0.37585E+08
 
   -0.37535E+08         0.46460E+07         0.00000E+00
    0.46460E+07        -0.49759E+08         0.00000E+00
    0.00000E+00         0.00000E+00        -0.37584E+08
 
   -0.37568E+08         0.47541E+07         0.00000E+00
    0.47541E+07        -0.49744E+08         0.00000E+00
    0.00000E+00         0.00000E+00        -0.37584E+08
 
   -0.35528E+08         0.45085E+05         0.00000E+00
    0.45085E+05        -0.50000E+08         0.00000E+00
    0.00000E+00         0.00000E+00        -0.37062E+08
 
   -0.35570E+08         0.13502E+06         0.00000E+00
    0.13502E+06        -0.50000E+08         0.00000E+00
    0.00000E+00         0.00000E+00        -0.37062E+08
 
   -0.35612E+08         0.22491E+06         0.00000E+00
    0.22491E+06        -0.50000E+08         0.00000E+00
    0.00000E+00         0.00000E+00        -0.37062E+08
 
   -0.35652E+08         0.31479E+06         0.00000E+00
    0.31479E+06        -0.50000E+08         0.00000E+00
    0.00000E+00         0.00000E+00        -0.37062E+08
 
   -0.35692E+08         0.40468E+06         0.00000E+00
    0.40468E+06        -0.50000E+08         0.00000E+00
    0.00000E+00         0.00000E+00        -0.37061E+08
 
   -0.35731E+08         0.49462E+06         0.00000E+00
    0.49462E+06        -0.50000E+08         0.00000E+00
    0.00000E+00         0.00000E+00        -0.37061E+08
 
   -0.35769E+08         0.58463E+06         0.00000E+00
    0.58463E+06        -0.50000E+08         0.00000E+00
    0.00000E+00         0.00000E+00        -0.37061E+08
 
   -0.35806E+08         0.67474E+06         0.00000E+00
    0.67474E+06        -0.50000E+08         0.00000E+00
    0.00000E+00         0.00000E+00        -0.37060E+08
 
   -0.35843E+08         0.76498E+06         0.00000E+00
    0.76498E+06        -0.50000E+08         0.00000E+00
    0.00000E+00         0.00000E+00        -0.37060E+08
 
   -0.35878E+08         0.85537E+06         0.00000E+00
    0.85537E+06        -0.50000E+08         0.00000E+00
    0.00000E+00         0.00000E+00        -0.37059E+08
 
   -0.35913E+08         0.94594E+06         0.00000E+00
    0.94594E+06        -0.50000E+08         0.00000E+00
    0.00000E+00         0.00000E+00        -0.37058E+08
 
   -0.35948E+08         0.10367E+07         0.00000E+00
    0.10367E+07        -0.50000E+08         0.00000E+00
    0.00000E+00         0.00000E+00        -0.37058E+08
 
   -0.35982E+08         0.11277E+07         0.00000E+00
    0.11277E+07        -0.50000E+08         0.00000E+00
    0.00000E+00         0.00000E+00        -0.37057E+08
 
   -0.36015E+08         0.12190E+07         0.00000E+00
    0.12190E+07        -0.50000E+08         0.00000E+00
    0.00000E+00         0.00000E+00        -0.37056E+08
 
   -0.36047E+08         0.13105E+07         0.00000E+00
    0.13105E+07        -0.49999E+08         0.00000E+00
    0.00000E+00         0.00000E+00        -0.37055E+08
 
   -0.36079E+08         0.14024E+07         0.00000E+00
    0.14024E+07        -0.49999E+08         0.00000E+00
    0.00000E+00         0.00000E+00        -0.37055E+08
 
   -0.36110E+08         0.14945E+07         0.00000E+00
    0.14945E+07        -0.49998E+08         0.00000E+00
    0.00000E+00         0.00000E+00        -0.37054E+08
 
   -0.36141E+08         0.15871E+07         0.00000E+00
    0.15871E+07        -0.49998E+08         0.00000E+00
    0.00000E+00         0.00000E+00        -0.37053E+08
 
   -0.36172E+08         0.16799E+07         0.00000E+00
    0.16799E+07        -0.49997E+08         0.00000E+00
    0.00000E+00         0.00000E+00        -0.37052E+08
 
   -0.36201E+08         0.17732E+07         0.00000E+00
    0.17732E+07        -0.49996E+08         0.00000E+00
    0.00000E+00         0.00000E+00        -0.37051E+08
 
   -0.36231E+08         0.18669E+07         0.00000E+00
    0.18669E+07        -0.49994E+08         0.00000E+00
    0.00000E+00         0.00000E+00        -0.37050E+08
 
   -0.36260E+08         0.19610E+07         0.00000E+00
    0.19610E+07        -0.49993E+08         0.00000E+00
    0.00000E+00         0.00000E+00        -0.37049E+08
 
   -0.36288E+08         0.20556E+07         0.00000E+00
    0.20556E+07        -0.49991E+08         0.00000E+00
    0.00000E+00         0.00000E+00        -0.37048E+08
 
   -0.36316E+08         0.21506E+07         0.00000E+00
    0.21506E+07        -0.49989E+08         0.00000E+00
    0.00000E+00         0.00000E+00        -0.37047E+08
 
   -0.36344E+08         0.22461E+07         0.00000E+00
    0.22461E+07        -0.49987E+08         0.00000E+00
    0.00000E+00         0.00000E+00        -0.37046E+08
 
   -0.36372E+08         0.23421E+07         0.00000E+00
    0.23421E+07        -0.49985E+08         0.00000E+00
    0.00000E+00         0.00000E+00        -0.37046E+08
 
   -0.36399E+08         0.24386E+07         0.00000E+00
    0.24386E+07        -0.49982E+08         0.00000E+00
    0.00000E+00         0.00000E+00        -0.37045E+08
 
   -0.36426E+08         0.25357E+07         0.00000E+00
    0.25357E+07        -0.49979E+08         0.00000E+00
    0.00000E+00         0.00000E+00        -0.37044E+08
 
   -0.36452E+08         0.26333E+07         0.00000E+00
    0.26333E+07        -0.49976E+08         0.00000E+00
    0.00000E+00         0.00000E+00        -0.37043E+08
 
   -0.36479E+08         0.27315E+07         0.00000E+00
    0.27315E+07        -0.49972E+08         0.00000E+00
    0.00000E+00         0.00000E+00        -0.37042E+08
 
   -0.36505E+08         0.28302E+07         0.00000E+00
    0.28302E+07        -0.49968E+08         0.00000E+00
    0.00000E+00         0.00000E+00        -0.37041E+08
 
   -0.36532E+08         0.29295E+07         0.00000E+00
    0.29295E+07        -0.49964E+08         0.00000E+00
    0.00000E+00         0.00000E+00        -0.37040E+08
 
   -0.36558E+08         0.30295E+07         0.00000E+00
    0.30295E+07        -0.49959E+08         0.00000E+00
    0.00000E+00         0.00000E+00        -0.37039E+08
 
   -0.36584E+08         0.31300E+07         0.00000E+00
    0.31300E+07        -0.49954E+08         0.00000E+00
    0.00000E+00         0.00000E+00        -0.37039E+08
 
   -0.36610E+08         0.32312E+07         0.00000E+00
    0.32312E+07        -0.49949E+08         0.00000E+00
    0.00000E+00         0.00000E+00        -0.37038E+08
 
   -0.36636E+08         0.33330E+07         0.00000E+00
    0.33330E+07        -0.49943E+08         0.00000E+00
    0.00000E+00         0.00000E+00        -0.37037E+08
 
   -0.36662E+08         0.34355E+07         0.00000E+00
    0.34355E+07        -0.49936E+08         0.00000E+00
    0.00000E+00         0.00000E+00        -0.37036E+08
 
   -0.36688E+08         0.35386E+07         0.00000E+00
    0.35386E+07        -0.49929E+08         0.00000E+00
    0.00000E+00         0.00000E+00        -0.37036E+08
 
   -0.36714E+08         0.36424E+07         0.00000E+00
    0.36424E+07        -0.49922E+08         0.00000E+00
    0.00000E+00         0.00000E+00        -0.37035E+08
 
   -0.36740E+08         0.37469E+07         0.00000E+00
    0.37469E+07        -0.49914E+08         0.00000E+00
    0.00000E+00         0.00000E+00        -0.37034E+08
 
   -0.36767E+08         0.38521E+07         0.00000E+00
    0.38521E+07        -0.49905E+08         0.00000E+00
    0.00000E+00         0.00000E+00        -0.37034E+08
 
   -0.36793E+08         0.39579E+07         0.00000E+00
    0.39579E+07        -0.49897E+08         0.00000E+00
    0.00000E+00         0.00000E+00        -0.37033E+08
 
   -0.36820E+08         0.40645E+07         0.00000E+00
    0.40645E+07        -0.49887E+08         0.00000E+00
    0.00000E+00         0.00000E+00        -0.37033E+08
 
   -0.36847E+08         0.41718E+07         0.00000E+00
    0.41718E+07        -0.49877E+08         0.00000E+00
    0.00000E+00         0.00000E+00        -0.37033E+08
 
   -0.36875E+08         0.42798E+07         0.00000E+00
    0.42798E+07        -0.49866E+08         0.00000E+00
    0.00000E+00         0.00000E+00        -0.37032E+08
 
   -0.36902E+08         0.43885E+07         0.00000E+00
    0.43885E+07        -0.49855E+08         0.00000E+00
    0.00000E+00         0.00000E+00        -0.37032E+08
 
   -0.36930E+08         0.44980E+07         0.00000E+00
    0.44980E+07        -0.49843E+08         0.00000E+00
    0.00000E+00         0.00000E+00        -0.37032E+08
 
   -0.36959E+08         0.46082E+07         0.00000E+00
    0.46082E+07        -0.49830E+08         0.00000E+00
    0.00000E+00         0.00000E+00        -0.37031E+08
 
   -0.36987E+08         0.47191E+07         0.00000E+00
    0.47191E+07        -0.49817E+08         0.00000E+00
    0.00000E+00         0.00000E+00        -0.37031E+08
 
   -0.37017E+08         0.48308E+07         0.00000E+00
    0.48308E+07        -0.49803E+08         0.00000E+00
    0.00000E+00         0.00000E+00        -0.37031E+08
 
   -0.35079E+08         0.44883E+05         0.00000E+00
    0.44883E+05        -0.50000E+08         0.00000E+00
    0.00000E+00         0.00000E+00        -0.36491E+08
 
   -0.35121E+08         0.13450E+06         0.00000E+00
    0.13450E+06        -0.50000E+08         0.00000E+00
    0.00000E+00         0.00000E+00        -0.36491E+08
 
   -0.35163E+08         0.22411E+06         0.00000E+00
    0.22411E+06        -0.50000E+08         0.00000E+00
    0.00000E+00         0.00000E+00        -0.36491E+08
 
   -0.35203E+08         0.31374E+06         0.00000E+00
    0.31374E+06        -0.50001E+08         0.00000E+00
    0.00000E+00         0.00000E+00        -0.36491E+08
 
   -0.35243E+08         0.40343E+06         0.00000E+00
    0.40343E+06        -0.50001E+08         0.00000E+00
    0.00000E+00         0.00000E+00        -0.36491E+08
 
   -0.35281E+08         0.49321E+06         0.00000E+00
    0.49321E+06        -0.50002E+08         0.00000E+00
    0.00000E+00         0.00000E+00        -0.36490E+08
 
   -0.35319E+08         0.58310E+06         0.00000E+00
    0.58310E+06        -0.50002E+08         0.00000E+00
    0.00000E+00         0.00000E+00        -0.36490E+08
 
   -0.35355E+08         0.67315E+06         0.00000E+00
    0.67315E+06        -0.50003E+08         0.00000E+00
    0.00000E+00         0.00000E+00        -0.36489E+08
 
   -0.35391E+08         0.76338E+06         0.00000E+00
    0.76338E+06        -0.50003E+08         0.00000E+00
    0.00000E+00         0.00000E+00        -0.36489E+08
 
   -0.35426E+08         0.85383E+06         0.00000E+00
    0.85383E+06        -0.50004E+08         0.00000E+00
    0.00000E+00         0.00000E+00        -0.36488E+08
 
   -0.35460E+08         0.94451E+06         0.00000E+00
    0.94451E+06        -0.50005E+08         0.00000E+00
    0.00000E+00         0.00000E+00        -0.36488E+08
 
   -0.35493E+08         0.10355E+07         0.00000E+00
    0.10355E+07        -0.50005E+08         0.00000E+00
    0.00000E+00         0.00000E+00        -0.36487E+08
 
   -0.35525E+08         0.11267E+07         0.00000E+00
    0.11267E+07        -0.50006E+08         0.00000E+00
    0.00000E+00         0.00000E+00        -0.36486E+08
 
   -0.35557E+08         0.12183E+07         0.00000E+00
    0.12183E+07        -0.50007E+08         0.00000E+00
    0.00000E+00         0.00000E+00        -0.36485E+08
 
   -0.35588E+08         0.13102E+07         0.00000E+00
    0.13102E+07        -0.50007E+08         0.00000E+00
    0.00000E+00         0.00000E+00        -0.36484E+08
 
   -0.35618E+08         0.14025E+07         0.00000E+00
    0.14025E+07        -0.50008E+08         0.00000E+00
    0.00000E+00         0.00000E+00        -0.36484E+08
 
   -0.35647E+08         0.14952E+07         0.00000E+00
    0.14952E+07        -0.50008E+08         0.00000E+00
    0.00000E+00         0.00000E+00        -0.36483E+08
 
   -0.35676E+08         0.15883E+07         0.00000E+00
    0.15883E+07        -0.50009E+08         0.00000E+00
    0.00000E+00         0.00000E+00        -0.36482E+08
 
   -0.35704E+08         0.16818E+07         0.00000E+00
    0.16818E+07        -0.50009E+08         0.00000E+00
    0.00000E+00         0.00000E+00        -0.36481E+08
 
   -0.35732E+08         0.17759E+07         0.00000E+00
    0.17759E+07        -0.50009E+08         0.00000E+00
    0.00000E+00         0.00000E+00        -0.36480E+08
 
   -0.35759E+08         0.18704E+07         0.00000E+00
    0.18704E+07        -0.50009E+08         0.00000E+00
    0.00000E+00         0.00000E+00        -0.36479E+08
 
   -0.35785E+08         0.19654E+07         0.00000E+00
    0.19654E+07        -0.50009E+08         0.00000E+00
    0.00000E+00         0.00000E+00        -0.36478E+08
 
   -0.35811E+08         0.20610E+07         0.00000E+00
    0.20610E+07        -0.50009E+08         0.00000E+00
    0.00000E+00         0.00000E+00        -0.36477E+08
 
   -0.35837E+08         0.21571E+07         0.00000E+00
    0.21571E+07        -0.50009E+08         0.00000E+00
    0.00000E+00         0.00000E+00        -0.36476E+08
 
   -0.35862E+08         0.22537E+07         0.00000E+00
    0.22537E+07        -0.50008E+08         0.00000E+00
    0.00000E+00         0.00000E+00        -0.36475E+08
 
   -0.35887E+08         0.23510E+07         0.00000E+00
    0.23510E+07        -0.50007E+08         0.00000E+00
    0.00000E+00         0.00000E+00        -0.36474E+08
 
   -0.35911E+08         0.24489E+07         0.00000E+00
    0.24489E+07        -0.50006E+08         0.00000E+00
    0.00000E+00         0.00000E+00        -0.36473E+08
 
   -0.35935E+08         0.25474E+07         0.00000E+00
    0.25474E+07        -0.50005E+08         0.00000E+00
    0.00000E+00         0.00000E+00        -0.36472E+08
 
   -0.35959E+08         0.26465E+07         0.00000E+00
    0.26465E+07        -0.50003E+08         0.00000E+00
    0.00000E+00         0.00000E+00        -0.36472E+08
 
   -0.35983E+08         0.27463E+07         0.00000E+00
    0.27463E+07        -0.50001E+08         0.00000E+00
    0.00000E+00         0.00000E+00        -0.36471E+08
 
   -0.36006E+08         0.28467E+07         0.00000E+00
    0.28467E+07        -0.49999E+08         0.00000E+00
    0.00000E+00         0.00000E+00        -0.36470E+08
 
   -0.36029E+08         0.29478E+07         0.00000E+00
    0.29478E+07        -0.49996E+08         0.00000E+00
    0.00000E+00         0.00000E+00        -0.36469E+08
 
   -0.36052E+08         0.30497E+07         0.00000E+00
    0.30497E+07        -0.49993E+08         0.00000E+00
    0.00000E+00         0.00000E+00        -0.36468E+08
 
   -0.36074E+08         0.31522E+07         0.00000E+00
    0.31522E+07        -0.49990E+08         0.00000E+00
    0.00000E+00         0.00000E+00        -0.36467E+08
 
   -0.36097E+08         0.32555E+07         0.00000E+00
    0.32555E+07        -0.49986E+08         0.00000E+00
    0.00000E+00         0.00000E+00        -0.36466E+08
 
   -0.36120E+08         0.33595E+07         0.00000E+00
    0.33595E+07        -0.49982E+08         0.00000E+00
    0.00000E+00         0.00000E+00        -0.36466E+08
 
   -0.36142E+08         0.34642E+07         0.00000E+00
    0.34642E+07        -0.49977E+08         0.00000E+00
    0.00000E+00         0.00000E+00        -0.36465E+08
 
   -0.36165E+08         0.35697E+07         0.00000E+00
    0.35697E+07        -0.49972E+08         0.00000E+00
    0.00000E+00         0.00000E+00        -0.36464E+08
 
   -0.36187E+08         0.36760E+07         0.00000E+00
    0.36760E+07        -0.49967E+08         0.00000E+00
    0.00000E+00         0.00000E+00        -0.36464E+08
 
   -0.36210E+08         0.37830E+07         0.00000E+00
    0.37830E+07        -0.49961E+08         0.00000E+00
    0.00000E+00         0.00000E+00        -0.36463E+08
 
   -0.36232E+08         0.38908E+07         0.00000E+00
    0.38908E+07        -0.49954E+08         0.00000E+00
    0.00000E+00         0.00000E+00        -0.36462E+08
 
   -0.36255E+08         0.39994E+07         0.00000E+00
    0.39994E+07        -0.49947E+08         0.00000E+00
    0.00000E+00         0.00000E+00        -0.36462E+08
 
   -0.36278E+08         0.41089E+07         0.00000E+00
    0.41089E+07        -0.49940E+08         0.00000E+00
    0.00000E+00         0.00000E+00        -0.36461E+08
 
   -0.36302E+08         0.42191E+07         0.00000E+00
    0.42191E+07        -0.49932E+08         0.00000E+00
    0.00000E+00         0.00000E+00        -0.36461E+08
 
   -0.36325E+08         0.43302E+07         0.00000E+00
    0.43302E+07        -0.49923E+08         0.00000E+00
    0.00000E+00         0.00000E+00        -0.36461E+08
 
   -0.36349E+08         0.44420E+07         0.00000E+00
    0.44420E+07        -0.49914E+08         0.00000E+00
    0.00000E+00         0.00000E+00        -0.36460E+08
 
   -0.36373E+08         0.45548E+07         0.00000E+00
    0.45548E+07        -0.49904E+08         0.00000E+00
    0.00000E+00         0.00000E+00        -0.36460E+08
 
   -0.36397E+08         0.46683E+07         0.00000E+00
    0.46683E+07        -0.49893E+08         0.00000E+00
    0.00000E+00         0.00000E+00        -0.36460E+08
 
   -0.36422E+08         0.47827E+07         0.00000E+00
    0.47827E+07        -0.49882E+08         0.00000E+00
    0.00000E+00         0.00000E+00        -0.36460E+08
 
   -0.36447E+08         0.48980E+07         0.00000E+00
    0.48980E+07        -0.49869E+08         0.00000E+00
    0.00000E+00         0.00000E+00        -0.36460E+08
 
   -0.34633E+08         0.44459E+05         0.00000E+00
    0.44459E+05        -0.50000E+08         0.00000E+00
    0.00000E+00         0.00000E+00        -0.35902E+08
 
   -0.34675E+08         0.13333E+06         0.00000E+00
    0.13333E+06        -0.50000E+08         0.00000E+00
    0.00000E+00         0.00000E+00        -0.35902E+08
 
   -0.34716E+08         0.22223E+06         0.00000E+00
    0.22223E+06        -0.50001E+08         0.00000E+00
    0.00000E+00         0.00000E+00        -0.35902E+08
 
   -0.34756E+08         0.31120E+06         0.00000E+00
    0.31120E+06        -0.50001E+08         0.00000E+00
    0.00000E+00         0.00000E+00        -0.35902E+08
 
   -0.34795E+08         0.40028E+06         0.00000E+00
    0.40028E+06        -0.50002E+08         0.00000E+00
    0.00000E+00         0.00000E+00        -0.35901E+08
 
   -0.34833E+08         0.48950E+06         0.00000E+00
    0.48950E+06        -0.50003E+08         0.00000E+00
    0.00000E+00         0.00000E+00        -0.35901E+08
 
   -0.34870E+08         0.57890E+06         0.00000E+00
    0.57890E+06        -0.50004E+08         0.00000E+00
    0.00000E+00         0.00000E+00        -0.35901E+08
 
   -0.34905E+08         0.66851E+06         0.00000E+00
    0.66851E+06        -0.50005E+08         0.00000E+00
    0.00000E+00         0.00000E+00        -0.35900E+08
 
   -0.34940E+08         0.75836E+06         0.00000E+00
    0.75836E+06        -0.50007E+08         0.00000E+00
    0.00000E+00         0.00000E+00        -0.35899E+08
 
   -0.34973E+08         0.84849E+06         0.00000E+00
    0.84849E+06        -0.50008E+08         0.00000E+00
    0.00000E+00         0.00000E+00        -0.35899E+08
 
   -0.35006E+08         0.93893E+06         0.00000E+00
    0.93893E+06        -0.50009E+08         0.00000E+00
    0.00000E+00         0.00000E+00        -0.35898E+08
 
   -0.35037E+08         0.10297E+07         0.00000E+00
    0.10297E+07        -0.50011E+08         0.00000E+00
    0.00000E+00         0.00000E+00        -0.35897E+08
 
   -0.35068E+08         0.11209E+07         0.00000E+00
    0.11209E+07        -0.50013E+08         0.00000E+00
    0.00000E+00         0.00000E+00        -0.35897E+08
 
   -0.35098E+08         0.12124E+07         0.00000E+00
    0.12124E+07        -0.50014E+08         0.00000E+00
    0.00000E+00         0.00000E+00        -0.35896E+08
 
   -0.35127E+08         0.13044E+07         0.00000E+00
    0.13044E+07        -0.50016E+08         0.00000E+00
    0.00000E+00         0.00000E+00        -0.35895E+08
 
   -0.35155E+08         0.13968E+07         0.00000E+00
    0.13968E+07        -0.50018E+08         0.00000E+00
    0.00000E+00         0.00000E+00        -0.35894E+08
 
   -0.35182E+08         0.14897E+07         0.00000E+00
    0.14897E+07        -0.50020E+08         0.00000E+00
    0.00000E+00         0.00000E+00        -0.35893E+08
 
   -0.35208E+08         0.15832E+07         0.00000E+00
    0.15832E+07        -0.50021E+08         0.00000E+00
    0.00000E+00         0.00000E+00        -0.35892E+08
 
   -0.35234E+08         0.16771E+07         0.00000E+00
    0.16771E+07        -0.50023E+08         0.00000E+00
    0.00000E+00         0.00000E+00        -0.35891E+08
 
   -0.35259E+08         0.17716E+07         0.00000E+00
    0.17716E+07        -0.50025E+08         0.00000E+00
    0.00000E+00         0.00000E+00        -0.35891E+08
 
   -0.35283E+08         0.18667E+07         0.00000E+00
    0.18667E+07        -0.50026E+08         0.00000E+00
    0.00000E+00         0.00000E+00        -0.35890E+08
 
   -0.35307E+08         0.19624E+07         0.00000E+00
    0.19624E+07        -0.50028E+08         0.00000E+00
    0.00000E+00         0.00000E+00        -0.35889E+08
 
   -0.35330E+08         0.20587E+07         0.00000E+00
    0.20587E+07        -0.50029E+08         0.00000E+00
    0.00000E+00         0.00000E+00        -0.35888E+08
 
   -0.35353E+08         0.21557E+07         0.00000E+00
    0.21557E+07        -0.50030E+08         0.00000E+00
    0.00000E+00         0.00000E+00        -0.35887E+08
 
   -0.35375E+08         0.22533E+07         0.00000E+00
    0.22533E+07        -0.50031E+08         0.00000E+00
    0.00000E+00         0.00000E+00        -0.35886E+08
 
   -0.35396E+08         0.23516E+07         0.00000E+00
    0.23516E+07        -0.50032E+08         0.00000E+00
    0.00000E+00         0.00000E+00        -0.35885E+08
 
   -0.35417E+08         0.24506E+07         0.00000E+00
    0.24506E+07        -0.50033E+08         0.00000E+00
    0.00000E+00         0.00000E+00        -0.35884E+08
 
   -0.35438E+08         0.25504E+07         0.00000E+00
    0.25504E+07        -0.50033E+08         0.00000E+00
    0.00000E+00         0.00000E+00        -0.35883E+08
 
   -0.35458E+08         0.26508E+07         0.00000E+00
    0.26508E+07        -0.50034E+08         0.00000E+00
    0.00000E+00         0.00000E+00        -0.35882E+08
 
   -0.35478E+08         0.27521E+07         0.00000E+00
    0.27521E+07        -0.50033E+08         0.00000E+00
    0.00000E+00         0.00000E+00        -0.35881E+08
 
   -0.35498E+08         0.28540E+07         0.00000E+00
    0.28540E+07        -0.50033E+08         0.00000E+00
    0.00000E+00         0.00000E+00        -0.35880E+08
 
   -0.35517E+08         0.29568E+07         0.00000E+00
    0.29568E+07        -0.50032E+08         0.00000E+00
    0.00000E+00         0.00000E+00        -0.35879E+08
 
   -0.35536E+08         0.30604E+07         0.00000E+00
    0.30604E+07        -0.50032E+08         0.00000E+00
    0.00000E+00         0.00000E+00        -0.35878E+08
 
   -0.35555E+08         0.31648E+07         0.00000E+00
    0.31648E+07        -0.50030E+08         0.00000E+00
    0.00000E+00         0.00000E+00        -0.35878E+08
 
   -0.35574E+08         0.32700E+07         0.00000E+00
    0.32700E+07        -0.50029E+08         0.00000E+00
    0.00000E+00         0.00000E+00        -0.35877E+08
 
   -0.35592E+08         0.33761E+07         0.00000E+00
    0.33761E+07        -0.50026E+08         0.00000E+00
    0.00000E+00         0.00000E+00        -0.35876E+08
 
   -0.35611E+08         0.34830E+07         0.00000E+00
    0.34830E+07        -0.50024E+08         0.00000E+00
    0.00000E+00         0.00000E+00        -0.35875E+08
 
   -0.35629E+08         0.35907E+07         0.00000E+00
    0.35907E+07        -0.50021E+08         0.00000E+00
    0.00000E+00         0.00000E+00        -0.35875E+08
 
   -0.35648E+08         0.36993E+07         0.00000E+00
    0.36993E+07        -0.50018E+08         0.00000E+00
    0.00000E+00         0.00000E+00        -0.35874E+08
 
   -0.35666E+08         0.38089E+07         0.00000E+00
    0.38089E+07        -0.50014E+08         0.00000E+00
    0.00000E+00         0.00000E+00        -0.35873E+08
 
   -0.35685E+08         0.39193E+07         0.00000E+00
    0.39193E+07        -0.50010E+08         0.00000E+00
    0.00000E+00         0.00000E+00        -0.35873E+08
 
   -0.35703E+08         0.40306E+07         0.00000E+00
    0.40306E+07        -0.50005E+08         0.00000E+00
    0.00000E+00         0.00000E+00        -0.35872E+08
 
   -0.35722E+08         0.41428E+07         0.00000E+00
    0.41428E+07        -0.49999E+08         0.00000E+00
    0.00000E+00         0.00000E+00        -0.35872E+08
 
   -0.35741E+08         0.42559E+07         0.00000E+00
    0.42559E+07        -0.49993E+08         0.00000E+00
    0.00000E+00         0.00000E+00        -0.35871E+08
 
   -0.35760E+08         0.43700E+07         0.00000E+00
    0.43700E+07        -0.49987E+08         0.00000E+00
    0.00000E+00         0.00000E+00        -0.35871E+08
 
   -0.35779E+08         0.44850E+07         0.00000E+00
    0.44850E+07        -0.49980E+08         0.00000E+00
    0.00000E+00         0.00000E+00        -0.35871E+08
 
   -0.35799E+08         0.46009E+07         0.00000E+00
    0.46009E+07        -0.49972E+08         0.00000E+00
    0.00000E+00         0.00000E+00        -0.35870E+08
 
   -0.35819E+08         0.47178E+07         0.00000E+00
    0.47178E+07        -0.49964E+08         0.00000E+00
    0.00000E+00         0.00000E+00        -0.35870E+08
 
   -0.35839E+08         0.48356E+07         0.00000E+00
    0.48356E+07        -0.49955E+08         0.00000E+00
    0.00000E+00         0.00000E+00        -0.35870E+08
 
   -0.35860E+08         0.49544E+07         0.00000E+00
    0.49544E+07        -0.49945E+08         0.00000E+00
    0.00000E+00         0.00000E+00        -0.35870E+08
 
   -0.34191E+08         0.43781E+05         0.00000E+00
    0.43781E+05        -0.50000E+08         0.00000E+00
    0.00000E+00         0.00000E+00        -0.35294E+08
 
   -0.34233E+08         0.13142E+06         0.00000E+00
    0.13142E+06        -0.50000E+08         0.00000E+00
    0.00000E+00         0.00000E+00        -0.35294E+08
 
   -0.34274E+08         0.21913E+06         0.00000E+00
    0.21913E+06        -0.50001E+08         0.00000E+00
    0.00000E+00         0.00000E+00        -0.35294E+08
 
   -0.34314E+08         0.30697E+06         0.00000E+00
    0.30697E+06        -0.50002E+08         0.00000E+00
    0.00000E+00         0.00000E+00        -0.35294E+08
 
   -0.34352E+08         0.39498E+06         0.00000E+00
    0.39498E+06        -0.50003E+08         0.00000E+00
    0.00000E+00         0.00000E+00        -0.35294E+08
 
   -0.34389E+08         0.48319E+06         0.00000E+00
    0.48319E+06        -0.50005E+08         0.00000E+00
    0.00000E+00         0.00000E+00        -0.35293E+08
 
   -0.34424E+08         0.57165E+06         0.00000E+00
    0.57165E+06        -0.50006E+08         0.00000E+00
    0.00000E+00         0.00000E+00        -0.35293E+08
 
   -0.34459E+08         0.66039E+06         0.00000E+00
    0.66039E+06        -0.50008E+08         0.00000E+00
    0.00000E+00         0.00000E+00        -0.35292E+08
 
   -0.34492E+08         0.74944E+06         0.00000E+00
    0.74944E+06        -0.50010E+08         0.00000E+00
    0.00000E+00         0.00000E+00        -0.35292E+08
 
   -0.34524E+08         0.83885E+06         0.00000E+00
    0.83885E+06        -0.50012E+08         0.00000E+00
    0.00000E+00         0.00000E+00        -0.35291E+08
 
   -0.34554E+08         0.92865E+06         0.00000E+00
    0.92865E+06        -0.50015E+08         0.00000E+00
    0.00000E+00         0.00000E+00        -0.35290E+08
 
   -0.34584E+08         0.10189E+07         0.00000E+00
    0.10189E+07        -0.50018E+08         0.00000E+00
    0.00000E+00         0.00000E+00        -0.35290E+08
 
   -0.34612E+08         0.11096E+07         0.00000E+00
    0.11096E+07        -0.50020E+08         0.00000E+00
    0.00000E+00         0.00000E+00        -0.35289E+08
 
   -0.34640E+08         0.12007E+07         0.00000E+00
    0.12007E+07        -0.50023E+08         0.00000E+00
    0.00000E+00         0.00000E+00        -0.35288E+08
 
   -0.34666E+08         0.12924E+07         0.00000E+00
    0.12924E+07        -0.50026E+08         0.00000E+00
    0.00000E+00         0.00000E+00        -0.35287E+08
 
   -0.34692E+08         0.13846E+07         0.00000E+00
    0.13846E+07        -0.50029E+08         0.00000E+00
    0.00000E+00         0.00000E+00        -0.35286E+08
 
   -0.34716E+08         0.14774E+07         0.00000E+00
    0.14774E+07        -0.50033E+08         0.00000E+00
    0.00000E+00         0.00000E+00        -0.35285E+08
 
   -0.34740E+08         0.15709E+07         0.00000E+00
    0.15709E+07        -0.50036E+08         0.00000E+00
    0.00000E+00         0.00000E+00        -0.35285E+08
 
   -0.34762E+08         0.16649E+07         0.00000E+00
    0.16649E+07        -0.50039E+08         0.00000E+00
    0.00000E+00         0.00000E+00        -0.35284E+08
 
   -0.34784E+08         0.17596E+07         0.00000E+00
    0.17596E+07        -0.50042E+08         0.00000E+00
    0.00000E+00         0.00000E+00        -0.35283E+08
 
   -0.34805E+08         0.18550E+07         0.00000E+00
    0.18550E+07        -0.50046E+08         0.00000E+00
    0.00000E+00         0.00000E+00        -0.35282E+08
 
   -0.34826E+08         0.19511E+07         0.00000E+00
    0.19511E+07        -0.50049E+08         0.00000E+00
    0.00000E+00         0.00000E+00        -0.35281E+08
 
   -0.34846E+08         0.20479E+07         0.00000E+00
    0.20479E+07        -0.50052E+08         0.00000E+00
    0.00000E+00         0.00000E+00        -0.35280E+08
 
   -0.34865E+08         0.21455E+07         0.00000E+00
    0.21455E+07        -0.50055E+08         0.00000E+00
    0.00000E+00         0.00000E+00        -0.35279E+08
 
   -0.34883E+08         0.22438E+07         0.00000E+00
    0.22438E+07        -0.50058E+08         0.00000E+00
    0.00000E+00         0.00000E+00        -0.35278E+08
 
   -0.34901E+08         0.23430E+07         0.00000E+00
    0.23430E+07        -0.50061E+08         0.00000E+00
    0.00000E+00         0.00000E+00        -0.35277E+08
 
   -0.34918E+08         0.24429E+07         0.00000E+00
    0.24429E+07        -0.50063E+08         0.00000E+00
    0.00000E+00         0.00000E+00        -0.35276E+08
 
   -0.34935E+08         0.25437E+07         0.00000E+00
    0.25437E+07        -0.50066E+08         0.00000E+00
    0.00000E+00         0.00000E+00        -0.35275E+08
 
   -0.34951E+08         0.26453E+07         0.00000E+00
    0.26453E+07        -0.50068E+08         0.00000E+00
    0.00000E+00         0.00000E+00        -0.35274E+08
 
   -0.34967E+08         0.27478E+07         0.00000E+00
    0.27478E+07        -0.50070E+08         0.00000E+00
    0.00000E+00         0.00000E+00        -0.35273E+08
 
   -0.34982E+08         0.28511E+07         0.00000E+00
    0.28511E+07        -0.50072E+08         0.00000E+00
    0.00000E+00         0.00000E+00        -0.35272E+08
 
   -0.34997E+08         0.29554E+07         0.00000E+00
    0.29554E+07        -0.50073E+08         0.00000E+00
    0.00000E+00         0.00000E+00        -0.35271E+08
 
   -0.35012E+08         0.30606E+07         0.00000E+00
    0.30606E+07        -0.50075E+08         0.00000E+00
    0.00000E+00         0.00000E+00        -0.35270E+08
 
   -0.35027E+08         0.31667E+07         0.00000E+00
    0.31667E+07        -0.50076E+08         0.00000E+00
    0.00000E+00         0.00000E+00        -0.35270E+08
 
   -0.35041E+08         0.32737E+07         0.00000E+00
    0.32737E+07        -0.50076E+08         0.00000E+00
    0.00000E+00         0.00000E+00        -0.35269E+08
 
   -0.35055E+08         0.33817E+07         0.00000E+00
    0.33817E+07        -0.50076E+08         0.00000E+00
    0.00000E+00         0.00000E+00        -0.35268E+08
 
   -0.35069E+08         0.34906E+07         0.00000E+00
    0.34906E+07        -0.50076E+08         0.00000E+00
    0.00000E+00         0.00000E+00        -0.35267E+08
 
   -0.35083E+08         0.36005E+07         0.00000E+00
    0.36005E+07        -0.50076E+08         0.00000E+00
    0.00000E+00         0.00000E+00        -0.35267E+08
 
   -0.35097E+08         0.37114E+07         0.00000E+00
    0.37114E+07        -0.50075E+08         0.00000E+00
    0.00000E+00         0.00000E+00        -0.35266E+08
 
   -0.35110E+08         0.38233E+07         0.00000E+00
    0.38233E+07        -0.50073E+08         0.00000E+00
    0.00000E+00         0.00000E+00        -0.35265E+08
 
   -0.35124E+08         0.39362E+07         0.00000E+00
    0.39362E+07        -0.50071E+08         0.00000E+00
    0.00000E+00         0.00000E+00        -0.35265E+08
 
   -0.35138E+08         0.40501E+07         0.00000E+00
    0.40501E+07        -0.50069E+08         0.00000E+00
    0.00000E+00         0.00000E+00        -0.35264E+08
 
   -0.35152E+08         0.41650E+07         0.00000E+00
    0.41650E+07        -0.50066E+08         0.00000E+00
    0.00000E+00         0.00000E+00        -0.35264E+08
 
   -0.35166E+08         0.42810E+07         0.00000E+00
    0.42810E+07        -0.50063E+08         0.00000E+00
    0.00000E+00         0.00000E+00        -0.35263E+08
 
   -0.35180E+08         0.43980E+07         0.00000E+00
    0.43980E+07        -0.50059E+08         0.00000E+00
    0.00000E+00         0.00000E+00        -0.35263E+08
 
   -0.35194E+08         0.45160E+07         0.00000E+00
    0.45160E+07        -0.50054E+08         0.00000E+00
    0.00000E+00         0.00000E+00        -0.35263E+08
 
   -0.35209E+08         0.46351E+07         0.00000E+00
    0.46351E+07        -0.50049E+08         0.00000E+00
    0.00000E+00         0.00000E+00        -0.35262E+08
 
   -0.35224E+08         0.47552E+07         0.00000E+00
    0.47552E+07        -0.50043E+08         0.00000E+00
    0.00000E+00         0.00000E+00        -0.35262E+08
 
   -0.35239E+08         0.48764E+07         0.00000E+00
    0.48764E+07        -0.50036E+08         0.00000E+00
    0.00000E+00         0.00000E+00        -0.35262E+08
 
   -0.35254E+08         0.49987E+07         0.00000E+00
    0.49987E+07        -0.50029E+08         0.00000E+00
    0.00000E+00         0.00000E+00        -0.35262E+08
 
   -0.33757E+08         0.42811E+05         0.00000E+00
    0.42811E+05        -0.50000E+08         0.00000E+00
    0.00000E+00         0.00000E+00        -0.34668E+08
 
   -0.33799E+08         0.12865E+06         0.00000E+00
    0.12865E+06        -0.50001E+08         0.00000E+00
    0.00000E+00         0.00000E+00        -0.34668E+08
 
   -0.33839E+08         0.21464E+06         0.00000E+00
    0.21464E+06        -0.50001E+08         0.00000E+00
    0.00000E+00         0.00000E+00        -0.34668E+08
 
   -0.33878E+08         0.30082E+06         0.00000E+00
    0.30082E+06        -0.50003E+08         0.00000E+00
    0.00000E+00         0.00000E+00        -0.34668E+08
 
   -0.33915E+08         0.38723E+06         0.00000E+00
    0.38723E+06        -0.50004E+08         0.00000E+00
    0.00000E+00         0.00000E+00        -0.34668E+08
 
   -0.33951E+08         0.47392E+06         0.00000E+00
    0.47392E+06        -0.50006E+08         0.00000E+00
    0.00000E+00         0.00000E+00        -0.34667E+08
 
   -0.33985E+08         0.56094E+06         0.00000E+00
    0.56094E+06        -0.50009E+08         0.00000E+00
    0.00000E+00         0.00000E+00        -0.34667E+08
 
   -0.34017E+08         0.64832E+06         0.00000E+00
    0.64832E+06        -0.50011E+08         0.00000E+00
    0.00000E+00         0.00000E+00        -0.34666E+08
 
   -0.34048E+08         0.73611E+06         0.00000E+00
    0.73611E+06        -0.50014E+08         0.00000E+00
    0.00000E+00         0.00000E+00        -0.34666E+08
 
   -0.34078E+08         0.82434E+06         0.00000E+00
    0.82434E+06        -0.50018E+08         0.00000E+00
    0.00000E+00         0.00000E+00        -0.34665E+08
 
   -0.34107E+08         0.91305E+06         0.00000E+00
    0.91305E+06        -0.50021E+08         0.00000E+00
    0.00000E+00         0.00000E+00        -0.34664E+08
 
   -0.34134E+08         0.10023E+07         0.00000E+00
    0.10023E+07        -0.50025E+08         0.00000E+00
    0.00000E+00         0.00000E+00        -0.34664E+08
 
   -0.34160E+08         0.10921E+07         0.00000E+00
    0.10921E+07        -0.50029E+08         0.00000E+00
    0.00000E+00         0.00000E+00        -0.34663E+08
 
   -0.34184E+08         0.11825E+07         0.00000E+00
    0.11825E+07        -0.50033E+08         0.00000E+00
    0.00000E+00         0.00000E+00        -0.34662E+08
 
   -0.34208E+08         0.12735E+07         0.00000E+00
    0.12735E+07        -0.50038E+08         0.00000E+00
    0.00000E+00         0.00000E+00        -0.34661E+08
 
   -0.34230E+08         0.13651E+07         0.00000E+00
    0.13651E+07        -0.50042E+08         0.00000E+00
    0.00000E+00         0.00000E+00        -0.34660E+08
 
   -0.34251E+08         0.14575E+07         0.00000E+00
    0.14575E+07        -0.50047E+08         0.00000E+00
    0.00000E+00         0.00000E+00        -0.34659E+08
 
   -0.34272E+08         0.15505E+07         0.00000E+00
    0.15505E+07        -0.50052E+08         0.00000E+00
    0.00000E+00         0.00000E+00        -0.34659E+08
 
   -0.34291E+08         0.16443E+07         0.00000E+00
    0.16443E+07        -0.50057E+08         0.00000E+00
    0.00000E+00         0.00000E+00        -0.34658E+08
 
   -0.34309E+08         0.17389E+07         0.00000E+00
    0.17389E+07        -0.50062E+08         0.00000E+00
    0.00000E+00         0.00000E+00        -0.34657E+08
 
   -0.34327E+08         0.18343E+07         0.00000E+00
    0.18343E+07        -0.50067E+08         0.00000E+00
    0.00000E+00         0.00000E+00        -0.34656E+08
 
   -0.34343E+08         0.19305E+07         0.00000E+00
    0.19305E+07        -0.50072E+08         0.00000E+00
    0.00000E+00         0.00000E+00        -0.34655E+08
 
   -0.34359E+08         0.20275E+07         0.00000E+00
    0.20275E+07        -0.50077E+08         0.00000E+00
    0.00000E+00         0.00000E+00        -0.34654E+08
 
   -0.34374E+08         0.21254E+07         0.00000E+00
    0.21254E+07        -0.50082E+08         0.00000E+00
    0.00000E+00         0.00000E+00        -0.34653E+08
 
   -0.34388E+08         0.22242E+07         0.00000E+00
    0.22242E+07        -0.50087E+08         0.00000E+00
    0.00000E+00         0.00000E+00        -0.34652E+08
 
   -0.34401E+08         0.23239E+07         0.00000E+00
    0.23239E+07        -0.50092E+08         0.00000E+00
    0.00000E+00         0.00000E+00        -0.34651E+08
 
   -0.34414E+08         0.24246E+07         0.00000E+00
    0.24246E+07        -0.50097E+08         0.00000E+00
    0.00000E+00         0.00000E+00        -0.34650E+08
 
   -0.34426E+08         0.25262E+07         0.00000E+00
    0.25262E+07        -0.50102E+08         0.00000E+00
    0.00000E+00         0.00000E+00        -0.34649E+08
 
   -0.34438E+08         0.26287E+07         0.00000E+00
    0.26287E+07        -0.50107E+08         0.00000E+00
    0.00000E+00         0.00000E+00        -0.34648E+08
 
   -0.34449E+08         0.27323E+07         0.00000E+00
    0.27323E+07        -0.50111E+08         0.00000E+00
    0.00000E+00         0.00000E+00        -0.34647E+08
 
   -0.34460E+08         0.28368E+07         0.00000E+00
    0.28368E+07        -0.50115E+08         0.00000E+00
    0.00000E+00         0.00000E+00        -0.34646E+08
 
   -0.34470E+08         0.29424E+07         0.00000E+00
    0.29424E+07        -0.50119E+08         0.00000E+00
    0.00000E+00         0.00000E+00        -0.34645E+08
 
   -0.34480E+08         0.30490E+07         0.00000E+00
    0.30490E+07        -0.50123E+08         0.00000E+00
    0.00000E+00         0.00000E+00        -0.34645E+08
 
   -0.34490E+08         0.31566E+07         0.00000E+00
    0.31566E+07        -0.50126E+08         0.00000E+00
    0.00000E+00         0.00000E+00        -0.34644E+08
 
   -0.34499E+08         0.32653E+07         0.00000E+00
    0.32653E+07        -0.50129E+08         0.00000E+00
    0.00000E+00         0.00000E+00        -0.34643E+08
 
   -0.34508E+08         0.33751E+07         0.00000E+00
    0.33751E+07        -0.50132E+08         0.00000E+00
    0.00000E+00         0.00000E+00        -0.34642E+08
 
   -0.34517E+08         0.34859E+07         0.00000E+00
    0.34859E+07        -0.50135E+08         0.00000E+00
    0.00000E+00         0.00000E+00        -0.34642E+08
 
   -0.34526E+08         0.35979E+07         0.00000E+00
    0.35979E+07        -0.50137E+08         0.00000E+00
    0.00000E+00         0.00000E+00        -0.34641E+08
 
   -0.34534E+08         0.37109E+07         0.00000E+00
    0.37109E+07        -0.50138E+08         0.00000E+00
    0.00000E+00         0.00000E+00        -0.34640E+08
 
   -0.34543E+08         0.38250E+07         0.00000E+00
    0.38250E+07        -0.50140E+08         0.00000E+00
    0.00000E+00         0.00000E+00        -0.34640E+08
 
   -0.34551E+08         0.39403E+07         0.00000E+00
    0.39403E+07        -0.50140E+08         0.00000E+00
    0.00000E+00         0.00000E+00        -0.34639E+08
 
   -0.34559E+08         0.40567E+07         0.00000E+00
    0.40567E+07        -0.50141E+08         0.00000E+00
    0.00000E+00         0.00000E+00        -0.34639E+08
 
   -0.34568E+08         0.41742E+07         0.00000E+00
    0.41742E+07        -0.50140E+08         0.00000E+00
    0.00000E+00         0.00000E+00        -0.34638E+08
 
   -0.34576E+08         0.42929E+07         0.00000E+00
    0.42929E+07        -0.50140E+08         0.00000E+00
    0.00000E+00         0.00000E+00        -0.34638E+08
 
   -0.34585E+08         0.44128E+07         0.00000E+00
    0.44128E+07        -0.50138E+08         0.00000E+00
    0.00000E+00         0.00000E+00        -0.34637E+08
 
   -0.34594E+08         0.45338E+07         0.00000E+00
    0.45338E+07        -0.50137E+08         0.00000E+00
    0.00000E+00         0.00000E+00        -0.34637E+08
 
   -0.34603E+08         0.46559E+07         0.00000E+00
    0.46559E+07        -0.50134E+08         0.00000E+00
    0.00000E+00         0.00000E+00        -0.34637E+08
 
   -0.34612E+08         0.47793E+07         0.00000E+00
    0.47793E+07        -0.50131E+08         0.00000E+00
    0.00000E+00         0.00000E+00        -0.34637E+08
 
   -0.34622E+08         0.49038E+07         0.00000E+00
    0.49038E+07        -0.50127E+08         0.00000E+00
    0.00000E+00         0.00000E+00        -0.34636E+08
 
   -0.34631E+08         0.50295E+07         0.00000E+00
    0.50295E+07        -0.50123E+08         0.00000E+00
    0.00000E+00         0.00000E+00        -0.34636E+08
 
   -0.33334E+08         0.41507E+05         0.00000E+00
    0.41507E+05        -0.50000E+08         0.00000E+00
    0.00000E+00         0.00000E+00        -0.34025E+08
 
   -0.33375E+08         0.12493E+06         0.00000E+00
    0.12493E+06        -0.50001E+08         0.00000E+00
    0.00000E+00         0.00000E+00        -0.34025E+08
 
   -0.33415E+08         0.20856E+06         0.00000E+00
    0.20856E+06        -0.50002E+08         0.00000E+00
    0.00000E+00         0.00000E+00        -0.34024E+08
 
   -0.33452E+08         0.29247E+06         0.00000E+00
    0.29247E+06        -0.50004E+08         0.00000E+00
    0.00000E+00         0.00000E+00        -0.34024E+08
 
   -0.33488E+08         0.37670E+06         0.00000E+00
    0.37670E+06        -0.50006E+08         0.00000E+00
    0.00000E+00         0.00000E+00        -0.34024E+08
 
   -0.33521E+08         0.46130E+06         0.00000E+00
    0.46130E+06        -0.50008E+08         0.00000E+00
    0.00000E+00         0.00000E+00        -0.34023E+08
 
   -0.33553E+08         0.54632E+06         0.00000E+00
    0.54632E+06        -0.50011E+08         0.00000E+00
    0.00000E+00         0.00000E+00        -0.34023E+08
 
   -0.33584E+08         0.63180E+06         0.00000E+00
    0.63180E+06        -0.50015E+08         0.00000E+00
    0.00000E+00         0.00000E+00        -0.34022E+08
 
   -0.33613E+08         0.71779E+06         0.00000E+00
    0.71779E+06        -0.50019E+08         0.00000E+00
    0.00000E+00         0.00000E+00        -0.34022E+08
 
   -0.33640E+08         0.80433E+06         0.00000E+00
    0.80433E+06        -0.50023E+08         0.00000E+00
    0.00000E+00         0.00000E+00        -0.34021E+08
 
   -0.33665E+08         0.89147E+06         0.00000E+00
    0.89147E+06        -0.50028E+08         0.00000E+00
    0.00000E+00         0.00000E+00        -0.34021E+08
 
   -0.33690E+08         0.97924E+06         0.00000E+00
    0.97924E+06        -0.50033E+08         0.00000E+00
    0.00000E+00         0.00000E+00        -0.34020E+08
 
   -0.33712E+08         0.10677E+07         0.00000E+00
    0.10677E+07        -0.50039E+08         0.00000E+00
    0.00000E+00         0.00000E+00        -0.34019E+08
 
   -0.33734E+08         0.11568E+07         0.00000E+00
    0.11568E+07        -0.50045E+08         0.00000E+00
    0.00000E+00         0.00000E+00        -0.34018E+08
 
   -0.33754E+08         0.12467E+07         0.00000E+00
    0.12467E+07        -0.50051E+08         0.00000E+00
    0.00000E+00         0.00000E+00        -0.34017E+08
 
   -0.33772E+08         0.13374E+07         0.00000E+00
    0.13374E+07        -0.50057E+08         0.00000E+00
    0.00000E+00         0.00000E+00        -0.34017E+08
 
   -0.33790E+08         0.14289E+07         0.00000E+00
    0.14289E+07        -0.50063E+08         0.00000E+00
    0.00000E+00         0.00000E+00        -0.34016E+08
 
   -0.33806E+08         0.15212E+07         0.00000E+00
    0.15212E+07        -0.50070E+08         0.00000E+00
    0.00000E+00         0.00000E+00        -0.34015E+08
 
   -0.33821E+08         0.16144E+07         0.00000E+00
    0.16144E+07        -0.50077E+08         0.00000E+00
    0.00000E+00         0.00000E+00        -0.34014E+08
 
   -0.33835E+08         0.17085E+07         0.00000E+00
    0.17085E+07        -0.50084E+08         0.00000E+00
    0.00000E+00         0.00000E+00        -0.34013E+08
 
   -0.33848E+08         0.18035E+07         0.00000E+00
    0.18035E+07        -0.50091E+08         0.00000E+00
    0.00000E+00         0.00000E+00        -0.34012E+08
 
   -0.33860E+08         0.18995E+07         0.00000E+00
    0.18995E+07        -0.50099E+08         0.00000E+00
    0.00000E+00         0.00000E+00        -0.34011E+08
 
   -0.33871E+08         0.19965E+07         0.00000E+00
    0.19965E+07        -0.50106E+08         0.00000E+00
    0.00000E+00         0.00000E+00        -0.34010E+08
 
   -0.33881E+08         0.20944E+07         0.00000E+00
    0.20944E+07        -0.50113E+08         0.00000E+00
    0.00000E+00         0.00000E+00        -0.34009E+08
 
   -0.33891E+08         0.21934E+07         0.00000E+00
    0.21934E+07        -0.50121E+08         0.00000E+00
    0.00000E+00         0.00000E+00        -0.34008E+08
 
   -0.33899E+08         0.22935E+07         0.00000E+00
    0.22935E+07        -0.50128E+08         0.00000E+00
    0.00000E+00         0.00000E+00        -0.34007E+08
 
   -0.33907E+08         0.23946E+07         0.00000E+00
    0.23946E+07        -0.50135E+08         0.00000E+00
    0.00000E+00         0.00000E+00        -0.34006E+08
 
   -0.33914E+08         0.24967E+07         0.00000E+00
    0.24967E+07        -0.50142E+08         0.00000E+00
    0.00000E+00         0.00000E+00        -0.34006E+08
 
   -0.33921E+08         0.26000E+07         0.00000E+00
    0.26000E+07        -0.50150E+08         0.00000E+00
    0.00000E+00         0.00000E+00        -0.34005E+08
 
   -0.33927E+08         0.27044E+07         0.00000E+00
    0.27044E+07        -0.50157E+08         0.00000E+00
    0.00000E+00         0.00000E+00        -0.34004E+08
 
   -0.33932E+08         0.28099E+07         0.00000E+00
    0.28099E+07        -0.50163E+08         0.00000E+00
    0.00000E+00         0.00000E+00        -0.34003E+08
 
   -0.33937E+08         0.29166E+07         0.00000E+00
    0.29166E+07        -0.50170E+08         0.00000E+00
    0.00000E+00         0.00000E+00        -0.34002E+08
 
   -0.33941E+08         0.30245E+07         0.00000E+00
    0.30245E+07        -0.50176E+08         0.00000E+00
    0.00000E+00         0.00000E+00        -0.34001E+08
 
   -0.33945E+08         0.31335E+07         0.00000E+00
    0.31335E+07        -0.50183E+08         0.00000E+00
    0.00000E+00         0.00000E+00        -0.34000E+08
 
   -0.33949E+08         0.32437E+07         0.00000E+00
    0.32437E+07        -0.50188E+08         0.00000E+00
    0.00000E+00         0.00000E+00        -0.34000E+08
 
   -0.33952E+08         0.33551E+07         0.00000E+00
    0.33551E+07        -0.50194E+08         0.00000E+00
    0.00000E+00         0.00000E+00        -0.33999E+08
 
   -0.33955E+08         0.34677E+07         0.00000E+00
    0.34677E+07        -0.50199E+08         0.00000E+00
    0.00000E+00         0.00000E+00        -0.33998E+08
 
   -0.33958E+08         0.35815E+07         0.00000E+00
    0.35815E+07        -0.50204E+08         0.00000E+00
    0.00000E+00         0.00000E+00        -0.33998E+08
 
   -0.33961E+08         0.36965E+07         0.00000E+00
    0.36965E+07        -0.50209E+08         0.00000E+00
    0.00000E+00         0.00000E+00        -0.33997E+08
 
   -0.33963E+08         0.38128E+07         0.00000E+00
    0.38128E+07        -0.50213E+08         0.00000E+00
    0.00000E+00         0.00000E+00        -0.33996E+08
 
   -0.33966E+08         0.39303E+07         0.00000E+00
    0.39303E+07        -0.50217E+08         0.00000E+00
    0.00000E+00         0.00000E+00        -0.33996E+08
 
   -0.33968E+08         0.40491E+07         0.00000E+00
    0.40491E+07        -0.50220E+08         0.00000E+00
    0.00000E+00         0.00000E+00        -0.33995E+08
 
   -0.33971E+08         0.41692E+07         0.00000E+00
    0.41692E+07        -0.50223E+08         0.00000E+00
    0.00000E+00         0.00000E+00        -0.33995E+08
 
   -0.33973E+08         0.42905E+07         0.00000E+00
    0.42905E+07        -0.50225E+08         0.00000E+00
    0.00000E+00         0.00000E+00        -0.33994E+08
 
   -0.33976E+08         0.44131E+07         0.00000E+00
    0.44131E+07        -0.50227E+08         0.00000E+00
    0.00000E+00         0.00000E+00        -0.33994E+08
 
   -0.33979E+08         0.45369E+07         0.00000E+00
    0.45369E+07        -0.50228E+08         0.00000E+00
    0.00000E+00         0.00000E+00        -0.33994E+08
 
   -0.33981E+08         0.46621E+07         0.00000E+00
    0.46621E+07        -0.50228E+08         0.00000E+00
    0.00000E+00         0.00000E+00        -0.33994E+08
 
   -0.33984E+08         0.47885E+07         0.00000E+00
    0.47885E+07        -0.50229E+08         0.00000E+00
    0.00000E+00         0.00000E+00        -0.33993E+08
 
   -0.33988E+08         0.49163E+07         0.00000E+00
    0.49163E+07        -0.50228E+08         0.00000E+00
    0.00000E+00         0.00000E+00        -0.33993E+08
 
   -0.33991E+08         0.50453E+07         0.00000E+00
    0.50453E+07        -0.50227E+08         0.00000E+00
    0.00000E+00         0.00000E+00        -0.33993E+08
 
   -0.32925E+08         0.39820E+05         0.00000E+00
    0.39820E+05        -0.50000E+08         0.00000E+00
    0.00000E+00         0.00000E+00        -0.33363E+08
 
   -0.32965E+08         0.12010E+06         0.00000E+00
    0.12010E+06        -0.50001E+08         0.00000E+00
    0.00000E+00         0.00000E+00        -0.33363E+08
 
   -0.33003E+08         0.20068E+06         0.00000E+00
    0.20068E+06        -0.50002E+08         0.00000E+00
    0.00000E+00         0.00000E+00        -0.33363E+08
 
   -0.33039E+08         0.28164E+06         0.00000E+00
    0.28164E+06        -0.50004E+08         0.00000E+00
    0.00000E+00         0.00000E+00        -0.33363E+08
 
   -0.33072E+08         0.36303E+06         0.00000E+00
    0.36303E+06        -0.50007E+08         0.00000E+00
    0.00000E+00         0.00000E+00        -0.33362E+08
 
   -0.33104E+08         0.44489E+06         0.00000E+00
    0.44489E+06        -0.50011E+08         0.00000E+00
    0.00000E+00         0.00000E+00        -0.33362E+08
 
   -0.33133E+08         0.52728E+06         0.00000E+00
    0.52728E+06        -0.50015E+08         0.00000E+00
    0.00000E+00         0.00000E+00        -0.33362E+08
 
   -0.33161E+08         0.61026E+06         0.00000E+00
    0.61026E+06        -0.50019E+08         0.00000E+00
    0.00000E+00         0.00000E+00        -0.33361E+08
 
   -0.33187E+08         0.69387E+06         0.00000E+00
    0.69387E+06        -0.50024E+08         0.00000E+00
    0.00000E+00         0.00000E+00        -0.33361E+08
 
   -0.33211E+08         0.77816E+06         0.00000E+00
    0.77816E+06        -0.50030E+08         0.00000E+00
    0.00000E+00         0.00000E+00        -0.33360E+08
 
   -0.33233E+08         0.86317E+06         0.00000E+00
    0.86317E+06        -0.50036E+08         0.00000E+00
    0.00000E+00         0.00000E+00        -0.33359E+08
 
   -0.33254E+08         0.94895E+06         0.00000E+00
    0.94895E+06        -0.50043E+08         0.00000E+00
    0.00000E+00         0.00000E+00        -0.33359E+08
 
   -0.33273E+08         0.10355E+07         0.00000E+00
    0.10355E+07        -0.50050E+08         0.00000E+00
    0.00000E+00         0.00000E+00        -0.33358E+08
 
   -0.33290E+08         0.11230E+07         0.00000E+00
    0.11230E+07        -0.50057E+08         0.00000E+00
    0.00000E+00         0.00000E+00        -0.33357E+08
 
   -0.33306E+08         0.12113E+07         0.00000E+00
    0.12113E+07        -0.50065E+08         0.00000E+00
    0.00000E+00         0.00000E+00        -0.33356E+08
 
   -0.33320E+08         0.13005E+07         0.00000E+00
    0.13005E+07        -0.50073E+08         0.00000E+00
    0.00000E+00         0.00000E+00        -0.33355E+08
 
   -0.33333E+08         0.13907E+07         0.00000E+00
    0.13907E+07        -0.50082E+08         0.00000E+00
    0.00000E+00         0.00000E+00        -0.33355E+08
 
   -0.33345E+08         0.14819E+07         0.00000E+00
    0.14819E+07        -0.50091E+08         0.00000E+00
    0.00000E+00         0.00000E+00        -0.33354E+08
 
   -0.33355E+08         0.15741E+07         0.00000E+00
    0.15741E+07        -0.50100E+08         0.00000E+00
    0.00000E+00         0.00000E+00        -0.33353E+08
 
   -0.33364E+08         0.16674E+07         0.00000E+00
    0.16674E+07        -0.50109E+08         0.00000E+00
    0.00000E+00         0.00000E+00        -0.33352E+08
 
   -0.33372E+08         0.17617E+07         0.00000E+00
    0.17617E+07        -0.50118E+08         0.00000E+00
    0.00000E+00         0.00000E+00        -0.33351E+08
 
   -0.33379E+08         0.18571E+07         0.00000E+00
    0.18571E+07        -0.50128E+08         0.00000E+00
    0.00000E+00         0.00000E+00        -0.33350E+08
 
   -0.33385E+08         0.19537E+07         0.00000E+00
    0.19537E+07        -0.50138E+08         0.00000E+00
    0.00000E+00         0.00000E+00        -0.33349E+08
 
   -0.33389E+08         0.20514E+07         0.00000E+00
    0.20514E+07        -0.50148E+08         0.00000E+00
    0.00000E+00         0.00000E+00        -0.33348E+08
 
   -0.33393E+08         0.21503E+07         0.00000E+00
    0.21503E+07        -0.50157E+08         0.00000E+00
    0.00000E+00         0.00000E+00        -0.33347E+08
 
   -0.33396E+08         0.22503E+07         0.00000E+00
    0.22503E+07        -0.50167E+08         0.00000E+00
    0.00000E+00         0.00000E+00        -0.33347E+08
 
   -0.33398E+08         0.23516E+07         0.00000E+00
    0.23516E+07        -0.50177E+08         0.00000E+00
    0.00000E+00         0.00000E+00        -0.33346E+08
 
   -0.33400E+08         0.24541E+07         0.00000E+00
    0.24541E+07        -0.50187E+08         0.00000E+00
    0.00000E+00         0.00000E+00        -0.33345E+08
 
   -0.33400E+08         0.25579E+07         0.00000E+00
    0.25579E+07        -0.50197E+08         0.00000E+00
    0.00000E+00         0.00000E+00        -0.33344E+08
 
   -0.33400E+08         0.26629E+07         0.00000E+00
    0.26629E+07        -0.50207E+08         0.00000E+00
    0.00000E+00         0.00000E+00        -0.33343E+08
 
   -0.33399E+08         0.27692E+07         0.00000E+00
    0.27692E+07        -0.50217E+08         0.00000E+00
    0.00000E+00         0.00000E+00        -0.33342E+08
 
   -0.33398E+08         0.28768E+07         0.00000E+00
    0.28768E+07        -0.50226E+08         0.00000E+00
    0.00000E+00         0.00000E+00        -0.33341E+08
 
   -0.33396E+08         0.29857E+07         0.00000E+00
    0.29857E+07        -0.50236E+08         0.00000E+00
    0.00000E+00         0.00000E+00        -0.33341E+08
 
   -0.33394E+08         0.30959E+07         0.00000E+00
    0.30959E+07        -0.50245E+08         0.00000E+00
    0.00000E+00         0.00000E+00        -0.33340E+08
 
   -0.33391E+08         0.32074E+07         0.00000E+00
    0.32074E+07        -0.50254E+08         0.00000E+00
    0.00000E+00         0.00000E+00        -0.33339E+08
 
   -0.33388E+08         0.33203E+07         0.00000E+00
    0.33203E+07        -0.50262E+08         0.00000E+00
    0.00000E+00         0.00000E+00        -0.33338E+08
 
   -0.33385E+08         0.34345E+07         0.00000E+00
    0.34345E+07        -0.50271E+08         0.00000E+00
    0.00000E+00         0.00000E+00        -0.33338E+08
 
   -0.33381E+08         0.35501E+07         0.00000E+00
    0.35501E+07        -0.50279E+08         0.00000E+00
    0.00000E+00         0.00000E+00        -0.33337E+08
 
   -0.33378E+08         0.36670E+07         0.00000E+00
    0.36670E+07        -0.50286E+08         0.00000E+00
    0.00000E+00         0.00000E+00        -0.33337E+08
 
   -0.33374E+08         0.37853E+07         0.00000E+00
    0.37853E+07        -0.50294E+08         0.00000E+00
    0.00000E+00         0.00000E+00        -0.33336E+08
 
   -0.33370E+08         0.39050E+07         0.00000E+00
    0.39050E+07        -0.50301E+08         0.00000E+00
    0.00000E+00         0.00000E+00        -0.33335E+08
 
   -0.33365E+08         0.40260E+07         0.00000E+00
    0.40260E+07        -0.50307E+08         0.00000E+00
    0.00000E+00         0.00000E+00        -0.33335E+08
 
   -0.33361E+08         0.41484E+07         0.00000E+00
    0.41484E+07        -0.50313E+08         0.00000E+00
    0.00000E+00         0.00000E+00        -0.33335E+08
 
   -0.33357E+08         0.42723E+07         0.00000E+00
    0.42723E+07        -0.50319E+08         0.00000E+00
    0.00000E+00         0.00000E+00        -0.33334E+08
 
   -0.33353E+08         0.43975E+07         0.00000E+00
    0.43975E+07        -0.50324E+08         0.00000E+00
    0.00000E+00         0.00000E+00        -0.33334E+08
 
   -0.33349E+08         0.45241E+07         0.00000E+00
    0.45241E+07        -0.50328E+08         0.00000E+00
    0.00000E+00         0.00000E+00        -0.33334E+08
 
   -0.33345E+08         0.46522E+07         0.00000E+00
    0.46522E+07        -0.50332E+08         0.00000E+00
    0.00000E+00         0.00000E+00        -0.33333E+08
 
   -0.33341E+08         0.47816E+07         0.00000E+00
    0.47816E+07        -0.50336E+08         0.00000E+00
    0.00000E+00         0.00000E+00        -0.33333E+08
 
   -0.33338E+08         0.49125E+07         0.00000E+00
    0.49125E+07        -0.50338E+08         0.00000E+00
    0.00000E+00         0.00000E+00        -0.33333E+08
 
   -0.33334E+08         0.50448E+07         0.00000E+00
    0.50448E+07        -0.50341E+08         0.00000E+00
    0.00000E+00         0.00000E+00        -0.33333E+08
 
   -0.32534E+08         0.37698E+05         0.00000E+00
    0.37698E+05        -0.50000E+08         0.00000E+00
    0.00000E+00         0.00000E+00        -0.32685E+08
 
   -0.32573E+08         0.11402E+06         0.00000E+00
    0.11402E+06        -0.50001E+08         0.00000E+00
    0.00000E+00         0.00000E+00        -0.32685E+08
 
   -0.32608E+08         0.19077E+06         0.00000E+00
    0.19077E+06        -0.50003E+08         0.00000E+00
    0.00000E+00         0.00000E+00        -0.32685E+08
 
   -0.32642E+08         0.26801E+06         0.00000E+00
    0.26801E+06        -0.50006E+08         0.00000E+00
    0.00000E+00         0.00000E+00        -0.32684E+08
 
   -0.32673E+08         0.34581E+06         0.00000E+00
    0.34581E+06        -0.50009E+08         0.00000E+00
    0.00000E+00         0.00000E+00        -0.32684E+08
 
   -0.32701E+08         0.42422E+06         0.00000E+00
    0.42422E+06        -0.50013E+08         0.00000E+00
    0.00000E+00         0.00000E+00        -0.32684E+08
 
   -0.32728E+08         0.50330E+06         0.00000E+00
    0.50330E+06        -0.50018E+08         0.00000E+00
    0.00000E+00         0.00000E+00        -0.32683E+08
 
   -0.32752E+08         0.58311E+06         0.00000E+00
    0.58311E+06        -0.50024E+08         0.00000E+00
    0.00000E+00         0.00000E+00        -0.32683E+08
 
   -0.32774E+08         0.66369E+06         0.00000E+00
    0.66369E+06        -0.50030E+08         0.00000E+00
    0.00000E+00         0.00000E+00        -0.32682E+08
 
   -0.32794E+08         0.74510E+06         0.00000E+00
    0.74510E+06        -0.50037E+08         0.00000E+00
    0.00000E+00         0.00000E+00        -0.32682E+08
 
   -0.32813E+08         0.82740E+06         0.00000E+00
    0.82740E+06        -0.50045E+08         0.00000E+00
    0.00000E+00         0.00000E+00        -0.32681E+08
 
   -0.32829E+08         0.91061E+06         0.00000E+00
    0.91061E+06        -0.50053E+08         0.00000E+00
    0.00000E+00         0.00000E+00        -0.32680E+08
 
   -0.32843E+08         0.99479E+06         0.00000E+00
    0.99479E+06        -0.50062E+08         0.00000E+00
    0.00000E+00         0.00000E+00        -0.32680E+08
 
   -0.32856E+08         0.10800E+07         0.00000E+00
    0.10800E+07        -0.50071E+08         0.00000E+00
    0.00000E+00         0.00000E+00        -0.32679E+08
 
   -0.32867E+08         0.11662E+07         0.00000E+00
    0.11662E+07        -0.50081E+08         0.00000E+00
    0.00000E+00         0.00000E+00        -0.32678E+08
 
   -0.32876E+08         0.12535E+07         0.00000E+00
    0.12535E+07        -0.50091E+08         0.00000E+00
    0.00000E+00         0.00000E+00        -0.32677E+08
 
   -0.32884E+08         0.13420E+07         0.00000E+00
    0.13420E+07        -0.50102E+08         0.00000E+00
    0.00000E+00         0.00000E+00        -0.32677E+08
 
   -0.32890E+08         0.14316E+07         0.00000E+00
    0.14316E+07        -0.50113E+08         0.00000E+00
    0.00000E+00         0.00000E+00        -0.32676E+08
 
   -0.32895E+08         0.15224E+07         0.00000E+00
    0.15224E+07        -0.50124E+08         0.00000E+00
    0.00000E+00         0.00000E+00        -0.32675E+08
 
   -0.32898E+08         0.16144E+07         0.00000E+00
    0.16144E+07        -0.50136E+08         0.00000E+00
    0.00000E+00         0.00000E+00        -0.32674E+08
 
   -0.32900E+08         0.17076E+07         0.00000E+00
    0.17076E+07        -0.50148E+08         0.00000E+00
    0.00000E+00         0.00000E+00        -0.32673E+08
 
   -0.32901E+08         0.18021E+07         0.00000E+00
    0.18021E+07        -0.50160E+08         0.00000E+00
    0.00000E+00         0.00000E+00        -0.32672E+08
 
   -0.32901E+08         0.18980E+07         0.00000E+00
    0.18980E+07        -0.50173E+08         0.00000E+00
    0.00000E+00         0.00000E+00        -0.32672E+08
 
   -0.32899E+08         0.19951E+07         0.00000E+00
    0.19951E+07        -0.50185E+08         0.00000E+00
    0.00000E+00         0.00000E+00        -0.32671E+08
 
   -0.32897E+08         0.20935E+07         0.00000E+00
    0.20935E+07        -0.50198E+08         0.00000E+00
    0.00000E+00         0.00000E+00        -0.32670E+08
 
   -0.32893E+08         0.21934E+07         0.00000E+00
    0.21934E+07        -0.50211E+08         0.00000E+00
    0.00000E+00         0.00000E+00        -0.32669E+08
 
   -0.32889E+08         0.22946E+07         0.00000E+00
    0.22946E+07        -0.50224E+08         0.00000E+00
    0.00000E+00         0.00000E+00        -0.32668E+08
 
   -0.32883E+08         0.23971E+07         0.00000E+00
    0.23971E+07        -0.50237E+08         0.00000E+00
    0.00000E+00         0.00000E+00        -0.32667E+08
 
   -0.32877E+08         0.25011E+07         0.00000E+00
    0.25011E+07        -0.50250E+08         0.00000E+00
    0.00000E+00         0.00000E+00        -0.32667E+08
 
   -0.32870E+08         0.26066E+07         0.00000E+00
    0.26066E+07        -0.50262E+08         0.00000E+00
    0.00000E+00         0.00000E+00        -0.32666E+08
 
   -0.32863E+08         0.27134E+07         0.00000E+00
    0.27134E+07        -0.50275E+08         0.00000E+00
    0.00000E+00         0.00000E+00        -0.32665E+08
 
   -0.32855E+08         0.28217E+07         0.00000E+00
    0.28217E+07        -0.50288E+08         0.00000E+00
    0.00000E+00         0.00000E+00        -0.32664E+08
 
   -0.32846E+08         0.29315E+07         0.00000E+00
    0.29315E+07        -0.50301E+08         0.00000E+00
    0.00000E+00         0.00000E+00        -0.32663E+08
 
   -0.32837E+08         0.30427E+07         0.00000E+00
    0.30427E+07        -0.50313E+08         0.00000E+00
    0.00000E+00         0.00000E+00        -0.32663E+08
 
   -0.32827E+08         0.31554E+07         0.00000E+00
    0.31554E+07        -0.50325E+08         0.00000E+00
    0.00000E+00         0.00000E+00        -0.32662E+08
 
   -0.32817E+08         0.32695E+07         0.00000E+00
    0.32695E+07        -0.50337E+08         0.00000E+00
    0.00000E+00         0.00000E+00        -0.32661E+08
 
   -0.32807E+08         0.33852E+07         0.00000E+00
    0.33852E+07        -0.50349E+08         0.00000E+00
    0.00000E+00         0.00000E+00        -0.32661E+08
 
   -0.32796E+08         0.35023E+07         0.00000E+00
    0.35023E+07        -0.50360E+08         0.00000E+00
    0.00000E+00         0.00000E+00        -0.32660E+08
 
   -0.32785E+08         0.36210E+07         0.00000E+00
    0.36210E+07        -0.50371E+08         0.00000E+00
    0.00000E+00         0.00000E+00        -0.32660E+08
 
   -0.32774E+08         0.37412E+07         0.00000E+00
    0.37412E+07        -0.50382E+08         0.00000E+00
    0.00000E+00         0.00000E+00        -0.32659E+08
 
   -0.32763E+08         0.38628E+07         0.00000E+00
    0.38628E+07        -0.50392E+08         0.00000E+00
    0.00000E+00         0.00000E+00        -0.32659E+08
 
   -0.32751E+08         0.39860E+07         0.00000E+00
    0.39860E+07        -0.50402E+08         0.00000E+00
    0.00000E+00         0.00000E+00        -0.32658E+08
 
   -0.32740E+08         0.41107E+07         0.00000E+00
    0.41107E+07        -0.50412E+08         0.00000E+00
    0.00000E+00         0.00000E+00        -0.32658E+08
 
   -0.32728E+08         0.42370E+07         0.00000E+00
    0.42370E+07        -0.50421E+08         0.00000E+00
    0.00000E+00         0.00000E+00        -0.32657E+08
 
   -0.32717E+08         0.43647E+07         0.00000E+00
    0.43647E+07        -0.50430E+08         0.00000E+00
    0.00000E+00         0.00000E+00        -0.32657E+08
 
   -0.32705E+08         0.44940E+07         0.00000E+00
    0.44940E+07        -0.50438E+08         0.00000E+00
    0.00000E+00         0.00000E+00        -0.32657E+08
 
   -0.32694E+08         0.46248E+07         0.00000E+00
    0.46248E+07        -0.50445E+08         0.00000E+00
    0.00000E+00         0.00000E+00        -0.32657E+08
 
   -0.32683E+08         0.47571E+07         0.00000E+00
    0.47571E+07        -0.50452E+08         0.00000E+00
    0.00000E+00         0.00000E+00        -0.32656E+08
 
   -0.32672E+08         0.48910E+07         0.00000E+00
    0.48910E+07        -0.50459E+08         0.00000E+00
    0.00000E+00         0.00000E+00        -0.32656E+08
 
   -0.32661E+08         0.50264E+07         0.00000E+00
    0.50264E+07        -0.50465E+08         0.00000E+00
    0.00000E+00         0.00000E+00        -0.32656E+08
 
   -0.32166E+08         0.35080E+05         0.00000E+00
    0.35080E+05        -0.50000E+08         0.00000E+00
    0.00000E+00         0.00000E+00        -0.31990E+08
 
   -0.32202E+08         0.10654E+06         0.00000E+00
    0.10654E+06        -0.50001E+08         0.00000E+00
    0.00000E+00         0.00000E+00        -0.31990E+08
 
   -0.32235E+08         0.17857E+06         0.00000E+00
    0.17857E+06        -0.50004E+08         0.00000E+00
    0.00000E+00         0.00000E+00        -0.31990E+08
 
   -0.32265E+08         0.25124E+06         0.00000E+00
    0.25124E+06        -0.50007E+08         0.00000E+00
    0.00000E+00         0.00000E+00        -0.31990E+08
 
   -0.32293E+08         0.32463E+06         0.00000E+00
    0.32463E+06        -0.50011E+08         0.00000E+00
    0.00000E+00         0.00000E+00        -0.31989E+08
 
   -0.32318E+08         0.39879E+06         0.00000E+00
    0.39879E+06        -0.50016E+08         0.00000E+00
    0.00000E+00         0.00000E+00        -0.31989E+08
 
   -0.32340E+08         0.47379E+06         0.00000E+00
    0.47379E+06        -0.50022E+08         0.00000E+00
    0.00000E+00         0.00000E+00        -0.31989E+08
 
   -0.32360E+08         0.54969E+06         0.00000E+00
    0.54969E+06        -0.50029E+08         0.00000E+00
    0.00000E+00         0.00000E+00        -0.31988E+08
 
   -0.32378E+08         0.62655E+06         0.00000E+00
    0.62655E+06        -0.50037E+08         0.00000E+00
    0.00000E+00         0.00000E+00        -0.31988E+08
 
   -0.32394E+08         0.70441E+06         0.00000E+00
    0.70441E+06        -0.50045E+08         0.00000E+00
    0.00000E+00         0.00000E+00        -0.31987E+08
 
   -0.32407E+08         0.78333E+06         0.00000E+00
    0.78333E+06        -0.50055E+08         0.00000E+00
    0.00000E+00         0.00000E+00        -0.31987E+08
 
   -0.32418E+08         0.86337E+06         0.00000E+00
    0.86337E+06        -0.50065E+08         0.00000E+00
    0.00000E+00         0.00000E+00        -0.31986E+08
 
   -0.32427E+08         0.94455E+06         0.00000E+00
    0.94455E+06        -0.50075E+08         0.00000E+00
    0.00000E+00         0.00000E+00        -0.31985E+08
 
   -0.32434E+08         0.10269E+07         0.00000E+00
    0.10269E+07        -0.50087E+08         0.00000E+00
    0.00000E+00         0.00000E+00        -0.31985E+08
 
   -0.32439E+08         0.11106E+07         0.00000E+00
    0.11106E+07        -0.50099E+08         0.00000E+00
    0.00000E+00         0.00000E+00        -0.31984E+08
 
   -0.32442E+08         0.11955E+07         0.00000E+00
    0.11955E+07        -0.50111E+08         0.00000E+00
    0.00000E+00         0.00000E+00        -0.31983E+08
 
   -0.32444E+08         0.12817E+07         0.00000E+00
    0.12817E+07        -0.50124E+08         0.00000E+00
    0.00000E+00         0.00000E+00        -0.31982E+08
 
   -0.32444E+08         0.13692E+07         0.00000E+00
    0.13692E+07        -0.50138E+08         0.00000E+00
    0.00000E+00         0.00000E+00        -0.31982E+08
 
   -0.32442E+08         0.14581E+07         0.00000E+00
    0.14581E+07        -0.50152E+08         0.00000E+00
    0.00000E+00         0.00000E+00        -0.31981E+08
 
   -0.32439E+08         0.15485E+07         0.00000E+00
    0.15485E+07        -0.50166E+08         0.00000E+00
    0.00000E+00         0.00000E+00        -0.31980E+08
 
   -0.32434E+08         0.16402E+07         0.00000E+00
    0.16402E+07        -0.50181E+08         0.00000E+00
    0.00000E+00         0.00000E+00        -0.31979E+08
 
   -0.32428E+08         0.17335E+07         0.00000E+00
    0.17335E+07        -0.50196E+08         0.00000E+00
    0.00000E+00         0.00000E+00        -0.31979E+08
 
   -0.32421E+08         0.18282E+07         0.00000E+00
    0.18282E+07        -0.50211E+08         0.00000E+00
    0.00000E+00         0.00000E+00        -0.31978E+08
 
   -0.32412E+08         0.19244E+07         0.00000E+00
    0.19244E+07        -0.50227E+08         0.00000E+00
    0.00000E+00         0.00000E+00        -0.31977E+08
 
   -0.32402E+08         0.20221E+07         0.00000E+00
    0.20221E+07        -0.50243E+08         0.00000E+00
    0.00000E+00         0.00000E+00        -0.31976E+08
 
   -0.32392E+08         0.21214E+07         0.00000E+00
    0.21214E+07        -0.50258E+08         0.00000E+00
    0.00000E+00         0.00000E+00        -0.31975E+08
 
   -0.32380E+08         0.22222E+07         0.00000E+00
    0.22222E+07        -0.50274E+08         0.00000E+00
    0.00000E+00         0.00000E+00        -0.31975E+08
 
   -0.32367E+08         0.23246E+07         0.00000E+00
    0.23246E+07        -0.50291E+08         0.00000E+00
    0.00000E+00         0.00000E+00        -0.31974E+08
 
   -0.32354E+08         0.24286E+07         0.00000E+00
    0.24286E+07        -0.50307E+08         0.00000E+00
    0.00000E+00         0.00000E+00        -0.31973E+08
 
   -0.32339E+08         0.25341E+07         0.00000E+00
    0.25341E+07        -0.50323E+08         0.00000E+00
    0.00000E+00         0.00000E+00        -0.31972E+08
 
   -0.32324E+08         0.26413E+07         0.00000E+00
    0.26413E+07        -0.50339E+08         0.00000E+00
    0.00000E+00         0.00000E+00        -0.31972E+08
 
   -0.32308E+08         0.27501E+07         0.00000E+00
    0.27501E+07        -0.50355E+08         0.00000E+00
    0.00000E+00         0.00000E+00        -0.31971E+08
 
   -0.32292E+08         0.28605E+07         0.00000E+00
    0.28605E+07        -0.50371E+08         0.00000E+00
    0.00000E+00         0.00000E+00        -0.31970E+08
 
   -0.32275E+08         0.29725E+07         0.00000E+00
    0.29725E+07        -0.50387E+08         0.00000E+00
    0.00000E+00         0.00000E+00        -0.31970E+08
 
   -0.32257E+08         0.30862E+07         0.00000E+00
    0.30862E+07        -0.50403E+08         0.00000E+00
    0.00000E+00         0.00000E+00        -0.31969E+08
 
   -0.32240E+08         0.32015E+07         0.00000E+00
    0.32015E+07        -0.50418E+08         0.00000E+00
    0.00000E+00         0.00000E+00        -0.31968E+08
 
   -0.32221E+08         0.33185E+07         0.00000E+00
    0.33185E+07        -0.50434E+08         0.00000E+00
    0.00000E+00         0.00000E+00        -0.31968E+08
 
   -0.32203E+08         0.34371E+07         0.00000E+00
    0.34371E+07        -0.50449E+08         0.00000E+00
    0.00000E+00         0.00000E+00        -0.31967E+08
 
   -0.32184E+08         0.35573E+07         0.00000E+00
    0.35573E+07        -0.50463E+08         0.00000E+00
    0.00000E+00         0.00000E+00        -0.31967E+08
 
   -0.32165E+08         0.36792E+07         0.00000E+00
    0.36792E+07        -0.50478E+08         0.00000E+00
    0.00000E+00         0.00000E+00        -0.31966E+08
 
   -0.32146E+08         0.38027E+07         0.00000E+00
    0.38027E+07        -0.50492E+08         0.00000E+00
    0.00000E+00         0.00000E+00        -0.31966E+08
 
   -0.32126E+08         0.39279E+07         0.00000E+00
    0.39279E+07        -0.50506E+08         0.00000E+00
    0.00000E+00         0.00000E+00        -0.31965E+08
 
   -0.32107E+08         0.40547E+07         0.00000E+00
    0.40547E+07        -0.50519E+08         0.00000E+00
    0.00000E+00         0.00000E+00        -0.31965E+08
 
   -0.32088E+08         0.41832E+07         0.00000E+00
    0.41832E+07        -0.50532E+08         0.00000E+00
    0.00000E+00         0.00000E+00        -0.31965E+08
 
   -0.32068E+08         0.43134E+07         0.00000E+00
    0.43134E+07        -0.50544E+08         0.00000E+00
    0.00000E+00         0.00000E+00        -0.31964E+08
 
   -0.32049E+08         0.44452E+07         0.00000E+00
    0.44452E+07        -0.50556E+08         0.00000E+00
    0.00000E+00         0.00000E+00        -0.31964E+08
 
   -0.32030E+08         0.45786E+07         0.00000E+00
    0.45786E+07        -0.50568E+08         0.00000E+00
    0.00000E+00         0.00000E+00        -0.31964E+08
 
   -0.32011E+08         0.47137E+07         0.00000E+00
    0.47137E+07        -0.50579E+08         0.00000E+00
    0.00000E+00         0.00000E+00        -0.31964E+08
 
   -0.31992E+08         0.48504E+07         0.00000E+00
    0.48504E+07        -0.50589E+08         0.00000E+00
    0.00000E+00         0.00000E+00        -0.31964E+08
 
   -0.31973E+08         0.49888E+07         0.00000E+00
    0.49888E+07        -0.50599E+08         0.00000E+00
    0.00000E+00         0.00000E+00        -0.31964E+08
 
   -0.31824E+08         0.31903E+05         0.00000E+00
    0.31903E+05        -0.50000E+08         0.00000E+00
    0.00000E+00         0.00000E+00        -0.31280E+08
 
   -0.31857E+08         0.97481E+05         0.00000E+00
    0.97481E+05        -0.50002E+08         0.00000E+00
    0.00000E+00         0.00000E+00        -0.31280E+08
 
   -0.31887E+08         0.16381E+06         0.00000E+00
    0.16381E+06        -0.50004E+08         0.00000E+00
    0.00000E+00         0.00000E+00        -0.31280E+08
 
   -0.31913E+08         0.23098E+06         0.00000E+00
    0.23098E+06        -0.50008E+08         0.00000E+00
    0.00000E+00         0.00000E+00        -0.31279E+08
 
   -0.31937E+08         0.29905E+06         0.00000E+00
    0.29905E+06        -0.50013E+08         0.00000E+00
    0.00000E+00         0.00000E+00        -0.31279E+08
 
   -0.31957E+08         0.36809E+06         0.00000E+00
    0.36809E+06        -0.50019E+08         0.00000E+00
    0.00000E+00         0.00000E+00        -0.31279E+08
 
   -0.31975E+08         0.43818E+06         0.00000E+00
    0.43818E+06        -0.50027E+08         0.00000E+00
    0.00000E+00         0.00000E+00        -0.31278E+08
 
   -0.31990E+08         0.50938E+06         0.00000E+00
    0.50938E+06        -0.50035E+08         0.00000E+00
    0.00000E+00         0.00000E+00        -0.31278E+08
 
   -0.32002E+08         0.58174E+06         0.00000E+00
    0.58174E+06        -0.50044E+08         0.00000E+00
    0.00000E+00         0.00000E+00        -0.31278E+08
 
   -0.32012E+08         0.65533E+06         0.00000E+00
    0.65533E+06        -0.50054E+08         0.00000E+00
    0.00000E+00         0.00000E+00        -0.31277E+08
 
   -0.32019E+08         0.73019E+06         0.00000E+00
    0.73019E+06        -0.50065E+08         0.00000E+00
    0.00000E+00         0.00000E+00        -0.31277E+08
 
   -0.32024E+08         0.80638E+06         0.00000E+00
    0.80638E+06        -0.50077E+08         0.00000E+00
    0.00000E+00         0.00000E+00        -0.31276E+08
 
   -0.32027E+08         0.88393E+06         0.00000E+00
    0.88393E+06        -0.50090E+08         0.00000E+00
    0.00000E+00         0.00000E+00        -0.31275E+08
 
   -0.32027E+08         0.96291E+06         0.00000E+00
    0.96291E+06        -0.50104E+08         0.00000E+00
    0.00000E+00         0.00000E+00        -0.31275E+08
 
   -0.32025E+08         0.10433E+07         0.00000E+00
    0.10433E+07        -0.50118E+08         0.00000E+00
    0.00000E+00         0.00000E+00        -0.31274E+08
 
   -0.32022E+08         0.11253E+07         0.00000E+00
    0.11253E+07        -0.50133E+08         0.00000E+00
    0.00000E+00         0.00000E+00        -0.31274E+08
 
   -0.32016E+08         0.12087E+07         0.00000E+00
    0.12087E+07        -0.50149E+08         0.00000E+00
    0.00000E+00         0.00000E+00        -0.31273E+08
 
   -0.32008E+08         0.12938E+07         0.00000E+00
    0.12938E+07        -0.50165E+08         0.00000E+00
    0.00000E+00         0.00000E+00        -0.31272E+08
 
   -0.31999E+08         0.13804E+07         0.00000E+00
    0.13804E+07        -0.50182E+08         0.00000E+00
    0.00000E+00         0.00000E+00        -0.31271E+08
 
   -0.31988E+08         0.14686E+07         0.00000E+00
    0.14686E+07        -0.50199E+08         0.00000E+00
    0.00000E+00         0.00000E+00        -0.31271E+08
 
   -0.31976E+08         0.15585E+07         0.00000E+00
    0.15585E+07        -0.50217E+08         0.00000E+00
    0.00000E+00         0.00000E+00        -0.31270E+08
 
   -0.31962E+08         0.16500E+07         0.00000E+00
    0.16500E+07        -0.50235E+08         0.00000E+00
    0.00000E+00         0.00000E+00        -0.31269E+08
 
   -0.31947E+08         0.17433E+07         0.00000E+00
    0.17433E+07        -0.50253E+08         0.00000E+00
    0.00000E+00         0.00000E+00        -0.31269E+08
 
   -0.31930E+08         0.18382E+07         0.00000E+00
    0.18382E+07        -0.50272E+08         0.00000E+00
    0.00000E+00         0.00000E+00        -0.31268E+08
 
   -0.31912E+08         0.19349E+07         0.00000E+00
    0.19349E+07        -0.50291E+08         0.00000E+00
    0.00000E+00         0.00000E+00        -0.31267E+08
 
   -0.31893E+08         0.20333E+07         0.00000E+00
    0.20333E+07        -0.50310E+08         0.00000E+00
    0.00000E+00         0.00000E+00        -0.31267E+08
 
   -0.31873E+08         0.21335E+07         0.00000E+00
    0.21335E+07        -0.50329E+08         0.00000E+00
    0.00000E+00         0.00000E+00        -0.31266E+08
 
   -0.31852E+08         0.22354E+07         0.00000E+00
    0.22354E+07        -0.50349E+08         0.00000E+00
    0.00000E+00         0.00000E+00        -0.31265E+08
 
   -0.31830E+08         0.23391E+07         0.00000E+00
    0.23391E+07        -0.50368E+08         0.00000E+00
    0.00000E+00         0.00000E+00        -0.31264E+08
 
   -0.31807E+08         0.24445E+07         0.00000E+00
    0.24445E+07        -0.50388E+08         0.00000E+00
    0.00000E+00         0.00000E+00        -0.31264E+08
 
   -0.31784E+08         0.25518E+07         0.00000E+00
    0.25518E+07        -0.50408E+08         0.00000E+00
    0.00000E+00         0.00000E+00        -0.31263E+08
 
   -0.31759E+08         0.26609E+07         0.00000E+00
    0.26609E+07        -0.50427E+08         0.00000E+00
    0.00000E+00         0.00000E+00        -0.31263E+08
 
   -0.31734E+08         0.27717E+07         0.00000E+00
    0.27717E+07        -0.50447E+08         0.00000E+00
    0.00000E+00         0.00000E+00        -0.31262E+08
 
   -0.31709E+08         0.28844E+07         0.00000E+00
    0.28844E+07        -0.50467E+08         0.00000E+00
    0.00000E+00         0.00000E+00        -0.31261E+08
 
   -0.31683E+08         0.29988E+07         0.00000E+00
    0.29988E+07        -0.50486E+08         0.00000E+00
    0.00000E+00         0.00000E+00        -0.31261E+08
 
   -0.31656E+08         0.31151E+07         0.00000E+00
    0.31151E+07        -0.50505E+08         0.00000E+00
    0.00000E+00         0.00000E+00        -0.31260E+08
 
   -0.31629E+08         0.32331E+07         0.00000E+00
    0.32331E+07        -0.50525E+08         0.00000E+00
    0.00000E+00         0.00000E+00        -0.31260E+08
 
   -0.31602E+08         0.33530E+07         0.00000E+00
    0.33530E+07        -0.50543E+08         0.00000E+00
    0.00000E+00         0.00000E+00        -0.31259E+08
 
   -0.31575E+08         0.34747E+07         0.00000E+00
    0.34747E+07        -0.50562E+08         0.00000E+00
    0.00000E+00         0.00000E+00        -0.31259E+08
 
   -0.31547E+08         0.35981E+07         0.00000E+00
    0.35981E+07        -0.50580E+08         0.00000E+00
    0.00000E+00         0.00000E+00        -0.31258E+08
 
   -0.31519E+08         0.37234E+07         0.00000E+00
    0.37234E+07        -0.50598E+08         0.00000E+00
    0.00000E+00         0.00000E+00        -0.31258E+08
 
   -0.31491E+08         0.38504E+07         0.00000E+00
    0.38504E+07        -0.50616E+08         0.00000E+00
    0.00000E+00         0.00000E+00        -0.31258E+08
 
   -0.31463E+08         0.39792E+07         0.00000E+00
    0.39792E+07        -0.50633E+08         0.00000E+00
    0.00000E+00         0.00000E+00        -0.31257E+08
 
   -0.31435E+08         0.41099E+07         0.00000E+00
    0.41099E+07        -0.50650E+08         0.00000E+00
    0.00000E+00         0.00000E+00        -0.31257E+08
 
   -0.31408E+08         0.42422E+07         0.00000E+00
    0.42422E+07        -0.50667E+08         0.00000E+00
    0.00000E+00         0.00000E+00        -0.31257E+08
 
   -0.31380E+08         0.43764E+07         0.00000E+00
    0.43764E+07        -0.50683E+08         0.00000E+00
    0.00000E+00         0.00000E+00        -0.31257E+08
 
   -0.31352E+08         0.45123E+07         0.00000E+00
    0.45123E+07        -0.50698E+08         0.00000E+00
    0.00000E+00         0.00000E+00        -0.31256E+08
 
   -0.31324E+08         0.46500E+07         0.00000E+00
    0.46500E+07        -0.50714E+08         0.00000E+00
    0.00000E+00         0.00000E+00        -0.31256E+08
 
   -0.31297E+08         0.47895E+07         0.00000E+00
    0.47895E+07        -0.50728E+08         0.00000E+00
    0.00000E+00         0.00000E+00        -0.31256E+08
 
   -0.31270E+08         0.49307E+07         0.00000E+00
    0.49307E+07        -0.50742E+08         0.00000E+00
    0.00000E+00         0.00000E+00        -0.31256E+08
 
   -0.31515E+08         0.28100E+05         0.00000E+00
    0.28100E+05        -0.50000E+08         0.00000E+00
    0.00000E+00         0.00000E+00        -0.30555E+08
 
   -0.31544E+08         0.86673E+05         0.00000E+00
    0.86673E+05        -0.50002E+08         0.00000E+00
    0.00000E+00         0.00000E+00        -0.30555E+08
 
   -0.31569E+08         0.14623E+06         0.00000E+00
    0.14623E+06        -0.50005E+08         0.00000E+00
    0.00000E+00         0.00000E+00        -0.30555E+08
 
   -0.31591E+08         0.20685E+06         0.00000E+00
    0.20685E+06        -0.50010E+08         0.00000E+00
    0.00000E+00         0.00000E+00        -0.30554E+08
 
   -0.31609E+08         0.26862E+06         0.00000E+00
    0.26862E+06        -0.50016E+08         0.00000E+00
    0.00000E+00         0.00000E+00        -0.30554E+08
 
   -0.31624E+08         0.33161E+06         0.00000E+00
    0.33161E+06        -0.50023E+08         0.00000E+00
    0.00000E+00         0.00000E+00        -0.30554E+08
 
   -0.31635E+08         0.39590E+06         0.00000E+00
    0.39590E+06        -0.50031E+08         0.00000E+00
    0.00000E+00         0.00000E+00        -0.30554E+08
 
   -0.31644E+08         0.46154E+06         0.00000E+00
    0.46154E+06        -0.50041E+08         0.00000E+00
    0.00000E+00         0.00000E+00        -0.30553E+08
 
   -0.31650E+08         0.52859E+06         0.00000E+00
    0.52859E+06        -0.50052E+08         0.00000E+00
    0.00000E+00         0.00000E+00        -0.30553E+08
 
   -0.31653E+08         0.59713E+06         0.00000E+00
    0.59713E+06        -0.50064E+08         0.00000E+00
    0.00000E+00         0.00000E+00        -0.30552E+08
 
   -0.31653E+08         0.66720E+06         0.00000E+00
    0.66720E+06        -0.50077E+08         0.00000E+00
    0.00000E+00         0.00000E+00        -0.30552E+08
 
   -0.31650E+08         0.73885E+06         0.00000E+00
    0.73885E+06        -0.50091E+08         0.00000E+00
    0.00000E+00         0.00000E+00        -0.30551E+08
 
   -0.31645E+08         0.81212E+06         0.00000E+00
    0.81212E+06        -0.50106E+08         0.00000E+00
    0.00000E+00         0.00000E+00        -0.30551E+08
 
   -0.31638E+08         0.88707E+06         0.00000E+00
    0.88707E+06        -0.50122E+08         0.00000E+00
    0.00000E+00         0.00000E+00        -0.30550E+08
 
   -0.31628E+08         0.96373E+06         0.00000E+00
    0.96373E+06        -0.50139E+08         0.00000E+00
    0.00000E+00         0.00000E+00        -0.30550E+08
 
   -0.31616E+08         0.10421E+07         0.00000E+00
    0.10421E+07        -0.50157E+08         0.00000E+00
    0.00000E+00         0.00000E+00        -0.30549E+08
 
   -0.31602E+08         0.11223E+07         0.00000E+00
    0.11223E+07        -0.50175E+08         0.00000E+00
    0.00000E+00         0.00000E+00        -0.30549E+08
 
   -0.31586E+08         0.12043E+07         0.00000E+00
    0.12043E+07        -0.50194E+08         0.00000E+00
    0.00000E+00         0.00000E+00        -0.30548E+08
 
   -0.31569E+08         0.12881E+07         0.00000E+00
    0.12881E+07        -0.50214E+08         0.00000E+00
    0.00000E+00         0.00000E+00        -0.30547E+08
 
   -0.31549E+08         0.13738E+07         0.00000E+00
    0.13738E+07        -0.50234E+08         0.00000E+00
    0.00000E+00         0.00000E+00        -0.30547E+08
 
   -0.31528E+08         0.14614E+07         0.00000E+00
    0.14614E+07        -0.50255E+08         0.00000E+00
    0.00000E+00         0.00000E+00        -0.30546E+08
 
   -0.31505E+08         0.15509E+07         0.00000E+00
    0.15509E+07        -0.50276E+08         0.00000E+00
    0.00000E+00         0.00000E+00        -0.30546E+08
 
   -0.31481E+08         0.16423E+07         0.00000E+00
    0.16423E+07        -0.50298E+08         0.00000E+00
    0.00000E+00         0.00000E+00        -0.30545E+08
 
   -0.31455E+08         0.17356E+07         0.00000E+00
    0.17356E+07        -0.50320E+08         0.00000E+00
    0.00000E+00         0.00000E+00        -0.30544E+08
 
   -0.31428E+08         0.18309E+07         0.00000E+00
    0.18309E+07        -0.50342E+08         0.00000E+00
    0.00000E+00         0.00000E+00        -0.30544E+08
 
   -0.31399E+08         0.19281E+07         0.00000E+00
    0.19281E+07        -0.50365E+08         0.00000E+00
    0.00000E+00         0.00000E+00        -0.30543E+08
 
   -0.31370E+08         0.20273E+07         0.00000E+00
    0.20273E+07        -0.50388E+08         0.00000E+00
    0.00000E+00         0.00000E+00        -0.30543E+08
 
   -0.31340E+08         0.21285E+07         0.00000E+00
    0.21285E+07        -0.50411E+08         0.00000E+00
    0.00000E+00         0.00000E+00        -0.30542E+08
 
   -0.31308E+08         0.22316E+07         0.00000E+00
    0.22316E+07        -0.50434E+08         0.00000E+00
    0.00000E+00         0.00000E+00        -0.30542E+08
 
   -0.31276E+08         0.23368E+07         0.00000E+00
    0.23368E+07        -0.50457E+08         0.00000E+00
    0.00000E+00         0.00000E+00        -0.30541E+08
 
   -0.31243E+08         0.24439E+07         0.00000E+00
    0.24439E+07        -0.50481E+08         0.00000E+00
    0.00000E+00         0.00000E+00        -0.30540E+08
 
   -0.31209E+08         0.25530E+07         0.00000E+00
    0.25530E+07        -0.50504E+08         0.00000E+00
    0.00000E+00         0.00000E+00        -0.30540E+08
 
   -0.31175E+08         0.26641E+07         0.00000E+00
    0.26641E+07        -0.50528E+08         0.00000E+00
    0.00000E+00         0.00000E+00        -0.30539E+08
 
   -0.31140E+08         0.27771E+07         0.00000E+00
    0.27771E+07        -0.50551E+08         0.00000E+00
    0.00000E+00         0.00000E+00        -0.30539E+08
 
   -0.31104E+08         0.28922E+07         0.00000E+00
    0.28922E+07        -0.50575E+08         0.00000E+00
    0.00000E+00         0.00000E+00        -0.30538E+08
 
   -0.31068E+08         0.30092E+07         0.00000E+00
    0.30092E+07        -0.50598E+08         0.00000E+00
    0.00000E+00         0.00000E+00        -0.30538E+08
 
   -0.31032E+08         0.31282E+07         0.00000E+00
    0.31282E+07        -0.50621E+08         0.00000E+00
    0.00000E+00         0.00000E+00        -0.30538E+08
 
   -0.30996E+08         0.32491E+07         0.00000E+00
    0.32491E+07        -0.50644E+08         0.00000E+00
    0.00000E+00         0.00000E+00        -0.30537E+08
 
   -0.30959E+08         0.33721E+07         0.00000E+00
    0.33721E+07        -0.50667E+08         0.00000E+00
    0.00000E+00         0.00000E+00        -0.30537E+08
 
   -0.30922E+08         0.34969E+07         0.00000E+00
    0.34969E+07        -0.50689E+08         0.00000E+00
    0.00000E+00         0.00000E+00        -0.30536E+08
 
   -0.30885E+08         0.36237E+07         0.00000E+00
    0.36237E+07        -0.50711E+08         0.00000E+00
    0.00000E+00         0.00000E+00        -0.30536E+08
 
   -0.30847E+08         0.37525E+07         0.00000E+00
    0.37525E+07        -0.50733E+08         0.00000E+00
    0.00000E+00         0.00000E+00        -0.30536E+08
 
   -0.30810E+08         0.38831E+07         0.00000E+00
    0.38831E+07        -0.50755E+08         0.00000E+00
    0.00000E+00         0.00000E+00        -0.30536E+08
 
   -0.30773E+08         0.40157E+07         0.00000E+00
    0.40157E+07        -0.50776E+08         0.00000E+00
    0.00000E+00         0.00000E+00        -0.30535E+08
 
   -0.30736E+08         0.41502E+07         0.00000E+00
    0.41502E+07        -0.50796E+08         0.00000E+00
    0.00000E+00         0.00000E+00        -0.30535E+08
 
   -0.30699E+08         0.42865E+07         0.00000E+00
    0.42865E+07        -0.50817E+08         0.00000E+00
    0.00000E+00         0.00000E+00        -0.30535E+08
 
   -0.30662E+08         0.44248E+07         0.00000E+00
    0.44248E+07        -0.50837E+08         0.00000E+00
    0.00000E+00         0.00000E+00        -0.30535E+08
 
   -0.30625E+08         0.45649E+07         0.00000E+00
    0.45649E+07        -0.50856E+08         0.00000E+00
    0.00000E+00         0.00000E+00        -0.30535E+08
 
   -0.30589E+08         0.47070E+07         0.00000E+00
    0.47070E+07        -0.50875E+08         0.00000E+00
    0.00000E+00         0.00000E+00        -0.30535E+08
 
   -0.30553E+08         0.48508E+07         0.00000E+00
    0.48508E+07        -0.50894E+08         0.00000E+00
    0.00000E+00         0.00000E+00        -0.30535E+08
 
   -0.31245E+08         0.23602E+05         0.00000E+00
    0.23602E+05        -0.50001E+08         0.00000E+00
    0.00000E+00         0.00000E+00        -0.29816E+08
 
   -0.31269E+08         0.73945E+05         0.00000E+00
    0.73945E+05        -0.50002E+08         0.00000E+00
    0.00000E+00         0.00000E+00        -0.29816E+08
 
   -0.31288E+08         0.12556E+06         0.00000E+00
    0.12556E+06        -0.50006E+08         0.00000E+00
    0.00000E+00         0.00000E+00        -0.29816E+08
 
   -0.31303E+08         0.17853E+06         0.00000E+00
    0.17853E+06        -0.50011E+08         0.00000E+00
    0.00000E+00         0.00000E+00        -0.29816E+08
 
   -0.31315E+08         0.23295E+06         0.00000E+00
    0.23295E+06        -0.50018E+08         0.00000E+00
    0.00000E+00         0.00000E+00        -0.29815E+08
 
   -0.31323E+08         0.28888E+06         0.00000E+00
    0.28888E+06        -0.50027E+08         0.00000E+00
    0.00000E+00         0.00000E+00        -0.29815E+08
 
   -0.31327E+08         0.34641E+06         0.00000E+00
    0.34641E+06        -0.50037E+08         0.00000E+00
    0.00000E+00         0.00000E+00        -0.29815E+08
 
   -0.31328E+08         0.40560E+06         0.00000E+00
    0.40560E+06        -0.50048E+08         0.00000E+00
    0.00000E+00         0.00000E+00        -0.29815E+08
 
   -0.31326E+08         0.46651E+06         0.00000E+00
    0.46651E+06        -0.50061E+08         0.00000E+00
    0.00000E+00         0.00000E+00        -0.29814E+08
 
   -0.31320E+08         0.52919E+06         0.00000E+00
    0.52919E+06        -0.50075E+08         0.00000E+00
    0.00000E+00         0.00000E+00        -0.29814E+08
 
   -0.31312E+08         0.59371E+06         0.00000E+00
    0.59371E+06        -0.50090E+08         0.00000E+00
    0.00000E+00         0.00000E+00        -0.29813E+08
 
   -0.31301E+08         0.66011E+06         0.00000E+00
    0.66011E+06        -0.50106E+08         0.00000E+00
    0.00000E+00         0.00000E+00        -0.29813E+08
 
   -0.31287E+08         0.72843E+06         0.00000E+00
    0.72843E+06        -0.50123E+08         0.00000E+00
    0.00000E+00         0.00000E+00        -0.29813E+08
 
   -0.31270E+08         0.79872E+06         0.00000E+00
    0.79872E+06        -0.50142E+08         0.00000E+00
    0.00000E+00         0.00000E+00        -0.29812E+08
 
   -0.31251E+08         0.87101E+06         0.00000E+00
    0.87101E+06        -0.50161E+08         0.00000E+00
    0.00000E+00         0.00000E+00        -0.29812E+08
 
   -0.31230E+08         0.94533E+06         0.00000E+00
    0.94533E+06        -0.50182E+08         0.00000E+00
    0.00000E+00         0.00000E+00        -0.29811E+08
 
   -0.31206E+08         0.10217E+07         0.00000E+00
    0.10217E+07        -0.50203E+08         0.00000E+00
    0.00000E+00         0.00000E+00        -0.29811E+08
 
   -0.31180E+08         0.11002E+07         0.00000E+00
    0.11002E+07        -0.50225E+08         0.00000E+00
    0.00000E+00         0.00000E+00        -0.29810E+08
 
   -0.31153E+08         0.11808E+07         0.00000E+00
    0.11808E+07        -0.50247E+08         0.00000E+00
    0.00000E+00         0.00000E+00        -0.29810E+08
 
   -0.31123E+08         0.12635E+07         0.00000E+00
    0.12635E+07        -0.50271E+08         0.00000E+00
    0.00000E+00         0.00000E+00        -0.29809E+08
 
   -0.31092E+08         0.13483E+07         0.00000E+00
    0.13483E+07        -0.50295E+08         0.00000E+00
    0.00000E+00         0.00000E+00        -0.29809E+08
 
   -0.31059E+08         0.14353E+07         0.00000E+00
    0.14353E+07        -0.50319E+08         0.00000E+00
    0.00000E+00         0.00000E+00        -0.29808E+08
 
   -0.31024E+08         0.15245E+07         0.00000E+00
    0.15245E+07        -0.50344E+08         0.00000E+00
    0.00000E+00         0.00000E+00        -0.29808E+08
 
   -0.30988E+08         0.16159E+07         0.00000E+00
    0.16159E+07        -0.50370E+08         0.00000E+00
    0.00000E+00         0.00000E+00        -0.29807E+08
 
   -0.30950E+08         0.17094E+07         0.00000E+00
    0.17094E+07        -0.50396E+08         0.00000E+00
    0.00000E+00         0.00000E+00        -0.29807E+08
 
   -0.30912E+08         0.18052E+07         0.00000E+00
    0.18052E+07        -0.50422E+08         0.00000E+00
    0.00000E+00         0.00000E+00        -0.29807E+08
 
   -0.30872E+08         0.19031E+07         0.00000E+00
    0.19031E+07        -0.50448E+08         0.00000E+00
    0.00000E+00         0.00000E+00        -0.29806E+08
 
   -0.30831E+08         0.20032E+07         0.00000E+00
    0.20032E+07        -0.50475E+08         0.00000E+00
    0.00000E+00         0.00000E+00        -0.29806E+08
 
   -0.30789E+08         0.21056E+07         0.00000E+00
    0.21056E+07        -0.50502E+08         0.00000E+00
    0.00000E+00         0.00000E+00        -0.29805E+08
 
   -0.30747E+08         0.22101E+07         0.00000E+00
    0.22101E+07        -0.50529E+08         0.00000E+00
    0.00000E+00         0.00000E+00        -0.29805E+08
 
   -0.30703E+08         0.23168E+07         0.00000E+00
    0.23168E+07        -0.50557E+08         0.00000E+00
    0.00000E+00         0.00000E+00        -0.29804E+08
 
   -0.30659E+08         0.24257E+07         0.00000E+00
    0.24257E+07        -0.50584E+08         0.00000E+00
    0.00000E+00         0.00000E+00        -0.29804E+08
 
   -0.30614E+08         0.25368E+07         0.00000E+00
    0.25368E+07        -0.50612E+08         0.00000E+00
    0.00000E+00         0.00000E+00        -0.29803E+08
 
   -0.30569E+08         0.26500E+07         0.00000E+00
    0.26500E+07        -0.50639E+08         0.00000E+00
    0.00000E+00         0.00000E+00        -0.29803E+08
 
   -0.30523E+08         0.27655E+07         0.00000E+00
    0.27655E+07        -0.50667E+08         0.00000E+00
    0.00000E+00         0.00000E+00        -0.29803E+08
 
   -0.30477E+08         0.28830E+07         0.00000E+00
    0.28830E+07        -0.50694E+08         0.00000E+00
    0.00000E+00         0.00000E+00        -0.29802E+08
 
   -0.30430E+08         0.30027E+07         0.00000E+00
    0.30027E+07        -0.50721E+08         0.00000E+00
    0.00000E+00         0.00000E+00        -0.29802E+08
 
   -0.30384E+08         0.31246E+07         0.00000E+00
    0.31246E+07        -0.50748E+08         0.00000E+00
    0.00000E+00         0.00000E+00        -0.29802E+08
 
   -0.30337E+08         0.32486E+07         0.00000E+00
    0.32486E+07        -0.50775E+08         0.00000E+00
    0.00000E+00         0.00000E+00        -0.29801E+08
 
   -0.30289E+08         0.33746E+07         0.00000E+00
    0.33746E+07        -0.50802E+08         0.00000E+00
    0.00000E+00         0.00000E+00        -0.29801E+08
 
   -0.30242E+08         0.35028E+07         0.00000E+00
    0.35028E+07        -0.50828E+08         0.00000E+00
    0.00000E+00         0.00000E+00        -0.29801E+08
 
   -0.30195E+08         0.36330E+07         0.00000E+00
    0.36330E+07        -0.50855E+08         0.00000E+00
    0.00000E+00         0.00000E+00        -0.29801E+08
 
   -0.30148E+08         0.37654E+07         0.00000E+00
    0.37654E+07        -0.50881E+08         0.00000E+00
    0.00000E+00         0.00000E+00        -0.29800E+08
 
   -0.30101E+08         0.38997E+07         0.00000E+00
    0.38997E+07        -0.50906E+08         0.00000E+00
    0.00000E+00         0.00000E+00        -0.29800E+08
 
   -0.30054E+08         0.40361E+07         0.00000E+00
    0.40361E+07        -0.50931E+08         0.00000E+00
    0.00000E+00         0.00000E+00        -0.29800E+08
 
   -0.30007E+08         0.41745E+07         0.00000E+00
    0.41745E+07        -0.50956E+08         0.00000E+00
    0.00000E+00         0.00000E+00        -0.29800E+08
 
   -0.29960E+08         0.43149E+07         0.00000E+00
    0.43149E+07        -0.50981E+08         0.00000E+00
    0.00000E+00         0.00000E+00        -0.29800E+08
 
   -0.29914E+08         0.44573E+07         0.00000E+00
    0.44573E+07        -0.51005E+08         0.00000E+00
    0.00000E+00         0.00000E+00        -0.29800E+08
 
   -0.29868E+08         0.46017E+07         0.00000E+00
    0.46017E+07        -0.51028E+08         0.00000E+00
    0.00000E+00         0.00000E+00        -0.29800E+08
 
   -0.29822E+08         0.47480E+07         0.00000E+00
    0.47480E+07        -0.51052E+08         0.00000E+00
    0.00000E+00         0.00000E+00        -0.29800E+08
 
   -0.31020E+08         0.18345E+05         0.00000E+00
    0.18345E+05        -0.50001E+08         0.00000E+00
    0.00000E+00         0.00000E+00        -0.29064E+08
 
   -0.31037E+08         0.59143E+05         0.00000E+00
    0.59143E+05        -0.50003E+08         0.00000E+00
    0.00000E+00         0.00000E+00        -0.29064E+08
 
   -0.31048E+08         0.10157E+06         0.00000E+00
    0.10157E+06        -0.50007E+08         0.00000E+00
    0.00000E+00         0.00000E+00        -0.29064E+08
 
   -0.31056E+08         0.14572E+06         0.00000E+00
    0.14572E+06        -0.50013E+08         0.00000E+00
    0.00000E+00         0.00000E+00        -0.29064E+08
 
   -0.31059E+08         0.19168E+06         0.00000E+00
    0.19168E+06        -0.50021E+08         0.00000E+00
    0.00000E+00         0.00000E+00        -0.29064E+08
 
   -0.31058E+08         0.23952E+06         0.00000E+00
    0.23952E+06        -0.50031E+08         0.00000E+00
    0.00000E+00         0.00000E+00        -0.29064E+08
 
   -0.31054E+08         0.28931E+06         0.00000E+00
    0.28931E+06        -0.50042E+08         0.00000E+00
    0.00000E+00         0.00000E+00        -0.29064E+08
 
   -0.31045E+08         0.34113E+06         0.00000E+00
    0.34113E+06        -0.50055E+08         0.00000E+00
    0.00000E+00         0.00000E+00        -0.29063E+08
 
   -0.31033E+08         0.39503E+06         0.00000E+00
    0.39503E+06        -0.50069E+08         0.00000E+00
    0.00000E+00         0.00000E+00        -0.29063E+08
 
   -0.31018E+08         0.45106E+06         0.00000E+00
    0.45106E+06        -0.50085E+08         0.00000E+00
    0.00000E+00         0.00000E+00        -0.29063E+08
 
   -0.31000E+08         0.50927E+06         0.00000E+00
    0.50927E+06        -0.50103E+08         0.00000E+00
    0.00000E+00         0.00000E+00        -0.29062E+08
 
   -0.30978E+08         0.56971E+06         0.00000E+00
    0.56971E+06        -0.50121E+08         0.00000E+00
    0.00000E+00         0.00000E+00        -0.29062E+08
 
   -0.30954E+08         0.63242E+06         0.00000E+00
    0.63242E+06        -0.50141E+08         0.00000E+00
    0.00000E+00         0.00000E+00        -0.29062E+08
 
   -0.30926E+08         0.69743E+06         0.00000E+00
    0.69743E+06        -0.50162E+08         0.00000E+00
    0.00000E+00         0.00000E+00        -0.29062E+08
 
   -0.30896E+08         0.76476E+06         0.00000E+00
    0.76476E+06        -0.50184E+08         0.00000E+00
    0.00000E+00         0.00000E+00        -0.29061E+08
 
   -0.30864E+08         0.83445E+06         0.00000E+00
    0.83445E+06        -0.50207E+08         0.00000E+00
    0.00000E+00         0.00000E+00        -0.29061E+08
 
   -0.30829E+08         0.90652E+06         0.00000E+00
    0.90652E+06        -0.50231E+08         0.00000E+00
    0.00000E+00         0.00000E+00        -0.29061E+08
 
   -0.30792E+08         0.98098E+06         0.00000E+00
    0.98098E+06        -0.50256E+08         0.00000E+00
    0.00000E+00         0.00000E+00        -0.29060E+08
 
   -0.30753E+08         0.10579E+07         0.00000E+00
    0.10579E+07        -0.50282E+08         0.00000E+00
    0.00000E+00         0.00000E+00        -0.29060E+08
 
   -0.30712E+08         0.11371E+07         0.00000E+00
    0.11371E+07        -0.50309E+08         0.00000E+00
    0.00000E+00         0.00000E+00        -0.29059E+08
 
   -0.30669E+08         0.12189E+07         0.00000E+00
    0.12189E+07        -0.50336E+08         0.00000E+00
    0.00000E+00         0.00000E+00        -0.29059E+08
 
   -0.30625E+08         0.13030E+07         0.00000E+00
    0.13030E+07        -0.50364E+08         0.00000E+00
    0.00000E+00         0.00000E+00        -0.29059E+08
 
   -0.30579E+08         0.13896E+07         0.00000E+00
    0.13896E+07        -0.50392E+08         0.00000E+00
    0.00000E+00         0.00000E+00        -0.29058E+08
 
   -0.30531E+08         0.14787E+07         0.00000E+00
    0.14787E+07        -0.50421E+08         0.00000E+00
    0.00000E+00         0.00000E+00        -0.29058E+08
 
   -0.30482E+08         0.15702E+07         0.00000E+00
    0.15702E+07        -0.50450E+08         0.00000E+00
    0.00000E+00         0.00000E+00        -0.29058E+08
 
   -0.30432E+08         0.16641E+07         0.00000E+00
    0.16641E+07        -0.50480E+08         0.00000E+00
    0.00000E+00         0.00000E+00        -0.29057E+08
 
   -0.30381E+08         0.17605E+07         0.00000E+00
    0.17605E+07        -0.50510E+08         0.00000E+00
    0.00000E+00         0.00000E+00        -0.29057E+08
 
   -0.30328E+08         0.18592E+07         0.00000E+00
    0.18592E+07        -0.50541E+08         0.00000E+00
    0.00000E+00         0.00000E+00        -0.29057E+08
 
   -0.30275E+08         0.19605E+07         0.00000E+00
    0.19605E+07        -0.50572E+08         0.00000E+00
    0.00000E+00         0.00000E+00        -0.29056E+08
 
   -0.30221E+08         0.20641E+07         0.00000E+00
    0.20641E+07        -0.50603E+08         0.00000E+00
    0.00000E+00         0.00000E+00        -0.29056E+08
 
   -0.30166E+08         0.21701E+07         0.00000E+00
    0.21701E+07        -0.50634E+08         0.00000E+00
    0.00000E+00         0.00000E+00        -0.29056E+08
 
   -0.30110E+08         0.22786E+07         0.00000E+00
    0.22786E+07        -0.50665E+08         0.00000E+00
    0.00000E+00         0.00000E+00        -0.29056E+08
 
   -0.30054E+08         0.23894E+07         0.00000E+00
    0.23894E+07        -0.50697E+08         0.00000E+00
    0.00000E+00         0.00000E+00        -0.29055E+08
 
   -0.29997E+08         0.25026E+07         0.00000E+00
    0.25026E+07        -0.50728E+08         0.00000E+00
    0.00000E+00         0.00000E+00        -0.29055E+08
 
   -0.29940E+08         0.26181E+07         0.00000E+00
    0.26181E+07        -0.50760E+08         0.00000E+00
    0.00000E+00         0.00000E+00        -0.29055E+08
 
   -0.29883E+08         0.27360E+07         0.00000E+00
    0.27360E+07        -0.50791E+08         0.00000E+00
    0.00000E+00         0.00000E+00        -0.29055E+08
 
   -0.29825E+08         0.28562E+07         0.00000E+00
    0.28562E+07        -0.50823E+08         0.00000E+00
    0.00000E+00         0.00000E+00        -0.29054E+08
 
   -0.29767E+08         0.29787E+07         0.00000E+00
    0.29787E+07        -0.50854E+08         0.00000E+00
    0.00000E+00         0.00000E+00        -0.29054E+08
 
   -0.29709E+08         0.31035E+07         0.00000E+00
    0.31035E+07        -0.50885E+08         0.00000E+00
    0.00000E+00         0.00000E+00        -0.29054E+08
 
   -0.29651E+08         0.32305E+07         0.00000E+00
    0.32305E+07        -0.50917E+08         0.00000E+00
    0.00000E+00         0.00000E+00        -0.29054E+08
 
   -0.29593E+08         0.33598E+07         0.00000E+00
    0.33598E+07        -0.50948E+08         0.00000E+00
    0.00000E+00         0.00000E+00        -0.29054E+08
 
   -0.29535E+08         0.34914E+07         0.00000E+00
    0.34914E+07        -0.50978E+08         0.00000E+00
    0.00000E+00         0.00000E+00        -0.29053E+08
 
   -0.29477E+08         0.36251E+07         0.00000E+00
    0.36251E+07        -0.51009E+08         0.00000E+00
    0.00000E+00         0.00000E+00        -0.29053E+08
 
   -0.29420E+08         0.37611E+07         0.00000E+00
    0.37611E+07        -0.51039E+08         0.00000E+00
    0.00000E+00         0.00000E+00        -0.29053E+08
 
   -0.29362E+08         0.38991E+07         0.00000E+00
    0.38991E+07        -0.51069E+08         0.00000E+00
    0.00000E+00         0.00000E+00        -0.29053E+08
 
   -0.29305E+08         0.40394E+07         0.00000E+00
    0.40394E+07        -0.51098E+08         0.00000E+00
    0.00000E+00         0.00000E+00        -0.29053E+08
 
   -0.29249E+08         0.41817E+07         0.00000E+00
    0.41817E+07        -0.51128E+08         0.00000E+00
    0.00000E+00         0.00000E+00        -0.29053E+08
 
   -0.29192E+08         0.43262E+07         0.00000E+00
    0.43262E+07        -0.51156E+08         0.00000E+00
    0.00000E+00         0.00000E+00        -0.29053E+08
 
   -0.29136E+08         0.44727E+07         0.00000E+00
    0.44727E+07        -0.51185E+08         0.00000E+00
    0.00000E+00         0.00000E+00        -0.29053E+08
 
   -0.29080E+08         0.46212E+07         0.00000E+00
    0.46212E+07        -0.51213E+08         0.00000E+00
    0.00000E+00         0.00000E+00        -0.29053E+08
 
   -0.30848E+08         0.12271E+05         0.00000E+00
    0.12271E+05        -0.50001E+08         0.00000E+00
    0.00000E+00         0.00000E+00        -0.28301E+08
 
   -0.30855E+08         0.42146E+05         0.00000E+00
    0.42146E+05        -0.50003E+08         0.00000E+00
    0.00000E+00         0.00000E+00        -0.28301E+08
 
   -0.30857E+08         0.74098E+05         0.00000E+00
    0.74098E+05        -0.50008E+08         0.00000E+00
    0.00000E+00         0.00000E+00        -0.28301E+08
 
   -0.30855E+08         0.10822E+06         0.00000E+00
    0.10822E+06        -0.50015E+08         0.00000E+00
    0.00000E+00         0.00000E+00        -0.28301E+08
 
   -0.30848E+08         0.14459E+06         0.00000E+00
    0.14459E+06        -0.50024E+08         0.00000E+00
    0.00000E+00         0.00000E+00        -0.28301E+08
 
   -0.30836E+08         0.18329E+06         0.00000E+00
    0.18329E+06        -0.50035E+08         0.00000E+00
    0.00000E+00         0.00000E+00        -0.28301E+08
 
   -0.30821E+08         0.22438E+06         0.00000E+00
    0.22438E+06        -0.50048E+08         0.00000E+00
    0.00000E+00         0.00000E+00        -0.28301E+08
 
   -0.30801E+08         0.26792E+06         0.00000E+00
    0.26792E+06        -0.50062E+08         0.00000E+00
    0.00000E+00         0.00000E+00        -0.28301E+08
 
   -0.30778E+08         0.31397E+06         0.00000E+00
    0.31397E+06        -0.50079E+08         0.00000E+00
    0.00000E+00         0.00000E+00        -0.28300E+08
 
   -0.30750E+08         0.36257E+06         0.00000E+00
    0.36257E+06        -0.50097E+08         0.00000E+00
    0.00000E+00         0.00000E+00        -0.28300E+08
 
   -0.30720E+08         0.41376E+06         0.00000E+00
    0.41376E+06        -0.50116E+08         0.00000E+00
    0.00000E+00         0.00000E+00        -0.28300E+08
 
   -0.30686E+08         0.46757E+06         0.00000E+00
    0.46757E+06        -0.50137E+08         0.00000E+00
    0.00000E+00         0.00000E+00        -0.28300E+08
 
   -0.30649E+08         0.52404E+06         0.00000E+00
    0.52404E+06        -0.50159E+08         0.00000E+00
    0.00000E+00         0.00000E+00        -0.28300E+08
 
   -0.30610E+08         0.58319E+06         0.00000E+00
    0.58319E+06        -0.50183E+08         0.00000E+00
    0.00000E+00         0.00000E+00        -0.28299E+08
 
   -0.30567E+08         0.64504E+06         0.00000E+00
    0.64504E+06        -0.50207E+08         0.00000E+00
    0.00000E+00         0.00000E+00        -0.28299E+08
 
   -0.30522E+08         0.70960E+06         0.00000E+00
    0.70960E+06        -0.50233E+08         0.00000E+00
    0.00000E+00         0.00000E+00        -0.28299E+08
 
   -0.30474E+08         0.77688E+06         0.00000E+00
    0.77688E+06        -0.50260E+08         0.00000E+00
    0.00000E+00         0.00000E+00        -0.28299E+08
 
   -0.30425E+08         0.84689E+06         0.00000E+00
    0.84689E+06        -0.50288E+08         0.00000E+00
    0.00000E+00         0.00000E+00        -0.28299E+08
 
   -0.30373E+08         0.91963E+06         0.00000E+00
    0.91963E+06        -0.50316E+08         0.00000E+00
    0.00000E+00         0.00000E+00        -0.28299E+08
 
   -0.30319E+08         0.99511E+06         0.00000E+00
    0.99511E+06        -0.50346E+08         0.00000E+00
    0.00000E+00         0.00000E+00        -0.28298E+08
 
   -0.30263E+08         0.10733E+07         0.00000E+00
    0.10733E+07        -0.50376E+08         0.00000E+00
    0.00000E+00         0.00000E+00        -0.28298E+08
 
   -0.30206E+08         0.11543E+07         0.00000E+00
    0.11543E+07        -0.50407E+08         0.00000E+00
    0.00000E+00         0.00000E+00        -0.28298E+08
 
   -0.30147E+08         0.12379E+07         0.00000E+00
    0.12379E+07        -0.50439E+08         0.00000E+00
    0.00000E+00         0.00000E+00        -0.28298E+08
 
   -0.30086E+08         0.13243E+07         0.00000E+00
    0.13243E+07        -0.50471E+08         0.00000E+00
    0.00000E+00         0.00000E+00        -0.28298E+08
 
   -0.30024E+08         0.14134E+07         0.00000E+00
    0.14134E+07        -0.50504E+08         0.00000E+00
    0.00000E+00         0.00000E+00        -0.28297E+08
 
   -0.29961E+08         0.15052E+07         0.00000E+00
    0.15052E+07        -0.50537E+08         0.00000E+00
    0.00000E+00         0.00000E+00        -0.28297E+08
 
   -0.29897E+08         0.15996E+07         0.00000E+00
    0.15996E+07        -0.50571E+08         0.00000E+00
    0.00000E+00         0.00000E+00        -0.28297E+08
 
   -0.29832E+08         0.16968E+07         0.00000E+00
    0.16968E+07        -0.50605E+08         0.00000E+00
    0.00000E+00         0.00000E+00        -0.28297E+08
 
   -0.29766E+08         0.17965E+07         0.00000E+00
    0.17965E+07        -0.50639E+08         0.00000E+00
    0.00000E+00         0.00000E+00        -0.28297E+08
 
   -0.29699E+08         0.18990E+07         0.00000E+00
    0.18990E+07        -0.50674E+08         0.00000E+00
    0.00000E+00         0.00000E+00        -0.28297E+08
 
   -0.29632E+08         0.20040E+07         0.00000E+00
    0.20040E+07        -0.50709E+08         0.00000E+00
    0.00000E+00         0.00000E+00        -0.28296E+08
 
   -0.29564E+08         0.21116E+07         0.00000E+00
    0.21116E+07        -0.50744E+08         0.00000E+00
    0.00000E+00         0.00000E+00        -0.28296E+08
 
   -0.29495E+08         0.22219E+07         0.00000E+00
    0.22219E+07        -0.50780E+08         0.00000E+00
    0.00000E+00         0.00000E+00        -0.28296E+08
 
   -0.29426E+08         0.23347E+07         0.00000E+00
    0.23347E+07        -0.50815E+08         0.00000E+00
    0.00000E+00         0.00000E+00        -0.28296E+08
 
   -0.29357E+08         0.24500E+07         0.00000E+00
    0.24500E+07        -0.50851E+08         0.00000E+00
    0.00000E+00         0.00000E+00        -0.28296E+08
 
   -0.29287E+08         0.25679E+07         0.00000E+00
    0.25679E+07        -0.50887E+08         0.00000E+00
    0.00000E+00         0.00000E+00        -0.28296E+08
 
   -0.29218E+08         0.26882E+07         0.00000E+00
    0.26882E+07        -0.50922E+08         0.00000E+00
    0.00000E+00         0.00000E+00        -0.28296E+08
 
   -0.29148E+08         0.28111E+07         0.00000E+00
    0.28111E+07        -0.50958E+08         0.00000E+00
    0.00000E+00         0.00000E+00        -0.28296E+08
 
   -0.29078E+08         0.29364E+07         0.00000E+00
    0.29364E+07        -0.50994E+08         0.00000E+00
    0.00000E+00         0.00000E+00        -0.28295E+08
 
   -0.29008E+08         0.30642E+07         0.00000E+00
    0.30642E+07        -0.51029E+08         0.00000E+00
    0.00000E+00         0.00000E+00        -0.28295E+08
 
   -0.28939E+08         0.31943E+07         0.00000E+00
    0.31943E+07        -0.51065E+08         0.00000E+00
    0.00000E+00         0.00000E+00        -0.28295E+08
 
   -0.28870E+08         0.33269E+07         0.00000E+00
    0.33269E+07        -0.51100E+08         0.00000E+00
    0.00000E+00         0.00000E+00        -0.28295E+08
 
   -0.28800E+08         0.34618E+07         0.00000E+00
    0.34618E+07        -0.51135E+08         0.00000E+00
    0.00000E+00         0.00000E+00        -0.28295E+08
 
   -0.28732E+08         0.35990E+07         0.00000E+00
    0.35990E+07        -0.51170E+08         0.00000E+00
    0.00000E+00         0.00000E+00        -0.28295E+08
 
   -0.28663E+08         0.37385E+07         0.00000E+00
    0.37385E+07        -0.51205E+08         0.00000E+00
    0.00000E+00         0.00000E+00        -0.28295E+08
 
   -0.28595E+08         0.38803E+07         0.00000E+00
    0.38803E+07        -0.51239E+08         0.00000E+00
    0.00000E+00         0.00000E+00        -0.28295E+08
 
   -0.28527E+08         0.40243E+07         0.00000E+00
    0.40243E+07        -0.51273E+08         0.00000E+00
    0.00000E+00         0.00000E+00        -0.28295E+08
 
   -0.28460E+08         0.41706E+07         0.00000E+00
    0.41706E+07        -0.51307E+08         0.00000E+00
    0.00000E+00         0.00000E+00        -0.28295E+08
 
   -0.28394E+08         0.43190E+07         0.00000E+00
    0.43190E+07        -0.51341E+08         0.00000E+00
    0.00000E+00         0.00000E+00        -0.28295E+08
 
   -0.28328E+08         0.44695E+07         0.00000E+00
    0.44695E+07        -0.51374E+08         0.00000E+00
    0.00000E+00         0.00000E+00        -0.28295E+08
 
   -0.30734E+08         0.53399E+04         0.00000E+00
    0.53399E+04        -0.50001E+08         0.00000E+00
    0.00000E+00         0.00000E+00        -0.27528E+08
 
   -0.30730E+08         0.22885E+05         0.00000E+00
    0.22885E+05        -0.50004E+08         0.00000E+00
    0.00000E+00         0.00000E+00        -0.27528E+08
 
   -0.30720E+08         0.43063E+05         0.00000E+00
    0.43063E+05        -0.50009E+08         0.00000E+00
    0.00000E+00         0.00000E+00        -0.27528E+08
 
   -0.30706E+08         0.65959E+05         0.00000E+00
    0.65959E+05        -0.50017E+08         0.00000E+00
    0.00000E+00         0.00000E+00        -0.27528E+08
 
   -0.30686E+08         0.91649E+05         0.00000E+00
    0.91649E+05        -0.50027E+08         0.00000E+00
    0.00000E+00         0.00000E+00        -0.27528E+08
 
   -0.30661E+08         0.12020E+06         0.00000E+00
    0.12020E+06        -0.50039E+08         0.00000E+00
    0.00000E+00         0.00000E+00        -0.27528E+08
 
   -0.30632E+08         0.15166E+06         0.00000E+00
    0.15166E+06        -0.50053E+08         0.00000E+00
    0.00000E+00         0.00000E+00        -0.27528E+08
 
   -0.30599E+08         0.18609E+06         0.00000E+00
    0.18609E+06        -0.50069E+08         0.00000E+00
    0.00000E+00         0.00000E+00        -0.27528E+08
 
   -0.30562E+08         0.22352E+06         0.00000E+00
    0.22352E+06        -0.50087E+08         0.00000E+00
    0.00000E+00         0.00000E+00        -0.27528E+08
 
   -0.30521E+08         0.26399E+06         0.00000E+00
    0.26399E+06        -0.50107E+08         0.00000E+00
    0.00000E+00         0.00000E+00        -0.27528E+08
 
   -0.30476E+08         0.30753E+06         0.00000E+00
    0.30753E+06        -0.50129E+08         0.00000E+00
    0.00000E+00         0.00000E+00        -0.27528E+08
 
   -0.30428E+08         0.35414E+06         0.00000E+00
    0.35414E+06        -0.50152E+08         0.00000E+00
    0.00000E+00         0.00000E+00        -0.27527E+08
 
   -0.30377E+08         0.40384E+06         0.00000E+00
    0.40384E+06        -0.50176E+08         0.00000E+00
    0.00000E+00         0.00000E+00        -0.27527E+08
 
   -0.30322E+08         0.45665E+06         0.00000E+00
    0.45665E+06        -0.50202E+08         0.00000E+00
    0.00000E+00         0.00000E+00        -0.27527E+08
 
   -0.30265E+08         0.51256E+06         0.00000E+00
    0.51256E+06        -0.50229E+08         0.00000E+00
    0.00000E+00         0.00000E+00        -0.27527E+08
 
   -0.30206E+08         0.57157E+06         0.00000E+00
    0.57157E+06        -0.50257E+08         0.00000E+00
    0.00000E+00         0.00000E+00        -0.27527E+08
 
   -0.30144E+08         0.63367E+06         0.00000E+00
    0.63367E+06        -0.50287E+08         0.00000E+00
    0.00000E+00         0.00000E+00        -0.27527E+08
 
   -0.30079E+08         0.69886E+06         0.00000E+00
    0.69886E+06        -0.50317E+08         0.00000E+00
    0.00000E+00         0.00000E+00        -0.27527E+08
 
   -0.30013E+08         0.76712E+06         0.00000E+00
    0.76712E+06        -0.50348E+08         0.00000E+00
    0.00000E+00         0.00000E+00        -0.27527E+08
 
   -0.29945E+08         0.83844E+06         0.00000E+00
    0.83844E+06        -0.50381E+08         0.00000E+00
    0.00000E+00         0.00000E+00        -0.27527E+08
 
   -0.29874E+08         0.91280E+06         0.00000E+00
    0.91280E+06        -0.50414E+08         0.00000E+00
    0.00000E+00         0.00000E+00        -0.27527E+08
 
   -0.29803E+08         0.99018E+06         0.00000E+00
    0.99018E+06        -0.50448E+08         0.00000E+00
    0.00000E+00         0.00000E+00        -0.27527E+08
 
   -0.29729E+08         0.10706E+07         0.00000E+00
    0.10706E+07        -0.50482E+08         0.00000E+00
    0.00000E+00         0.00000E+00        -0.27527E+08
 
   -0.29655E+08         0.11539E+07         0.00000E+00
    0.11539E+07        -0.50517E+08         0.00000E+00
    0.00000E+00         0.00000E+00        -0.27527E+08
 
   -0.29579E+08         0.12403E+07         0.00000E+00
    0.12403E+07        -0.50553E+08         0.00000E+00
    0.00000E+00         0.00000E+00        -0.27527E+08
 
   -0.29502E+08         0.13295E+07         0.00000E+00
    0.13295E+07        -0.50590E+08         0.00000E+00
    0.00000E+00         0.00000E+00        -0.27527E+08
 
   -0.29424E+08         0.14217E+07         0.00000E+00
    0.14217E+07        -0.50627E+08         0.00000E+00
    0.00000E+00         0.00000E+00        -0.27527E+08
 
   -0.29345E+08         0.15168E+07         0.00000E+00
    0.15168E+07        -0.50664E+08         0.00000E+00
    0.00000E+00         0.00000E+00        -0.27527E+08
 
   -0.29265E+08         0.16148E+07         0.00000E+00
    0.16148E+07        -0.50702E+08         0.00000E+00
    0.00000E+00         0.00000E+00        -0.27527E+08
 
   -0.29184E+08         0.17156E+07         0.00000E+00
    0.17156E+07        -0.50740E+08         0.00000E+00
    0.00000E+00         0.00000E+00        -0.27527E+08
 
   -0.29103E+08         0.18192E+07         0.00000E+00
    0.18192E+07        -0.50778E+08         0.00000E+00
    0.00000E+00         0.00000E+00        -0.27527E+08
 
   -0.29022E+08         0.19257E+07         0.00000E+00
    0.19257E+07        -0.50817E+08         0.00000E+00
    0.00000E+00         0.00000E+00        -0.27527E+08
 
   -0.28940E+08         0.20349E+07         0.00000E+00
    0.20349E+07        -0.50856E+08         0.00000E+00
    0.00000E+00         0.00000E+00        -0.27527E+08
 
   -0.28858E+08         0.21469E+07         0.00000E+00
    0.21469E+07        -0.50896E+08         0.00000E+00
    0.00000E+00         0.00000E+00        -0.27527E+08
 
   -0.28775E+08         0.22616E+07         0.00000E+00
    0.22616E+07        -0.50935E+08         0.00000E+00
    0.00000E+00         0.00000E+00        -0.27527E+08
 
   -0.28693E+08         0.23790E+07         0.00000E+00
    0.23790E+07        -0.50975E+08         0.00000E+00
    0.00000E+00         0.00000E+00        -0.27527E+08
 
   -0.28610E+08         0.24991E+07         0.00000E+00
    0.24991E+07        -0.51015E+08         0.00000E+00
    0.00000E+00         0.00000E+00        -0.27527E+08
 
   -0.28528E+08         0.26219E+07         0.00000E+00
    0.26219E+07        -0.51055E+08         0.00000E+00
    0.00000E+00         0.00000E+00        -0.27527E+08
 
   -0.28445E+08         0.27473E+07         0.00000E+00
    0.27473E+07        -0.51095E+08         0.00000E+00
    0.00000E+00         0.00000E+00        -0.27527E+08
 
   -0.28363E+08         0.28753E+07         0.00000E+00
    0.28753E+07        -0.51135E+08         0.00000E+00
    0.00000E+00         0.00000E+00        -0.27527E+08
 
   -0.28281E+08         0.30059E+07         0.00000E+00
    0.30059E+07        -0.51175E+08         0.00000E+00
    0.00000E+00         0.00000E+00        -0.27527E+08
 
   -0.28199E+08         0.31391E+07         0.00000E+00
    0.31391E+07        -0.51215E+08         0.00000E+00
    0.00000E+00         0.00000E+00        -0.27527E+08
 
   -0.28118E+08         0.32747E+07         0.00000E+00
    0.32747E+07        -0.51255E+08         0.00000E+00
    0.00000E+00         0.00000E+00        -0.27527E+08
 
   -0.28037E+08         0.34129E+07         0.00000E+00
    0.34129E+07        -0.51294E+08         0.00000E+00
    0.00000E+00         0.00000E+00        -0.27527E+08
 
   -0.27957E+08         0.35535E+07         0.00000E+00
    0.35535E+07        -0.51334E+08         0.00000E+00
    0.00000E+00         0.00000E+00        -0.27527E+08
 
   -0.27877E+08         0.36965E+07         0.00000E+00
    0.36965E+07        -0.51373E+08         0.00000E+00
    0.00000E+00         0.00000E+00        -0.27527E+08
 
   -0.27798E+08         0.38419E+07         0.00000E+00
    0.38419E+07        -0.51413E+08         0.00000E+00
    0.00000E+00         0.00000E+00        -0.27527E+08
 
   -0.27720E+08         0.39896E+07         0.00000E+00
    0.39896E+07        -0.51452E+08         0.00000E+00
    0.00000E+00         0.00000E+00        -0.27527E+08
 
   -0.27642E+08         0.41397E+07         0.00000E+00
    0.41397E+07        -0.51490E+08         0.00000E+00
    0.00000E+00         0.00000E+00        -0.27527E+08
 
   -0.27566E+08         0.42919E+07         0.00000E+00
    0.42919E+07        -0.51529E+08         0.00000E+00
    0.00000E+00         0.00000E+00        -0.27527E+08
 
   -0.30688E+08        -0.24701E+04         0.00000E+00
   -0.24701E+04        -0.50001E+08         0.00000E+00
    0.00000E+00         0.00000E+00        -0.26746E+08
 
   -0.30669E+08         0.13704E+04         0.00000E+00
    0.13704E+04        -0.50004E+08         0.00000E+00
    0.00000E+00         0.00000E+00        -0.26746E+08
 
   -0.30644E+08         0.85300E+04         0.00000E+00
    0.85300E+04        -0.50010E+08         0.00000E+00
    0.00000E+00         0.00000E+00        -0.26746E+08
 
   -0.30614E+08         0.19082E+05         0.00000E+00
    0.19082E+05        -0.50018E+08         0.00000E+00
    0.00000E+00         0.00000E+00        -0.26746E+08
 
   -0.30578E+08         0.33088E+05         0.00000E+00
    0.33088E+05        -0.50029E+08         0.00000E+00
    0.00000E+00         0.00000E+00        -0.26746E+08
 
   -0.30538E+08         0.50597E+05         0.00000E+00
    0.50597E+05        -0.50043E+08         0.00000E+00
    0.00000E+00         0.00000E+00        -0.26746E+08
 
   -0.30493E+08         0.71648E+05         0.00000E+00
    0.71648E+05        -0.50058E+08         0.00000E+00
    0.00000E+00         0.00000E+00        -0.26746E+08
 
   -0.30443E+08         0.96268E+05         0.00000E+00
    0.96268E+05        -0.50076E+08         0.00000E+00
    0.00000E+00         0.00000E+00        -0.26746E+08
 
   -0.30389E+08         0.12448E+06         0.00000E+00
    0.12448E+06        -0.50096E+08         0.00000E+00
    0.00000E+00         0.00000E+00        -0.26746E+08
 
   -0.30332E+08         0.15628E+06         0.00000E+00
    0.15628E+06        -0.50117E+08         0.00000E+00
    0.00000E+00         0.00000E+00        -0.26746E+08
 
   -0.30270E+08         0.19169E+06         0.00000E+00
    0.19169E+06        -0.50140E+08         0.00000E+00
    0.00000E+00         0.00000E+00        -0.26746E+08
 
   -0.30205E+08         0.23068E+06         0.00000E+00
    0.23068E+06        -0.50165E+08         0.00000E+00
    0.00000E+00         0.00000E+00        -0.26746E+08
 
   -0.30138E+08         0.27326E+06         0.00000E+00
    0.27326E+06        -0.50191E+08         0.00000E+00
    0.00000E+00         0.00000E+00        -0.26747E+08
 
   -0.30067E+08         0.31939E+06         0.00000E+00
    0.31939E+06        -0.50219E+08         0.00000E+00
    0.00000E+00         0.00000E+00        -0.26747E+08
 
   -0.29993E+08         0.36906E+06         0.00000E+00
    0.36906E+06        -0.50248E+08         0.00000E+00
    0.00000E+00         0.00000E+00        -0.26747E+08
 
   -0.29917E+08         0.42225E+06         0.00000E+00
    0.42225E+06        -0.50278E+08         0.00000E+00
    0.00000E+00         0.00000E+00        -0.26747E+08
 
   -0.29839E+08         0.47891E+06         0.00000E+00
    0.47891E+06        -0.50310E+08         0.00000E+00
    0.00000E+00         0.00000E+00        -0.26747E+08
 
   -0.29758E+08         0.53901E+06         0.00000E+00
    0.53901E+06        -0.50342E+08         0.00000E+00
    0.00000E+00         0.00000E+00        -0.26747E+08
 
   -0.29676E+08         0.60253E+06         0.00000E+00
    0.60253E+06        -0.50375E+08         0.00000E+00
    0.00000E+00         0.00000E+00        -0.26747E+08
 
   -0.29591E+08         0.66942E+06         0.00000E+00
    0.66942E+06        -0.50410E+08         0.00000E+00
    0.00000E+00         0.00000E+00        -0.26747E+08
 
   -0.29505E+08         0.73965E+06         0.00000E+00
    0.73965E+06        -0.50445E+08         0.00000E+00
    0.00000E+00         0.00000E+00        -0.26748E+08
 
   -0.29418E+08         0.81317E+06         0.00000E+00
    0.81317E+06        -0.50481E+08         0.00000E+00
    0.00000E+00         0.00000E+00        -0.26748E+08
 
   -0.29329E+08         0.88996E+06         0.00000E+00
    0.88996E+06        -0.50518E+08         0.00000E+00
    0.00000E+00         0.00000E+00        -0.26748E+08
 
   -0.29239E+08         0.96997E+06         0.00000E+00
    0.96997E+06        -0.50555E+08         0.00000E+00
    0.00000E+00         0.00000E+00        -0.26748E+08
 
   -0.29147E+08         0.10532E+07         0.00000E+00
    0.10532E+07        -0.50594E+08         0.00000E+00
    0.00000E+00         0.00000E+00        -0.26748E+08
 
   -0.29055E+08         0.11395E+07         0.00000E+00
    0.11395E+07        -0.50633E+08         0.00000E+00
    0.00000E+00         0.00000E+00        -0.26749E+08
 
   -0.28962E+08         0.12290E+07         0.00000E+00
    0.12290E+07        -0.50672E+08         0.00000E+00
    0.00000E+00         0.00000E+00        -0.26749E+08
 
   -0.28868E+08         0.13216E+07         0.00000E+00
    0.13216E+07        -0.50712E+08         0.00000E+00
    0.00000E+00         0.00000E+00        -0.26749E+08
 
   -0.28774E+08         0.14172E+07         0.00000E+00
    0.14172E+07        -0.50753E+08         0.00000E+00
    0.00000E+00         0.00000E+00        -0.26749E+08
 
   -0.28679E+08         0.15159E+07         0.00000E+00
    0.15159E+07        -0.50794E+08         0.00000E+00
    0.00000E+00         0.00000E+00        -0.26749E+08
 
   -0.28583E+08         0.16176E+07         0.00000E+00
    0.16176E+07        -0.50835E+08         0.00000E+00
    0.00000E+00         0.00000E+00        -0.26749E+08
 
   -0.28487E+08         0.17222E+07         0.00000E+00
    0.17222E+07        -0.50878E+08         0.00000E+00
    0.00000E+00         0.00000E+00        -0.26750E+08
 
   -0.28391E+08         0.18299E+07         0.00000E+00
    0.18299E+07        -0.50920E+08         0.00000E+00
    0.00000E+00         0.00000E+00        -0.26750E+08
 
   -0.28295E+08         0.19404E+07         0.00000E+00
    0.19404E+07        -0.50963E+08         0.00000E+00
    0.00000E+00         0.00000E+00        -0.26750E+08
 
   -0.28198E+08         0.20539E+07         0.00000E+00
    0.20539E+07        -0.51006E+08         0.00000E+00
    0.00000E+00         0.00000E+00        -0.26750E+08
 
   -0.28102E+08         0.21702E+07         0.00000E+00
    0.21702E+07        -0.51050E+08         0.00000E+00
    0.00000E+00         0.00000E+00        -0.26750E+08
 
   -0.28005E+08         0.22895E+07         0.00000E+00
    0.22895E+07        -0.51093E+08         0.00000E+00
    0.00000E+00         0.00000E+00        -0.26750E+08
 
   -0.27909E+08         0.24115E+07         0.00000E+00
    0.24115E+07        -0.51137E+08         0.00000E+00
    0.00000E+00         0.00000E+00        -0.26751E+08
 
   -0.27813E+08         0.25364E+07         0.00000E+00
    0.25364E+07        -0.51182E+08         0.00000E+00
    0.00000E+00         0.00000E+00        -0.26751E+08
 
   -0.27717E+08         0.26641E+07         0.00000E+00
    0.26641E+07        -0.51226E+08         0.00000E+00
    0.00000E+00         0.00000E+00        -0.26751E+08
 
   -0.27622E+08         0.27945E+07         0.00000E+00
    0.27945E+07        -0.51270E+08         0.00000E+00
    0.00000E+00         0.00000E+00        -0.26751E+08
 
   -0.27527E+08         0.29277E+07         0.00000E+00
    0.29277E+07        -0.51315E+08         0.00000E+00
    0.00000E+00         0.00000E+00        -0.26751E+08
 
   -0.27433E+08         0.30636E+07         0.00000E+00
    0.30636E+07        -0.51360E+08         0.00000E+00
    0.00000E+00         0.00000E+00        -0.26751E+08
 
   -0.27339E+08         0.32021E+07         0.00000E+00
    0.32021E+07        -0.51404E+08         0.00000E+00
    0.00000E+00         0.00000E+00        -0.26751E+08
 
   -0.27246E+08         0.33433E+07         0.00000E+00
    0.33433E+07        -0.51449E+08         0.00000E+00
    0.00000E+00         0.00000E+00        -0.26751E+08
 
   -0.27154E+08         0.34871E+07         0.00000E+00
    0.34871E+07        -0.51494E+08         0.00000E+00
    0.00000E+00         0.00000E+00        -0.26751E+08
 
   -0.27063E+08         0.36335E+07         0.00000E+00
    0.36335E+07        -0.51538E+08         0.00000E+00
    0.00000E+00         0.00000E+00        -0.26752E+08
 
   -0.26973E+08         0.37823E+07         0.00000E+00
    0.37823E+07        -0.51582E+08         0.00000E+00
    0.00000E+00         0.00000E+00        -0.26752E+08
 
   -0.26884E+08         0.39336E+07         0.00000E+00
    0.39336E+07        -0.51626E+08         0.00000E+00
    0.00000E+00         0.00000E+00        -0.26752E+08
 
   -0.26795E+08         0.40873E+07         0.00000E+00
    0.40873E+07        -0.51670E+08         0.00000E+00
    0.00000E+00         0.00000E+00        -0.26752E+08
 
   -0.30715E+08        -0.11153E+05         0.00000E+00
   -0.11153E+05        -0.50001E+08         0.00000E+00
    0.00000E+00         0.00000E+00        -0.25957E+08
 
   -0.30677E+08        -0.22287E+05         0.00000E+00
   -0.22287E+05        -0.50004E+08         0.00000E+00
    0.00000E+00         0.00000E+00        -0.25957E+08
 
   -0.30634E+08        -0.29253E+05         0.00000E+00
   -0.29253E+05        -0.50011E+08         0.00000E+00
    0.00000E+00         0.00000E+00        -0.25957E+08
 
   -0.30585E+08        -0.31997E+05         0.00000E+00
   -0.31997E+05        -0.50020E+08         0.00000E+00
    0.00000E+00         0.00000E+00        -0.25957E+08
 
   -0.30530E+08        -0.30481E+05         0.00000E+00
   -0.30481E+05        -0.50032E+08         0.00000E+00
    0.00000E+00         0.00000E+00        -0.25957E+08
 
   -0.30470E+08        -0.24683E+05         0.00000E+00
   -0.24683E+05        -0.50046E+08         0.00000E+00
    0.00000E+00         0.00000E+00        -0.25957E+08
 
   -0.30405E+08        -0.14596E+05         0.00000E+00
   -0.14596E+05        -0.50063E+08         0.00000E+00
    0.00000E+00         0.00000E+00        -0.25957E+08
 
   -0.30336E+08        -0.22332E+03         0.00000E+00
   -0.22332E+03        -0.50082E+08         0.00000E+00
    0.00000E+00         0.00000E+00        -0.25957E+08
 
   -0.30262E+08         0.18417E+05         0.00000E+00
    0.18417E+05        -0.50102E+08         0.00000E+00
    0.00000E+00         0.00000E+00        -0.25958E+08
 
   -0.30185E+08         0.41297E+05         0.00000E+00
    0.41297E+05        -0.50125E+08         0.00000E+00
    0.00000E+00         0.00000E+00        -0.25958E+08
 
   -0.30104E+08         0.68381E+05         0.00000E+00
    0.68381E+05        -0.50149E+08         0.00000E+00
    0.00000E+00         0.00000E+00        -0.25958E+08
 
   -0.30020E+08         0.99623E+05         0.00000E+00
    0.99623E+05        -0.50175E+08         0.00000E+00
    0.00000E+00         0.00000E+00        -0.25958E+08
 
   -0.29933E+08         0.13497E+06         0.00000E+00
    0.13497E+06        -0.50203E+08         0.00000E+00
    0.00000E+00         0.00000E+00        -0.25959E+08
 
   -0.29844E+08         0.17437E+06         0.00000E+00
    0.17437E+06        -0.50232E+08         0.00000E+00
    0.00000E+00         0.00000E+00        -0.25959E+08
 
   -0.29751E+08         0.21775E+06         0.00000E+00
    0.21775E+06        -0.50262E+08         0.00000E+00
    0.00000E+00         0.00000E+00        -0.25959E+08
 
   -0.29657E+08         0.26505E+06         0.00000E+00
    0.26505E+06        -0.50293E+08         0.00000E+00
    0.00000E+00         0.00000E+00        -0.25959E+08
 
   -0.29560E+08         0.31620E+06         0.00000E+00
    0.31620E+06        -0.50325E+08         0.00000E+00
    0.00000E+00         0.00000E+00        -0.25960E+08
 
   -0.29462E+08         0.37114E+06         0.00000E+00
    0.37114E+06        -0.50359E+08         0.00000E+00
    0.00000E+00         0.00000E+00        -0.25960E+08
 
   -0.29362E+08         0.42979E+06         0.00000E+00
    0.42979E+06        -0.50393E+08         0.00000E+00
    0.00000E+00         0.00000E+00        -0.25960E+08
 
   -0.29260E+08         0.49210E+06         0.00000E+00
    0.49210E+06        -0.50429E+08         0.00000E+00
    0.00000E+00         0.00000E+00        -0.25961E+08
 
   -0.29157E+08         0.55799E+06         0.00000E+00
    0.55799E+06        -0.50465E+08         0.00000E+00
    0.00000E+00         0.00000E+00        -0.25961E+08
 
   -0.29052E+08         0.62740E+06         0.00000E+00
    0.62740E+06        -0.50503E+08         0.00000E+00
    0.00000E+00         0.00000E+00        -0.25961E+08
 
   -0.28947E+08         0.70027E+06         0.00000E+00
    0.70027E+06        -0.50541E+08         0.00000E+00
    0.00000E+00         0.00000E+00        -0.25962E+08
 
   -0.28840E+08         0.77655E+06         0.00000E+00
    0.77655E+06        -0.50579E+08         0.00000E+00
    0.00000E+00         0.00000E+00        -0.25962E+08
 
   -0.28732E+08         0.85619E+06         0.00000E+00
    0.85619E+06        -0.50619E+08         0.00000E+00
    0.00000E+00         0.00000E+00        -0.25963E+08
 
   -0.28624E+08         0.93913E+06         0.00000E+00
    0.93913E+06        -0.50659E+08         0.00000E+00
    0.00000E+00         0.00000E+00        -0.25963E+08
 
   -0.28515E+08         0.10253E+07         0.00000E+00
    0.10253E+07        -0.50701E+08         0.00000E+00
    0.00000E+00         0.00000E+00        -0.25963E+08
 
   -0.28406E+08         0.11148E+07         0.00000E+00
    0.11148E+07        -0.50742E+08         0.00000E+00
    0.00000E+00         0.00000E+00        -0.25964E+08
 
   -0.28295E+08         0.12074E+07         0.00000E+00
    0.12074E+07        -0.50785E+08         0.00000E+00
    0.00000E+00         0.00000E+00        -0.25964E+08
 
   -0.28185E+08         0.13032E+07         0.00000E+00
    0.13032E+07        -0.50828E+08         0.00000E+00
    0.00000E+00         0.00000E+00        -0.25964E+08
 
   -0.28074E+08         0.14021E+07         0.00000E+00
    0.14021E+07        -0.50872E+08         0.00000E+00
    0.00000E+00         0.00000E+00        -0.25965E+08
 
   -0.27963E+08         0.15042E+07         0.00000E+00
    0.15042E+07        -0.50916E+08         0.00000E+00
    0.00000E+00         0.00000E+00        -0.25965E+08
 
   -0.27852E+08         0.16093E+07         0.00000E+00
    0.16093E+07        -0.50962E+08         0.00000E+00
    0.00000E+00         0.00000E+00        -0.25965E+08
 
   -0.27740E+08         0.17175E+07         0.00000E+00
    0.17175E+07        -0.51007E+08         0.00000E+00
    0.00000E+00         0.00000E+00        -0.25966E+08
 
   -0.27629E+08         0.18288E+07         0.00000E+00
    0.18288E+07        -0.51054E+08         0.00000E+00
    0.00000E+00         0.00000E+00        -0.25966E+08
 
   -0.27518E+08         0.19431E+07         0.00000E+00
    0.19431E+07        -0.51100E+08         0.00000E+00
    0.00000E+00         0.00000E+00        -0.25966E+08
 
   -0.27406E+08         0.20605E+07         0.00000E+00
    0.20605E+07        -0.51148E+08         0.00000E+00
    0.00000E+00         0.00000E+00        -0.25967E+08
 
   -0.27296E+08         0.21809E+07         0.00000E+00
    0.21809E+07        -0.51196E+08         0.00000E+00
    0.00000E+00         0.00000E+00        -0.25967E+08
 
   -0.27185E+08         0.23043E+07         0.00000E+00
    0.23043E+07        -0.51244E+08         0.00000E+00
    0.00000E+00         0.00000E+00        -0.25967E+08
 
   -0.27075E+08         0.24307E+07         0.00000E+00
    0.24307E+07        -0.51293E+08         0.00000E+00
    0.00000E+00         0.00000E+00        -0.25967E+08
 
   -0.26965E+08         0.25601E+07         0.00000E+00
    0.25601E+07        -0.51342E+08         0.00000E+00
    0.00000E+00         0.00000E+00        -0.25968E+08
 
   -0.26856E+08         0.26924E+07         0.00000E+00
    0.26924E+07        -0.51391E+08         0.00000E+00
    0.00000E+00         0.00000E+00        -0.25968E+08
 
   -0.26748E+08         0.28277E+07         0.00000E+00
    0.28277E+07        -0.51441E+08         0.00000E+00
    0.00000E+00         0.00000E+00        -0.25968E+08
 
   -0.26641E+08         0.29659E+07         0.00000E+00
    0.29659E+07        -0.51490E+08         0.00000E+00
    0.00000E+00         0.00000E+00        -0.25968E+08
 
   -0.26534E+08         0.31070E+07         0.00000E+00
    0.31070E+07        -0.51540E+08         0.00000E+00
    0.00000E+00         0.00000E+00        -0.25968E+08
 
   -0.26429E+08         0.32509E+07         0.00000E+00
    0.32509E+07        -0.51590E+08         0.00000E+00
    0.00000E+00         0.00000E+00        -0.25968E+08
 
   -0.26324E+08         0.33976E+07         0.00000E+00
    0.33976E+07        -0.51640E+08         0.00000E+00
    0.00000E+00         0.00000E+00        -0.25969E+08
 
   -0.26221E+08         0.35470E+07         0.00000E+00
    0.35470E+07        -0.51690E+08         0.00000E+00
    0.00000E+00         0.00000E+00        -0.25969E+08
 
   -0.26119E+08         0.36991E+07         0.00000E+00
    0.36991E+07        -0.51740E+08         0.00000E+00
    0.00000E+00         0.00000E+00        -0.25969E+08
 
   -0.26019E+08         0.38539E+07         0.00000E+00
    0.38539E+07        -0.51790E+08         0.00000E+00
    0.00000E+00         0.00000E+00        -0.25969E+08
 
   -0.30822E+08        -0.20676E+05         0.00000E+00
   -0.20676E+05        -0.50001E+08         0.00000E+00
    0.00000E+00         0.00000E+00        -0.25162E+08
 
   -0.30761E+08        -0.47859E+05         0.00000E+00
   -0.47859E+05        -0.50005E+08         0.00000E+00
    0.00000E+00         0.00000E+00        -0.25162E+08
 
   -0.30694E+08        -0.69807E+05         0.00000E+00
   -0.69807E+05        -0.50011E+08         0.00000E+00
    0.00000E+00         0.00000E+00        -0.25162E+08
 
   -0.30621E+08        -0.86500E+05         0.00000E+00
   -0.86500E+05        -0.50021E+08         0.00000E+00
    0.00000E+00         0.00000E+00        -0.25162E+08
 
   -0.30543E+08        -0.97942E+05         0.00000E+00
   -0.97942E+05        -0.50034E+08         0.00000E+00
    0.00000E+00         0.00000E+00        -0.25163E+08
 
   -0.30459E+08        -0.10415E+06         0.00000E+00
   -0.10415E+06        -0.50049E+08         0.00000E+00
    0.00000E+00         0.00000E+00        -0.25163E+08
 
   -0.30371E+08        -0.10518E+06         0.00000E+00
   -0.10518E+06        -0.50066E+08         0.00000E+00
    0.00000E+00         0.00000E+00        -0.25163E+08
 
   -0.30278E+08        -0.10106E+06         0.00000E+00
   -0.10106E+06        -0.50085E+08         0.00000E+00
    0.00000E+00         0.00000E+00        -0.25163E+08
 
   -0.30182E+08        -0.91893E+05         0.00000E+00
   -0.91893E+05        -0.50107E+08         0.00000E+00
    0.00000E+00         0.00000E+00        -0.25164E+08
 
   -0.30082E+08        -0.77748E+05         0.00000E+00
   -0.77748E+05        -0.50130E+08         0.00000E+00
    0.00000E+00         0.00000E+00        -0.25164E+08
 
   -0.29978E+08        -0.58726E+05         0.00000E+00
   -0.58726E+05        -0.50154E+08         0.00000E+00
    0.00000E+00         0.00000E+00        -0.25164E+08
 
   -0.29872E+08        -0.34936E+05         0.00000E+00
   -0.34936E+05        -0.50181E+08         0.00000E+00
    0.00000E+00         0.00000E+00        -0.25165E+08
 
   -0.29764E+08        -0.64901E+04         0.00000E+00
   -0.64901E+04        -0.50208E+08         0.00000E+00
    0.00000E+00         0.00000E+00        -0.25165E+08
 
   -0.29653E+08         0.26493E+05         0.00000E+00
    0.26493E+05        -0.50237E+08         0.00000E+00
    0.00000E+00         0.00000E+00        -0.25166E+08
 
   -0.29540E+08         0.63892E+05         0.00000E+00
    0.63892E+05        -0.50267E+08         0.00000E+00
    0.00000E+00         0.00000E+00        -0.25166E+08
 
   -0.29425E+08         0.10559E+06         0.00000E+00
    0.10559E+06        -0.50298E+08         0.00000E+00
    0.00000E+00         0.00000E+00        -0.25166E+08
 
   -0.29308E+08         0.15145E+06         0.00000E+00
    0.15145E+06        -0.50330E+08         0.00000E+00
    0.00000E+00         0.00000E+00        -0.25167E+08
 
   -0.29190E+08         0.20138E+06         0.00000E+00
    0.20138E+06        -0.50363E+08         0.00000E+00
    0.00000E+00         0.00000E+00        -0.25167E+08
 
   -0.29071E+08         0.25525E+06         0.00000E+00
    0.25525E+06        -0.50397E+08         0.00000E+00
    0.00000E+00         0.00000E+00        -0.25168E+08
 
   -0.28951E+08         0.31295E+06         0.00000E+00
    0.31295E+06        -0.50432E+08         0.00000E+00
    0.00000E+00         0.00000E+00        -0.25169E+08
 
   -0.28830E+08         0.37438E+06         0.00000E+00
    0.37438E+06        -0.50468E+08         0.00000E+00
    0.00000E+00         0.00000E+00        -0.25169E+08
 
   -0.28707E+08         0.43945E+06         0.00000E+00
    0.43945E+06        -0.50505E+08         0.00000E+00
    0.00000E+00         0.00000E+00        -0.25170E+08
 
   -0.28584E+08         0.50808E+06         0.00000E+00
    0.50808E+06        -0.50542E+08         0.00000E+00
    0.00000E+00         0.00000E+00        -0.25170E+08
 
   -0.28461E+08         0.58017E+06         0.00000E+00
    0.58017E+06        -0.50581E+08         0.00000E+00
    0.00000E+00         0.00000E+00        -0.25171E+08
 
   -0.28336E+08         0.65568E+06         0.00000E+00
    0.65568E+06        -0.50620E+08         0.00000E+00
    0.00000E+00         0.00000E+00        -0.25171E+08
 
   -0.28212E+08         0.73453E+06         0.00000E+00
    0.73453E+06        -0.50661E+08         0.00000E+00
    0.00000E+00         0.00000E+00        -0.25172E+08
 
   -0.28086E+08         0.81668E+06         0.00000E+00
    0.81668E+06        -0.50702E+08         0.00000E+00
    0.00000E+00         0.00000E+00        -0.25172E+08
 
   -0.27961E+08         0.90208E+06         0.00000E+00
    0.90208E+06        -0.50744E+08         0.00000E+00
    0.00000E+00         0.00000E+00        -0.25173E+08
 
   -0.27834E+08         0.99070E+06         0.00000E+00
    0.99070E+06        -0.50787E+08         0.00000E+00
    0.00000E+00         0.00000E+00        -0.25173E+08
 
   -0.27708E+08         0.10825E+07         0.00000E+00
    0.10825E+07        -0.50831E+08         0.00000E+00
    0.00000E+00         0.00000E+00        -0.25174E+08
 
   -0.27581E+08         0.11775E+07         0.00000E+00
    0.11775E+07        -0.50876E+08         0.00000E+00
    0.00000E+00         0.00000E+00        -0.25174E+08
 
   -0.27455E+08         0.12757E+07         0.00000E+00
    0.12757E+07        -0.50922E+08         0.00000E+00
    0.00000E+00         0.00000E+00        -0.25175E+08
 
   -0.27328E+08         0.13770E+07         0.00000E+00
    0.13770E+07        -0.50969E+08         0.00000E+00
    0.00000E+00         0.00000E+00        -0.25175E+08
 
   -0.27201E+08         0.14815E+07         0.00000E+00
    0.14815E+07        -0.51017E+08         0.00000E+00
    0.00000E+00         0.00000E+00        -0.25176E+08
 
   -0.27074E+08         0.15892E+07         0.00000E+00
    0.15892E+07        -0.51065E+08         0.00000E+00
    0.00000E+00         0.00000E+00        -0.25176E+08
 
   -0.26947E+08         0.17000E+07         0.00000E+00
    0.17000E+07        -0.51115E+08         0.00000E+00
    0.00000E+00         0.00000E+00        -0.25177E+08
 
   -0.26820E+08         0.18141E+07         0.00000E+00
    0.18141E+07        -0.51165E+08         0.00000E+00
    0.00000E+00         0.00000E+00        -0.25177E+08
 
   -0.26694E+08         0.19313E+07         0.00000E+00
    0.19313E+07        -0.51217E+08         0.00000E+00
    0.00000E+00         0.00000E+00        -0.25178E+08
 
   -0.26568E+08         0.20518E+07         0.00000E+00
    0.20518E+07        -0.51269E+08         0.00000E+00
    0.00000E+00         0.00000E+00        -0.25178E+08
 
   -0.26442E+08         0.21755E+07         0.00000E+00
    0.21755E+07        -0.51322E+08         0.00000E+00
    0.00000E+00         0.00000E+00        -0.25178E+08
 
   -0.26317E+08         0.23024E+07         0.00000E+00
    0.23024E+07        -0.51375E+08         0.00000E+00
    0.00000E+00         0.00000E+00        -0.25179E+08
 
   -0.26192E+08         0.24326E+07         0.00000E+00
    0.24326E+07        -0.51429E+08         0.00000E+00
    0.00000E+00         0.00000E+00        -0.25179E+08
 
   -0.26069E+08         0.25661E+07         0.00000E+00
    0.25661E+07        -0.51484E+08         0.00000E+00
    0.00000E+00         0.00000E+00        -0.25179E+08
 
   -0.25946E+08         0.27027E+07         0.00000E+00
    0.27027E+07        -0.51539E+08         0.00000E+00
    0.00000E+00         0.00000E+00        -0.25179E+08
 
   -0.25824E+08         0.28426E+07         0.00000E+00
    0.28426E+07        -0.51595E+08         0.00000E+00
    0.00000E+00         0.00000E+00        -0.25180E+08
 
   -0.25704E+08         0.29857E+07         0.00000E+00
    0.29857E+07        -0.51651E+08         0.00000E+00
    0.00000E+00         0.00000E+00        -0.25180E+08
 
   -0.25585E+08         0.31319E+07         0.00000E+00
    0.31319E+07        -0.51707E+08         0.00000E+00
    0.00000E+00         0.00000E+00        -0.25180E+08
 
   -0.25467E+08         0.32813E+07         0.00000E+00
    0.32813E+07        -0.51764E+08         0.00000E+00
    0.00000E+00         0.00000E+00        -0.25180E+08
 
   -0.25351E+08         0.34337E+07         0.00000E+00
    0.34337E+07        -0.51820E+08         0.00000E+00
    0.00000E+00         0.00000E+00        -0.25180E+08
 
   -0.25237E+08         0.35891E+07         0.00000E+00
    0.35891E+07        -0.51877E+08         0.00000E+00
    0.00000E+00         0.00000E+00        -0.25180E+08
 
   -0.31014E+08        -0.31008E+05         0.00000E+00
   -0.31008E+05        -0.50001E+08         0.00000E+00
    0.00000E+00         0.00000E+00        -0.24364E+08
 
   -0.30924E+08        -0.74976E+05         0.00000E+00
   -0.74976E+05        -0.50005E+08         0.00000E+00
    0.00000E+00         0.00000E+00        -0.24364E+08
 
   -0.30828E+08        -0.11235E+06         0.00000E+00
   -0.11235E+06        -0.50012E+08         0.00000E+00
    0.00000E+00         0.00000E+00        -0.24364E+08
 
   -0.30725E+08        -0.14318E+06         0.00000E+00
   -0.14318E+06        -0.50022E+08         0.00000E+00
    0.00000E+00         0.00000E+00        -0.24364E+08
 
   -0.30618E+08        -0.16750E+06         0.00000E+00
   -0.16750E+06        -0.50035E+08         0.00000E+00
    0.00000E+00         0.00000E+00        -0.24364E+08
 
   -0.30505E+08        -0.18540E+06         0.00000E+00
   -0.18540E+06        -0.50050E+08         0.00000E+00
    0.00000E+00         0.00000E+00        -0.24365E+08
 
   -0.30389E+08        -0.19701E+06         0.00000E+00
   -0.19701E+06        -0.50067E+08         0.00000E+00
    0.00000E+00         0.00000E+00        -0.24365E+08
 
   -0.30268E+08        -0.20247E+06         0.00000E+00
   -0.20247E+06        -0.50086E+08         0.00000E+00
    0.00000E+00         0.00000E+00        -0.24365E+08
 
   -0.30144E+08        -0.20196E+06         0.00000E+00
   -0.20196E+06        -0.50107E+08         0.00000E+00
    0.00000E+00         0.00000E+00        -0.24366E+08
 
   -0.30018E+08        -0.19564E+06         0.00000E+00
   -0.19564E+06        -0.50129E+08         0.00000E+00
    0.00000E+00         0.00000E+00        -0.24366E+08
 
   -0.29889E+08        -0.18372E+06         0.00000E+00
   -0.18372E+06        -0.50153E+08         0.00000E+00
    0.00000E+00         0.00000E+00        -0.24367E+08
 
   -0.29758E+08        -0.16641E+06         0.00000E+00
   -0.16641E+06        -0.50178E+08         0.00000E+00
    0.00000E+00         0.00000E+00        -0.24367E+08
 
   -0.29625E+08        -0.14390E+06         0.00000E+00
   -0.14390E+06        -0.50203E+08         0.00000E+00
    0.00000E+00         0.00000E+00        -0.24368E+08
 
   -0.29491E+08        -0.11642E+06         0.00000E+00
   -0.11642E+06        -0.50230E+08         0.00000E+00
    0.00000E+00         0.00000E+00        -0.24368E+08
 
   -0.29355E+08        -0.84176E+05         0.00000E+00
   -0.84176E+05        -0.50258E+08         0.00000E+00
    0.00000E+00         0.00000E+00        -0.24369E+08
 
   -0.29219E+08        -0.47364E+05         0.00000E+00
   -0.47364E+05        -0.50287E+08         0.00000E+00
    0.00000E+00         0.00000E+00        -0.24370E+08
 
   -0.29081E+08        -0.61871E+04         0.00000E+00
   -0.61871E+04        -0.50316E+08         0.00000E+00
    0.00000E+00         0.00000E+00        -0.24370E+08
 
   -0.28943E+08         0.39170E+05         0.00000E+00
    0.39170E+05        -0.50347E+08         0.00000E+00
    0.00000E+00         0.00000E+00        -0.24371E+08
 
   -0.28804E+08         0.88532E+05         0.00000E+00
    0.88532E+05        -0.50378E+08         0.00000E+00
    0.00000E+00         0.00000E+00        -0.24372E+08
 
   -0.28665E+08         0.14174E+06         0.00000E+00
    0.14174E+06        -0.50410E+08         0.00000E+00
    0.00000E+00         0.00000E+00        -0.24372E+08
 
   -0.28525E+08         0.19864E+06         0.00000E+00
    0.19864E+06        -0.50443E+08         0.00000E+00
    0.00000E+00         0.00000E+00        -0.24373E+08
 
   -0.28385E+08         0.25912E+06         0.00000E+00
    0.25912E+06        -0.50477E+08         0.00000E+00
    0.00000E+00         0.00000E+00        -0.24374E+08
 
   -0.28245E+08         0.32304E+06         0.00000E+00
    0.32304E+06        -0.50512E+08         0.00000E+00
    0.00000E+00         0.00000E+00        -0.24375E+08
 
   -0.28104E+08         0.39032E+06         0.00000E+00
    0.39032E+06        -0.50548E+08         0.00000E+00
    0.00000E+00         0.00000E+00        -0.24375E+08
 
   -0.27963E+08         0.46087E+06         0.00000E+00
    0.46087E+06        -0.50585E+08         0.00000E+00
    0.00000E+00         0.00000E+00        -0.24376E+08
 
   -0.27822E+08         0.53463E+06         0.00000E+00
    0.53463E+06        -0.50624E+08         0.00000E+00
    0.00000E+00         0.00000E+00        -0.24377E+08
 
   -0.27681E+08         0.61154E+06         0.00000E+00
    0.61154E+06        -0.50663E+08         0.00000E+00
    0.00000E+00         0.00000E+00        -0.24377E+08
 
   -0.27539E+08         0.69156E+06         0.00000E+00
    0.69156E+06        -0.50703E+08         0.00000E+00
    0.00000E+00         0.00000E+00        -0.24378E+08
 
   -0.27397E+08         0.77468E+06         0.00000E+00
    0.77468E+06        -0.50745E+08         0.00000E+00
    0.00000E+00         0.00000E+00        -0.24379E+08
 
   -0.27255E+08         0.86089E+06         0.00000E+00
    0.86089E+06        -0.50789E+08         0.00000E+00
    0.00000E+00         0.00000E+00        -0.24379E+08
 
   -0.27113E+08         0.95018E+06         0.00000E+00
    0.95018E+06        -0.50833E+08         0.00000E+00
    0.00000E+00         0.00000E+00        -0.24380E+08
 
   -0.26970E+08         0.10426E+07         0.00000E+00
    0.10426E+07        -0.50879E+08         0.00000E+00
    0.00000E+00         0.00000E+00        -0.24381E+08
 
   -0.26827E+08         0.11381E+07         0.00000E+00
    0.11381E+07        -0.50926E+08         0.00000E+00
    0.00000E+00         0.00000E+00        -0.24381E+08
 
   -0.26685E+08         0.12368E+07         0.00000E+00
    0.12368E+07        -0.50975E+08         0.00000E+00
    0.00000E+00         0.00000E+00        -0.24382E+08
 
   -0.26542E+08         0.13387E+07         0.00000E+00
    0.13387E+07        -0.51025E+08         0.00000E+00
    0.00000E+00         0.00000E+00        -0.24383E+08
 
   -0.26398E+08         0.14439E+07         0.00000E+00
    0.14439E+07        -0.51077E+08         0.00000E+00
    0.00000E+00         0.00000E+00        -0.24383E+08
 
   -0.26255E+08         0.15524E+07         0.00000E+00
    0.15524E+07        -0.51130E+08         0.00000E+00
    0.00000E+00         0.00000E+00        -0.24384E+08
 
   -0.26112E+08         0.16643E+07         0.00000E+00
    0.16643E+07        -0.51184E+08         0.00000E+00
    0.00000E+00         0.00000E+00        -0.24384E+08
 
   -0.25969E+08         0.17796E+07         0.00000E+00
    0.17796E+07        -0.51240E+08         0.00000E+00
    0.00000E+00         0.00000E+00        -0.24385E+08
 
   -0.25827E+08         0.18985E+07         0.00000E+00
    0.18985E+07        -0.51297E+08         0.00000E+00
    0.00000E+00         0.00000E+00        -0.24385E+08
 
   -0.25685E+08         0.20209E+07         0.00000E+00
    0.20209E+07        -0.51355E+08         0.00000E+00
    0.00000E+00         0.00000E+00        -0.24385E+08
 
   -0.25543E+08         0.21469E+07         0.00000E+00
    0.21469E+07        -0.51414E+08         0.00000E+00
    0.00000E+00         0.00000E+00        -0.24386E+08
 
   -0.25402E+08         0.22766E+07         0.00000E+00
    0.22766E+07        -0.51475E+08         0.00000E+00
    0.00000E+00         0.00000E+00        -0.24386E+08
 
   -0.25262E+08         0.24099E+07         0.00000E+00
    0.24099E+07        -0.51536E+08         0.00000E+00
    0.00000E+00         0.00000E+00        -0.24386E+08
 
   -0.25123E+08         0.25471E+07         0.00000E+00
    0.25471E+07        -0.51598E+08         0.00000E+00
    0.00000E+00         0.00000E+00        -0.24387E+08
 
   -0.24986E+08         0.26879E+07         0.00000E+00
    0.26879E+07        -0.51661E+08         0.00000E+00
    0.00000E+00         0.00000E+00        -0.24387E+08
 
   -0.24850E+08         0.28325E+07         0.00000E+00
    0.28325E+07        -0.51725E+08         0.00000E+00
    0.00000E+00         0.00000E+00        -0.24387E+08
 
   -0.24715E+08         0.29807E+07         0.00000E+00
    0.29807E+07        -0.51788E+08         0.00000E+00
    0.00000E+00         0.00000E+00        -0.24387E+08
 
   -0.24583E+08         0.31327E+07         0.00000E+00
    0.31327E+07        -0.51852E+08         0.00000E+00
    0.00000E+00         0.00000E+00        -0.24387E+08
 
   -0.24452E+08         0.32882E+07         0.00000E+00
    0.32882E+07        -0.51917E+08         0.00000E+00
    0.00000E+00         0.00000E+00        -0.24387E+08
 
   -0.31295E+08        -0.42089E+05         0.00000E+00
   -0.42089E+05        -0.50001E+08         0.00000E+00
    0.00000E+00         0.00000E+00        -0.23564E+08
 
   -0.31168E+08        -0.10318E+06         0.00000E+00
   -0.10318E+06        -0.50005E+08         0.00000E+00
    0.00000E+00         0.00000E+00        -0.23564E+08
 
   -0.31035E+08        -0.15584E+06         0.00000E+00
   -0.15584E+06        -0.50012E+08         0.00000E+00
    0.00000E+00         0.00000E+00        -0.23564E+08
 
   -0.30895E+08        -0.20014E+06         0.00000E+00
   -0.20014E+06        -0.50022E+08         0.00000E+00
    0.00000E+00         0.00000E+00        -0.23564E+08
 
   -0.30752E+08        -0.23628E+06         0.00000E+00
   -0.23628E+06        -0.50035E+08         0.00000E+00
    0.00000E+00         0.00000E+00        -0.23564E+08
 
   -0.30604E+08        -0.26450E+06         0.00000E+00
   -0.26450E+06        -0.50049E+08         0.00000E+00
    0.00000E+00         0.00000E+00        -0.23565E+08
 
   -0.30453E+08        -0.28508E+06         0.00000E+00
   -0.28508E+06        -0.50065E+08         0.00000E+00
    0.00000E+00         0.00000E+00        -0.23565E+08
 
   -0.30300E+08        -0.29829E+06         0.00000E+00
   -0.29829E+06        -0.50082E+08         0.00000E+00
    0.00000E+00         0.00000E+00        -0.23566E+08
 
   -0.30144E+08        -0.30447E+06         0.00000E+00
   -0.30447E+06        -0.50101E+08         0.00000E+00
    0.00000E+00         0.00000E+00        -0.23566E+08
 
   -0.29987E+08        -0.30395E+06         0.00000E+00
   -0.30395E+06        -0.50120E+08         0.00000E+00
    0.00000E+00         0.00000E+00        -0.23567E+08
 
   -0.29829E+08        -0.29709E+06         0.00000E+00
   -0.29709E+06        -0.50141E+08         0.00000E+00
    0.00000E+00         0.00000E+00        -0.23567E+08
 
   -0.29670E+08        -0.28428E+06         0.00000E+00
   -0.28428E+06        -0.50161E+08         0.00000E+00
    0.00000E+00         0.00000E+00        -0.23568E+08
 
   -0.29511E+08        -0.26586E+06         0.00000E+00
   -0.26586E+06        -0.50183E+08         0.00000E+00
    0.00000E+00         0.00000E+00        -0.23569E+08
 
   -0.29352E+08        -0.24220E+06         0.00000E+00
   -0.24220E+06        -0.50205E+08         0.00000E+00
    0.00000E+00         0.00000E+00        -0.23569E+08
 
   -0.29193E+08        -0.21363E+06         0.00000E+00
   -0.21363E+06        -0.50228E+08         0.00000E+00
    0.00000E+00         0.00000E+00        -0.23570E+08
 
   -0.29034E+08        -0.18049E+06         0.00000E+00
   -0.18049E+06        -0.50251E+08         0.00000E+00
    0.00000E+00         0.00000E+00        -0.23571E+08
 
   -0.28875E+08        -0.14306E+06         0.00000E+00
   -0.14306E+06        -0.50275E+08         0.00000E+00
    0.00000E+00         0.00000E+00        -0.23572E+08
 
   -0.28717E+08        -0.10161E+06         0.00000E+00
   -0.10161E+06        -0.50299E+08         0.00000E+00
    0.00000E+00         0.00000E+00        -0.23573E+08
 
   -0.28559E+08        -0.56389E+05         0.00000E+00
   -0.56389E+05        -0.50324E+08         0.00000E+00
    0.00000E+00         0.00000E+00        -0.23573E+08
 
   -0.28402E+08        -0.76050E+04         0.00000E+00
   -0.76050E+04        -0.50350E+08         0.00000E+00
    0.00000E+00         0.00000E+00        -0.23574E+08
 
   -0.28245E+08         0.44552E+05         0.00000E+00
    0.44552E+05        -0.50377E+08         0.00000E+00
    0.00000E+00         0.00000E+00        -0.23575E+08
 
   -0.28088E+08         0.99923E+05         0.00000E+00
    0.99923E+05        -0.50405E+08         0.00000E+00
    0.00000E+00         0.00000E+00        -0.23576E+08
 
   -0.27931E+08         0.15837E+06         0.00000E+00
    0.15837E+06        -0.50435E+08         0.00000E+00
    0.00000E+00         0.00000E+00        -0.23577E+08
 
   -0.27775E+08         0.21979E+06         0.00000E+00
    0.21979E+06        -0.50465E+08         0.00000E+00
    0.00000E+00         0.00000E+00        -0.23578E+08
 
   -0.27619E+08         0.28410E+06         0.00000E+00
    0.28410E+06        -0.50497E+08         0.00000E+00
    0.00000E+00         0.00000E+00        -0.23578E+08
 
   -0.27463E+08         0.35122E+06         0.00000E+00
    0.35122E+06        -0.50530E+08         0.00000E+00
    0.00000E+00         0.00000E+00        -0.23579E+08
 
   -0.27307E+08         0.42113E+06         0.00000E+00
    0.42113E+06        -0.50565E+08         0.00000E+00
    0.00000E+00         0.00000E+00        -0.23580E+08
 
   -0.27150E+08         0.49379E+06         0.00000E+00
    0.49379E+06        -0.50602E+08         0.00000E+00
    0.00000E+00         0.00000E+00        -0.23581E+08
 
   -0.26994E+08         0.56922E+06         0.00000E+00
    0.56922E+06        -0.50640E+08         0.00000E+00
    0.00000E+00         0.00000E+00        -0.23582E+08
 
   -0.26837E+08         0.64743E+06         0.00000E+00
    0.64743E+06        -0.50680E+08         0.00000E+00
    0.00000E+00         0.00000E+00        -0.23582E+08
 
   -0.26679E+08         0.72846E+06         0.00000E+00
    0.72846E+06        -0.50723E+08         0.00000E+00
    0.00000E+00         0.00000E+00        -0.23583E+08
 
   -0.26522E+08         0.81236E+06         0.00000E+00
    0.81236E+06        -0.50767E+08         0.00000E+00
    0.00000E+00         0.00000E+00        -0.23584E+08
 
   -0.26363E+08         0.89921E+06         0.00000E+00
    0.89921E+06        -0.50813E+08         0.00000E+00
    0.00000E+00         0.00000E+00        -0.23585E+08
 
   -0.26205E+08         0.98910E+06         0.00000E+00
    0.98910E+06        -0.50861E+08         0.00000E+00
    0.00000E+00         0.00000E+00        -0.23585E+08
 
   -0.26046E+08         0.10821E+07         0.00000E+00
    0.10821E+07        -0.50912E+08         0.00000E+00
    0.00000E+00         0.00000E+00        -0.23586E+08
 
   -0.25886E+08         0.11784E+07         0.00000E+00
    0.11784E+07        -0.50965E+08         0.00000E+00
    0.00000E+00         0.00000E+00        -0.23587E+08
 
   -0.25726E+08         0.12781E+07         0.00000E+00
    0.12781E+07        -0.51019E+08         0.00000E+00
    0.00000E+00         0.00000E+00        -0.23587E+08
 
   -0.25565E+08         0.13813E+07         0.00000E+00
    0.13813E+07        -0.51076E+08         0.00000E+00
    0.00000E+00         0.00000E+00        -0.23588E+08
 
   -0.25404E+08         0.14882E+07         0.00000E+00
    0.14882E+07        -0.51136E+08         0.00000E+00
    0.00000E+00         0.00000E+00        -0.23588E+08
 
   -0.25243E+08         0.15989E+07         0.00000E+00
    0.15989E+07        -0.51197E+08         0.00000E+00
    0.00000E+00         0.00000E+00        -0.23589E+08
 
   -0.25082E+08         0.17136E+07         0.00000E+00
    0.17136E+07        -0.51260E+08         0.00000E+00
    0.00000E+00         0.00000E+00        -0.23589E+08
 
   -0.24921E+08         0.18324E+07         0.00000E+00
    0.18324E+07        -0.51325E+08         0.00000E+00
    0.00000E+00         0.00000E+00        -0.23590E+08
 
   -0.24760E+08         0.19554E+07         0.00000E+00
    0.19554E+07        -0.51392E+08         0.00000E+00
    0.00000E+00         0.00000E+00        -0.23590E+08
 
   -0.24600E+08         0.20828E+07         0.00000E+00
    0.20828E+07        -0.51461E+08         0.00000E+00
    0.00000E+00         0.00000E+00        -0.23591E+08
 
   -0.24440E+08         0.22147E+07         0.00000E+00
    0.22147E+07        -0.51531E+08         0.00000E+00
    0.00000E+00         0.00000E+00        -0.23591E+08
 
   -0.24282E+08         0.23512E+07         0.00000E+00
    0.23512E+07        -0.51602E+08         0.00000E+00
    0.00000E+00         0.00000E+00        -0.23591E+08
 
   -0.24125E+08         0.24923E+07         0.00000E+00
    0.24923E+07        -0.51674E+08         0.00000E+00
    0.00000E+00         0.00000E+00        -0.23591E+08
 
   -0.23970E+08         0.26380E+07         0.00000E+00
    0.26380E+07        -0.51747E+08         0.00000E+00
    0.00000E+00         0.00000E+00        -0.23591E+08
 
   -0.23817E+08         0.27884E+07         0.00000E+00
    0.27884E+07        -0.51821E+08         0.00000E+00
    0.00000E+00         0.00000E+00        -0.23592E+08
 
   -0.23666E+08         0.29433E+07         0.00000E+00
    0.29433E+07        -0.51895E+08         0.00000E+00
    0.00000E+00         0.00000E+00        -0.23592E+08
 
   -0.31667E+08        -0.54359E+05         0.00000E+00
   -0.54359E+05        -0.50001E+08         0.00000E+00
    0.00000E+00         0.00000E+00        -0.22764E+08
 
   -0.31491E+08        -0.13189E+06         0.00000E+00
   -0.13189E+06        -0.50006E+08         0.00000E+00
    0.00000E+00         0.00000E+00        -0.22764E+08
 
   -0.31309E+08        -0.19824E+06         0.00000E+00
   -0.19824E+06        -0.50012E+08         0.00000E+00
    0.00000E+00         0.00000E+00        -0.22764E+08
 
   -0.31124E+08        -0.25398E+06         0.00000E+00
   -0.25398E+06        -0.50021E+08         0.00000E+00
    0.00000E+00         0.00000E+00        -0.22764E+08
 
   -0.30935E+08        -0.29940E+06         0.00000E+00
   -0.29940E+06        -0.50032E+08         0.00000E+00
    0.00000E+00         0.00000E+00        -0.22765E+08
 
   -0.30744E+08        -0.33485E+06         0.00000E+00
   -0.33485E+06        -0.50044E+08         0.00000E+00
    0.00000E+00         0.00000E+00        -0.22765E+08
 
   -0.30551E+08        -0.36083E+06         0.00000E+00
   -0.36083E+06        -0.50057E+08         0.00000E+00
    0.00000E+00         0.00000E+00        -0.22766E+08
 
   -0.30359E+08        -0.37793E+06         0.00000E+00
   -0.37793E+06        -0.50070E+08         0.00000E+00
    0.00000E+00         0.00000E+00        -0.22766E+08
 
   -0.30166E+08        -0.38682E+06         0.00000E+00
   -0.38682E+06        -0.50084E+08         0.00000E+00
    0.00000E+00         0.00000E+00        -0.22767E+08
 
   -0.29975E+08        -0.38820E+06         0.00000E+00
   -0.38820E+06        -0.50097E+08         0.00000E+00
    0.00000E+00         0.00000E+00        -0.22767E+08
 
   -0.29785E+08        -0.38276E+06         0.00000E+00
   -0.38276E+06        -0.50109E+08         0.00000E+00
    0.00000E+00         0.00000E+00        -0.22768E+08
 
   -0.29597E+08        -0.37114E+06         0.00000E+00
   -0.37114E+06        -0.50122E+08         0.00000E+00
    0.00000E+00         0.00000E+00        -0.22769E+08
 
   -0.29411E+08        -0.35396E+06         0.00000E+00
   -0.35396E+06        -0.50135E+08         0.00000E+00
    0.00000E+00         0.00000E+00        -0.22770E+08
 
   -0.29227E+08        -0.33176E+06         0.00000E+00
   -0.33176E+06        -0.50147E+08         0.00000E+00
    0.00000E+00         0.00000E+00        -0.22770E+08
 
   -0.29045E+08        -0.30504E+06         0.00000E+00
   -0.30504E+06        -0.50160E+08         0.00000E+00
    0.00000E+00         0.00000E+00        -0.22771E+08
 
   -0.28865E+08        -0.27423E+06         0.00000E+00
   -0.27423E+06        -0.50173E+08         0.00000E+00
    0.00000E+00         0.00000E+00        -0.22772E+08
 
   -0.28687E+08        -0.23970E+06         0.00000E+00
   -0.23970E+06        -0.50186E+08         0.00000E+00
    0.00000E+00         0.00000E+00        -0.22773E+08
 
   -0.28511E+08        -0.20180E+06         0.00000E+00
   -0.20180E+06        -0.50200E+08         0.00000E+00
    0.00000E+00         0.00000E+00        -0.22774E+08
 
   -0.28337E+08        -0.16079E+06         0.00000E+00
   -0.16079E+06        -0.50215E+08         0.00000E+00
    0.00000E+00         0.00000E+00        -0.22775E+08
 
   -0.28163E+08        -0.11691E+06         0.00000E+00
   -0.11691E+06        -0.50231E+08         0.00000E+00
    0.00000E+00         0.00000E+00        -0.22776E+08
 
   -0.27991E+08        -0.70361E+05         0.00000E+00
   -0.70361E+05        -0.50248E+08         0.00000E+00
    0.00000E+00         0.00000E+00        -0.22777E+08
 
   -0.27821E+08        -0.21297E+05         0.00000E+00
   -0.21297E+05        -0.50267E+08         0.00000E+00
    0.00000E+00         0.00000E+00        -0.22777E+08
 
   -0.27651E+08         0.30156E+05         0.00000E+00
    0.30156E+05        -0.50287E+08         0.00000E+00
    0.00000E+00         0.00000E+00        -0.22778E+08
 
   -0.27481E+08         0.83903E+05         0.00000E+00
    0.83903E+05        -0.50308E+08         0.00000E+00
    0.00000E+00         0.00000E+00        -0.22779E+08
 
   -0.27312E+08         0.13988E+06         0.00000E+00
    0.13988E+06        -0.50332E+08         0.00000E+00
    0.00000E+00         0.00000E+00        -0.22780E+08
 
   -0.27143E+08         0.19804E+06         0.00000E+00
    0.19804E+06        -0.50358E+08         0.00000E+00
    0.00000E+00         0.00000E+00        -0.22781E+08
 
   -0.26975E+08         0.25837E+06         0.00000E+00
    0.25837E+06        -0.50386E+08         0.00000E+00
    0.00000E+00         0.00000E+00        -0.22782E+08
 
   -0.26806E+08         0.32088E+06         0.00000E+00
    0.32088E+06        -0.50416E+08         0.00000E+00
    0.00000E+00         0.00000E+00        -0.22783E+08
 
   -0.26637E+08         0.38560E+06         0.00000E+00
    0.38560E+06        -0.50448E+08         0.00000E+00
    0.00000E+00         0.00000E+00        -0.22783E+08
 
   -0.26467E+08         0.45259E+06         0.00000E+00
    0.45259E+06        -0.50483E+08         0.00000E+00
    0.00000E+00         0.00000E+00        -0.22784E+08
 
   -0.26296E+08         0.52192E+06         0.00000E+00
    0.52192E+06        -0.50521E+08         0.00000E+00
    0.00000E+00         0.00000E+00        -0.22785E+08
 
   -0.26125E+08         0.59369E+06         0.00000E+00
    0.59369E+06        -0.50562E+08         0.00000E+00
    0.00000E+00         0.00000E+00        -0.22786E+08
 
   -0.25953E+08         0.66802E+06         0.00000E+00
    0.66802E+06        -0.50605E+08         0.00000E+00
    0.00000E+00         0.00000E+00        -0.22787E+08
 
   -0.25779E+08         0.74507E+06         0.00000E+00
    0.74507E+06        -0.50652E+08         0.00000E+00
    0.00000E+00         0.00000E+00        -0.22787E+08
 
   -0.25605E+08         0.82499E+06         0.00000E+00
    0.82499E+06        -0.50701E+08         0.00000E+00
    0.00000E+00         0.00000E+00        -0.22788E+08
 
   -0.25429E+08         0.90798E+06         0.00000E+00
    0.90798E+06        -0.50754E+08         0.00000E+00
    0.00000E+00         0.00000E+00        -0.22789E+08
 
   -0.25251E+08         0.99427E+06         0.00000E+00
    0.99427E+06        -0.50810E+08         0.00000E+00
    0.00000E+00         0.00000E+00        -0.22789E+08
 
   -0.25072E+08         0.10841E+07         0.00000E+00
    0.10841E+07        -0.50869E+08         0.00000E+00
    0.00000E+00         0.00000E+00        -0.22790E+08
 
   -0.24892E+08         0.11777E+07         0.00000E+00
    0.11777E+07        -0.50931E+08         0.00000E+00
    0.00000E+00         0.00000E+00        -0.22790E+08
 
   -0.24711E+08         0.12754E+07         0.00000E+00
    0.12754E+07        -0.50997E+08         0.00000E+00
    0.00000E+00         0.00000E+00        -0.22791E+08
 
   -0.24528E+08         0.13776E+07         0.00000E+00
    0.13776E+07        -0.51065E+08         0.00000E+00
    0.00000E+00         0.00000E+00        -0.22791E+08
 
   -0.24344E+08         0.14844E+07         0.00000E+00
    0.14844E+07        -0.51137E+08         0.00000E+00
    0.00000E+00         0.00000E+00        -0.22792E+08
 
   -0.24160E+08         0.15963E+07         0.00000E+00
    0.15963E+07        -0.51212E+08         0.00000E+00
    0.00000E+00         0.00000E+00        -0.22792E+08
 
   -0.23975E+08         0.17135E+07         0.00000E+00
    0.17135E+07        -0.51289E+08         0.00000E+00
    0.00000E+00         0.00000E+00        -0.22793E+08
 
   -0.23790E+08         0.18363E+07         0.00000E+00
    0.18363E+07        -0.51370E+08         0.00000E+00
    0.00000E+00         0.00000E+00        -0.22793E+08
 
   -0.23606E+08         0.19650E+07         0.00000E+00
    0.19650E+07        -0.51452E+08         0.00000E+00
    0.00000E+00         0.00000E+00        -0.22793E+08
 
   -0.23422E+08         0.20996E+07         0.00000E+00
    0.20996E+07        -0.51536E+08         0.00000E+00
    0.00000E+00         0.00000E+00        -0.22794E+08
 
   -0.23240E+08         0.22404E+07         0.00000E+00
    0.22404E+07        -0.51621E+08         0.00000E+00
    0.00000E+00         0.00000E+00        -0.22794E+08
 
   -0.23059E+08         0.23874E+07         0.00000E+00
    0.23874E+07        -0.51708E+08         0.00000E+00
    0.00000E+00         0.00000E+00        -0.22794E+08
 
   -0.22882E+08         0.25411E+07         0.00000E+00
    0.25411E+07        -0.51796E+08         0.00000E+00
    0.00000E+00         0.00000E+00        -0.22794E+08
 
   -0.32126E+08        -0.67000E+05         0.00000E+00
   -0.67000E+05        -0.50000E+08         0.00000E+00
    0.00000E+00         0.00000E+00        -0.21966E+08
 
   -0.31885E+08        -0.15959E+06         0.00000E+00
   -0.15959E+06        -0.50004E+08         0.00000E+00
    0.00000E+00         0.00000E+00        -0.21966E+08
 
   -0.31639E+08        -0.23760E+06         0.00000E+00
   -0.23760E+06        -0.50011E+08         0.00000E+00
    0.00000E+00         0.00000E+00        -0.21967E+08
 
   -0.31391E+08        -0.30018E+06         0.00000E+00
   -0.30018E+06        -0.50020E+08         0.00000E+00
    0.00000E+00         0.00000E+00        -0.21967E+08
 
   -0.31143E+08        -0.34805E+06         0.00000E+00
   -0.34805E+06        -0.50027E+08         0.00000E+00
    0.00000E+00         0.00000E+00        -0.21967E+08
 
   -0.30897E+08        -0.38267E+06         0.00000E+00
   -0.38267E+06        -0.50034E+08         0.00000E+00
    0.00000E+00         0.00000E+00        -0.21968E+08
 
   -0.30655E+08        -0.40569E+06         0.00000E+00
   -0.40569E+06        -0.50038E+08         0.00000E+00
    0.00000E+00         0.00000E+00        -0.21968E+08
 
   -0.30417E+08        -0.41872E+06         0.00000E+00
   -0.41872E+06        -0.50040E+08         0.00000E+00
    0.00000E+00         0.00000E+00        -0.21969E+08
 
   -0.30185E+08        -0.42323E+06         0.00000E+00
   -0.42323E+06        -0.50041E+08         0.00000E+00
    0.00000E+00         0.00000E+00        -0.21970E+08
 
   -0.29959E+08        -0.42052E+06         0.00000E+00
   -0.42052E+06        -0.50040E+08         0.00000E+00
    0.00000E+00         0.00000E+00        -0.21970E+08
 
   -0.29739E+08        -0.41166E+06         0.00000E+00
   -0.41166E+06        -0.50037E+08         0.00000E+00
    0.00000E+00         0.00000E+00        -0.21971E+08
 
   -0.29523E+08        -0.39760E+06         0.00000E+00
   -0.39760E+06        -0.50034E+08         0.00000E+00
    0.00000E+00         0.00000E+00        -0.21972E+08
 
   -0.29313E+08        -0.37909E+06         0.00000E+00
   -0.37909E+06        -0.50030E+08         0.00000E+00
    0.00000E+00         0.00000E+00        -0.21973E+08
 
   -0.29108E+08        -0.35678E+06         0.00000E+00
   -0.35678E+06        -0.50027E+08         0.00000E+00
    0.00000E+00         0.00000E+00        -0.21973E+08
 
   -0.28908E+08        -0.33119E+06         0.00000E+00
   -0.33119E+06        -0.50023E+08         0.00000E+00
    0.00000E+00         0.00000E+00        -0.21974E+08
 
   -0.28711E+08        -0.30274E+06         0.00000E+00
   -0.30274E+06        -0.50020E+08         0.00000E+00
    0.00000E+00         0.00000E+00        -0.21975E+08
 
   -0.28518E+08        -0.27179E+06         0.00000E+00
   -0.27179E+06        -0.50018E+08         0.00000E+00
    0.00000E+00         0.00000E+00        -0.21976E+08
 
   -0.28328E+08        -0.23862E+06         0.00000E+00
   -0.23862E+06        -0.50017E+08         0.00000E+00
    0.00000E+00         0.00000E+00        -0.21977E+08
 
   -0.28141E+08        -0.20347E+06         0.00000E+00
   -0.20347E+06        -0.50017E+08         0.00000E+00
    0.00000E+00         0.00000E+00        -0.21977E+08
 
   -0.27957E+08        -0.16650E+06         0.00000E+00
   -0.16650E+06        -0.50019E+08         0.00000E+00
    0.00000E+00         0.00000E+00        -0.21978E+08
 
   -0.27774E+08        -0.12787E+06         0.00000E+00
   -0.12787E+06        -0.50023E+08         0.00000E+00
    0.00000E+00         0.00000E+00        -0.21979E+08
 
   -0.27593E+08        -0.87675E+05         0.00000E+00
   -0.87675E+05        -0.50029E+08         0.00000E+00
    0.00000E+00         0.00000E+00        -0.21980E+08
 
   -0.27413E+08        -0.45995E+05         0.00000E+00
   -0.45995E+05        -0.50037E+08         0.00000E+00
    0.00000E+00         0.00000E+00        -0.21981E+08
 
   -0.27235E+08        -0.28803E+04         0.00000E+00
   -0.28803E+04        -0.50047E+08         0.00000E+00
    0.00000E+00         0.00000E+00        -0.21982E+08
 
   -0.27057E+08         0.41644E+05         0.00000E+00
    0.41644E+05        -0.50060E+08         0.00000E+00
    0.00000E+00         0.00000E+00        -0.21982E+08
 
   -0.26879E+08         0.87573E+05         0.00000E+00
    0.87573E+05        -0.50076E+08         0.00000E+00
    0.00000E+00         0.00000E+00        -0.21983E+08
 
   -0.26701E+08         0.13493E+06         0.00000E+00
    0.13493E+06        -0.50095E+08         0.00000E+00
    0.00000E+00         0.00000E+00        -0.21984E+08
 
   -0.26523E+08         0.18374E+06         0.00000E+00
    0.18374E+06        -0.50117E+08         0.00000E+00
    0.00000E+00         0.00000E+00        -0.21985E+08
 
   -0.26344E+08         0.23406E+06         0.00000E+00
    0.23406E+06        -0.50142E+08         0.00000E+00
    0.00000E+00         0.00000E+00        -0.21986E+08
 
   -0.26164E+08         0.28598E+06         0.00000E+00
    0.28598E+06        -0.50170E+08         0.00000E+00
    0.00000E+00         0.00000E+00        -0.21986E+08
 
   -0.25983E+08         0.33959E+06         0.00000E+00
    0.33959E+06        -0.50202E+08         0.00000E+00
    0.00000E+00         0.00000E+00        -0.21987E+08
 
   -0.25801E+08         0.39501E+06         0.00000E+00
    0.39501E+06        -0.50238E+08         0.00000E+00
    0.00000E+00         0.00000E+00        -0.21988E+08
 
   -0.25617E+08         0.45239E+06         0.00000E+00
    0.45239E+06        -0.50277E+08         0.00000E+00
    0.00000E+00         0.00000E+00        -0.21988E+08
 
   -0.25431E+08         0.51190E+06         0.00000E+00
    0.51190E+06        -0.50320E+08         0.00000E+00
    0.00000E+00         0.00000E+00        -0.21989E+08
 
   -0.25242E+08         0.57373E+06         0.00000E+00
    0.57373E+06        -0.50367E+08         0.00000E+00
    0.00000E+00         0.00000E+00        -0.21990E+08
 
   -0.25051E+08         0.63814E+06         0.00000E+00
    0.63814E+06        -0.50418E+08         0.00000E+00
    0.00000E+00         0.00000E+00        -0.21990E+08
 
   -0.24858E+08         0.70540E+06         0.00000E+00
    0.70540E+06        -0.50474E+08         0.00000E+00
    0.00000E+00         0.00000E+00        -0.21991E+08
 
   -0.24661E+08         0.77582E+06         0.00000E+00
    0.77582E+06        -0.50534E+08         0.00000E+00
    0.00000E+00         0.00000E+00        -0.21992E+08
 
   -0.24462E+08         0.84978E+06         0.00000E+00
    0.84978E+06        -0.50599E+08         0.00000E+00
    0.00000E+00         0.00000E+00        -0.21992E+08
 
   -0.24259E+08         0.92770E+06         0.00000E+00
    0.92770E+06        -0.50668E+08         0.00000E+00
    0.00000E+00         0.00000E+00        -0.21993E+08
 
   -0.24053E+08         0.10101E+07         0.00000E+00
    0.10101E+07        -0.50742E+08         0.00000E+00
    0.00000E+00         0.00000E+00        -0.21993E+08
 
   -0.23843E+08         0.10975E+07         0.00000E+00
    0.10975E+07        -0.50821E+08         0.00000E+00
    0.00000E+00         0.00000E+00        -0.21994E+08
 
   -0.23631E+08         0.11906E+07         0.00000E+00
    0.11906E+07        -0.50905E+08         0.00000E+00
    0.00000E+00         0.00000E+00        -0.21994E+08
 
   -0.23415E+08         0.12901E+07         0.00000E+00
    0.12901E+07        -0.50994E+08         0.00000E+00
    0.00000E+00         0.00000E+00        -0.21994E+08
 
   -0.23197E+08         0.13967E+07         0.00000E+00
    0.13967E+07        -0.51087E+08         0.00000E+00
    0.00000E+00         0.00000E+00        -0.21995E+08
 
   -0.22978E+08         0.15113E+07         0.00000E+00
    0.15113E+07        -0.51184E+08         0.00000E+00
    0.00000E+00         0.00000E+00        -0.21995E+08
 
   -0.22758E+08         0.16344E+07         0.00000E+00
    0.16344E+07        -0.51285E+08         0.00000E+00
    0.00000E+00         0.00000E+00        -0.21995E+08
 
   -0.22538E+08         0.17667E+07         0.00000E+00
    0.17667E+07        -0.51389E+08         0.00000E+00
    0.00000E+00         0.00000E+00        -0.21995E+08
 
   -0.22320E+08         0.19080E+07         0.00000E+00
    0.19080E+07        -0.51494E+08         0.00000E+00
    0.00000E+00         0.00000E+00        -0.21995E+08
 
   -0.22103E+08         0.20570E+07         0.00000E+00
    0.20570E+07        -0.51600E+08         0.00000E+00
    0.00000E+00         0.00000E+00        -0.21996E+08
 
   -0.32670E+08        -0.89990E+05         0.00000E+00
   -0.89990E+05        -0.50007E+08         0.00000E+00
    0.00000E+00         0.00000E+00        -0.21174E+08
 
   -0.32322E+08        -0.19372E+06         0.00000E+00
   -0.19372E+06        -0.50018E+08         0.00000E+00
    0.00000E+00         0.00000E+00        -0.21174E+08
 
   -0.31975E+08        -0.26501E+06         0.00000E+00
   -0.26501E+06        -0.50020E+08         0.00000E+00
    0.00000E+00         0.00000E+00        -0.21174E+08
 
   -0.31638E+08        -0.31249E+06         0.00000E+00
   -0.31249E+06        -0.50016E+08         0.00000E+00
    0.00000E+00         0.00000E+00        -0.21175E+08
 
   -0.31316E+08        -0.34247E+06         0.00000E+00
   -0.34247E+06        -0.50004E+08         0.00000E+00
    0.00000E+00         0.00000E+00        -0.21175E+08
 
   -0.31009E+08        -0.35952E+06         0.00000E+00
   -0.35952E+06        -0.49988E+08         0.00000E+00
    0.00000E+00         0.00000E+00        -0.21175E+08
 
   -0.30717E+08        -0.36692E+06         0.00000E+00
   -0.36692E+06        -0.49967E+08         0.00000E+00
    0.00000E+00         0.00000E+00        -0.21176E+08
 
   -0.30439E+08        -0.36704E+06         0.00000E+00
   -0.36704E+06        -0.49943E+08         0.00000E+00
    0.00000E+00         0.00000E+00        -0.21176E+08
 
   -0.30174E+08        -0.36160E+06         0.00000E+00
   -0.36160E+06        -0.49917E+08         0.00000E+00
    0.00000E+00         0.00000E+00        -0.21177E+08
 
   -0.29920E+08        -0.35188E+06         0.00000E+00
   -0.35188E+06        -0.49889E+08         0.00000E+00
    0.00000E+00         0.00000E+00        -0.21178E+08
 
   -0.29677E+08        -0.33880E+06         0.00000E+00
   -0.33880E+06        -0.49862E+08         0.00000E+00
    0.00000E+00         0.00000E+00        -0.21178E+08
 
   -0.29443E+08        -0.32306E+06         0.00000E+00
   -0.32306E+06        -0.49834E+08         0.00000E+00
    0.00000E+00         0.00000E+00        -0.21179E+08
 
   -0.29218E+08        -0.30518E+06         0.00000E+00
   -0.30518E+06        -0.49807E+08         0.00000E+00
    0.00000E+00         0.00000E+00        -0.21179E+08
 
   -0.28999E+08        -0.28556E+06         0.00000E+00
   -0.28556E+06        -0.49781E+08         0.00000E+00
    0.00000E+00         0.00000E+00        -0.21180E+08
 
   -0.28787E+08        -0.26450E+06         0.00000E+00
   -0.26450E+06        -0.49757E+08         0.00000E+00
    0.00000E+00         0.00000E+00        -0.21181E+08
 
   -0.28581E+08        -0.24222E+06         0.00000E+00
   -0.24222E+06        -0.49734E+08         0.00000E+00
    0.00000E+00         0.00000E+00        -0.21181E+08
 
   -0.28379E+08        -0.21890E+06         0.00000E+00
   -0.21890E+06        -0.49714E+08         0.00000E+00
    0.00000E+00         0.00000E+00        -0.21182E+08
 
   -0.28182E+08        -0.19466E+06         0.00000E+00
   -0.19466E+06        -0.49695E+08         0.00000E+00
    0.00000E+00         0.00000E+00        -0.21183E+08
 
   -0.27988E+08        -0.16960E+06         0.00000E+00
   -0.16960E+06        -0.49680E+08         0.00000E+00
    0.00000E+00         0.00000E+00        -0.21183E+08
 
   -0.27797E+08        -0.14379E+06         0.00000E+00
   -0.14379E+06        -0.49666E+08         0.00000E+00
    0.00000E+00         0.00000E+00        -0.21184E+08
 
   -0.27609E+08        -0.11728E+06         0.00000E+00
   -0.11728E+06        -0.49656E+08         0.00000E+00
    0.00000E+00         0.00000E+00        -0.21184E+08
 
   -0.27422E+08        -0.90105E+05         0.00000E+00
   -0.90105E+05        -0.49649E+08         0.00000E+00
    0.00000E+00         0.00000E+00        -0.21185E+08
 
   -0.27237E+08        -0.62270E+05         0.00000E+00
   -0.62270E+05        -0.49645E+08         0.00000E+00
    0.00000E+00         0.00000E+00        -0.21186E+08
 
   -0.27053E+08        -0.33779E+05         0.00000E+00
   -0.33779E+05        -0.49644E+08         0.00000E+00
    0.00000E+00         0.00000E+00        -0.21186E+08
 
   -0.26870E+08        -0.46232E+04         0.00000E+00
   -0.46232E+04        -0.49647E+08         0.00000E+00
    0.00000E+00         0.00000E+00        -0.21187E+08
 
   -0.26686E+08         0.25221E+05         0.00000E+00
    0.25221E+05        -0.49653E+08         0.00000E+00
    0.00000E+00         0.00000E+00        -0.21188E+08
 
   -0.26503E+08         0.55787E+05         0.00000E+00
    0.55787E+05        -0.49663E+08         0.00000E+00
    0.00000E+00         0.00000E+00        -0.21188E+08
 
   -0.26319E+08         0.87121E+05         0.00000E+00
    0.87121E+05        -0.49676E+08         0.00000E+00
    0.00000E+00         0.00000E+00        -0.21189E+08
 
   -0.26134E+08         0.11928E+06         0.00000E+00
    0.11928E+06        -0.49694E+08         0.00000E+00
    0.00000E+00         0.00000E+00        -0.21189E+08
 
   -0.25948E+08         0.15233E+06         0.00000E+00
    0.15233E+06        -0.49715E+08         0.00000E+00
    0.00000E+00         0.00000E+00        -0.21190E+08
 
   -0.25760E+08         0.18635E+06         0.00000E+00
    0.18635E+06        -0.49741E+08         0.00000E+00
    0.00000E+00         0.00000E+00        -0.21190E+08
 
   -0.25570E+08         0.22145E+06         0.00000E+00
    0.22145E+06        -0.49771E+08         0.00000E+00
    0.00000E+00         0.00000E+00        -0.21191E+08
 
   -0.25377E+08         0.25775E+06         0.00000E+00
    0.25775E+06        -0.49805E+08         0.00000E+00
    0.00000E+00         0.00000E+00        -0.21192E+08
 
   -0.25182E+08         0.29538E+06         0.00000E+00
    0.29538E+06        -0.49845E+08         0.00000E+00
    0.00000E+00         0.00000E+00        -0.21192E+08
 
   -0.24983E+08         0.33450E+06         0.00000E+00
    0.33450E+06        -0.49888E+08         0.00000E+00
    0.00000E+00         0.00000E+00        -0.21193E+08
 
   -0.24781E+08         0.37533E+06         0.00000E+00
    0.37533E+06        -0.49937E+08         0.00000E+00
    0.00000E+00         0.00000E+00        -0.21193E+08
 
   -0.24574E+08         0.41808E+06         0.00000E+00
    0.41808E+06        -0.49992E+08         0.00000E+00
    0.00000E+00         0.00000E+00        -0.21193E+08
 
   -0.24363E+08         0.46304E+06         0.00000E+00
    0.46304E+06        -0.50051E+08         0.00000E+00
    0.00000E+00         0.00000E+00        -0.21194E+08
 
   -0.24147E+08         0.51057E+06         0.00000E+00
    0.51057E+06        -0.50117E+08         0.00000E+00
    0.00000E+00         0.00000E+00        -0.21194E+08
 
   -0.23925E+08         0.56106E+06         0.00000E+00
    0.56106E+06        -0.50188E+08         0.00000E+00
    0.00000E+00         0.00000E+00        -0.21195E+08
 
   -0.23697E+08         0.61504E+06         0.00000E+00
    0.61504E+06        -0.50266E+08         0.00000E+00
    0.00000E+00         0.00000E+00        -0.21195E+08
 
   -0.23463E+08         0.67315E+06         0.00000E+00
    0.67315E+06        -0.50350E+08         0.00000E+00
    0.00000E+00         0.00000E+00        -0.21195E+08
 
   -0.23221E+08         0.73619E+06         0.00000E+00
    0.73619E+06        -0.50441E+08         0.00000E+00
    0.00000E+00         0.00000E+00        -0.21196E+08
 
   -0.22971E+08         0.80517E+06         0.00000E+00
    0.80517E+06        -0.50540E+08         0.00000E+00
    0.00000E+00         0.00000E+00        -0.21196E+08
 
   -0.22713E+08         0.88140E+06         0.00000E+00
    0.88140E+06        -0.50647E+08         0.00000E+00
    0.00000E+00         0.00000E+00        -0.21196E+08
 
   -0.22448E+08         0.96655E+06         0.00000E+00
    0.96655E+06        -0.50761E+08         0.00000E+00
    0.00000E+00         0.00000E+00        -0.21197E+08
 
   -0.22174E+08         0.10628E+07         0.00000E+00
    0.10628E+07        -0.50884E+08         0.00000E+00
    0.00000E+00         0.00000E+00        -0.21197E+08
 
   -0.21895E+08         0.11730E+07         0.00000E+00
    0.11730E+07        -0.51015E+08         0.00000E+00
    0.00000E+00         0.00000E+00        -0.21197E+08
 
   -0.21612E+08         0.13007E+07         0.00000E+00
    0.13007E+07        -0.51153E+08         0.00000E+00
    0.00000E+00         0.00000E+00        -0.21197E+08
 
   -0.21334E+08         0.14507E+07         0.00000E+00
    0.14507E+07        -0.51297E+08         0.00000E+00
    0.00000E+00         0.00000E+00        -0.21197E+08
 
   -0.33189E+08        -0.11643E+06         0.00000E+00
   -0.11643E+06        -0.49985E+08         0.00000E+00
    0.00000E+00         0.00000E+00        -0.20390E+08
 
   -0.32653E+08        -0.14572E+06         0.00000E+00
   -0.14572E+06        -0.49950E+08         0.00000E+00
    0.00000E+00         0.00000E+00        -0.20390E+08
 
   -0.32185E+08        -0.16027E+06         0.00000E+00
   -0.16027E+06        -0.49904E+08         0.00000E+00
    0.00000E+00         0.00000E+00        -0.20390E+08
 
   -0.31767E+08        -0.16644E+06         0.00000E+00
   -0.16644E+06        -0.49850E+08         0.00000E+00
    0.00000E+00         0.00000E+00        -0.20390E+08
 
   -0.31388E+08        -0.16760E+06         0.00000E+00
   -0.16760E+06        -0.49793E+08         0.00000E+00
    0.00000E+00         0.00000E+00        -0.20390E+08
 
   -0.31042E+08        -0.16567E+06         0.00000E+00
   -0.16567E+06        -0.49735E+08         0.00000E+00
    0.00000E+00         0.00000E+00        -0.20390E+08
 
   -0.30722E+08        -0.16172E+06         0.00000E+00
   -0.16172E+06        -0.49676E+08         0.00000E+00
    0.00000E+00         0.00000E+00        -0.20391E+08
 
   -0.30423E+08        -0.15642E+06         0.00000E+00
   -0.15642E+06        -0.49617E+08         0.00000E+00
    0.00000E+00         0.00000E+00        -0.20391E+08
 
   -0.30142E+08        -0.15017E+06         0.00000E+00
   -0.15017E+06        -0.49561E+08         0.00000E+00
    0.00000E+00         0.00000E+00        -0.20391E+08
 
   -0.29876E+08        -0.14322E+06         0.00000E+00
   -0.14322E+06        -0.49506E+08         0.00000E+00
    0.00000E+00         0.00000E+00        -0.20391E+08
 
   -0.29624E+08        -0.13577E+06         0.00000E+00
   -0.13577E+06        -0.49453E+08         0.00000E+00
    0.00000E+00         0.00000E+00        -0.20391E+08
 
   -0.29383E+08        -0.12791E+06         0.00000E+00
   -0.12791E+06        -0.49403E+08         0.00000E+00
    0.00000E+00         0.00000E+00        -0.20392E+08
 
   -0.29151E+08        -0.11974E+06         0.00000E+00
   -0.11974E+06        -0.49356E+08         0.00000E+00
    0.00000E+00         0.00000E+00        -0.20392E+08
 
   -0.28928E+08        -0.11131E+06         0.00000E+00
   -0.11131E+06        -0.49312E+08         0.00000E+00
    0.00000E+00         0.00000E+00        -0.20392E+08
 
   -0.28712E+08        -0.10266E+06         0.00000E+00
   -0.10266E+06        -0.49271E+08         0.00000E+00
    0.00000E+00         0.00000E+00        -0.20392E+08
 
   -0.28502E+08        -0.93833E+05         0.00000E+00
   -0.93833E+05        -0.49233E+08         0.00000E+00
    0.00000E+00         0.00000E+00        -0.20393E+08
 
   -0.28297E+08        -0.84834E+05         0.00000E+00
   -0.84834E+05        -0.49199E+08         0.00000E+00
    0.00000E+00         0.00000E+00        -0.20393E+08
 
   -0.28097E+08        -0.75682E+05         0.00000E+00
   -0.75682E+05        -0.49168E+08         0.00000E+00
    0.00000E+00         0.00000E+00        -0.20393E+08
 
   -0.27901E+08        -0.66384E+05         0.00000E+00
   -0.66384E+05        -0.49141E+08         0.00000E+00
    0.00000E+00         0.00000E+00        -0.20394E+08
 
   -0.27708E+08        -0.56943E+05         0.00000E+00
   -0.56943E+05        -0.49118E+08         0.00000E+00
    0.00000E+00         0.00000E+00        -0.20394E+08
 
   -0.27517E+08        -0.47359E+05         0.00000E+00
   -0.47359E+05        -0.49098E+08         0.00000E+00
    0.00000E+00         0.00000E+00        -0.20394E+08
 
   -0.27329E+08        -0.37630E+05         0.00000E+00
   -0.37630E+05        -0.49082E+08         0.00000E+00
    0.00000E+00         0.00000E+00        -0.20394E+08
 
   -0.27142E+08        -0.27747E+05         0.00000E+00
   -0.27747E+05        -0.49069E+08         0.00000E+00
    0.00000E+00         0.00000E+00        -0.20395E+08
 
   -0.26956E+08        -0.17703E+05         0.00000E+00
   -0.17703E+05        -0.49061E+08         0.00000E+00
    0.00000E+00         0.00000E+00        -0.20395E+08
 
   -0.26770E+08        -0.74851E+04         0.00000E+00
   -0.74851E+04        -0.49057E+08         0.00000E+00
    0.00000E+00         0.00000E+00        -0.20395E+08
 
   -0.26585E+08         0.29210E+04         0.00000E+00
    0.29210E+04        -0.49057E+08         0.00000E+00
    0.00000E+00         0.00000E+00        -0.20395E+08
 
   -0.26399E+08         0.13533E+05         0.00000E+00
    0.13533E+05        -0.49060E+08         0.00000E+00
    0.00000E+00         0.00000E+00        -0.20395E+08
 
   -0.26212E+08         0.24370E+05         0.00000E+00
    0.24370E+05        -0.49069E+08         0.00000E+00
    0.00000E+00         0.00000E+00        -0.20396E+08
 
   -0.26024E+08         0.35458E+05         0.00000E+00
    0.35458E+05        -0.49081E+08         0.00000E+00
    0.00000E+00         0.00000E+00        -0.20396E+08
 
   -0.25835E+08         0.46824E+05         0.00000E+00
    0.46824E+05        -0.49098E+08         0.00000E+00
    0.00000E+00         0.00000E+00        -0.20396E+08
 
   -0.25644E+08         0.58501E+05         0.00000E+00
    0.58501E+05        -0.49120E+08         0.00000E+00
    0.00000E+00         0.00000E+00        -0.20396E+08
 
   -0.25450E+08         0.70528E+05         0.00000E+00
    0.70528E+05        -0.49146E+08         0.00000E+00
    0.00000E+00         0.00000E+00        -0.20397E+08
 
   -0.25253E+08         0.82948E+05         0.00000E+00
    0.82948E+05        -0.49177E+08         0.00000E+00
    0.00000E+00         0.00000E+00        -0.20397E+08
 
   -0.25053E+08         0.95815E+05         0.00000E+00
    0.95815E+05        -0.49213E+08         0.00000E+00
    0.00000E+00         0.00000E+00        -0.20397E+08
 
   -0.24849E+08         0.10919E+06         0.00000E+00
    0.10919E+06        -0.49254E+08         0.00000E+00
    0.00000E+00         0.00000E+00        -0.20397E+08
 
   -0.24640E+08         0.12315E+06         0.00000E+00
    0.12315E+06        -0.49301E+08         0.00000E+00
    0.00000E+00         0.00000E+00        -0.20397E+08
 
   -0.24426E+08         0.13779E+06         0.00000E+00
    0.13779E+06        -0.49353E+08         0.00000E+00
    0.00000E+00         0.00000E+00        -0.20397E+08
 
   -0.24207E+08         0.15322E+06         0.00000E+00
    0.15322E+06        -0.49412E+08         0.00000E+00
    0.00000E+00         0.00000E+00        -0.20398E+08
 
   -0.23981E+08         0.16957E+06         0.00000E+00
    0.16957E+06        -0.49476E+08         0.00000E+00
    0.00000E+00         0.00000E+00        -0.20398E+08
 
   -0.23747E+08         0.18703E+06         0.00000E+00
    0.18703E+06        -0.49548E+08         0.00000E+00
    0.00000E+00         0.00000E+00        -0.20398E+08
 
   -0.23506E+08         0.20581E+06         0.00000E+00
    0.20581E+06        -0.49627E+08         0.00000E+00
    0.00000E+00         0.00000E+00        -0.20398E+08
 
   -0.23254E+08         0.22620E+06         0.00000E+00
    0.22620E+06        -0.49713E+08         0.00000E+00
    0.00000E+00         0.00000E+00        -0.20398E+08
 
   -0.22992E+08         0.24859E+06         0.00000E+00
    0.24859E+06        -0.49808E+08         0.00000E+00
    0.00000E+00         0.00000E+00        -0.20398E+08
 
   -0.22717E+08         0.27351E+06         0.00000E+00
    0.27351E+06        -0.49912E+08         0.00000E+00
    0.00000E+00         0.00000E+00        -0.20399E+08
 
   -0.22428E+08         0.30168E+06         0.00000E+00
    0.30168E+06        -0.50026E+08         0.00000E+00
    0.00000E+00         0.00000E+00        -0.20399E+08
 
   -0.22121E+08         0.33416E+06         0.00000E+00
    0.33416E+06        -0.50152E+08         0.00000E+00
    0.00000E+00         0.00000E+00        -0.20399E+08
 
   -0.21793E+08         0.37251E+06         0.00000E+00
    0.37251E+06        -0.50292E+08         0.00000E+00
    0.00000E+00         0.00000E+00        -0.20399E+08
 
   -0.21439E+08         0.41917E+06         0.00000E+00
    0.41917E+06        -0.50447E+08         0.00000E+00
    0.00000E+00         0.00000E+00        -0.20399E+08
 
   -0.21053E+08         0.47800E+06         0.00000E+00
    0.47800E+06        -0.50622E+08         0.00000E+00
    0.00000E+00         0.00000E+00        -0.20399E+08
 
   -0.20625E+08         0.55555E+06         0.00000E+00
    0.55555E+06        -0.50820E+08         0.00000E+00
    0.00000E+00         0.00000E+00        -0.20399E+08
 
SCALARS stresss double 
LOOKUP_TABLE default
  -49761273.9354688     
  -49769999.8099992     
  -49777845.6378634     
  -49785003.7647012     
  -49791607.3260678     
  -49797752.6420710     
  -49803512.0194591     
  -49808941.4162860     
  -49814085.2374080     
  -49818979.4591178     
  -49823653.7406211     
  -49828132.8974507     
  -49832437.9588868     
  -49836586.9456099     
  -49840595.4539545     
  -49844477.1032028     
  -49848243.8838174     
  -49851906.4326929     
  -49855474.2537797     
  -49858955.8972508     
  -49862359.1068476     
  -49865690.9425684     
  -49868957.8841274     
  -49872165.9193575     
  -49875320.6208330     
  -49878427.2133327     
  -49881490.6342954     
  -49884515.5890876     
  -49887506.6026811     
  -49890468.0692117     
  -49893404.3008424     
  -49896319.5774003     
  -49899218.1983878     
  -49902104.5392208     
  -49904983.1139451     
  -49907858.6472937     
  -49910736.1598552     
  -49913621.0714942     
  -49916519.3302348     
  -49919437.5770278     
  -49922383.3618860     
  -49925365.4351088     
  -49928394.1510904     
  -49931482.0459997     
  -49934644.6931076     
  -49937902.0180290     
  -49941280.4061475     
  -49944816.2307153     
  -49948562.0337006     
  -49952597.8575361     
  -49755964.6061567     
  -49760806.6476650     
  -49765820.5097299     
  -49770844.0871317     
  -49775794.9881227     
  -49780632.5562302     
  -49785338.4987374     
  -49789906.7047253     
  -49794337.7388382     
  -49798635.7868926     
  -49802806.9257157     
  -49806858.1284353     
  -49810796.6887096     
  -49814629.8888984     
  -49818364.8128350     
  -49822008.2454431     
  -49825566.6249073     
  -49829046.0266733     
  -49832452.1665772     
  -49835790.4152428     
  -49839065.8188539     
  -49842283.1232607     
  -49845446.7995391     
  -49848561.0698650     
  -49851629.9330359     
  -49854657.1892711     
  -49857646.4641123     
  -49860601.2313557     
  -49863524.8350113     
  -49866420.5103013     
  -49869291.4036948     
  -49872140.5919203     
  -49874971.0997929     
  -49877785.9165159     
  -49880588.0098317     
  -49883380.3369339     
  -49886165.8502979     
  -49888947.4953461     
  -49891728.1947730     
  -49894510.8107835     
  -49897298.0702519     
  -49900092.4266276     
  -49902895.8119227     
  -49905709.1935464     
  -49908531.7762601     
  -49911359.5417841     
  -49914182.5178790     
  -49916979.5411962     
  -49919707.9372648     
  -49922282.6117206     
  -49751174.2055575     
  -49754445.2134456     
  -49757786.7556004     
  -49761207.2955642     
  -49764688.5140790     
  -49768206.3025844     
  -49771738.3954175     
  -49775266.6034122     
  -49778776.9757278     
  -49782259.2600953     
  -49785706.2068277     
  -49789112.9172563     
  -49792476.2964946     
  -49795794.6158396     
  -49799067.1714092     
  -49802294.0213075     
  -49805475.7846657     
  -49808613.4885650     
  -49811708.4516751     
  -49814762.1959110     
  -49817776.3794152     
  -49820752.7457451     
  -49823693.0853375     
  -49826599.2062368     
  -49829472.9117430     
  -49832315.9831451     
  -49835130.1660636     
  -49837917.1591876     
  -49840678.6043550     
  -49843416.0770188     
  -49846131.0761652     
  -49848825.0126992     
  -49851499.1951961     
  -49854154.8117052     
  -49856792.9059863     
  -49859414.3461182     
  -49862019.7828334     
  -49864609.5941713     
  -49867183.8121285     
  -49869742.0260210     
  -49872283.2566182     
  -49874805.7957112     
  -49877307.0100120     
  -49879783.1218187     
  -49882229.0151658     
  -49884638.2067442     
  -49887003.3398815     
  -49889318.0822416     
  -49891582.5486629     
  -49893817.3212009     
  -49744405.6098793     
  -49746723.4947501     
  -49749136.0169061     
  -49751625.4921533     
  -49754182.4078123     
  -49756798.0407744     
  -49759463.0901592     
  -49762167.9892304     
  -49764903.4672210     
  -49767660.9692620     
  -49770432.8841016     
  -49773212.6221379     
  -49775994.5972766     
  -49778774.1549211     
  -49781547.4746437     
  -49784311.4651186     
  -49787063.6613295     
  -49789802.1292165     
  -49792525.3799849     
  -49795232.2945913     
  -49797922.0579880     
  -49800594.1022387     
  -49803248.0574188     
  -49805883.7091690     
  -49808500.9618026     
  -49811099.8059354     
  -49813680.2896858     
  -49816242.4925708     
  -49818786.5012883     
  -49821312.3866330     
  -49823820.1808339     
  -49826309.8546370     
  -49828781.2934923     
  -49831234.2722464     
  -49833668.4278260     
  -49836083.2295417     
  -49838477.9469194     
  -49840851.6154566     
  -49843203.0015553     
  -49845530.5693004     
  -49847832.4540136     
  -49850106.4508797     
  -49852350.0314179     
  -49854560.4050000     
  -49856734.6422501     
  -49858869.8569308     
  -49860963.3599472     
  -49863012.4370749     
  -49865012.6544713     
  -49866951.5676236     
  -49735795.7258608     
  -49737457.3168898     
  -49739210.2122001     
  -49741047.9123652     
  -49742962.0576058     
  -49744944.7887655     
  -49746988.9117302     
  -49749087.6982632     
  -49751234.7528235     
  -49753423.9806136     
  -49755649.6124416     
  -49757906.2460798     
  -49760188.8814629     
  -49762492.9407580     
  -49764814.2721393     
  -49767149.1396586     
  -49769494.2027196     
  -49771846.4885819     
  -49774203.3607575     
  -49776562.4854800     
  -49778921.7977995     
  -49781279.4683360     
  -49783633.8713229     
  -49785983.5542766     
  -49788327.2094195     
  -49790663.6468389     
  -49792991.7692749     
  -49795310.5483730     
  -49797619.0022153     
  -49799916.1739440     
  -49802201.1113094     
  -49804472.8470220     
  -49806730.3798506     
  -49808972.6565086     
  -49811198.5544970     
  -49813406.8662406     
  -49815596.2850597     
  -49817765.3937437     
  -49819912.6566969     
  -49822036.4167015     
  -49824134.8970795     
  -49826206.2090567     
  -49828248.3618557     
  -49830259.2687988     
  -49832236.7365213     
  -49834178.4199162     
  -49836081.7391686     
  -49837943.8439718     
  -49839762.0483053     
  -49841536.2533472     
  -49725259.8444117     
  -49726464.0479266     
  -49727755.6960682     
  -49729129.0304367     
  -49730578.8240137     
  -49732099.7652577     
  -49733686.5447901     
  -49735333.9757876     
  -49737037.0529280     
  -49738790.9714909     
  -49740591.1322146     
  -49742433.1444057     
  -49744312.8305237     
  -49746226.2314118     
  -49748169.6103976     
  -49750139.4548436     
  -49752132.4744227     
  -49754145.5959935     
  -49756175.9553607     
  -49758220.8864186     
  -49760277.9082557     
  -49762344.7107813     
  -49764419.1393793     
  -49766499.1790114     
  -49768582.9381102     
  -49770668.6325273     
  -49772754.5697395     
  -49774839.1334678     
  -49776920.7688298     
  -49778997.9681268     
  -49781069.2573621     
  -49783133.1835872     
  -49785188.3031880     
  -49787233.1712381     
  -49789266.3320605     
  -49791286.3111434     
  -49793291.6085344     
  -49795280.6937761     
  -49797252.0023272     
  -49799203.9332256     
  -49801134.8475287     
  -49803043.0669110     
  -49804926.8720138     
  -49806784.5012758     
  -49808614.1538643     
  -49810414.0052529     
  -49812182.2470502     
  -49813917.1424621     
  -49815616.9634684     
  -49817279.1729120     
  -49712803.1121352     
  -49713685.2420856     
  -49714649.5129106     
  -49715691.7740246     
  -49716807.7964829     
  -49717993.4558133     
  -49719244.7059307     
  -49720557.5646806     
  -49721928.1221340     
  -49723352.5562219     
  -49724827.1468820     
  -49726348.2864458     
  -49727912.4867419     
  -49729516.3838887     
  -49731156.7414578     
  -49732830.4523131     
  -49734534.5391978     
  -49736266.1540454     
  -49738022.5759993     
  -49739801.2081692     
  -49741599.5732106     
  -49743415.3078563     
  -49745246.1565648     
  -49747089.9644602     
  -49748944.6697461     
  -49750808.2957671     
  -49752678.9428833     
  -49754554.7803093     
  -49756434.0380550     
  -49758314.9990965     
  -49760195.9918873     
  -49762075.3833150     
  -49763951.5721923     
  -49765822.9833576     
  -49767688.0624474     
  -49769545.2713768     
  -49771393.0845478     
  -49773229.9857850     
  -49775054.4659923     
  -49776865.0215506     
  -49778660.1535513     
  -49780438.3680848     
  -49782198.1779332     
  -49783938.1059401     
  -49785656.6895849     
  -49787352.4841646     
  -49789024.0585832     
  -49790669.9793435     
  -49792288.8178337     
  -49793879.4228826     
  -49698448.4371790     
  -49699110.1935829     
  -49699848.0046740     
  -49700658.6234401     
  -49701538.8311982     
  -49702485.4048260     
  -49703495.1418047     
  -49704564.8750005     
  -49705691.4796451     
  -49706871.8786263     
  -49708103.0480927     
  -49709382.0232322     
  -49710705.9036474     
  -49712071.8579418     
  -49713477.1273713     
  -49714919.0285637     
  -49716394.9553655     
  -49717902.3798820     
  -49719438.8527677     
  -49721002.0028204     
  -49722589.5359251     
  -49724199.2334047     
  -49725828.9498388     
  -49727476.6104194     
  -49729140.2079237     
  -49730817.7993831     
  -49732507.5025361     
  -49734207.4921470     
  -49735915.9962753     
  -49737631.2925721     
  -49739351.7046779     
  -49741075.5987881     
  -49742801.3804445     
  -49744527.4916063     
  -49746252.4080446     
  -49747974.6371005     
  -49749692.7158424     
  -49751405.2096616     
  -49753110.7113390     
  -49754807.8406226     
  -49756495.2443293     
  -49758171.5969453     
  -49759835.6016120     
  -49761485.9912964     
  -49763121.5300161     
  -49764741.0145948     
  -49766343.2790322     
  -49767927.2048935     
  -49769491.7304961     
  -49771035.7731358     
  -49682237.5142267     
  -49682756.7418736     
  -49683345.6752664     
  -49684001.7782178     
  -49684722.5022322     
  -49685505.3027375     
  -49686347.6395800     
  -49687246.9816098     
  -49688200.8128341     
  -49689206.6381133     
  -49690261.9880548     
  -49691364.4233039     
  -49692511.5384014     
  -49693700.9652630     
  -49694930.3762622     
  -49696197.4868854     
  -49697500.0579387     
  -49698835.8973032     
  -49700202.8612500     
  -49701598.8553369     
  -49703021.8349120     
  -49704469.8052580     
  -49705940.8214078     
  -49707432.9876711     
  -49708944.4569088     
  -49710473.4295975     
  -49712018.1527265     
  -49713576.9185706     
  -49715148.0633829     
  -49716729.9660496     
  -49718321.0467497     
  -49719919.7656585     
  -49721524.6217325     
  -49723134.1516111     
  -49724746.9286664     
  -49726361.5622308     
  -49727976.6970282     
  -49729591.0128283     
  -49731203.2243393     
  -49732812.0813453     
  -49734416.3690897     
  -49736014.9089063     
  -49737606.5591219     
  -49739190.2162959     
  -49740764.8168962     
  -49742329.3393911     
  -49743882.8061689     
  -49745424.2837261     
  -49746952.8818714     
  -49748467.7807481     
  -49664222.2885202     
  -49664659.5290282     
  -49665160.1263037     
  -49665722.0941252     
  -49666343.4298694     
  -49667022.1168749     
  -49667756.1306581     
  -49668543.4433859     
  -49669382.0277707     
  -49670269.8609106     
  -49671204.9280455     
  -49672185.2261081     
  -49673208.7670109     
  -49674273.5806549     
  -49675377.7176659     
  -49676519.2518648     
  -49677696.2824763     
  -49678906.9360769     
  -49680149.3682891     
  -49681421.7652275     
  -49682722.3447071     
  -49684049.3572295     
  -49685401.0867618     
  -49686775.8513271     
  -49688172.0034287     
  -49689587.9303272     
  -49691022.0541947     
  -49692472.8321698     
  -49693938.7563354     
  -49695418.3536445     
  -49696910.1858168     
  -49698412.8492277     
  -49699924.9748138     
  -49701445.2280126     
  -49702972.3087577     
  -49704504.9515452     
  -49706041.9255865     
  -49707582.0350609     
  -49709124.1194795     
  -49710667.0541706     
  -49712209.7508974     
  -49713751.1586182     
  -49715290.2643926     
  -49716826.0944197     
  -49718357.7151688     
  -49719884.2345616     
  -49721404.8033263     
  -49722918.6170828     
  -49724424.9194117     
  -49725922.9965958     
  -49644458.7997057     
  -49644861.0800895     
  -49645320.6099400     
  -49645835.8390914     
  -49646405.1938082     
  -49647027.0810550     
  -49647699.8916516     
  -49648422.0038178     
  -49649191.7866464     
  -49650007.6033682     
  -49650867.8144363     
  -49651770.7804590     
  -49652714.8649823     
  -49653698.4371153     
  -49654719.8739912     
  -49655777.5630594     
  -49656869.9042094     
  -49657995.3117294     
  -49659152.2161014     
  -49660339.0656397     
  -49661554.3279780     
  -49662796.4914116     
  -49664064.0661046     
  -49665355.5851709     
  -49666669.6056386     
  -49668004.7093120     
  -49669359.5035399     
  -49670732.6219056     
  -49672122.7248498     
  -49673528.5002398     
  -49674948.6638981     
  -49676381.9601023     
  -49677827.1620700     
  -49679283.0724377     
  -49680748.5237472     
  -49682222.3789482     
  -49683703.5319264     
  -49685190.9080656     
  -49686683.4648509     
  -49688180.1925191     
  -49689680.1147592     
  -49691182.2894661     
  -49692685.8095459     
  -49694189.8037763     
  -49695693.4377320     
  -49697195.9147946     
  -49698696.4772281     
  -49700194.4071333     
  -49701689.0270458     
  -49703179.7030738     
  -49623001.5639532     
  -49623405.1619299     
  -49623860.3020278     
  -49624365.7806075     
  -49624920.3670538     
  -49625522.8067669     
  -49626171.8243113     
  -49626866.1263206     
  -49627604.4043075     
  -49628385.3373989     
  -49629207.5949751     
  -49630069.8392016     
  -49630970.7274498     
  -49631908.9146070     
  -49632883.0552756     
  -49633891.8058621     
  -49634933.8265538     
  -49636007.7831863     
  -49637112.3490008     
  -49638246.2062965     
  -49639408.0479790     
  -49640596.5790092     
  -49641810.5177588     
  -49643048.5972754     
  -49644309.5664639     
  -49645592.1911901     
  -49646895.2553137     
  -49648217.5616563     
  -49649557.9329110     
  -49650915.2125030     
  -49652288.2654050     
  -49653675.9789165     
  -49655077.2634133     
  -49656491.0530719     
  -49657916.3065782     
  -49659352.0078217     
  -49660797.1665849     
  -49662250.8192280     
  -49663712.0293758     
  -49665179.8886079     
  -49666653.5171559     
  -49668132.0646081     
  -49669614.7106250     
  -49671100.6656642     
  -49672589.1717132     
  -49674079.5030185     
  -49675570.9668072     
  -49677062.9040483     
  -49678554.6903652     
  -49680045.7362076     
  -49599899.1624771     
  -49600331.7377423     
  -49600810.6528658     
  -49601334.9767720     
  -49601903.7498617     
  -49602515.9866222     
  -49603170.6781193     
  -49603866.7944690     
  -49604603.2872382     
  -49605379.0917691     
  -49606193.1294314     
  -49607044.3098018     
  -49607931.5327694     
  -49608853.6905645     
  -49609809.6697100     
  -49610798.3528951     
  -49611818.6207711     
  -49612869.3536701     
  -49613949.4332472     
  -49615057.7440475     
  -49616193.1749994     
  -49617354.6208364     
  -49618540.9834497     
  -49619751.1731737     
  -49620984.1100078     
  -49622238.7247787     
  -49623513.9602436     
  -49624808.7721418     
  -49626122.1301945     
  -49627453.0190594     
  -49628800.4392420     
  -49630163.4079678     
  -49631540.9600189     
  -49632932.1485389     
  -49634336.0458073     
  -49635751.7439889     
  -49637178.3558586     
  -49638615.0155054     
  -49640060.8790162     
  -49641515.1251412     
  -49642976.9559436     
  -49644445.5974310     
  -49645920.3001708     
  -49647400.3398885     
  -49648885.0180469     
  -49650373.6624086     
  -49651865.6275831     
  -49653360.2955406     
  -49654857.0760456     
  -49656355.4072688     
  -49575191.0573673     
  -49575673.4007821     
  -49576197.4420177     
  -49576762.4610564     
  -49577367.7093607     
  -49578012.4120204     
  -49578695.7698695     
  -49579416.9615466     
  -49580175.1455124     
  -49580969.4620195     
  -49581799.0350327     
  -49582662.9740969     
  -49583560.3761528     
  -49584490.3272981     
  -49585451.9044947     
  -49586444.1772202     
  -49587466.2090640     
  -49588517.0592685     
  -49589595.7842138     
  -49590701.4388479     
  -49591833.0780625     
  -49592989.7580150     
  -49594170.5373984     
  -49595374.4786589     
  -49596600.6491649     
  -49597848.1223262     
  -49599115.9786670     
  -49600403.3068537     
  -49601709.2046792     
  -49603032.7800052     
  -49604373.1516653     
  -49605729.4503296     
  -49607100.8193327     
  -49608486.4154671     
  -49609885.4097432     
  -49611296.9881171     
  -49612720.3521879     
  -49614154.7198647     
  -49615599.3260047     
  -49617053.4230223     
  -49618516.2814704     
  -49619987.1905928     
  -49621465.4588480     
  -49622950.4144045     
  -49624441.4056053     
  -49625937.8014013     
  -49627438.9917506     
  -49628944.3879830     
  -49630453.4231485     
  -49631965.5522657     
  -49548905.5586795     
  -49549453.0518539     
  -49550038.1782494     
  -49550660.3776389     
  -49551319.0623633     
  -49552013.6191021     
  -49552743.4106135     
  -49553507.7774498     
  -49554306.0396419     
  -49555137.4983504     
  -49556001.4374833     
  -49556897.1252793     
  -49557823.8158536     
  -49558780.7507066     
  -49559767.1601943     
  -49560782.2649583     
  -49561825.2773174     
  -49562895.4026172     
  -49563991.8405404     
  -49565113.7863749     
  -49566260.4322421     
  -49567430.9682839     
  -49568624.5838088     
  -49569840.4683988     
  -49571077.8129751     
  -49572335.8108261     
  -49573613.6585955     
  -49574910.5572329     
  -49576225.7129073     
  -49577558.3378831     
  -49578907.6513615     
  -49580272.8802853     
  -49581653.2601101     
  -49583048.0355412     
  -49584456.4612367     
  -49585877.8024788     
  -49587311.3358112     
  -49588756.3496453     
  -49590212.1448337     
  -49591678.0352118     
  -49593153.3481072     
  -49594637.4248170     
  -49596129.6210513     
  -49597629.3073447     
  -49599135.8694321     
  -49600648.7085904     
  -49602167.2419447     
  -49603690.9027368     
  -49605219.1405495     
  -49606751.4215078     
  -49521058.7503088     
  -49521682.5859524     
  -49522340.5566713     
  -49523032.2197494     
  -49523757.1068320     
  -49524514.7253632     
  -49525304.5600086     
  -49526126.0740600     
  -49526978.7108236     
  -49527861.8949873     
  -49528775.0339664     
  -49529717.5192266     
  -49530688.7275823     
  -49531688.0224694     
  -49532714.7551915     
  -49533768.2661384     
  -49534847.8859757     
  -49535952.9368059     
  -49537082.7332995     
  -49538236.5837949     
  -49539413.7913683     
  -49540613.6548727     
  -49541835.4699445     
  -49543078.5299794     
  -49544342.1270762     
  -49545625.5529488     
  -49546928.0998071     
  -49548249.0612055     
  -49549587.7328600     
  -49550943.4134337     
  -49552315.4052915     
  -49553703.0152227     
  -49555105.5551324     
  -49556522.3427026     
  -49557952.7020214     
  -49559395.9641812     
  -49560851.4678463     
  -49562318.5597890     
  -49563796.5953941     
  -49565284.9391324     
  -49566782.9650022     
  -49568290.0569383     
  -49569805.6091891     
  -49571329.0266601     
  -49572859.7252238     
  -49574397.1319959     
  -49575940.6855754     
  -49577489.8362492     
  -49579044.0461621     
  -49580602.7894441     
  -49491654.1517788     
  -49492362.3451193     
  -49493101.7117519     
  -49493871.8920341     
  -49494672.5028914     
  -49495503.1389673     
  -49496363.3737677     
  -49497252.7607981     
  -49498170.8346910     
  -49499117.1123226     
  -49500091.0939168     
  -49501092.2641352     
  -49502120.0931516     
  -49503174.0377103     
  -49504253.5421660     
  -49505358.0395053     
  -49506486.9523480     
  -49507639.6939277     
  -49508815.6690513     
  -49510014.2750354     
  -49511234.9026204     
  -49512476.9368608     
  -49513739.7579909     
  -49515022.7422670     
  -49516325.2627837     
  -49517646.6902647     
  -49518986.3938292     
  -49520343.7417305     
  -49521718.1020697     
  -49523108.8434821     
  -49524515.3357975     
  -49525936.9506729     
  -49527373.0621985     
  -49528823.0474761     
  -49530286.2871700     
  -49531762.1660301     
  -49533250.0733870     
  -49534749.4036185     
  -49536259.5565883     
  -49537779.9380551     
  -49539309.9600525     
  -49540849.0412400     
  -49542396.6072237     
  -49543952.0908463     
  -49545514.9324470     
  -49547084.5800899     
  -49548660.4897600     
  -49550242.1255281     
  -49551828.9596818     
  -49553420.4728241     
  -49460682.9018631     
  -49461481.1182338     
  -49462308.0405976     
  -49463163.3647466     
  -49464046.7654361     
  -49464957.8972920     
  -49465896.3957189     
  -49466861.8778067     
  -49467853.9432340     
  -49468872.1751673     
  -49469916.1411540     
  -49470985.3940082     
  -49472079.4726874     
  -49473197.9031596     
  -49474340.1992587     
  -49475505.8635286     
  -49476694.3880526     
  -49477905.2552697     
  -49479137.9387753     
  -49480391.9041056     
  -49481666.6095057     
  -49482961.5066799     
  -49484276.0415237     
  -49485609.6548371     
  -49486961.7830186     
  -49488331.8587388     
  -49489719.3115942     
  -49491123.5687395     
  -49492544.0554984     
  -49493980.1959533     
  -49495431.4135124     
  -49496897.1314539     
  -49498376.7734478     
  -49499869.7640543     
  -49501375.5291983     
  -49502893.4966205     
  -49504423.0963038     
  -49505963.7608751     
  -49507514.9259828     
  -49509076.0306480     
  -49510646.5175915     
  -49512225.8335337     
  -49513813.4294690     
  -49515408.7609136     
  -49517011.2881259     
  -49518620.4763009     
  -49520235.7957351     
  -49521856.7219656     
  -49523482.7358799     
  -49525113.3237967     
  -49428124.2810901     
  -49429016.5032343     
  -49429935.4105495     
  -49430880.7324122     
  -49431852.1795894     
  -49432849.4449445     
  -49433872.2041468     
  -49434920.1163841     
  -49435992.8250769     
  -49437089.9585922     
  -49438211.1309565     
  -49439355.9425650     
  -49440523.9808881     
  -49441714.8211717     
  -49442928.0271318     
  -49444163.1516412     
  -49445419.7374088     
  -49446697.3176484     
  -49447995.4167378     
  -49449313.5508669     
  -49450651.2286735     
  -49452007.9518669     
  -49453383.2158373     
  -49454776.5102517     
  -49456187.3196348     
  -49457615.1239347     
  -49459059.3990723     
  -49460519.6174741     
  -49461995.2485889     
  -49463485.7593857     
  -49464990.6148345     
  -49466509.2783685     
  -49468041.2123271     
  -49469585.8783801     
  -49471142.7379322     
  -49472711.2525074     
  -49474290.8841129     
  -49475881.0955829     
  -49477481.3509007     
  -49479091.1155000     
  -49480709.8565444     
  -49482337.0431851     
  -49483972.1467961     
  -49485614.6411876     
  -49487264.0027963     
  -49488919.7108524     
  -49490581.2475244     
  -49492248.0980398     
  -49493919.7507824     
  -49495595.6973663     
  -49393946.4282930     
  -49394935.4862560     
  -49395949.6050107     
  -49396988.5305128     
  -49398051.9924632     
  -49399139.7048477     
  -49400251.3664838     
  -49401386.6615733     
  -49402545.2602584     
  -49403726.8191816     
  -49404930.9820459     
  -49406157.3801771     
  -49407405.6330837     
  -49408675.3490171     
  -49409966.1255266     
  -49411277.5500128     
  -49412609.2002752     
  -49413960.6450535     
  -49415331.4445644     
  -49416721.1510290     
  -49418129.3091929     
  -49419555.4568376     
  -49420999.1252819     
  -49422459.8398731     
  -49423937.1204676     
  -49425430.4818990     
  -49426939.4344350     
  -49428463.4842214     
  -49430002.1337122     
  -49431554.8820867     
  -49433121.2256522     
  -49434700.6582316     
  -49436292.6715364     
  -49437896.7555241     
  -49439512.3987394     
  -49441139.0886394     
  -49442776.3119023     
  -49444423.5547189     
  -49446080.3030670     
  -49447746.0429682     
  -49449420.2607274     
  -49451102.4431535     
  -49452792.0777622     
  -49454488.6529607     
  -49456191.6582135     
  -49457900.5841887     
  -49459614.9228867     
  -49461334.1677484     
  -49463057.8137454     
  -49464785.3574502     
  -49358107.1434490     
  -49359195.1288397     
  -49360306.8978335     
  -49361442.1999438     
  -49362600.7706451     
  -49363782.3317801     
  -49364986.5919743     
  -49366213.2470589     
  -49367461.9804973     
  -49368732.4638187     
  -49370024.3570527     
  -49371337.3091687     
  -49372670.9585155     
  -49374024.9332616     
  -49375398.8518358     
  -49376792.3233656     
  -49378204.9481146     
  -49379636.3179160     
  -49381086.0166025     
  -49382553.6204324     
  -49384038.6985096     
  -49385540.8131982     
  -49387059.5205301     
  -49388594.3706057     
  -49390144.9079867     
  -49391710.6720798     
  -49393291.1975125     
  -49394886.0144984     
  -49396494.6491928     
  -49398116.6240378     
  -49399751.4580963     
  -49401398.6673749     
  -49403057.7651342     
  -49404728.2621880     
  -49406409.6671888     
  -49408101.4869011     
  -49409803.2264616     
  -49411514.3896248     
  -49413234.4789963     
  -49414962.9962508     
  -49416699.4423367     
  -49418443.3176652     
  -49420194.1222861     
  -49421951.3560473     
  -49423714.5187403     
  -49425483.1102305     
  -49427256.6305715     
  -49429034.5801053     
  -49430816.4595462     
  -49432601.7700496     
  -49320554.7011926     
  -49321743.2859281     
  -49322954.6775829     
  -49324188.6194254     
  -49325444.8427282     
  -49326723.0670707     
  -49328023.0006488     
  -49329344.3405930     
  -49330686.7732921     
  -49332049.9747233     
  -49333433.6107862     
  -49334837.3376411     
  -49336260.8020496     
  -49337703.6417177     
  -49339165.4856402     
  -49340645.9544450     
  -49342144.6607378     
  -49343661.2094452     
  -49345195.1981566     
  -49346746.2174631     
  -49348313.8512939     
  -49349897.6772485     
  -49351497.2669252     
  -49353112.1862438     
  -49354741.9957639     
  -49356386.2509967     
  -49358044.5027100     
  -49359716.2972270     
  -49361401.1767171     
  -49363098.6794789     
  -49364808.3402152     
  -49366529.6902990     
  -49368262.2580309     
  -49370005.5688861     
  -49371759.1457533     
  -49373522.5091620     
  -49375295.1775002     
  -49377076.6672217     
  -49378866.4930421     
  -49380664.1681241     
  -49382469.2042515     
  -49384281.1119917     
  -49386099.4008465     
  -49387923.5793918     
  -49389753.1554046     
  -49391587.6359790     
  -49393426.5276297     
  -49395269.3363834     
  -49397115.5678588     
  -49398964.7273343     
  -49281228.6252987     
  -49282519.3028354     
  -49283832.0680048     
  -49285166.6505861     
  -49286522.7702210     
  -49287900.1366343     
  -49289298.4498615     
  -49290717.4004851     
  -49292156.6698760     
  -49293615.9304421     
  -49295094.8458807     
  -49296593.0714365     
  -49298110.2541622     
  -49299646.0331822     
  -49301200.0399593     
  -49302771.8985615     
  -49304361.2259312     
  -49305967.6321536     
  -49307590.7207254     
  -49309230.0888221     
  -49310885.3275644     
  -49312556.0222818     
  -49314241.7527743     
  -49315942.0935707     
  -49317656.6141834     
  -49319384.8793590     
  -49321126.4493248     
  -49322880.8800301     
  -49324647.7233821     
  -49326426.5274764     
  -49328216.8368210     
  -49330018.1925545     
  -49331830.1326570     
  -49333652.1921537     
  -49335483.9033123     
  -49337324.7958315     
  -49339174.3970225     
  -49341032.2319817     
  -49342897.8237560     
  -49344770.6934986     
  -49346650.3606168     
  -49348536.3429111     
  -49350428.1567048     
  -49352325.3169649     
  -49354227.3374139     
  -49356133.7306324     
  -49358044.0081526     
  -49359957.6805422     
  -49361874.2574791     
  -49363793.2478178     
  -49240060.3942465     
  -49241454.6589739     
  -49242870.5103684     
  -49244307.6594781     
  -49245765.8088887     
  -49247244.6528809     
  -49248743.8775956     
  -49250263.1612053     
  -49251802.1740926     
  -49253360.5790344     
  -49254938.0313902     
  -49256534.1792959     
  -49258148.6638611     
  -49259781.1193694     
  -49261431.1734822     
  -49263098.4474436     
  -49264782.5562878     
  -49266483.1090473     
  -49268199.7089612     
  -49269931.9536847     
  -49271679.4354969     
  -49273441.7415089     
  -49275218.4538697     
  -49277009.1499707     
  -49278813.4026483     
  -49280630.7803834     
  -49282460.8474982     
  -49284303.1643498     
  -49286157.2875201     
  -49288022.7700012     
  -49289899.1613773     
  -49291786.0080012     
  -49293682.8531664     
  -49295589.2372738     
  -49297504.6979930     
  -49299428.7704178     
  -49301360.9872165     
  -49303300.8787752     
  -49305247.9733353     
  -49307201.7971247     
  -49309161.8744828     
  -49311127.7279775     
  -49313098.8785174     
  -49315074.8454552     
  -49317055.1466859     
  -49319039.2987368     
  -49321026.8168509     
  -49323017.2150639     
  -49325010.0062734     
  -49327004.7023012     
  -49196974.0624572     
  -49198473.5405742     
  -49199994.2877381     
  -49201535.9925660     
  -49203098.3367155     
  -49204680.9949955     
  -49206283.6354825     
  -49207905.9196445     
  -49209547.5024694     
  -49211208.0325999     
  -49212887.1524725     
  -49214584.4984603     
  -49216299.7010210     
  -49218032.3848471     
  -49219782.1690190     
  -49221548.6671616     
  -49223331.4876014     
  -49225130.2335264     
  -49226944.5031462     
  -49228773.8898536     
  -49230617.9823858     
  -49232476.3649861     
  -49234348.6175648     
  -49236234.3158595     
  -49238133.0315938     
  -49240044.3326353     
  -49241967.7831509     
  -49243902.9437607     
  -49245849.3716887     
  -49247806.6209118     
  -49249774.2423047     
  -49251751.7837824     
  -49253738.7904390     
  -49255734.8046824     
  -49257739.3663659     
  -49259752.0129148     
  -49261772.2794496     
  -49263799.6989041     
  -49265833.8021389     
  -49267874.1180511     
  -49269920.1736778     
  -49271971.4942959     
  -49274027.6035162     
  -49276088.0233724     
  -49278152.2744056     
  -49280219.8757426     
  -49282290.3451702     
  -49284363.1992034     
  -49286437.9531486     
  -49288514.1211625     
  -49151886.7919367     
  -49153493.3348951     
  -49155120.9815661     
  -49156769.3956040     
  -49158438.2350525     
  -49160127.1524203     
  -49161835.7947616     
  -49163563.8037636     
  -49165310.8158377     
  -49167076.4622161     
  -49168860.3690526     
  -49170662.1575274     
  -49172481.4439550     
  -49174317.8398960     
  -49176170.9522711     
  -49178040.3834778     
  -49179925.7315089     
  -49181826.5900736     
  -49183742.5487186     
  -49185673.1929512     
  -49187618.1043634     
  -49189576.8607553     
  -49191549.0362596     
  -49193534.2014656     
  -49195531.9235424     
  -49197541.7663619     
  -49199563.2906204     
  -49201596.0539589     
  -49203639.6110824     
  -49205693.5138765     
  -49207757.3115231     
  -49209830.5506131     
  -49211912.7752570     
  -49214003.5271932     
  -49216102.3458934     
  -49218208.7686643     
  -49220322.3307481     
  -49222442.5654177     
  -49224569.0040705     
  -49226701.1763171     
  -49228838.6100680     
  -49230980.8316158     
  -49233127.3657139     
  -49235277.7356518     
  -49237431.4633264     
  -49239588.0693096     
  -49241747.0729124     
  -49243907.9922447     
  -49246070.3442717     
  -49248233.6448664     
  -49104709.2958239     
  -49106425.0453880     
  -49108161.8581320     
  -49109919.3710876     
  -49111697.2168904     
  -49113495.0238303     
  -49115312.4159059     
  -49117149.0128846     
  -49119004.4303658     
  -49120878.2798492     
  -49122770.1688064     
  -49124679.7007559     
  -49126606.4753409     
  -49128550.0884109     
  -49130510.1321051     
  -49132486.1949379     
  -49134477.8618873     
  -49136484.7144839     
  -49138506.3309026     
  -49140542.2860541     
  -49142592.1516781     
  -49144655.4964378     
  -49146731.8860130     
  -49148820.8831956     
  -49150922.0479828     
  -49153034.9376723     
  -49155159.1069550     
  -49157294.1080085     
  -49159439.4905888     
  -49161594.8021214     
  -49163759.5877909     
  -49165933.3906294     
  -49168115.7516032     
  -49170306.2096976     
  -49172504.3020004     
  -49174709.5637827     
  -49176921.5285780     
  -49179139.7282590     
  -49181363.6931124     
  -49183592.9519104     
  -49185827.0319808     
  -49188065.4592737     
  -49190307.7584264     
  -49192553.4528250     
  -49194802.0646636     
  -49197053.1150006     
  -49199306.1238131     
  -49201560.6100476     
  -49203816.0916683     
  -49206072.0857034     
  -49055346.1995967     
  -49057173.6317761     
  -49059022.1870712     
  -49060891.4748706     
  -49062781.1012691     
  -49064690.6690998     
  -49066619.7779698     
  -49068568.0242999     
  -49070535.0013678     
  -49072520.2993543     
  -49074523.5053932     
  -49076544.2036237     
  -49078581.9752453     
  -49080636.3985756     
  -49082707.0491097     
  -49084793.4995824     
  -49086895.3200311     
  -49089012.0778613     
  -49091143.3379131     
  -49093288.6625284     
  -49095447.6116194     
  -49097619.7427385     
  -49099804.6111471     
  -49102001.7698868     
  -49104210.7698491     
  -49106431.1598462     
  -49108662.4866810     
  -49110904.2952170     
  -49113156.1284482     
  -49115417.5275674     
  -49117688.0320348     
  -49119967.1796450     
  -49122254.5065930     
  -49124549.5475397     
  -49126851.8356754     
  -49129160.9027826     
  -49131476.2792967     
  -49133797.4943657     
  -49136124.0759085     
  -49138455.5506704     
  -49140791.4442786     
  -49143131.2812942     
  -49145474.5852638     
  -49147820.8787682     
  -49150169.6834700     
  -49152520.5201589     
  -49154872.9087951     
  -49157226.3685514     
  -49159580.4178525     
  -49161934.5744134     
  -49003696.3281325     
  -49005638.2817129     
  -49007601.4971684     
  -49009585.5556869     
  -49011590.0361736     
  -49013614.5152705     
  -49015658.5673786     
  -49017721.7646830     
  -49019803.6771810     
  -49021903.8727122     
  -49024021.9169916     
  -49026157.3736453     
  -49028309.8042469     
  -49030478.7683580     
  -49032663.8235683     
  -49034864.5255388     
  -49037080.4280463     
  -49039311.0830283     
  -49041556.0406300     
  -49043814.8492523     
  -49046087.0555998     
  -49048372.2047306     
  -49050669.8401055     
  -49052979.5036389     
  -49055300.7357488     
  -49057633.0754078     
  -49059976.0601933     
  -49062329.2263389     
  -49064692.1087839     
  -49067064.2412238     
  -49069445.1561597     
  -49071834.3849474     
  -49074231.4578459     
  -49076635.9040647     
  -49079047.2518112     
  -49081465.0283361     
  -49083888.7599786     
  -49086317.9722105     
  -49088752.1896790     
  -49091190.9362485     
  -49093633.7350408     
  -49096080.1084750     
  -49098529.5783055     
  -49100981.6656585     
  -49103435.8910678     
  -49105891.7745095     
  -49108348.8354340     
  -49110806.5927989     
  -49113264.5650984     
  -49115722.2703935     
  -48949652.9280123     
  -48951712.6221179     
  -48953793.7762595     
  -48955895.9431964     
  -48958018.6743468     
  -48960161.5197975     
  -48962324.0283170     
  -48964505.7473696     
  -48966706.2231321     
  -48968925.0005122     
  -48971161.6231691     
  -48973415.6335352     
  -48975686.5728398     
  -48977973.9811341     
  -48980277.3973176     
  -48982596.3591659     
  -48984930.4033593     
  -48987279.0655124     
  -48989641.8802051     
  -48992018.3810139     
  -48994408.1005440     
  -48996810.5704619     
  -48999225.3215287     
  -49001651.8836336     
  -49004089.7858276     
  -49006538.5563573     
  -49008997.7226992     
  -49011466.8115934     
  -49013945.3490776     
  -49016432.8605207     
  -49018928.8706562     
  -49021432.9036153     
  -49023944.4829595     
  -49026463.1317127     
  -49028988.3723927     
  -49031519.7270425     
  -49034056.7172605     
  -49036598.8642299     
  -49039145.6887480     
  -49041696.7112541     
  -49044251.4518570     
  -49046809.4303612     
  -49049370.1662928     
  -49051933.1789244     
  -49054497.9872987     
  -49057064.1102516     
  -49059631.0664345     
  -49062198.3743357     
  -49064765.5523005     
  -49067332.1185511     
  -48893103.8348174     
  -48895284.8788782     
  -48897487.6228847     
  -48899711.5911759     
  -48901956.3076397     
  -48904221.2957170     
  -48906506.0784069     
  -48908810.1782733     
  -48911133.1174526     
  -48913474.4176636     
  -48915833.6002173     
  -48918210.1860290     
  -48920603.6956303     
  -48923013.6491832     
  -48925439.5664942     
  -48927880.9670301     
  -48930337.3699333     
  -48932808.2940391     
  -48935293.2578929     
  -48937791.7797676     
  -48940303.3776824     
  -48942827.5694213     
  -48945363.8725517     
  -48947911.8044440     
  -48950470.8822904     
  -48953040.6231248     
  -48955620.5438422     
  -48958210.1612174     
  -48960808.9919254     
  -48963416.5525594     
  -48966032.3596507     
  -48968655.9296867     
  -48971286.7791296     
  -48973924.4244343     
  -48976568.3820659     
  -48979218.1685173     
  -48981873.3003254     
  -48984533.2940876     
  -48987197.6664774     
  -48989865.9342595     
  -48992537.6143048     
  -48995212.2236034     
  -48997889.2792793     
  -49000568.2986022     
  -49003248.7990000     
  -49005930.2980707     
  -49008612.3135930     
  -49011294.3635368     
  -49013975.9660734     
  -49016656.6395843     
  -48833931.5950084     
  -48836237.9936365     
  -48838566.3575626     
  -48840916.1828831     
  -48843286.9661009     
  -48845678.2041246     
  -48848089.3942679     
  -48850520.0342503     
  -48852969.6221979     
  -48855437.6566457     
  -48857923.6365393     
  -48860427.0612383     
  -48862947.4305196     
  -48865484.2445815     
  -48868037.0040480     
  -48870605.2099734     
  -48873188.3638479     
  -48875785.9676030     
  -48878397.5236169     
  -48881022.5347208     
  -48883660.5042053     
  -48886310.9358260     
  -48888973.3338106     
  -48891647.2028648     
  -48894332.0481792     
  -48897027.3754353     
  -48899732.6908123     
  -48902447.5009927     
  -48905171.3131688     
  -48907903.6350487     
  -48910643.9748614     
  -48913391.8413627     
  -48916146.7438400     
  -48918908.1921174     
  -48921675.6965598     
  -48924448.7680773     
  -48927226.9181290     
  -48930009.6587259     
  -48932796.5024344     
  -48935586.9623781     
  -48938380.5522409     
  -48941176.7862675     
  -48943975.1792655     
  -48946775.2466059     
  -48949576.5042230     
  -48952378.4686150     
  -48955180.6568433     
  -48957982.5865311     
  -48960783.7758629     
  -48963583.7435820     
  -48772013.5515119     
  -48774449.7061001     
  -48776908.1014280     
  -48779388.2056559     
  -48781889.4881915     
  -48784411.4196855     
  -48786953.4720255     
  -48789515.1183321     
  -48792095.8329536     
  -48794695.0914609     
  -48797312.3706436     
  -48799947.1485045     
  -48802598.9042556     
  -48805267.1183133     
  -48807951.2722938     
  -48810650.8490086     
  -48813365.3324602     
  -48816094.2078370     
  -48818836.9615090     
  -48821593.0810230     
  -48824362.0550976     
  -48827143.3736184     
  -48829936.5276329     
  -48832741.0093452     
  -48835556.3121105     
  -48838381.9304297     
  -48841217.3599431     
  -48844062.0974248     
  -48846915.6407760     
  -48849777.4890186     
  -48852647.1422882     
  -48855524.1018266     
  -48858407.8699749     
  -48861297.9501650     
  -48864193.8469117     
  -48867095.0658043     
  -48870001.1134973     
  -48872911.4977013     
  -48875825.7271737     
  -48878743.3117082     
  -48881663.7621248     
  -48884586.5902587     
  -48887511.3089496     
  -48890437.4320305     
  -48893364.4743151     
  -48896291.9515863     
  -48899219.3805838     
  -48902146.2789911     
  -48905072.1654226     
  -48907996.5594104     
  -48707221.9015465     
  -48709792.6098461     
  -48712385.8296580     
  -48715001.0016191     
  -48717637.5684537     
  -48720294.9749638     
  -48722972.6680202     
  -48725670.0965519     
  -48728386.7115357     
  -48731121.9659850     
  -48733875.3149387     
  -48736646.2154491     
  -48739434.1265697     
  -48742238.5093426     
  -48745058.8267852     
  -48747894.5438773     
  -48750745.1275466     
  -48753610.0466553     
  -48756488.7719847     
  -48759380.7762208     
  -48762285.5339389     
  -48765202.5215877     
  -48768131.2174735     
  -48771071.1017435     
  -48774021.6563691     
  -48776982.3651286     
  -48779952.7135895     
  -48782932.1890909     
  -48785920.2807246     
  -48788916.4793166     
  -48791920.2774081     
  -48794931.1692355     
  -48797948.6507109     
  -48800972.2194014     
  -48804001.3745086     
  -48807035.6168476     
  -48810074.4488253     
  -48813117.3744187     
  -48816163.8991524     
  -48819213.5300766     
  -48822265.7757436     
  -48825320.1461847     
  -48828376.1528868     
  -48831433.3087683     
  -48834491.1281547     
  -48837549.1267547     
  -48840606.8216347     
  -48843663.7311939     
  -48846719.3751396     
  -48849773.2744610     
  -48639423.7345747     
  -48642134.1890718     
  -48644867.4066961     
  -48647622.8010740     
  -48650399.7887706     
  -48653197.7892760     
  -48656016.2249907     
  -48658854.5212102     
  -48661712.1061080     
  -48664588.4107185     
  -48667482.8689183     
  -48670394.9174072     
  -48673323.9956880     
  -48676269.5460458     
  -48679231.0135261     
  -48682207.8459130     
  -48685199.4937055     
  -48688205.4100942     
  -48691225.0509366     
  -48694257.8747320     
  -48697303.3425958     
  -48700360.9182332     
  -48703430.0679118     
  -48706510.2604347     
  -48709600.9671114     
  -48712701.6617297     
  -48715811.8205263     
  -48718930.9221565     
  -48722058.4476644     
  -48725193.8804514     
  -48728336.7062453     
  -48731486.4130679     
  -48734642.4912028     
  -48737804.4331626     
  -48740971.7336554     
  -48744143.8895510     
  -48747320.3998468     
  -48750500.7656332     
  -48753684.4900582     
  -48756871.0782926     
  -48760060.0374936     
  -48763250.8767689     
  -48766443.1071403     
  -48769636.2415066     
  -48772829.7946070     
  -48776023.2829830     
  -48779216.2249413     
  -48782408.1405156     
  -48785598.5514287     
  -48788786.9810537     
  -48568481.0576578     
  -48571336.8432241     
  -48574215.6098631     
  -48577116.7448089     
  -48580039.6391101     
  -48582983.6876104     
  -48585948.2889279     
  -48588932.8454336     
  -48591936.7632278     
  -48594959.4521154     
  -48598000.3255800     
  -48601058.8007565     
  -48604134.2984030     
  -48607226.2428707     
  -48610334.0620740     
  -48613457.1874580     
  -48616595.0539661     
  -48619747.1000064     
  -48622912.7674163     
  -48626091.5014276     
  -48629282.7506295     
  -48632485.9669312     
  -48635700.6055237     
  -48638926.1248407     
  -48642161.9865187     
  -48645407.6553564     
  -48648662.5992735     
  -48651926.2892682     
  -48655198.1993750     
  -48658477.8066211     
  -48661764.5909823     
  -48665058.0353383     
  -48668357.6254276     
  -48671662.8498019     
  -48674973.1997796     
  -48678288.1693986     
  -48681607.2553696     
  -48684929.9570280     
  -48688255.7762853     
  -48691584.2175810     
  -48694914.7878331     
  -48698246.9963886     
  -48701580.3549736     
  -48704914.3776433     
  -48708248.5807316     
  -48711582.4827994     
  -48714915.6045846     
  -48718247.4689500     
  -48721577.6008320     
  -48724905.5271887     
  -48494250.8149487     
  -48497257.9059722     
  -48500288.1475450     
  -48503340.9012496     
  -48506415.5333930     
  -48509511.4149813     
  -48512627.9216913     
  -48515764.4338414     
  -48518920.3363606     
  -48522095.0187549     
  -48525287.8750731     
  -48528498.3038706     
  -48531725.7081713     
  -48534969.4954289     
  -48538229.0774859     
  -48541503.8705317     
  -48544793.2950593     
  -48548096.7758209     
  -48551413.7417818     
  -48554743.6260740     
  -48558085.8659475     
  -48561439.9027214     
  -48564805.1817340     
  -48568181.1522910     
  -48571567.2676140     
  -48574962.9847870     
  -48578367.7647025     
  -48581781.0720067     
  -48585202.3750438     
  -48588631.1457999     
  -48592066.8598454     
  -48595508.9962772     
  -48598957.0376603     
  -48602410.4699685     
  -48605868.7825243     
  -48609331.4679389     
  -48612798.0220505     
  -48616267.9438636     
  -48619740.7354860     
  -48623215.9020669     
  -48626692.9517337     
  -48630171.3955283     
  -48633650.7473436     
  -48637130.5238590     
  -48640610.2444761     
  -48644089.4312536     
  -48647567.6088422     
  -48651044.3044190     
  -48654519.0476220     
  -48657991.3704840     
  -48416584.9076088     
  -48419749.6645965     
  -48422937.6778168     
  -48426148.2840879     
  -48429380.8259073     
  -48432634.6514171     
  -48435909.1143680     
  -48439203.5740810     
  -48442517.3954063     
  -48445849.9486808     
  -48449200.6096833     
  -48452568.7595883     
  -48455953.7849173     
  -48459355.0774890     
  -48462772.0343674     
  -48466204.0578083     
  -48469650.5552048     
  -48473110.9390303     
  -48476584.6267811     
  -48480071.0409169     
  -48483569.6088002     
  -48487079.7626351     
  -48490600.9394031     
  -48494132.5808001     
  -48497674.1331702     
  -48501225.0474398     
  -48504784.7790499     
  -48508352.7878877     
  -48511928.5382174     
  -48515511.4986100     
  -48519101.1418719     
  -48522696.9449731     
  -48526298.3889746     
  -48529904.9589551     
  -48533516.1439365     
  -48537131.4368092     
  -48540750.3342568     
  -48544372.3366801     
  -48547996.9481201     
  -48551623.6761816     
  -48555252.0319547     
  -48558881.5299374     
  -48562511.6879567     
  -48566142.0270900     
  -48569772.0715854     
  -48573401.3487823     
  -48577029.3890313     
  -48580655.7256142     
  -48584279.8946632     
  -48587901.4350803     
  -48335330.2200849     
  -48338659.3855605     
  -48342011.8330968     
  -48345386.8758139     
  -48348783.8335178     
  -48352202.0326564     
  -48355640.8062723     
  -48359099.4939537     
  -48362577.4417823     
  -48366074.0022796     
  -48369588.5343501     
  -48373120.4032233     
  -48376668.9803926     
  -48380233.6435538     
  -48383813.7765397     
  -48387408.7692544     
  -48391018.0176056     
  -48394640.9234343     
  -48398276.8944442     
  -48401925.3441287     
  -48405585.6916963     
  -48409257.3619953     
  -48412939.7854367     
  -48416632.3979158     
  -48420334.6407324     
  -48424045.9605102     
  -48427765.8091149     
  -48431493.6435710     
  -48435228.9259778     
  -48438971.1234246     
  -48442719.7079041     
  -48446474.1562262     
  -48450233.9499299     
  -48453998.5751949     
  -48457767.5227522     
  -48461540.2877939     
  -48465316.3698832     
  -48469095.2728622     
  -48472876.5047605     
  -48476659.5777025     
  -48480444.0078145     
  -48484229.3151309     
  -48488015.0235007     
  -48491800.6604924     
  -48495585.7572999     
  -48499369.8486470     
  -48503152.4726917     
  -48506933.1709310     
  -48510711.4881042     
  -48514486.9720971     
  -48250328.6584305     
  -48253829.3518172     
  -48257353.2562475     
  -48260899.6624258     
  -48264467.8688095     
  -48268057.1815522     
  -48271666.9144438     
  -48275296.3888485     
  -48278944.9336395     
  -48282611.8851322     
  -48286296.5870134     
  -48289998.3902699     
  -48293716.6531135     
  -48297450.7409047     
  -48301200.0260739     
  -48304963.8880407     
  -48308741.7131315     
  -48312532.8944948     
  -48316336.8320156     
  -48320152.9322270     
  -48323980.6082211     
  -48327819.2795577     
  -48331668.3721726     
  -48335527.3182829     
  -48339395.5562924     
  -48343272.5306949     
  -48347157.6919767     
  -48351050.4965175     
  -48354950.4064908     
  -48358856.8897626     
  -48362769.4197898     
  -48366687.4755169     
  -48370610.5412724     
  -48374538.1066639     
  -48378469.6664732     
  -48382404.7205493     
  -48386342.7737022     
  -48390283.3355948     
  -48394225.9206349     
  -48398170.0478665     
  -48402115.2408603     
  -48406061.0276038     
  -48410006.9403915     
  -48413952.5157133     
  -48417897.2941441     
  -48421840.8202321     
  -48425782.6423869     
  -48429722.3127673     
  -48433659.3871693     
  -48437593.4249131     
  -48161417.2062083     
  -48165096.9172760     
  -48168799.6534371     
  -48172524.6845240     
  -48176271.2892545     
  -48180038.7551597     
  -48183826.3785100     
  -48187633.4642365     
  -48191459.3258519     
  -48195303.2853664     
  -48199164.6732030     
  -48203042.8281089     
  -48206937.0970652     
  -48210846.8351945     
  -48214771.4056655     
  -48218710.1795967     
  -48222662.5359567     
  -48226627.8614638     
  -48230605.5504832     
  -48234595.0049221     
  -48238595.6341240     
  -48242606.8547606     
  -48246628.0907229     
  -48250658.7730099     
  -48254698.3396165     
  -48258746.2354203     
  -48262801.9120667     
  -48266864.8278531     
  -48270934.4476111     
  -48275010.2425892     
  -48279091.6903335     
  -48283178.2745668     
  -48287269.4850682     
  -48291364.8175513     
  -48295463.7735407     
  -48299565.8602495     
  -48303670.5904542     
  -48307777.4823703     
  -48311886.0595269     
  -48315995.8506403     
  -48320106.3894876     
  -48324217.2147797     
  -48328327.8700336     
  -48332437.9034443     
  -48336546.8677568     
  -48340654.3201374     
  -48344759.8220443     
  -48348862.9390988     
  -48352963.2409556     
  -48357060.3011729     
  -48068428.0034469     
  -48072294.5838121     
  -48076183.8690546     
  -48080095.1099877     
  -48084027.5675121     
  -48087980.5125269     
  -48091953.2258372     
  -48095944.9980589     
  -48099955.1295208     
  -48103982.9301631     
  -48108027.7194347     
  -48112088.8261862     
  -48116165.5885619     
  -48120257.3538889     
  -48124363.4785637     
  -48128483.3279368     
  -48132616.2761958     
  -48136761.7062459     
  -48140919.0095885     
  -48145087.5861982     
  -48149266.8443986     
  -48153456.2007354     
  -48157655.0798491     
  -48161862.9143450     
  -48166079.1446630     
  -48170303.2189454     
  -48174534.5929034     
  -48178772.7296828     
  -48183017.0997282     
  -48187267.1806462     
  -48191522.4570680     
  -48195782.4205104     
  -48200046.5692366     
  -48204314.4081151     
  -48208585.4484794     
  -48212859.2079854     
  -48217135.2104690     
  -48221412.9858032     
  -48225692.0697539     
  -48229972.0038353     
  -48234252.3351656     
  -48238532.6163215     
  -48242812.4051922     
  -48247091.2648334     
  -48251368.7633210     
  -48255644.4736043     
  -48259917.9733586     
  -48264188.8448384     
  -48268456.6747297     
  -48272721.0540024     
  -47971188.4541381     
  -47975250.1062310     
  -47979333.9880148     
  -47983439.3334980     
  -47987565.3880520     
  -47991711.4083018     
  -47995876.6620130     
  -48000060.4279769     
  -48004261.9958911     
  -48008480.6662388     
  -48012715.7501646     
  -48016966.5693476     
  -48021232.4558730     
  -48025512.7521001     
  -48029806.8105291     
  -48034113.9936650     
  -48038433.6738801     
  -48042765.2332740     
  -48047108.0635323     
  -48051461.5657827     
  -48055825.1504507     
  -48060198.2371123     
  -48064580.2543460     
  -48068970.6395835     
  -48073368.8389585     
  -48077774.3071544     
  -48082186.5072509     
  -48086604.9105697     
  -48091028.9965183     
  -48095458.2524338     
  -48099892.1734248     
  -48104330.2622134     
  -48108772.0289753     
  -48113216.9911799     
  -48117664.6734296     
  -48122114.6072977     
  -48126566.3311670     
  -48131019.3900664     
  -48135473.3355080     
  -48139927.7253231     
  -48144382.1234982     
  -48148836.1000104     
  -48153289.2306626     
  -48157741.0969177     
  -48162191.2857337     
  -48166639.3893977     
  -48171085.0053599     
  -48175527.7360675     
  -48179967.1887982     
  -48184402.9754943     
  -47869521.3678513     
  -47873786.6307021     
  -47878073.4709047     
  -47882381.1082959     
  -47886708.7754256     
  -47891055.7174242     
  -47895421.1918666     
  -47899804.4686336     
  -47904204.8297700     
  -47908621.5693401     
  -47913053.9932809     
  -47917501.4192523     
  -47921963.1764853     
  -47926438.6056276     
  -47930927.0585871     
  -47935427.8983740     
  -47939940.4989394     
  -47944464.2450141     
  -47948998.5319437     
  -47953542.7655231     
  -47958096.3618293     
  -47962658.7470524     
  -47967229.3573254     
  -47971807.6385524     
  -47976393.0462363     
  -47980985.0453038     
  -47985583.1099312     
  -47990186.7233675     
  -47994795.3777574     
  -47999408.5739633     
  -48004025.8213862     
  -48008646.6377857     
  -48013270.5491002     
  -48017897.0892647     
  -48022525.8000299     
  -48027156.2307793     
  -48031787.9383464     
  -48036420.4868313     
  -48041053.4474170     
  -48045686.3981851     
  -48050318.9239311     
  -48054950.6159799     
  -48059581.0720004     
  -48064209.8958201     
  -48068836.6972400     
  -48073461.0918485     
  -48078082.7008358     
  -48082701.1508080     
  -48087316.0736012     
  -48091927.1060953     
  -47763245.1411900     
  -47767722.8723299     
  -47772221.3275886     
  -47776739.7157425     
  -47781277.2597059     
  -47785833.1963723     
  -47790406.7764519     
  -47794997.2643068     
  -47799603.9377833     
  -47804226.0880416     
  -47808863.0193830     
  -47813514.0490744     
  -47818178.5071713     
  -47822855.7363383     
  -47827545.0916669     
  -47832245.9404928     
  -47836957.6622100     
  -47841679.6480842     
  -47846411.3010639     
  -47851152.0355903     
  -47855901.2774056     
  -47860658.4633604     
  -47865423.0412191     
  -47870194.4694647     
  -47874972.2171021     
  -47879755.7634607     
  -47884544.5979960     
  -47889338.2200897     
  -47894136.1388499     
  -47898937.8729098     
  -47903742.9502264     
  -47908550.9078773     
  -47913361.2918585     
  -47918173.6568807     
  -47922987.5661650     
  -47927802.5912387     
  -47932618.3117305     
  -47937434.3151651     
  -47942250.1967582     
  -47947065.5592101     
  -47951880.0125005     
  -47956693.1736817     
  -47961504.6666729     
  -47966314.1220533     
  -47971121.1768563     
  -47975925.4743626     
  -47980726.6638938     
  -47985524.4006059     
  -47990318.3452832     
  -47995108.1641318     
  -47652173.9850049     
  -47656873.3377387     
  -47661592.3351072     
  -47666330.1784779     
  -47671086.0848543     
  -47675859.2866870     
  -47680649.0316820     
  -47685454.5826068     
  -47690275.2170939     
  -47695110.2274415     
  -47699958.9204121     
  -47704820.6170293     
  -47709694.6523727     
  -47714580.3753696     
  -47719477.1485869     
  -47724384.3480194     
  -47729301.3628780     
  -47734227.5953755     
  -47739162.4605111     
  -47744105.3858545     
  -47749055.8113272     
  -47754013.1889841     
  -47758976.9827933     
  -47763946.6684153     
  -47768921.7329807     
  -47773901.6748680     
  -47778886.0034798     
  -47783874.2390188     
  -47788865.9122627     
  -47793860.5643394     
  -47798857.7465005     
  -47803857.0198954     
  -47808857.9553445     
  -47813860.1331119     
  -47818863.1426783     
  -47823866.5825131     
  -47828870.0598466     
  -47833873.1904421     
  -47838875.5983678     
  -47843876.9157681     
  -47848876.7826356     
  -47853874.8465830     
  -47858870.7626144     
  -47863864.1928971     
  -47868854.8065336     
  -47873842.2793334     
  -47878826.2935850     
  -47883806.5378280     
  -47888782.7066260     
  -47893754.5003384     
  -47536118.2035208     
  -47541048.5987931     
  -47545997.3059620     
  -47550963.5232426     
  -47555946.4660520     
  -47560945.3667887     
  -47565959.4746074     
  -47570988.0551935     
  -47576030.3905342     
  -47581085.7786880     
  -47586153.5335524     
  -47591232.9846291     
  -47596323.4767884     
  -47601424.3700314     
  -47606535.0392507     
  -47611654.8739904     
  -47616783.2782036     
  -47621919.6700104     
  -47627063.4814530     
  -47632214.1582511     
  -47637371.1595559     
  -47642533.9577030     
  -47647702.0379655     
  -47652874.8983048     
  -47658052.0491224     
  -47663233.0130102     
  -47668417.3245005     
  -47673604.5298159     
  -47678794.1866182     
  -47683985.8637576     
  -47689179.1410212     
  -47694373.6088817     
  -47699568.8682455     
  -47704764.5302008     
  -47709960.2157657     
  -47715155.5556368     
  -47720350.1899366     
  -47725543.7679617     
  -47730735.9479314     
  -47735926.3967354     
  -47741114.7896829     
  -47746300.8102503     
  -47751484.1498311     
  -47756664.5074840     
  -47761841.5896825     
  -47767015.1100645     
  -47772184.7891820     
  -47777350.3542515     
  -47782511.5389040     
  -47787668.0829366     
  -47414884.5318052     
  -47420055.6238625     
  -47425243.4131771     
  -47430447.0997360     
  -47435665.9023582     
  -47440899.0584366     
  -47446145.8236782     
  -47451405.4718427     
  -47456677.2944794     
  -47461960.6006620     
  -47467254.7167221     
  -47472558.9859817     
  -47477872.7684837     
  -47483195.4407216     
  -47488526.3953687     
  -47493865.0410049     
  -47499210.8018439     
  -47504563.1174593     
  -47509921.4425095     
  -47515285.2464626     
  -47520654.0133203     
  -47526027.2413415     
  -47531404.4427656     
  -47536785.1435352     
  -47542168.8830187     
  -47547555.2137326     
  -47552943.7010640     
  -47558333.9229919     
  -47563725.4698100     
  -47569117.9438484     
  -47574510.9591953     
  -47579904.1414200     
  -47585297.1272940     
  -47590689.5645142     
  -47596081.1114252     
  -47601471.4367420     
  -47606860.2192734     
  -47612247.1476452     
  -47617631.9200234     
  -47623014.2438393     
  -47628393.8355126     
  -47633770.4201771     
  -47639143.7314056     
  -47644513.5109353     
  -47649879.5083942     
  -47655241.4810273     
  -47660599.1934239     
  -47665952.4172449     
  -47671300.9309510     
  -47676644.5195307     
  -47288276.5382998     
  -47293698.1733446     
  -47299134.5788464     
  -47304584.9622223     
  -47310048.5514045     
  -47315524.5945430     
  -47321012.3597078     
  -47326511.1345889     
  -47332020.2261957     
  -47337538.9605544     
  -47343066.6824056     
  -47348602.7549003     
  -47354146.5592956     
  -47359697.4946486     
  -47365254.9775114     
  -47370818.4416248     
  -47376387.3376108     
  -47381961.1326662     
  -47387539.3102554     
  -47393121.3698023     
  -47398706.8263835     
  -47404295.2104202     
  -47409886.0673708     
  -47415478.9574232     
  -47421073.4551879     
  -47426669.1493901     
  -47432265.6425636     
  -47437862.5507432     
  -47443459.5031591     
  -47449056.1419303     
  -47454652.1217592     
  -47460247.1096266     
  -47465840.7844865     
  -47471432.8369622     
  -47477022.9690423     
  -47482610.8937774     
  -47488196.3349779     
  -47493779.0269111     
  -47499358.7140004     
  -47504935.1505239     
  -47510508.1003146     
  -47516077.3364600     
  -47521642.6410039     
  -47527203.8046477     
  -47532760.6264525     
  -47538312.9135427     
  -47543860.4808092     
  -47549403.1506137     
  -47554940.7524946     
  -47560473.1228715     
  -47156095.0994537     
  -47161777.2664963     
  -47167471.9332321     
  -47173178.3209604     
  -47178895.6732213     
  -47184623.2554578     
  -47190360.3546751     
  -47196106.2791005     
  -47201860.3578420     
  -47207621.9405468     
  -47213390.3970597     
  -47219165.1170807     
  -47224945.5098230     
  -47230731.0036707     
  -47236521.0458363     
  -47242315.1020188     
  -47248112.6560617     
  -47253913.2096112     
  -47259716.2817748     
  -47265521.4087805     
  -47271328.1436354     
  -47277136.0557866     
  -47282944.7307806     
  -47288753.7699249     
  -47294562.7899494     
  -47300371.4226682     
  -47306179.3146429     
  -47311986.1268462     
  -47317791.5343259     
  -47323595.2258701     
  -47329396.9036733     
  -47335196.2830029     
  -47340993.0918668     
  -47346787.0706816     
  -47352577.9719422     
  -47358365.5598917     
  -47364149.6101924     
  -47369929.9095977     
  -47375706.2556250     
  -47381478.4562292     
  -47387246.3294778     
  -47393009.7032258     
  -47398768.4147924     
  -47404522.3106388     
  -47410271.2460458     
  -47416015.0847932     
  -47421753.6988402     
  -47427486.9680059     
  -47433214.7796519     
  -47438937.0283641     
  -47018138.9538341     
  -47024091.7269770     
  -47030054.3518457     
  -47036026.0709257     
  -47042006.1506994     
  -47047993.8812630     
  -47053988.5759415     
  -47059989.5709053     
  -47065996.2247863     
  -47072007.9182949     
  -47078024.0538369     
  -47084044.0551311     
  -47090067.3668278     
  -47096093.4541276     
  -47102121.8024010     
  -47108151.9168087     
  -47114183.3219235     
  -47120215.5613516     
  -47126248.1973562     
  -47132280.8104819     
  -47138312.9991792     
  -47144344.3794309     
  -47150374.5843798     
  -47156403.2639568     
  -47162430.0845103     
  -47168454.7284375     
  -47174476.8938158     
  -47180496.2940363     
  -47186512.6574381     
  -47192525.7269439     
  -47198535.2596970     
  -47204541.0266992     
  -47210542.8124503     
  -47216540.4145889     
  -47222533.6435338     
  -47228522.3221279     
  -47234506.2852820     
  -47240485.3796207     
  -47246459.4631292     
  -47252428.4048015     
  -47258392.0842898     
  -47264350.3915548     
  -47270303.2265180     
  -47276250.4987139     
  -47282192.1269446     
  -47288128.0389353     
  -47294058.1709899     
  -47299982.4676494     
  -47305900.8813500     
  -47311813.3720831     
  -46874205.3434313     
  -46880438.8148741     
  -46886679.0783387     
  -46892925.4057061     
  -46899177.0946234     
  -46905433.4680722     
  -46911693.8739382     
  -46917957.6845815     
  -46924224.2964092     
  -46930493.1294476     
  -46936763.6269173     
  -46943035.2548086     
  -46949307.5014590     
  -46955579.8771316     
  -46961851.9135954     
  -46968123.1637075     
  -46974393.2009959     
  -46980661.6192450     
  -46986928.0320819     
  -46993192.0725654     
  -46999453.3927755     
  -47005711.6634058     
  -47011966.5733564     
  -47018217.8293302     
  -47024465.1554291     
  -47030708.2927532     
  -47036946.9990018     
  -47043181.0480752     
  -47049410.2296792     
  -47055634.3489308     
  -47061853.2259663     
  -47068066.6955502     
  -47074274.6066864     
  -47080476.8222312     
  -47086673.2185078     
  -47092863.6849221     
  -47099048.1235812     
  -47105226.4489121     
  -47111398.5872832     
  -47117564.4766269     
  -47123724.0660635     
  -47129877.3155273     
  -47136024.1953937     
  -47142164.6861075     
  -47148298.7778139     
  -47154426.4699888     
  -47160547.7710730     
  -47166662.6981054     
  -47172771.2763595     
  -47178873.5389796     
  -46724090.7502406     
  -46730614.9533695     
  -46737142.4414405     
  -46743672.5248885     
  -46750204.5416766     
  -46756737.8568152     
  -46763271.8618834     
  -46769805.9745528     
  -46776339.6381131     
  -46782872.3210003     
  -46789403.5163272     
  -46795932.7414159     
  -46802459.5373334     
  -46808983.4684286     
  -46815504.1218727     
  -46822021.1072014     
  -46828534.0558600     
  -46835042.6207502     
  -46841546.4757807     
  -46848045.3154186     
  -46854538.8542451     
  -46861026.8265118     
  -46867508.9857008     
  -46873985.1040869     
  -46880454.9723018     
  -46886918.3989014     
  -46893375.2099347     
  -46899825.2485159     
  -46906268.3743980     
  -46912704.4635494     
  -46919133.4077328     
  -46925555.1140854     
  -46931969.5047024     
  -46938376.5162225     
  -46944776.0994147     
  -46951168.2187683     
  -46957552.8520845     
  -46963929.9900700     
  -46970299.6359321     
  -46976661.8049772     
  -46983016.5242096     
  -46989363.8319330     
  -46995703.7773536     
  -47002036.4201852     
  -47008361.8302555     
  -47014680.0871147     
  -47020991.2796453     
  -47027295.5056735     
  -47033592.8715823     
  -47039883.4919261     
  -46567591.7365809     
  -46574416.5586171     
  -46581240.6746196     
  -46588063.4437181     
  -46594884.2543035     
  -46601702.5234974     
  -46608517.6966235     
  -46615329.2466838     
  -46622136.6738371     
  -46628939.5048816     
  -46635737.2927404     
  -46642529.6159507     
  -46649316.0781570     
  -46656096.3076060     
  -46662869.9566472     
  -46669636.7012348     
  -46676396.2404346     
  -46683148.2959329     
  -46689892.6115501     
  -46696628.9527565     
  -46703357.1061920     
  -46710076.8791887     
  -46716788.0992971     
  -46723490.6138153     
  -46730184.2893211     
  -46736869.0112076     
  -46743544.6832215     
  -46750211.2270051     
  -46756868.5816399     
  -46763516.7031948     
  -46770155.5642758     
  -46776785.1535792     
  -46783405.4754475     
  -46790016.5494274     
  -46796618.4098315     
  -46803211.1053016     
  -46809794.6983747     
  -46816369.2650521     
  -46822934.8943703     
  -46829491.6879737     
  -46836039.7596912     
  -46842579.2351131     
  -46849110.2511715     
  -46855632.9557223     
  -46862147.5071286     
  -46868654.0738475     
  -46875152.8340170     
  -46881643.9750462     
  -46888127.6932060     
  -46894604.1932228     
  -46404505.8980189     
  -46411640.9818364     
  -46418770.8476106     
  -46425894.9143093     
  -46433012.6318421     
  -46440123.4804779     
  -46447226.9702678     
  -46454322.6404719     
  -46461410.0589916     
  -46468488.8218056     
  -46475558.5524116     
  -46482618.9012716     
  -46489669.5452621     
  -46496710.1871292     
  -46503740.5549478     
  -46510760.4015849     
  -46517769.5041681     
  -46524767.6635577     
  -46531754.7038237     
  -46538730.4717262     
  -46545694.8362009     
  -46552647.6878479     
  -46559588.9384253     
  -46566518.5203459     
  -46573436.3861787     
  -46580342.5081535     
  -46587236.8776696     
  -46594119.5048082     
  -46600990.4178483     
  -46607849.6627865     
  -46614697.3028595     
  -46621533.4180705     
  -46628358.1047193     
  -46635171.4749344     
  -46641973.6562096     
  -46648764.7909428     
  -46655545.0359778     
  -46662314.5621495     
  -46669073.5538313     
  -46675822.2084855     
  -46682560.7362163     
  -46689289.3593255     
  -46696008.3118701     
  -46702717.8392228     
  -46709418.1976345     
  -46716109.6537993     
  -46722792.4844209     
  -46729466.9757818     
  -46736133.4233141     
  -46742792.1311718     
  -46234632.9382084     
  -46242087.5731045     
  -46249531.9194564     
  -46256965.4682212     
  -46264387.7428976     
  -46271798.2988929     
  -46279196.7228968     
  -46286582.6322607     
  -46293955.6743829     
  -46301315.5261004     
  -46308661.8930860     
  -46315994.5092515     
  -46323313.1361567     
  -46330617.5624238     
  -46337907.6031576     
  -46345183.0993715     
  -46352443.9174181     
  -46359689.9484262     
  -46366921.1077420     
  -46374137.3343766     
  -46381338.5904575     
  -46388524.8606860     
  -46395696.1517984     
  -46402852.4920336     
  -46409993.9306035     
  -46417120.5371697     
  -46424232.4013233     
  -46431329.6320703     
  -46438412.3573205     
  -46445480.7233804     
  -46452534.8944512     
  -46459575.0521299     
  -46466601.3949143     
  -46473614.1377120     
  -46480613.5113535     
  -46487599.7621074     
  -46494573.1512008     
  -46501533.9543418     
  -46508482.4612454     
  -46515418.9751629     
  -46522343.8124139     
  -46529257.3019213     
  -46536159.7847490     
  -46543051.6136425     
  -46549933.1525712     
  -46556804.7762744     
  -46563666.8698087     
  -46570519.8280974     
  -46577364.0554831     
  -46584199.9652811     
  -46057775.8754526     
  -46065558.8768616     
  -46073325.9232826     
  -46081076.5908056     
  -46088810.4895529     
  -46096527.2629977     
  -46104226.5872894     
  -46111908.1705869     
  -46119571.7523995     
  -46127217.1029345     
  -46134844.0224529     
  -46142452.3406317     
  -46150041.9159331     
  -46157612.6349810     
  -46165164.4119437     
  -46172697.1879239     
  -46180210.9303548     
  -46187705.6324026     
  -46195181.3123757     
  -46202638.0131390     
  -46210075.8015358     
  -46217494.7678143     
  -46224895.0250601     
  -46232276.7086351     
  -46239639.9756209     
  -46246985.0042680     
  -46254311.9934506     
  -46261621.1621257     
  -46268912.7487982     
  -46276187.0109896     
  -46283444.2247126     
  -46290684.6839493     
  -46297908.7001348     
  -46305116.6016439     
  -46312308.7332832     
  -46319485.4557861     
  -46326647.1453127     
  -46333794.1929526     
  -46340927.0042316     
  -46348045.9986221     
  -46355151.6090568     
  -46362244.2814448     
  -46369324.4741921     
  -46376392.6577236     
  -46383449.3140090     
  -46390494.9360909     
  -46397530.0276150     
  -46404555.1023633     
  -46411570.6837893     
  -46418577.3045552     
  -45873742.3913893     
  -45881861.9697657     
  -45889959.2936634     
  -45898034.0384059     
  -45906085.9147010     
  -45914114.6679126     
  -45922120.0773414     
  -45930101.9555140     
  -45938060.1474820     
  -45945994.5301294     
  -45953905.0114883     
  -45961791.5300631     
  -45969654.0541636     
  -45977492.5812456     
  -45985307.1372592     
  -45993097.7760060     
  -46000864.5785026     
  -46008607.6523522     
  -46016327.1311241     
  -46024023.1737386     
  -46031695.9638611     
  -46039345.7093012     
  -46046972.6414193     
  -46054577.0145393     
  -46062159.1053682     
  -46069719.2124212     
  -46077257.6554531     
  -46084774.7748955     
  -46092270.9312996     
  -46099746.5047846     
  -46107201.8944911     
  -46114637.5180404     
  -46122053.8109978     
  -46129451.2263414     
  -46136830.2339356     
  -46144191.3200088     
  -46151534.9866352     
  -46158861.7512214     
  -46166172.1459969     
  -46173466.7175076     
  -46180746.0261141     
  -46188010.6454928     
  -46195261.1621406     
  -46202498.1748822     
  -46209722.2943815     
  -46216934.1426550     
  -46224134.3525879     
  -46231323.5674528     
  -46238502.4404313     
  -46245671.6341367     
  -45682346.3328974     
  -45690809.9522572     
  -45699244.3481917     
  -45707649.3102553     
  -45716024.6645696     
  -45724370.2730520     
  -45732686.0326551     
  -45740971.8746165     
  -45749227.7637192     
  -45757453.6975624     
  -45765649.7058411     
  -45773815.8496369     
  -45781952.2207176     
  -45790058.9408457     
  -45798136.1610969     
  -45806184.0611869     
  -45814202.8488072     
  -45822192.7589693     
  -45830154.0533570     
  -45838087.0196873     
  -45845991.9710787     
  -45853869.2454275     
  -45861719.2047916     
  -45869542.2347813     
  -45877338.7439578     
  -45885109.1632381     
  -45892853.9453068     
  -45900573.5640343     
  -45908268.5139019     
  -45915939.3094320     
  -45923586.4846254     
  -45931210.5924034     
  -45938812.2040560     
  -45946391.9086955     
  -45953950.3127147     
  -45961488.0392507     
  -45969005.7276530     
  -45976504.0329566     
  -45983983.6253592     
  -45991445.1897025     
  -45998889.4249579     
  -46006317.0437156     
  -46013728.7716773     
  -46021125.3471527     
  -46028507.5205590     
  -46035876.0539229     
  -46043231.7203863     
  -46050575.3037142     
  -46057907.5978049     
  -46065229.4062024     
  -45483409.3791949     
  -45492223.6060861     
  -45501000.9357666     
  -45509741.2878306     
  -45518444.6194233     
  -45527110.9244318     
  -45535740.2326880     
  -45544332.6091842     
  -45552888.1532998     
  -45561406.9980400     
  -45569889.3092849     
  -45578335.2850509     
  -45586745.1547617     
  -45595119.1785298     
  -45603457.6464494     
  -45611760.8778977     
  -45620029.2208471     
  -45628263.0511863     
  -45636462.7720513     
  -45644628.8131643     
  -45652761.6301827     
  -45660861.7040559     
  -45668929.5403906     
  -45676965.6688240     
  -45684970.6424057     
  -45692945.0369865     
  -45700889.4506142     
  -45708804.5029380     
  -45716690.8346190     
  -45724549.1067473     
  -45732380.0002660     
  -45740184.2154018     
  -45747962.4711010     
  -45755715.5044720     
  -45763444.0702330     
  -45771148.9401654     
  -45778830.9025725     
  -45786490.7617427     
  -45794129.3374180     
  -45801747.4642669     
  -45809345.9913613     
  -45816925.7816580     
  -45824487.7114835     
  -45832032.6700230     
  -45839561.5588121     
  -45847075.2912326     
  -45854574.7920105     
  -45862060.9967172     
  -45869534.8512724     
  -45876997.3114506     
  -45276762.8872031     
  -45285933.2311557     
  -45295058.2652098     
  -45304138.0555077     
  -45313172.7065001     
  -45322162.3601055     
  -45331107.1948835     
  -45340007.4252217     
  -45348863.3005351     
  -45357675.1044786     
  -45366443.1541719     
  -45375167.7994364     
  -45383849.4220435     
  -45392488.4349756     
  -45401085.2816972     
  -45409640.4354371     
  -45418154.3984822     
  -45426627.7014809     
  -45435060.9027567     
  -45443454.5876317     
  -45451809.3677606     
  -45460125.8804725     
  -45468404.7881233     
  -45476646.7774563     
  -45484852.5589713     
  -45493022.8663022     
  -45501158.4556030     
  -45509260.1049414     
  -45517328.6136998     
  -45525364.8019845     
  -45533369.5100407     
  -45541343.5976758     
  -45549287.9436887     
  -45557203.4453048     
  -45565091.0176188     
  -45572951.5930415     
  -45580786.1207541     
  -45588595.5661661     
  -45596380.9103798     
  -45604143.1496590     
  -45611883.2949023     
  -45619602.3711209     
  -45627301.4169209     
  -45634981.4839891     
  -45642643.6365818     
  -45650288.9510185     
  -45657918.5151773     
  -45665533.4279937     
  -45673134.7989619     
  -45680723.7476384     
  -45062249.9296476     
  -45071780.6764143     
  -45081256.9291731     
  -45090678.9176844     
  -45100046.9105240     
  -45109361.2142190     
  -45118622.1723990     
  -45127830.1649611     
  -45136985.6072498     
  -45146088.9492500     
  -45155140.6747935     
  -45164141.3007793     
  -45173091.3764054     
  -45181991.4824144     
  -45190842.2303501     
  -45199644.2618266     
  -45208398.2478089     
  -45217104.8879044     
  -45225764.9096655     
  -45234379.0679026     
  -45242948.1440086     
  -45251472.9452917     
  -45259954.3043195     
  -45268393.0782723     
  -45276790.1483051     
  -45285146.4189194     
  -45293462.8173435     
  -45301740.2929211     
  -45309979.8165081     
  -45318182.3798781     
  -45326348.9951346     
  -45334480.6941312     
  -45342578.5278992     
  -45350643.5660812     
  -45358676.8963725     
  -45366679.6239683     
  -45374652.8710165     
  -45382597.7760775     
  -45390515.4935886     
  -45398407.1933338     
  -45406274.0599194     
  -45414117.2922530     
  -45421938.1030281     
  -45429737.7182122     
  -45437517.3765391     
  -45445278.3290040     
  -45453021.8383633     
  -45460749.1786358     
  -45468461.6346076     
  -45476160.5013387     
  -44839727.5421670     
  -44849621.5812717     
  -44859451.1399832     
  -44869216.6291504     
  -44878918.4986760     
  -44888557.2366388     
  -44898133.3684297     
  -44907647.4559045     
  -44917100.0965509     
  -44926491.9226701     
  -44935823.6005730     
  -44945095.8297898     
  -44954309.3422931     
  -44963464.9017346     
  -44972563.3026940     
  -44981605.3699407     
  -44990591.9577082     
  -44999523.9489793     
  -45008402.2547838     
  -45017227.8135074     
  -45026001.5902109     
  -45034724.5759613     
  -45043397.7871723     
  -45052022.2649555     
  -45060599.0744820     
  -45069129.3043522     
  -45077614.0659767     
  -45086054.4929649     
  -45094451.7405234     
  -45102806.9848625     
  -45111121.4226108     
  -45119396.2702386     
  -45127632.7634880     
  -45135832.1568115     
  -45143995.7228170     
  -45152124.7517200     
  -45160220.5508024     
  -45168284.4438779     
  -45176317.7707627     
  -45184321.8867528     
  -45192298.1621059     
  -45200247.9815292     
  -45208172.7436711     
  -45216073.8606183     
  -45223952.7573968     
  -45231810.8714758     
  -45239649.6522764     
  -45247470.5606831     
  -45255275.0685572     
  -45263064.6582540     
  -44609069.1979984     
  -44619327.8462174     
  -44629511.1961640     
  -44639619.8574667     
  -44649654.4787692     
  -44659615.7468461     
  -44669504.3857351     
  -44679321.1558845     
  -44689066.8533169     
  -44698742.3088070     
  -44708348.3870745     
  -44717885.9859915     
  -44727356.0358033     
  -44736759.4983632     
  -44746097.3663805     
  -44755370.6626810     
  -44764580.4394813     
  -44773727.7776744     
  -44782813.7861276     
  -44791839.6009928     
  -44800806.3850276     
  -44809715.3269283     
  -44818567.6406734     
  -44827364.5648785     
  -44836107.3621607     
  -44844797.3185142     
  -44853435.7426954     
  -44862023.9656180     
  -44870563.3397567     
  -44879055.2385616     
  -44887501.0558797     
  -44895902.2053869     
  -44904260.1200268     
  -44912576.2514583     
  -44920852.0695114     
  -44929089.0616496     
  -44937288.7324399     
  -44945452.6030302     
  -44953582.2106329     
  -44961679.1080140     
  -44969744.8629901     
  -44977781.0579289     
  -44985789.2892566     
  -44993771.1669690     
  -45001728.3141487     
  -45009662.3664847     
  -45017574.9717972     
  -45025467.7895657     
  -45033342.4904593     
  -45041200.7558711     
  -44370167.5317394     
  -44380790.3540843     
  -44391326.2009738     
  -44401775.8985403     
  -44412140.3116147     
  -44422420.3428467     
  -44432616.9318406     
  -44442731.0543077     
  -44452763.7212341     
  -44462715.9780626     
  -44472588.9038904     
  -44482383.6106805     
  -44492101.2424872     
  -44501742.9746960     
  -44511310.0132758     
  -44520803.5940455     
  -44530224.9819525     
  -44539575.4703648     
  -44548856.3803747     
  -44558069.0601151     
  -44567214.8840877     
  -44576295.2525033     
  -44585311.5906324     
  -44594265.3481688     
  -44603157.9986024     
  -44611991.0386045     
  -44620765.9874224     
  -44629484.3862849     
  -44638147.7978178     
  -44646757.8054697     
  -44655316.0129466     
  -44663824.0436565     
  -44672283.5401627     
  -44680696.1636468     
  -44689063.5933788     
  -44697387.5261970     
  -44705669.6759949     
  -44713911.7732161     
  -44722115.5643569     
  -44730282.8114750     
  -44738415.2917063     
  -44746514.7967868     
  -44754583.1325811     
  -44762622.1186162     
  -44770633.5876214     
  -44778619.3850716     
  -44786581.3687366     
  -44794521.4082328     
  -44802441.3845798     
  -44810343.1897597     
  -44122937.3373821     
  -44133921.9668594     
  -44144807.0575057     
  -44155593.6695294     
  -44166282.9012570     
  -44176875.8882676     
  -44187373.8025411     
  -44197777.8516230     
  -44208089.2778036     
  -44218309.3573116     
  -44228439.3995225     
  -44238480.7461801     
  -44248434.7706329     
  -44258302.8770832     
  -44268086.4998499     
  -44277787.1026442     
  -44287406.1778586     
  -44296945.2458685     
  -44306405.8543455     
  -44315789.5775851     
  -44325098.0158447     
  -44334332.7946946     
  -44343495.5643806     
  -44352587.9991990     
  -44361611.7968822     
  -44370568.6779964     
  -44379460.3853507     
  -44388288.6834168     
  -44397055.3577592     
  -44405762.2144778     
  -44414411.0796589     
  -44423003.7988381     
  -44431542.2364724     
  -44440028.2754221     
  -44448463.8164432     
  -44456850.7776876     
  -44465191.0942140     
  -44473486.7175063     
  -44481739.6150007     
  -44489951.7696214     
  -44498125.1793236     
  -44506261.8566441     
  -44514363.8282587     
  -44522433.1345463     
  -44530471.8291596     
  -44538481.9786010     
  -44546465.6618043     
  -44554424.9697208     
  -44562362.0049104     
  -44570278.8811359     
  -43867318.8704296     
  -43878660.8272070     
  -43889889.7688056     
  -43901007.0067669     
  -43912013.8899387     
  -43922911.8036291     
  -43933702.1687757     
  -43944386.4411285     
  -43954966.1104461     
  -43965442.6997059     
  -43975817.7643273     
  -43986092.8914084     
  -43996269.6989754     
  -44006349.8352452     
  -44016334.9779009     
  -44026226.8333798     
  -44036027.1361743     
  -44045737.6481457     
  -44055360.1578494     
  -44064896.4798749     
  -44074348.4541956     
  -44083717.9455330     
  -44093006.8427324     
  -44102217.0581508     
  -44111350.5270581     
  -44120409.2070487     
  -44129395.0774669     
  -44138310.1388434     
  -44147156.4123436     
  -44155935.9392284     
  -44164650.7803261     
  -44173303.0155157     
  -44181894.7432219     
  -44190428.0799212     
  -44198905.1596588     
  -44207328.1335761     
  -44215699.1694490     
  -44224020.4512365     
  -44232294.1786385     
  -44240522.5666641     
  -44248707.8452088     
  -44256852.2586404     
  -44264958.0653935     
  -44273027.5375724     
  -44281062.9605618     
  -44289066.6326438     
  -44297040.8646225     
  -44304987.9794546     
  -44312910.3118855     
  -44320810.2080908     
  -43603281.4895886     
  -43614973.9990702     
  -43626539.0761719     
  -43637978.3005994     
  -43649293.2883697     
  -43660485.6909911     
  -43671557.1946568     
  -43682509.5194481     
  -43693344.4185511     
  -43704063.6774849     
  -43714669.1133407     
  -43725162.5740339     
  -43735545.9375674     
  -43745821.1113071     
  -43755990.0312695     
  -43766054.6614211     
  -43776016.9929906     
  -43785879.0437933     
  -43795642.8575673     
  -43805310.5033235     
  -43814884.0747073     
  -43824365.6893736     
  -43833757.4883747     
  -43843061.6355607     
  -43852280.3169943     
  -43861415.7403767     
  -43870470.1344886     
  -43879445.7486435     
  -43888344.8521545     
  -43897169.7338142     
  -43905922.7013881     
  -43914606.0811208     
  -43923222.2172555     
  -43931773.4715667     
  -43940262.2229053     
  -43948690.8667569     
  -43957061.8148118     
  -43965377.4945485     
  -43973640.3488285     
  -43981852.8355024     
  -43990017.4270285     
  -43998136.6101017     
  -44006212.8852934     
  -44014248.7667013     
  -44022246.7816100     
  -44030209.4701594     
  -44038139.3850236     
  -44046039.0910962     
  -44053911.1651847     
  -44061758.1957116     
  -43330827.6804107     
  -43342861.4879334     
  -43354752.4743601     
  -43366502.5039352     
  -43378113.4761107     
  -43389587.3247529     
  -43400926.0173575     
  -43412131.5542733     
  -43423205.9679359     
  -43434151.3221105     
  -43444969.7111436     
  -43455663.2592260     
  -43466234.1196647     
  -43476684.4741667     
  -43487016.5321329     
  -43497232.5299636     
  -43507334.7303758     
  -43517325.4217320     
  -43527206.9173823     
  -43536981.5550180     
  -43546651.6960398     
  -43556219.7249377     
  -43565688.0486858     
  -43575059.0961507     
  -43584335.3175144     
  -43593519.1837111     
  -43602613.1858797     
  -43611619.8348303     
  -43620541.6605268     
  -43629381.2115844     
  -43638141.0547818     
  -43646823.7745904     
  -43655431.9727178     
  -43663968.2676672     
  -43672435.2943130     
  -43680835.7034905     
  -43689172.1616023     
  -43697447.3502394     
  -43705663.9658169     
  -43713824.7192253     
  -43721932.3354951     
  -43729989.5534772     
  -43737999.1255356     
  -43745963.8172540     
  -43753886.4071556     
  -43761769.6864348     
  -43769616.4587010     
  -43777429.5397331     
  -43785211.7572455     
  -43792965.9506627     
  -43049997.5114080     
  -43062360.6886148     
  -43074564.6488233     
  -43086611.5568378     
  -43098503.6115563     
  -43110243.0451966     
  -43121832.1225256     
  -43133273.1400944     
  -43144568.4254792     
  -43155720.3365279     
  -43166731.2606146     
  -43177603.6139006     
  -43188339.8406048     
  -43198942.4122823     
  -43209413.8271130     
  -43219756.6092002     
  -43229973.3078815     
  -43240066.4970493     
  -43250038.7744860     
  -43259892.7612102     
  -43269631.1008386     
  -43279256.4589604     
  -43288771.5225281     
  -43298178.9992627     
  -43307481.6170758     
  -43316682.1235073     
  -43325783.2851815     
  -43334787.8872790     
  -43343698.7330279     
  -43352518.6432122     
  -43361250.4556992     
  -43369897.0249856     
  -43378461.2217625     
  -43386945.9324995     
  -43395354.0590484     
  -43403688.5182656     
  -43411952.2416545     
  -43420148.1750264     
  -43428279.2781816     
  -43436348.5246079     
  -43444358.9012000     
  -43452313.4079951     
  -43460215.0579283     
  -43468066.8766046     
  -43475871.9020891     
  -43483633.1847129     
  -43491353.7868958     
  -43499036.7829839     
  -43506685.2591024     
  -43514302.3130220     
  -42760873.5826261     
  -42773551.3167650     
  -42786052.3872999     
  -42798379.2755535     
  -42810534.4959445     
  -42822520.5952154     
  -42834340.1516589     
  -42845995.7743450     
  -42857490.1023498     
  -42868825.8039866     
  -42880005.5760407     
  -42891032.1430097     
  -42901908.2563493     
  -42912636.6937261     
  -42923220.2582800     
  -42933661.7778941     
  -42943964.1044776     
  -42954130.1132580     
  -42964162.7020882     
  -42974064.7907659     
  -42983839.3203691     
  -42993489.2526069     
  -43003017.5691867     
  -43012427.2712007     
  -43021721.3785290     
  -43030902.9292640     
  -43039974.9791543     
  -43048940.6010689     
  -43057802.8844846     
  -43066564.9349942     
  -43075229.8738385     
  -43083800.8374609     
  -43092280.9770864     
  -43100673.4583239     
  -43108981.4607937     
  -43117208.1777790     
  -43125356.8159025     
  -43133430.5948276     
  -43141432.7469844     
  -43149366.5173206     
  -43157235.1630770     
  -43165041.9535875     
  -43172790.1701026     
  -43180483.1056370     
  -43188124.0648406     
  -43195716.3638916     
  -43203263.3304124     
  -43210768.3034054     
  -43218234.6332114     
  -43225665.6814856     
  -42463586.5372453     
  -42476560.8893804     
  -42489340.0257410     
  -42501926.7606197     
  -42514323.9406772     
  -42526534.4441410     
  -42538561.1799976     
  -42550407.0871801     
  -42562075.1337514     
  -42573568.3160876     
  -42584889.6580597     
  -42596042.2102191     
  -42607029.0489855     
  -42617853.2758415     
  -42628518.0165336     
  -42639026.4202824     
  -42649381.6590041     
  -42659586.9265432     
  -42669645.4379199     
  -42679560.4285930     
  -42689335.1537388     
  -42698972.8875500     
  -42708476.9225532     
  -42717850.5689479     
  -42727097.1539684     
  -42736220.0212689     
  -42745222.5303339     
  -42754108.0559143     
  -42762879.9874903     
  -42771541.7287626     
  -42780096.6971724     
  -42788548.3234500     
  -42796900.0511950     
  -42805155.3364862     
  -42813317.6475235     
  -42821390.4643009     
  -42829377.2783125     
  -42837281.5922900     
  -42845106.9199730     
  -42852856.7859119     
  -42860534.7253034     
  -42868144.2838579     
  -42875689.0176995     
  -42883172.4932971     
  -42890598.2874278     
  -42897969.9871702     
  -42905291.1899282     
  -42912565.5034840     
  -42919796.5460795     
  -42926987.9465259     
  -42158321.2181786     
  -42171570.8291824     
  -42184605.4962991     
  -42197428.3846477     
  -42210042.6914352     
  -42222451.6450801     
  -42234658.5043208     
  -42246666.5573140     
  -42258479.1207240     
  -42270099.5388072     
  -42281531.1824921     
  -42292777.4484598     
  -42303841.7582257     
  -42314727.5572259     
  -42325438.3139098     
  -42335977.5188432     
  -42346348.6838212     
  -42356555.3409966     
  -42366601.0420238     
  -42376489.3572200     
  -42386223.8747488     
  -42395808.1998245     
  -42405245.9539416     
  -42414540.7741301     
  -42423696.3122394     
  -42432716.2342514     
  -42441604.2196251     
  -42450363.9606743     
  -42458999.1619793     
  -42467513.5398339     
  -42475910.8217303     
  -42484194.7458807     
  -42492369.0607781     
  -42500437.5247979     
  -42508403.9058390     
  -42516271.9810064     
  -42524045.5363365     
  -42531728.3665634     
  -42539324.2749290     
  -42546837.0730353     
  -42554270.5807402     
  -42561628.6260955     
  -42568915.0453281     
  -42576133.6828642     
  -42583288.3913943     
  -42590383.0319811     
  -42597421.4742076     
  -42604407.5963655     
  -42611345.2856826     
  -42618238.4385890     
  -41845323.5631119     
  -41858823.2769001     
  -41872087.0520450     
  -41885118.4251301     
  -41897920.9651971     
  -41910498.2727214     
  -41922853.9785672     
  -41934991.7429247     
  -41946915.2542347     
  -41958628.2281031     
  -41970134.4062098     
  -41981437.5552143     
  -41992541.4656627     
  -42003449.9508981     
  -42014166.8459790     
  -42024696.0066092     
  -42035041.3080799     
  -42045206.6442307     
  -42055195.9264290     
  -42065013.0825736     
  -42074662.0561231     
  -42084146.8051530     
  -42093471.3014443     
  -42102639.5296047     
  -42111655.4862263     
  -42120523.1790810     
  -42129246.6263569     
  -42137829.8559358     
  -42146276.9047159     
  -42154591.8179800     
  -42162778.6488113     
  -42170841.4575582     
  -42178784.3113498     
  -42186611.2836634     
  -42194326.4539440     
  -42201933.9072783     
  -42209437.7341236     
  -42216842.0300909     
  -42224150.8957852     
  -42231368.4367016     
  -42238498.7631782     
  -42245545.9904052     
  -42252514.2384913     
  -42259407.6325862     
  -42266230.3030601     
  -42272986.3857377     
  -42279680.0221877     
  -42286315.3600681     
  -42292896.5535219     
  -42299427.7636278     
  -41524908.3418408     
  -41538628.7030944     
  -41552090.7479504     
  -41565298.4098562     
  -41578255.6559479     
  -41590966.4857789     
  -41603434.9300214     
  -41615665.0491458     
  -41627660.9320820     
  -41639426.6948684     
  -41650966.4792937     
  -41662284.4515340     
  -41673384.8007935     
  -41684271.7379483     
  -41694949.4942028     
  -41705422.3197587     
  -41715694.4825040     
  -41725770.2667231     
  -41735653.9718344     
  -41745349.9111572     
  -41754862.4107125     
  -41764195.8080615     
  -41773354.4511834     
  -41782342.6973980     
  -41791164.9123347     
  -41799825.4689500     
  -41808328.7465993     
  -41816679.1301613     
  -41824881.0092217     
  -41832938.7773151     
  -41840856.8312299     
  -41848639.5703753     
  -41856291.3962151     
  -41863816.7117685     
  -41871219.9211789     
  -41878505.4293532     
  -41885677.6416721     
  -41892740.9637726     
  -41899699.8014029     
  -41906558.5603524     
  -41913321.6464536     
  -41919993.4656609     
  -41926578.4242016     
  -41933080.9288029     
  -41939505.3869933     
  -41945856.2074768     
  -41952137.8005812     
  -41958354.5787793     
  -41964510.9572806     
  -41970611.3546947     
  -41197467.8471798     
  -41211374.4152255     
  -41224998.7585084     
  -41238345.2402305     
  -41251418.2595783     
  -41264222.2500703     
  -41276761.6778733     
  -41289041.0400908     
  -41301064.8630329     
  -41312837.7004727     
  -41324364.1318954     
  -41335648.7607457     
  -41346696.2126805     
  -41357511.1338317     
  -41368098.1890838     
  -41378462.0603741     
  -41388607.4450181     
  -41398539.0540663     
  -41408261.6106974     
  -41417779.8486524     
  -41427098.5107128     
  -41436222.3472298     
  -41445156.1147064     
  -41453904.5744364     
  -41462472.4912063     
  -41470864.6320605     
  -41479085.7651356     
  -41487140.6585659     
  -41495034.0794637     
  -41502770.7929760     
  -41510355.5614227     
  -41517793.1435155     
  -41525088.2936625     
  -41532245.7613597     
  -41539270.2906706     
  -41546166.6197964     
  -41552939.4807385     
  -41559593.5990539     
  -41566133.6937048     
  -41572564.4770045     
  -41578890.6546582     
  -41585116.9259016     
  -41591247.9837359     
  -41597288.5152596     
  -41603243.2020993     
  -41609116.7209348     
  -41614913.7441227     
  -41620638.9404150     
  -41626296.9757721     
  -41631892.5142708     
  -40863481.6523122     
  -40877534.0533288     
  -40891278.6062595     
  -40904720.1480970     
  -40917863.5553540     
  -40930713.7418536     
  -40943275.6564854     
  -40955554.2809355     
  -40967554.6273967     
  -40979281.7362694     
  -40990740.6738592     
  -41001936.5300789     
  -41012874.4161627     
  -41023559.4623989     
  -41033996.8158883     
  -41044191.6383346     
  -41054149.1038740     
  -41063874.3969481     
  -41073372.7102280     
  -41082649.2425945     
  -41091709.1971791     
  -41100557.7794718     
  -41109200.1955010     
  -41117641.6500884     
  -41125887.3451852     
  -41133942.4782939     
  -41141812.2409778     
  -41149501.8174639     
  -41157016.3833426     
  -41164361.1043667     
  -41171541.1353534     
  -41178561.6191927     
  -41185427.6859638     
  -41192144.4521639     
  -41198717.0200493     
  -41205150.4770936     
  -41211449.8955625     
  -41217620.3322089     
  -41223666.8280881     
  -41229594.4084961     
  -41235408.0830305     
  -41241112.8457762     
  -41246713.6756153     
  -41252215.5366625     
  -41257623.3788265     
  -41262942.1384959     
  -41268176.7393507     
  -41273332.0932986     
  -41278413.1015350     
  -41283424.6557259     
  -40523527.5390330     
  -40537678.1547721     
  -40551493.3583635     
  -40564978.5205395     
  -40578139.0564298     
  -40590980.4225711     
  -40603508.1138841     
  -40615727.6606286     
  -40627644.6253470     
  -40639264.5998060     
  -40650593.2019439     
  -40661636.0728367     
  -40672398.8736862     
  -40682887.2828440     
  -40693106.9928746     
  -40703063.7076702     
  -40712763.1396195     
  -40722211.0068423     
  -40731413.0304937     
  -40740374.9321461     
  -40749102.4312537     
  -40757601.2427080     
  -40765877.0744871     
  -40773935.6254061     
  -40781782.5829737     
  -40789423.6213589     
  -40796864.3994730     
  -40804110.5591721     
  -40811167.7235831     
  -40818041.4955569     
  -40824737.4562542     
  -40831261.1638661     
  -40837618.1524720     
  -40843813.9310400     
  -40849853.9825704     
  -40855743.7633867     
  -40861488.7025742     
  -40867094.2015712     
  -40872565.6339121     
  -40877908.3451258     
  -40883127.6527901     
  -40888228.8467430     
  -40893217.1894535     
  -40898097.9165506     
  -40902876.2375127     
  -40907557.3365166     
  -40912146.3734470     
  -40916648.4850664     
  -40921068.7863430     
  -40925412.3719390     
  -40178293.6769797     
  -40192485.8392948     
  -40206312.8145009     
  -40219780.5889952     
  -40232895.1997720     
  -40245662.7303709     
  -40258089.3068039     
  -40270181.0934731     
  -40281944.2890913     
  -40293385.1226172     
  -40304509.8492153     
  -40315324.7462531     
  -40325836.1093428     
  -40336050.2484408     
  -40345973.4840107     
  -40355612.1432615     
  -40364972.5564687     
  -40374061.0533852     
  -40382883.9597518     
  -40391447.5939127     
  -40399758.2635445     
  -40407822.2625050     
  -40415645.8678071     
  -40423235.3367254     
  -40430596.9040403     
  -40437736.7794248     
  -40444661.1449803     
  -40451376.1529246     
  -40457887.9234378     
  -40464202.5426711     
  -40470326.0609200     
  -40476264.4909690     
  -40482023.8066090     
  -40487609.9413319     
  -40493028.7872054     
  -40498286.1939311     
  -40503387.9680876     
  -40508339.8725638     
  -40513147.6261807     
  -40517816.9035085     
  -40522353.3348764     
  -40526762.5065808     
  -40531049.9612903     
  -40535221.1986507     
  -40539281.6760905     
  -40543236.8098270     
  -40547091.9760752     
  -40550852.5124582     
  -40554523.7196197     
  -40558110.8630392     
  -39828592.0854637     
  -39842757.6119483     
  -39856525.6511179     
  -39869902.9164786     
  -39882896.1794333     
  -39895512.2638318     
  -39907758.0405207     
  -39919640.4219093     
  -39931166.3565645     
  -39942342.8238476     
  -39953176.8286071     
  -39963675.3959380     
  -39973845.5660194     
  -39983694.3890419     
  -39993228.9202350     
  -40002456.2150034     
  -40011383.3241824     
  -40020017.2894217     
  -40028365.1387035     
  -40036433.8820061     
  -40044230.5071183     
  -40051761.9756114     
  -40059035.2189777     
  -40066057.1349387     
  -40072834.5839322     
  -40079374.3857806     
  -40085683.3165492     
  -40091768.1055963     
  -40097635.4328221     
  -40103291.9261199     
  -40108744.1590344     
  -40113998.6486304     
  -40119061.8535766     
  -40123940.1724475     
  -40128639.9422478     
  -40133167.4371607     
  -40137528.8675260     
  -40141730.3790479     
  -40145778.0522378     
  -40149677.9020934     
  -40153435.8780167     
  -40157057.8639738     
  -40160549.6788975     
  -40163917.0773363     
  -40167165.7503502     
  -40170301.3266547     
  -40173329.3740164     
  -40176255.4008984     
  -40179084.8583592     
  -40181823.1422038     
  -39475373.3259952     
  -39489429.1931269     
  -39503052.3942498     
  -39516250.5200916     
  -39529031.2271574     
  -39541402.2304821     
  -39553371.2964235     
  -39564946.2355107     
  -39576134.8953639     
  -39586945.1537019     
  -39597384.9114474     
  -39607462.0859480     
  -39617184.6043200     
  -39626560.3969322     
  -39635597.3910348     
  -39644303.5045484     
  -39652686.6400201     
  -39660754.6787561     
  -39668515.4751395     
  -39675976.8511412     
  -39683146.5910309     
  -39690032.4362960     
  -39696642.0807728     
  -39702983.1659990     
  -39709063.2767904     
  -39714889.9370492     
  -39720470.6058073     
  -39725812.6735108     
  -39730923.4585490     
  -39735810.2040334     
  -39740480.0748290     
  -39744940.1548440     
  -39749197.4445798     
  -39753258.8589463     
  -39757131.2253446     
  -39760821.2820217     
  -39764335.6767006     
  -39767680.9654875     
  -39770863.6120614     
  -39773889.9871476     
  -39776766.3682790     
  -39779498.9398474     
  -39782093.7934494     
  -39784556.9285276     
  -39786894.2533114     
  -39789111.5860595     
  -39791214.6566069     
  -39793209.1082186     
  -39795100.4997517     
  -39796894.3081299     
  -39119742.2408426     
  -39133586.1480931     
  -39146958.9529955     
  -39159869.3231025     
  -39172325.9992535     
  -39184337.7860780     
  -39195913.5425998     
  -39207062.1729606     
  -39217792.6172776     
  -39228113.8426545     
  -39238034.8343555     
  -39247564.5871599     
  -39256712.0969065     
  -39265486.3522424     
  -39273896.3265836     
  -39281950.9702995     
  -39289659.2031308     
  -39297029.9068454     
  -39304071.9181458     
  -39310794.0218288     
  -39317204.9442091     
  -39323313.3468091     
  -39329127.8203226     
  -39334656.8788557     
  -39339908.9544510     
  -39344892.3918980     
  -39349615.4438346     
  -39354086.2661428     
  -39358312.9136428     
  -39362303.3360882     
  -39366065.3744654     
  -39369606.7576017     
  -39372935.0990826     
  -39376057.8944855     
  -39378982.5189277     
  -39381716.2249368     
  -39384266.1406437     
  -39386639.2683024     
  -39388842.4831402     
  -39390882.5325421     
  -39392766.0355728     
  -39394499.4828385     
  -39396089.2366969     
  -39397541.5318140     
  -39398862.4760758     
  -39400058.0518573     
  -39401134.1176537     
  -39402096.4100778     
  -39402950.5462287     
  -39403702.0264342     
  -38762974.3534402     
  -38776478.8866142     
  -38789470.2424669     
  -38801958.4268869     
  -38813953.5246494     
  -38825465.6871715     
  -38836505.1204613     
  -38847082.0732779     
  -38857206.8255185     
  -38866889.6768479     
  -38876140.9355850     
  -38884970.9078588     
  -38893389.8870441     
  -38901408.1434905     
  -38909035.9145488     
  -38916283.3949092     
  -38923160.7272535     
  -38929677.9932305     
  -38935845.2047593     
  -38941672.2956668     
  -38947169.1136606     
  -38952345.4126443     
  -38957210.8453763     
  -38961774.9564754     
  -38966047.1757754     
  -38970036.8120300     
  -38973753.0469707     
  -38977204.9297191     
  -38980401.3715529     
  -38983351.1410306     
  -38986062.8594729     
  -38988544.9968035     
  -38990805.8677519     
  -38992853.6284176     
  -38994696.2732004     
  -38996341.6320960     
  -38997797.3683631     
  -38999070.9765616     
  -39000169.7809679     
  -39001100.9343689     
  -39001871.4172418     
  -39002488.0373199     
  -39002957.4295561     
  -39003286.0564819     
  -39003480.2089755     
  -39003546.0074390     
  -39003489.4033963     
  -39003316.1815172     
  -39003031.9620708     
  -39002642.2038280     
  -38406532.2595987     
  -38419537.3172472     
  -38431983.1405515     
  -38443881.4109287     
  -38455243.8900472     
  -38466082.4043153     
  -38476408.8296971     
  -38486235.0768619     
  -38495573.0766897     
  -38504434.7661463     
  -38512832.0745370     
  -38520776.9101527     
  -38528281.1473134     
  -38535356.6138218     
  -38542015.0788301     
  -38548268.2411251     
  -38554127.7178373     
  -38559605.0335768     
  -38564711.6099953     
  -38569458.7557798     
  -38573857.6570738     
  -38577919.3683283     
  -38581654.8035813     
  -38585074.7281628     
  -38588189.7508245     
  -38591010.3162924     
  -38593546.6982379     
  -38595808.9926671     
  -38597807.1117236     
  -38599550.7779039     
  -38601049.5186826     
  -38602312.6615446     
  -38603349.3294251     
  -38604168.4365521     
  -38604778.6846970     
  -38605188.5598278     
  -38605406.3291683     
  -38605440.0386665     
  -38605297.5108720     
  -38604986.3432273     
  -38604513.9067790     
  -38603887.3453108     
  -38603113.5749088     
  -38602199.2839633     
  -38601150.9336181     
  -38599974.7586753     
  -38598676.7689655     
  -38597262.7511936     
  -38595738.2712861     
  -38594108.6772133     
  -38052080.9425657     
  -38064384.0500297     
  -38076077.6379626     
  -38087175.4908217     
  -38097691.4671373     
  -38107639.4802276     
  -38117033.4793973     
  -38125887.4316686     
  -38134215.3040261     
  -38142031.0461980     
  -38149348.5739805     
  -38156181.7531146     
  -38162544.3837160     
  -38168450.1852662     
  -38173912.7821628     
  -38178945.6898305     
  -38183562.3013924     
  -38187775.8748973     
  -38191599.5211014     
  -38195046.1917966     
  -38198128.6686813     
  -38200859.5527665     
  -38203251.2543078     
  -38205315.9832572     
  -38207065.7402241     
  -38208512.3079360     
  -38209667.2431908     
  -38210541.8692899     
  -38211147.2689433     
  -38211494.2776362     
  -38211593.4774514     
  -38211455.1913362     
  -38211089.4778081     
  -38210506.1260928     
  -38209714.6516903     
  -38208724.2923630     
  -38207544.0045441     
  -38206182.4601678     
  -38204648.0439165     
  -38202948.8508923     
  -38201092.6847146     
  -38199087.0560493     
  -38196939.1815785     
  -38194655.9834192     
  -38192244.0890023     
  -38189709.8314271     
  -38187059.2503074     
  -38184298.0931285     
  -38181431.8170900     
  -38178465.5915923     
  -37701500.4211643     
  -37712844.5280763     
  -37723524.5386844     
  -37733556.8732005     
  -37742958.0076611     
  -37751744.4503791     
  -37759932.7191766     
  -37767539.3192913     
  -37774580.7220439     
  -37781073.3442672     
  -37787033.5284863     
  -37792477.5238541     
  -37797421.4678442     
  -37801881.3686968     
  -37805873.0886179     
  -37809412.3277185     
  -37812514.6086910     
  -37815195.2622080     
  -37817469.4130333     
  -37819351.9668299     
  -37820857.5976511     
  -37822000.7360949     
  -37822795.5581057     
  -37823255.9744029     
  -37823395.6205161     
  -37823227.8474068     
  -37822765.7126549     
  -37822021.9721885     
  -37821009.0725379     
  -37819739.1435901     
  -37818223.9918276     
  -37816475.0940294     
  -37814503.5914199     
  -37812320.2842472     
  -37809935.6267787     
  -37807359.7227011     
  -37804602.3209157     
  -37801672.8117221     
  -37798580.2233857     
  -37795333.2190879     
  -37791940.0942618     
  -37788408.7743154     
  -37784746.8127541     
  -37780961.3897130     
  -37777059.3109158     
  -37773047.0070761     
  -37768930.5337491     
  -37764715.5716740     
  -37760407.4277596     
  -37756011.0362623     
  -37356893.4809216     
  -37366951.8243706     
  -37376287.4386801     
  -37384920.0319588     
  -37392869.3320070     
  -37400155.0582083     
  -37406796.8941744     
  -37412814.4616509     
  -37418227.2953988     
  -37423054.8190687     
  -37427316.3221054     
  -37431030.9376845     
  -37434217.6216718     
  -37436895.1325911     
  -37439082.0125901     
  -37440796.5693896     
  -37442056.8592008     
  -37442880.6705869     
  -37443285.5092475     
  -37443288.5836977     
  -37442906.7918125     
  -37442156.7082043     
  -37441054.5723981     
  -37439616.2777704     
  -37437857.3612110     
  -37435792.9934705     
  -37433437.9701520     
  -37430806.7033077     
  -37427913.2135987     
  -37424771.1229793     
  -37421393.6478659     
  -37417793.5927546     
  -37413983.3442503     
  -37409974.8654759     
  -37405779.6908323     
  -37401408.9210807     
  -37396873.2187267     
  -37392182.8036858     
  -37387347.4492193     
  -37382376.4781284     
  -37377278.7592064     
  -37372062.7039486     
  -37366736.2635265     
  -37361306.9260367     
  -37355781.7140408     
  -37350167.1824378     
  -37344469.4167272     
  -37338694.0316339     
  -37332846.1697665     
  -37326930.5020336     
  -37020585.4614678     
  -37028943.0785765     
  -37036515.9614780     
  -37043327.8919147     
  -37049402.6100136     
  -37054763.7805941     
  -37059434.9619424     
  -37063439.5750768     
  -37066800.8744711     
  -37069541.9202863     
  -37071685.5519913     
  -37073254.3633346     
  -37074270.6786721     
  -37074756.5306542     
  -37074733.6392592     
  -37074223.3921508     
  -37073246.8263305     
  -37071824.6110480     
  -37069977.0319336     
  -37067723.9763067     
  -37065084.9196104     
  -37062078.9129191     
  -37058724.5714577     
  -37055040.0640707     
  -37051043.1035719     
  -37046750.9379064     
  -37042180.3420528     
  -37037347.6105910     
  -37032268.5508642     
  -37026958.4766594     
  -37021432.2023371     
  -37015704.0373382     
  -37009787.7810027     
  -37003696.7176379     
  -36997443.6117764     
  -36991040.7035738     
  -36984499.7042984     
  -36977831.7918735     
  -36971047.6064421     
  -36964157.2459259     
  -36957170.2615661     
  -36950095.6534371     
  -36942941.8659454     
  -36935716.7833302     
  -36928427.7251808     
  -36921081.4419478     
  -36913684.1104252     
  -36906241.3295473     
  -36898758.1175649     
  -36891238.9049367     
  -36695112.2492986     
  -36701243.7197180     
  -36706526.3951613     
  -36710989.0637633     
  -36714660.3767160     
  -36717568.8115024     
  -36719742.6321592     
  -36721209.8543299     
  -36721998.2121248     
  -36722135.1263664     
  -36721647.6745673     
  -36720562.5628330     
  -36718906.0996950     
  -36716704.1718319     
  -36713982.2216410     
  -36710765.2266307     
  -36707077.6806053     
  -36702943.5765982     
  -36698386.3914991     
  -36693429.0723049     
  -36688094.0239113     
  -36682403.0983566     
  -36676377.5854126     
  -36670038.2044159     
  -36663405.0972223     
  -36656497.8221621     
  -36649335.3488685     
  -36641936.0538496     
  -36634317.7166725     
  -36626497.5166262     
  -36618492.0297367     
  -36610317.2260031     
  -36601988.4667384     
  -36593520.5018957     
  -36584927.4672744     
  -36576222.8815069     
  -36567419.6427398     
  -36558530.0249329     
  -36549565.6737148     
  -36540537.6017470     
  -36531456.1835590     
  -36522331.1498239     
  -36513171.5810489     
  -36503985.9006780     
  -36494781.8676893     
  -36485566.5688976     
  -36476346.4110748     
  -36467127.1118257     
  -36457913.6868277     
  -36448710.4527887     
  -36383191.9040074     
  -36386434.8484951     
  -36388765.0281324     
  -36390217.3451800     
  -36390826.4302885     
  -36390626.5864532     
  -36389651.7545164     
  -36387935.4710403     
  -36385510.8274406     
  -36382410.4329157     
  -36378666.3805768     
  -36374310.2161808     
  -36369372.9093538     
  -36363884.8274064     
  -36357875.7118396     
  -36351374.6575663     
  -36344410.0948109     
  -36337009.7736140     
  -36329200.7508415     
  -36321009.3795843     
  -36312461.3008128     
  -36303581.4371372     
  -36294393.9884979     
  -36284922.4295993     
  -36275189.5088802     
  -36265217.2488025     
  -36255026.9472305     
  -36244639.1796677     
  -36234073.8021116     
  -36223349.9542928     
  -36212486.0630641     
  -36201499.8457116     
  -36190408.3129745     
  -36179227.7715648     
  -36167973.8259989     
  -36156661.3795657     
  -36145304.6342706     
  -36133917.0896180     
  -36122511.5401072     
  -36111100.0713501     
  -36099694.0547549     
  -36088304.1407624     
  -36076940.2506562     
  -36065611.5669090     
  -36054326.5218390     
  -36043092.7841698     
  -36031917.2439045     
  -36020805.9995504     
  -36009764.3528402     
  -35998796.7478312     
  -36087675.0288401     
  -36087198.5777455     
  -36085748.7007465     
  -36083367.7361757     
  -36080097.5411080     
  -36075979.4792007     
  -36071054.3338361     
  -36065362.2547235     
  -36058942.7153277     
  -36051834.4708640     
  -36044075.5174053     
  -36035703.0543140     
  -36026753.4511118     
  -36017262.2189663     
  -36007263.9866371     
  -35996792.4807112     
  -35985880.5100083     
  -35974559.9540752     
  -35962861.7556546     
  -35950815.9169729     
  -35938451.4996264     
  -35925796.6277931     
  -35912878.4944543     
  -35899723.3702682     
  -35886356.6147125     
  -35872802.6890960     
  -35859085.1710176     
  -35845226.7698500     
  -35831249.3428150     
  -35817173.9112276     
  -35803020.6764865     
  -35788809.0354090     
  -35774557.5945236     
  -35760284.1829591     
  -35746005.8636020     
  -35731738.9422275     
  -35717498.9743481     
  -35703300.7695669     
  -35689158.3932411     
  -35675085.1652824     
  -35661093.6559067     
  -35647195.6781593     
  -35633402.2771666     
  -35619723.7164280     
  -35606169.4620584     
  -35592748.1658384     
  -35579467.6444744     
  -35566334.8428782     
  -35553355.7759844     
  -35540535.6517548     
  -35811469.4230620     
  -35806236.1714162     
  -35799976.4969102     
  -35792741.8508394     
  -35784583.0529012     
  -35775550.0199858     
  -35765691.7989679     
  -35755056.5197284     
  -35743691.3171488     
  -35731642.2611731     
  -35718954.3014155     
  -35705671.2224107     
  -35691835.6060777     
  -35677488.8002999     
  -35662670.8938757     
  -35647420.6984085     
  -35631775.7374894     
  -35615772.2432030     
  -35599445.1597156     
  -35582828.1535321     
  -35565953.6298995     
  -35548852.7547711     
  -35531555.4816971     
  -35514090.5829597     
  -35496485.6842349     
  -35478767.3020233     
  -35460960.8830742     
  -35443090.8450081     
  -35425180.6173458     
  -35407252.6821716     
  -35389328.6136787     
  -35371429.1158891     
  -35353574.0578818     
  -35335782.5059109     
  -35318072.7518510     
  -35300462.3374608     
  -35282968.0740276     
  -35265606.0570484     
  -35248391.6757306     
  -35231339.6172455     
  -35214463.8657916     
  -35197777.6964691     
  -35181293.6635162     
  -35165023.5814993     
  -35148978.4973277     
  -35133168.6535668     
  -35117603.4558366     
  -35102291.4782381     
  -35087240.4904161     
  -35072456.8792557     
  -35557436.6548950     
  -35546153.7127744     
  -35533805.0898904     
  -35520453.7761902     
  -35506161.2762496     
  -35490988.2981065     
  -35474994.3228764     
  -35458237.3721295     
  -35440773.9249289     
  -35422658.8660558     
  -35403945.4265066     
  -35384685.1189160     
  -35364927.6789068     
  -35344721.0197773     
  -35324111.2032338     
  -35303142.4260589     
  -35281857.0215437     
  -35260295.4743866     
  -35238496.4479467     
  -35216496.8228944     
  -35194331.7463397     
  -35172034.6904421     
  -35149637.5193669     
  -35127170.5632981     
  -35104662.6980938     
  -35082141.4290700     
  -35059632.9773668     
  -35037162.3673441     
  -35014753.5135038     
  -34992429.3055094     
  -34970211.6899799     
  -34948121.7478636     
  -34926179.7663336     
  -34904405.3042934     
  -34882817.2507113     
  -34861433.8750997     
  -34840272.8695091     
  -34819351.3813912     
  -34798686.0366519     
  -34778292.9522538     
  -34758187.7380798     
  -34738385.4887582     
  -34718900.7679630     
  -34699747.5895883     
  -34680939.3986844     
  -34662489.0417483     
  -34644408.6810609     
  -34626709.5789698     
  -34609401.9095507     
  -34592496.4641860     
  -35328259.9505604     
  -35309312.2933025     
  -35289280.0106016     
  -35268240.4509703     
  -35246271.4812072     
  -35223448.0223637     
  -35199842.6261958     
  -35175525.8236038     
  -35150566.0305669     
  -35125029.3098301     
  -35098979.1588772     
  -35072476.3677876     
  -35045578.9375195     
  -35018342.0396522     
  -34990818.0043419     
  -34963056.3305365     
  -34935103.7171327     
  -34907004.1155309     
  -34878798.8040080     
  -34850526.4834414     
  -34822223.3928701     
  -34793923.4425016     
  -34765658.3611927     
  -34737457.8551409     
  -34709349.7744675     
  -34681360.2844789     
  -34653514.0385825     
  -34625834.3500765     
  -34598343.3602734     
  -34571062.2006460     
  -34544011.1469012     
  -34517209.7631037     
  -34490677.0341879     
  -34464431.4854806     
  -34438491.2881796     
  -34412874.3501529     
  -34387598.3918648     
  -34362681.0076178     
  -34338139.7123830     
  -34313991.9739196     
  -34290255.2282600     
  -34266946.8738511     
  -34244084.2368768     
  -34221684.5019062     
  -34199764.6182249     
  -34178341.2384576     
  -34157430.8199543     
  -34137049.9845458     
  -34117215.3722059     
  -34097937.7225770     
  -35126295.1385484     
  -35097628.7440249     
  -35067890.6981855     
  -35037185.0924690     
  -35005604.7050498     
  -34973243.0119477     
  -34940192.6006180     
  -34906542.9322832     
  -34872379.2907472     
  -34837782.4974760     
  -34802828.8967727     
  -34767590.3691354     
  -34732134.3105439     
  -34696523.5937807     
  -34660816.5462235     
  -34625066.9715970     
  -34589324.2298715     
  -34553633.3778491     
  -34518035.3651910     
  -34482567.2765256     
  -34447262.6088447     
  -34412151.5736685     
  -34377261.4146379     
  -34342616.7327454     
  -34308239.8129993     
  -34274150.9477444     
  -34240368.7530432     
  -34206910.4754073     
  -34173792.2867725     
  -34141029.5659248     
  -34108637.1646601     
  -34076629.6568127     
  -34045021.5679791     
  -34013827.5833891     
  -33983062.7310372     
  -33952742.5371114     
  -33922883.1511978     
  -33893501.4400796     
  -33864615.0515456     
  -33836242.4536570     
  -33808402.9597791     
  -33781116.7529310     
  -33754404.9183811     
  -33728289.4686079     
  -33702793.2819119     
  -33677939.7688130     
  -33653752.0141748     
  -33630251.5836233     
  -33607459.9097487     
  -33585416.1141114     
  -34953367.4864395     
  -34912315.4518051     
  -34870251.0395175     
  -34827286.6058427     
  -34783569.4317643     
  -34739236.1892467     
  -34694409.9135255     
  -34649203.9909697     
  -34603724.8543853     
  -34558072.7089418     
  -34512341.1505143     
  -34466616.4567180     
  -34420976.9884558     
  -34375492.8748296     
  -34330226.0036985     
  -34285230.2717382     
  -34240552.0265851     
  -34196230.6354857     
  -34152299.1259501     
  -34108784.8571406     
  -34065710.1929108     
  -34023093.1574271     
  -33980948.0620145     
  -33939286.0975168     
  -33898115.8904535     
  -33857444.0239434     
  -33817275.5260877     
  -33777614.3294706     
  -33738463.7058446     
  -33699826.6799919     
  -33661706.4262490     
  -33624106.6502355     
  -33587031.9568757     
  -33550488.2037509     
  -33514482.8360463     
  -33479025.1957782     
  -33444126.7936057     
  -33409801.5266981     
  -33376065.8218047     
  -33342938.6811406     
  -33310441.6145114     
  -33278598.4624334     
  -33247435.1645473     
  -33216979.6198509     
  -33187261.9194405     
  -33158315.3292924     
  -33130178.1007799     
  -33102894.2552008     
  -33076504.1289605     
  -33050991.6671151     
  -34810741.4129840     
  -34753467.7010265     
  -34695271.1330315     
  -34636471.5605584     
  -34577229.8282781     
  -34517690.8323990     
  -34458010.1184381     
  -34398347.9951315     
  -34338858.8250747     
  -34279683.0587496     
  -34220942.9728213     
  -34162741.2829573     
  -34105161.5934929     
  -34048269.8661471     
  -33992116.3577411     
  -33936737.6897513     
  -33882158.8590891     
  -33828395.0930450     
  -33775453.5079637     
  -33723334.5638740     
  -33672033.3250165     
  -33621540.5449857     
  -33571843.5987683     
  -33522927.2846453     
  -33474774.5181453     
  -33427366.9387871     
  -33380685.4487490     
  -33334710.7010715     
  -33289423.5537015     
  -33244805.5046428     
  -33200839.1226842     
  -33157508.4875502     
  -33114799.6526919     
  -33072701.1430544     
  -33031204.4985341     
  -32990304.8707313     
  -32950001.6747574     
  -32910299.2872859     
  -32871207.7636758     
  -32832743.5163541     
  -32794929.8478086     
  -32757797.1586581     
  -32721382.5544438     
  -32685728.4790546     
  -32650880.0115457     
  -32616880.9037644     
  -32583770.2415956     
  -32551587.3109553     
  -32520408.5049423     
  -32490484.2134552     
  -34697659.1585756     
  -34618534.0696060     
  -34539126.9862237     
  -34459239.3629960     
  -34379190.0018614     
  -34299409.0127245     
  -34220290.6229311     
  -34142150.4383869     
  -34065222.6884405     
  -33989670.9315570     
  -33915601.6867052     
  -33843077.1302850     
  -33772125.7200570     
  -33702750.6596555     
  -33634936.4753605     
  -33568654.0566952     
  -33503864.4895187     
  -33440521.9567943     
  -33378575.9262412     
  -33317972.7952578     
  -33258657.1239892     
  -33200572.5566040     
  -33143662.5073122     
  -33087870.6699004     
  -33033141.3963241     
  -32979419.9801188     
  -32926652.8733487     
  -32874787.8608948     
  -32823774.2127513     
  -32773562.8333778     
  -32724106.4269674     
  -32675359.6987223     
  -32627279.6150318     
  -32579825.7500670     
  -32532960.7531352     
  -32486650.9806823     
  -32440867.3496596     
  -32395586.4854854     
  -32350792.2577575     
  -32306477.8178355     
  -32262648.2667316     
  -32219324.0687619     
  -32176545.2346991     
  -32134376.0042817     
  -32092908.9700803     
  -32052265.6172456     
  -32012585.4948389     
  -31973984.8818010     
  -31936438.8414586     
  -31899476.4173423     
  -34617232.0032758     
  -34504595.1298901     
  -34389919.6234392     
  -34276281.5569766     
  -34165214.3320461     
  -34057445.9521349     
  -33953274.8418160     
  -33852767.1585175     
  -33755863.2986319     
  -33662436.8097459     
  -33572327.6188085     
  -33485361.0142219     
  -33401358.5282620     
  -33320144.1159423     
  -33241547.5561967     
  -33165406.1934603     
  -33091565.6821519     
  -33019880.1333383     
  -32950211.9073780     
  -32882431.2027057     
  -32816415.5335610     
  -32752049.1538456     
  -32689222.4619243     
  -32627831.4070323     
  -32567776.9089763     
  -32508964.2971396     
  -32451302.7712865     
  -32394704.8845721     
  -32339086.0481127     
  -32284364.0561900     
  -32230458.6316192     
  -32177290.9920528     
  -32124783.4402713     
  -32072858.9853104     
  -32021441.0074133     
  -31970452.9897508     
  -31919818.3560622     
  -31869460.4802034     
  -31819302.9786859     
  -31769270.4745908     
  -31719290.1565288     
  -31669294.6986151     
  -31619227.5520774     
  -31569052.4562302     
  -31518770.6343015     
  -31468452.3491356     
  -31418296.0279595     
  -31368741.8037012     
  -31320695.4668838     
  -31275982.4989134     
  -34521056.1079073     
  -34330956.4009311     
  -34159330.2518981     
  -34002346.2936472     
  -33857336.3336369     
  -33722357.5351090     
  -33595941.6740996     
  -33476944.7139258     
  -33364452.4849232     
  -33257719.0876545     
  -33156125.1711232     
  -33059148.7490142     
  -32966344.2043528     
  -32877326.8106219     
  -32791761.0728272     
  -32709351.7783289     
  -32629837.0108448     
  -32552982.6130498     
  -32478577.7351690     
  -32406431.2088448     
  -32336368.5553099     
  -32268229.4854967     
  -32201865.7841080     
  -32137139.4943172     
  -32073921.3375394     
  -32012089.3155884     
  -31951527.4517649     
  -31892124.6338888     
  -31833773.5265406     
  -31776369.5221356     
  -31719809.7010767     
  -31663991.7700711     
  -31608812.9445388     
  -31554168.7354296     
  -31499951.5919138     
  -31446049.3380388     
  -31392343.3214964     
  -31338706.1627883     
  -31284998.9478272     
  -31231067.6371300     
  -31176738.3542909     
  -31121811.0370552     
  -31066050.6342779     
  -31009174.5139467     
  -30950833.8224676     
  -30890584.8269466     
  -30827843.0079865     
  -30761806.2253294     
  -30691320.1485033     
  -30614631.6060052     
SCALARS elementIsPlast double 
LOOKUP_TABLE default
  0.000000000000000E+000
  0.000000000000000E+000
  0.000000000000000E+000
  0.000000000000000E+000
  0.000000000000000E+000
  0.000000000000000E+000
  0.000000000000000E+000
  0.000000000000000E+000
  0.000000000000000E+000
  0.000000000000000E+000
  0.000000000000000E+000
  0.000000000000000E+000
  0.000000000000000E+000
  0.000000000000000E+000
  0.000000000000000E+000
  0.000000000000000E+000
  0.000000000000000E+000
  0.000000000000000E+000
  0.000000000000000E+000
  0.000000000000000E+000
  0.000000000000000E+000
  0.000000000000000E+000
  0.000000000000000E+000
  0.000000000000000E+000
  0.000000000000000E+000
  0.000000000000000E+000
  0.000000000000000E+000
  0.000000000000000E+000
  0.000000000000000E+000
  0.000000000000000E+000
  0.000000000000000E+000
  0.000000000000000E+000
  0.000000000000000E+000
  0.000000000000000E+000
  0.000000000000000E+000
  0.000000000000000E+000
  0.000000000000000E+000
  0.000000000000000E+000
  0.000000000000000E+000
  0.000000000000000E+000
  0.000000000000000E+000
  0.000000000000000E+000
  0.000000000000000E+000
  0.000000000000000E+000
  0.000000000000000E+000
  0.000000000000000E+000
  0.000000000000000E+000
  0.000000000000000E+000
  0.000000000000000E+000
  0.000000000000000E+000
  0.000000000000000E+000
  0.000000000000000E+000
  0.000000000000000E+000
  0.000000000000000E+000
  0.000000000000000E+000
  0.000000000000000E+000
  0.000000000000000E+000
  0.000000000000000E+000
  0.000000000000000E+000
  0.000000000000000E+000
  0.000000000000000E+000
  0.000000000000000E+000
  0.000000000000000E+000
  0.000000000000000E+000
  0.000000000000000E+000
  0.000000000000000E+000
  0.000000000000000E+000
  0.000000000000000E+000
  0.000000000000000E+000
  0.000000000000000E+000
  0.000000000000000E+000
  0.000000000000000E+000
  0.000000000000000E+000
  0.000000000000000E+000
  0.000000000000000E+000
  0.000000000000000E+000
  0.000000000000000E+000
  0.000000000000000E+000
  0.000000000000000E+000
  0.000000000000000E+000
  0.000000000000000E+000
  0.000000000000000E+000
  0.000000000000000E+000
  0.000000000000000E+000
  0.000000000000000E+000
  0.000000000000000E+000
  0.000000000000000E+000
  0.000000000000000E+000
  0.000000000000000E+000
  0.000000000000000E+000
  0.000000000000000E+000
  0.000000000000000E+000
  0.000000000000000E+000
  0.000000000000000E+000
  0.000000000000000E+000
  0.000000000000000E+000
  0.000000000000000E+000
  0.000000000000000E+000
  0.000000000000000E+000
  0.000000000000000E+000
  0.000000000000000E+000
  0.000000000000000E+000
  0.000000000000000E+000
  0.000000000000000E+000
  0.000000000000000E+000
  0.000000000000000E+000
  0.000000000000000E+000
  0.000000000000000E+000
  0.000000000000000E+000
  0.000000000000000E+000
  0.000000000000000E+000
  0.000000000000000E+000
  0.000000000000000E+000
  0.000000000000000E+000
  0.000000000000000E+000
  0.000000000000000E+000
  0.000000000000000E+000
  0.000000000000000E+000
  0.000000000000000E+000
  0.000000000000000E+000
  0.000000000000000E+000
  0.000000000000000E+000
  0.000000000000000E+000
  0.000000000000000E+000
  0.000000000000000E+000
  0.000000000000000E+000
  0.000000000000000E+000
  0.000000000000000E+000
  0.000000000000000E+000
  0.000000000000000E+000
  0.000000000000000E+000
  0.000000000000000E+000
  0.000000000000000E+000
  0.000000000000000E+000
  0.000000000000000E+000
  0.000000000000000E+000
  0.000000000000000E+000
  0.000000000000000E+000
  0.000000000000000E+000
  0.000000000000000E+000
  0.000000000000000E+000
  0.000000000000000E+000
  0.000000000000000E+000
  0.000000000000000E+000
  0.000000000000000E+000
  0.000000000000000E+000
  0.000000000000000E+000
  0.000000000000000E+000
  0.000000000000000E+000
  0.000000000000000E+000
  0.000000000000000E+000
  0.000000000000000E+000
  0.000000000000000E+000
  0.000000000000000E+000
  0.000000000000000E+000
  0.000000000000000E+000
  0.000000000000000E+000
  0.000000000000000E+000
  0.000000000000000E+000
  0.000000000000000E+000
  0.000000000000000E+000
  0.000000000000000E+000
  0.000000000000000E+000
  0.000000000000000E+000
  0.000000000000000E+000
  0.000000000000000E+000
  0.000000000000000E+000
  0.000000000000000E+000
  0.000000000000000E+000
  0.000000000000000E+000
  0.000000000000000E+000
  0.000000000000000E+000
  0.000000000000000E+000
  0.000000000000000E+000
  0.000000000000000E+000
  0.000000000000000E+000
  0.000000000000000E+000
  0.000000000000000E+000
  0.000000000000000E+000
  0.000000000000000E+000
  0.000000000000000E+000
  0.000000000000000E+000
  0.000000000000000E+000
  0.000000000000000E+000
  0.000000000000000E+000
  0.000000000000000E+000
  0.000000000000000E+000
  0.000000000000000E+000
  0.000000000000000E+000
  0.000000000000000E+000
  0.000000000000000E+000
  0.000000000000000E+000
  0.000000000000000E+000
  0.000000000000000E+000
  0.000000000000000E+000
  0.000000000000000E+000
  0.000000000000000E+000
  0.000000000000000E+000
  0.000000000000000E+000
  0.000000000000000E+000
  0.000000000000000E+000
  0.000000000000000E+000
  0.000000000000000E+000
  0.000000000000000E+000
  0.000000000000000E+000
  0.000000000000000E+000
  0.000000000000000E+000
  0.000000000000000E+000
  0.000000000000000E+000
  0.000000000000000E+000
  0.000000000000000E+000
  0.000000000000000E+000
  0.000000000000000E+000
  0.000000000000000E+000
  0.000000000000000E+000
  0.000000000000000E+000
  0.000000000000000E+000
  0.000000000000000E+000
  0.000000000000000E+000
  0.000000000000000E+000
  0.000000000000000E+000
  0.000000000000000E+000
  0.000000000000000E+000
  0.000000000000000E+000
  0.000000000000000E+000
  0.000000000000000E+000
  0.000000000000000E+000
  0.000000000000000E+000
  0.000000000000000E+000
  0.000000000000000E+000
  0.000000000000000E+000
  0.000000000000000E+000
  0.000000000000000E+000
  0.000000000000000E+000
  0.000000000000000E+000
  0.000000000000000E+000
  0.000000000000000E+000
  0.000000000000000E+000
  0.000000000000000E+000
  0.000000000000000E+000
  0.000000000000000E+000
  0.000000000000000E+000
  0.000000000000000E+000
  0.000000000000000E+000
  0.000000000000000E+000
  0.000000000000000E+000
  0.000000000000000E+000
  0.000000000000000E+000
  0.000000000000000E+000
  0.000000000000000E+000
  0.000000000000000E+000
  0.000000000000000E+000
  0.000000000000000E+000
  0.000000000000000E+000
  0.000000000000000E+000
  0.000000000000000E+000
  0.000000000000000E+000
  0.000000000000000E+000
  0.000000000000000E+000
  0.000000000000000E+000
  0.000000000000000E+000
  0.000000000000000E+000
  0.000000000000000E+000
  0.000000000000000E+000
  0.000000000000000E+000
  0.000000000000000E+000
  0.000000000000000E+000
  0.000000000000000E+000
  0.000000000000000E+000
  0.000000000000000E+000
  0.000000000000000E+000
  0.000000000000000E+000
  0.000000000000000E+000
  0.000000000000000E+000
  0.000000000000000E+000
  0.000000000000000E+000
  0.000000000000000E+000
  0.000000000000000E+000
  0.000000000000000E+000
  0.000000000000000E+000
  0.000000000000000E+000
  0.000000000000000E+000
  0.000000000000000E+000
  0.000000000000000E+000
  0.000000000000000E+000
  0.000000000000000E+000
  0.000000000000000E+000
  0.000000000000000E+000
  0.000000000000000E+000
  0.000000000000000E+000
  0.000000000000000E+000
  0.000000000000000E+000
  0.000000000000000E+000
  0.000000000000000E+000
  0.000000000000000E+000
  0.000000000000000E+000
  0.000000000000000E+000
  0.000000000000000E+000
  0.000000000000000E+000
  0.000000000000000E+000
  0.000000000000000E+000
  0.000000000000000E+000
  0.000000000000000E+000
  0.000000000000000E+000
  0.000000000000000E+000
  0.000000000000000E+000
  0.000000000000000E+000
  0.000000000000000E+000
  0.000000000000000E+000
  0.000000000000000E+000
  0.000000000000000E+000
  0.000000000000000E+000
  0.000000000000000E+000
  0.000000000000000E+000
  0.000000000000000E+000
  0.000000000000000E+000
  0.000000000000000E+000
  0.000000000000000E+000
  0.000000000000000E+000
  0.000000000000000E+000
  0.000000000000000E+000
  0.000000000000000E+000
  0.000000000000000E+000
  0.000000000000000E+000
  0.000000000000000E+000
  0.000000000000000E+000
  0.000000000000000E+000
  0.000000000000000E+000
  0.000000000000000E+000
  0.000000000000000E+000
  0.000000000000000E+000
  0.000000000000000E+000
  0.000000000000000E+000
  0.000000000000000E+000
  0.000000000000000E+000
  0.000000000000000E+000
  0.000000000000000E+000
  0.000000000000000E+000
  0.000000000000000E+000
  0.000000000000000E+000
  0.000000000000000E+000
  0.000000000000000E+000
  0.000000000000000E+000
  0.000000000000000E+000
  0.000000000000000E+000
  0.000000000000000E+000
  0.000000000000000E+000
  0.000000000000000E+000
  0.000000000000000E+000
  0.000000000000000E+000
  0.000000000000000E+000
  0.000000000000000E+000
  0.000000000000000E+000
  0.000000000000000E+000
  0.000000000000000E+000
  0.000000000000000E+000
  0.000000000000000E+000
  0.000000000000000E+000
  0.000000000000000E+000
  0.000000000000000E+000
  0.000000000000000E+000
  0.000000000000000E+000
  0.000000000000000E+000
  0.000000000000000E+000
  0.000000000000000E+000
  0.000000000000000E+000
  0.000000000000000E+000
  0.000000000000000E+000
  0.000000000000000E+000
  0.000000000000000E+000
  0.000000000000000E+000
  0.000000000000000E+000
  0.000000000000000E+000
  0.000000000000000E+000
  0.000000000000000E+000
  0.000000000000000E+000
  0.000000000000000E+000
  0.000000000000000E+000
  0.000000000000000E+000
  0.000000000000000E+000
  0.000000000000000E+000
  0.000000000000000E+000
  0.000000000000000E+000
  0.000000000000000E+000
  0.000000000000000E+000
  0.000000000000000E+000
  0.000000000000000E+000
  0.000000000000000E+000
  0.000000000000000E+000
  0.000000000000000E+000
  0.000000000000000E+000
  0.000000000000000E+000
  0.000000000000000E+000
  0.000000000000000E+000
  0.000000000000000E+000
  0.000000000000000E+000
  0.000000000000000E+000
  0.000000000000000E+000
  0.000000000000000E+000
  0.000000000000000E+000
  0.000000000000000E+000
  0.000000000000000E+000
  0.000000000000000E+000
  0.000000000000000E+000
  0.000000000000000E+000
  0.000000000000000E+000
  0.000000000000000E+000
  0.000000000000000E+000
  0.000000000000000E+000
  0.000000000000000E+000
  0.000000000000000E+000
  0.000000000000000E+000
  0.000000000000000E+000
  0.000000000000000E+000
  0.000000000000000E+000
  0.000000000000000E+000
  0.000000000000000E+000
  0.000000000000000E+000
  0.000000000000000E+000
  0.000000000000000E+000
  0.000000000000000E+000
  0.000000000000000E+000
  0.000000000000000E+000
  0.000000000000000E+000
  0.000000000000000E+000
  0.000000000000000E+000
  0.000000000000000E+000
  0.000000000000000E+000
  0.000000000000000E+000
  0.000000000000000E+000
  0.000000000000000E+000
  0.000000000000000E+000
  0.000000000000000E+000
  0.000000000000000E+000
  0.000000000000000E+000
  0.000000000000000E+000
  0.000000000000000E+000
  0.000000000000000E+000
  0.000000000000000E+000
  0.000000000000000E+000
  0.000000000000000E+000
  0.000000000000000E+000
  0.000000000000000E+000
  0.000000000000000E+000
  0.000000000000000E+000
  0.000000000000000E+000
  0.000000000000000E+000
  0.000000000000000E+000
  0.000000000000000E+000
  0.000000000000000E+000
  0.000000000000000E+000
  0.000000000000000E+000
  0.000000000000000E+000
  0.000000000000000E+000
  0.000000000000000E+000
  0.000000000000000E+000
  0.000000000000000E+000
  0.000000000000000E+000
  0.000000000000000E+000
  0.000000000000000E+000
  0.000000000000000E+000
  0.000000000000000E+000
  0.000000000000000E+000
  0.000000000000000E+000
  0.000000000000000E+000
  0.000000000000000E+000
  0.000000000000000E+000
  0.000000000000000E+000
  0.000000000000000E+000
  0.000000000000000E+000
  0.000000000000000E+000
  0.000000000000000E+000
  0.000000000000000E+000
  0.000000000000000E+000
  0.000000000000000E+000
  0.000000000000000E+000
  0.000000000000000E+000
  0.000000000000000E+000
  0.000000000000000E+000
  0.000000000000000E+000
  0.000000000000000E+000
  0.000000000000000E+000
  0.000000000000000E+000
  0.000000000000000E+000
  0.000000000000000E+000
  0.000000000000000E+000
  0.000000000000000E+000
  0.000000000000000E+000
  0.000000000000000E+000
  0.000000000000000E+000
  0.000000000000000E+000
  0.000000000000000E+000
  0.000000000000000E+000
  0.000000000000000E+000
  0.000000000000000E+000
  0.000000000000000E+000
  0.000000000000000E+000
  0.000000000000000E+000
  0.000000000000000E+000
  0.000000000000000E+000
  0.000000000000000E+000
  0.000000000000000E+000
  0.000000000000000E+000
  0.000000000000000E+000
  0.000000000000000E+000
  0.000000000000000E+000
  0.000000000000000E+000
  0.000000000000000E+000
  0.000000000000000E+000
  0.000000000000000E+000
  0.000000000000000E+000
  0.000000000000000E+000
  0.000000000000000E+000
  0.000000000000000E+000
  0.000000000000000E+000
  0.000000000000000E+000
  0.000000000000000E+000
  0.000000000000000E+000
  0.000000000000000E+000
  0.000000000000000E+000
  0.000000000000000E+000
  0.000000000000000E+000
  0.000000000000000E+000
  0.000000000000000E+000
  0.000000000000000E+000
  0.000000000000000E+000
  0.000000000000000E+000
  0.000000000000000E+000
  0.000000000000000E+000
  0.000000000000000E+000
  0.000000000000000E+000
  0.000000000000000E+000
  0.000000000000000E+000
  0.000000000000000E+000
  0.000000000000000E+000
  0.000000000000000E+000
  0.000000000000000E+000
  0.000000000000000E+000
  0.000000000000000E+000
  0.000000000000000E+000
  0.000000000000000E+000
  0.000000000000000E+000
  0.000000000000000E+000
  0.000000000000000E+000
  0.000000000000000E+000
  0.000000000000000E+000
  0.000000000000000E+000
  0.000000000000000E+000
  0.000000000000000E+000
  0.000000000000000E+000
  0.000000000000000E+000
  0.000000000000000E+000
  0.000000000000000E+000
  0.000000000000000E+000
  0.000000000000000E+000
  0.000000000000000E+000
  0.000000000000000E+000
  0.000000000000000E+000
  0.000000000000000E+000
  0.000000000000000E+000
  0.000000000000000E+000
  0.000000000000000E+000
  0.000000000000000E+000
  0.000000000000000E+000
  0.000000000000000E+000
  0.000000000000000E+000
  0.000000000000000E+000
  0.000000000000000E+000
  0.000000000000000E+000
  0.000000000000000E+000
  0.000000000000000E+000
  0.000000000000000E+000
  0.000000000000000E+000
  0.000000000000000E+000
  0.000000000000000E+000
  0.000000000000000E+000
  0.000000000000000E+000
  0.000000000000000E+000
  0.000000000000000E+000
  0.000000000000000E+000
  0.000000000000000E+000
  0.000000000000000E+000
  0.000000000000000E+000
  0.000000000000000E+000
  0.000000000000000E+000
  0.000000000000000E+000
  0.000000000000000E+000
  0.000000000000000E+000
  0.000000000000000E+000
  0.000000000000000E+000
  0.000000000000000E+000
  0.000000000000000E+000
  0.000000000000000E+000
  0.000000000000000E+000
  0.000000000000000E+000
  0.000000000000000E+000
  0.000000000000000E+000
  0.000000000000000E+000
  0.000000000000000E+000
  0.000000000000000E+000
  0.000000000000000E+000
  0.000000000000000E+000
  0.000000000000000E+000
  0.000000000000000E+000
  0.000000000000000E+000
  0.000000000000000E+000
  0.000000000000000E+000
  0.000000000000000E+000
  0.000000000000000E+000
  0.000000000000000E+000
  0.000000000000000E+000
  0.000000000000000E+000
  0.000000000000000E+000
  0.000000000000000E+000
  0.000000000000000E+000
  0.000000000000000E+000
  0.000000000000000E+000
  0.000000000000000E+000
  0.000000000000000E+000
  0.000000000000000E+000
  0.000000000000000E+000
  0.000000000000000E+000
  0.000000000000000E+000
  0.000000000000000E+000
  0.000000000000000E+000
  0.000000000000000E+000
  0.000000000000000E+000
  0.000000000000000E+000
  0.000000000000000E+000
  0.000000000000000E+000
  0.000000000000000E+000
  0.000000000000000E+000
  0.000000000000000E+000
  0.000000000000000E+000
  0.000000000000000E+000
  0.000000000000000E+000
  0.000000000000000E+000
  0.000000000000000E+000
  0.000000000000000E+000
  0.000000000000000E+000
  0.000000000000000E+000
  0.000000000000000E+000
  0.000000000000000E+000
  0.000000000000000E+000
  0.000000000000000E+000
  0.000000000000000E+000
  0.000000000000000E+000
  0.000000000000000E+000
  0.000000000000000E+000
  0.000000000000000E+000
  0.000000000000000E+000
  0.000000000000000E+000
  0.000000000000000E+000
  0.000000000000000E+000
  0.000000000000000E+000
  0.000000000000000E+000
  0.000000000000000E+000
  0.000000000000000E+000
  0.000000000000000E+000
  0.000000000000000E+000
  0.000000000000000E+000
  0.000000000000000E+000
  0.000000000000000E+000
  0.000000000000000E+000
  0.000000000000000E+000
  0.000000000000000E+000
  0.000000000000000E+000
  0.000000000000000E+000
  0.000000000000000E+000
  0.000000000000000E+000
  0.000000000000000E+000
  0.000000000000000E+000
  0.000000000000000E+000
  0.000000000000000E+000
  0.000000000000000E+000
  0.000000000000000E+000
  0.000000000000000E+000
  0.000000000000000E+000
  0.000000000000000E+000
  0.000000000000000E+000
  0.000000000000000E+000
  0.000000000000000E+000
  0.000000000000000E+000
  0.000000000000000E+000
  0.000000000000000E+000
  0.000000000000000E+000
  0.000000000000000E+000
  0.000000000000000E+000
  0.000000000000000E+000
  0.000000000000000E+000
  0.000000000000000E+000
  0.000000000000000E+000
  0.000000000000000E+000
  0.000000000000000E+000
  0.000000000000000E+000
  0.000000000000000E+000
  0.000000000000000E+000
  0.000000000000000E+000
  0.000000000000000E+000
  0.000000000000000E+000
  0.000000000000000E+000
  0.000000000000000E+000
  0.000000000000000E+000
  0.000000000000000E+000
  0.000000000000000E+000
  0.000000000000000E+000
  0.000000000000000E+000
  0.000000000000000E+000
  0.000000000000000E+000
  0.000000000000000E+000
  0.000000000000000E+000
  0.000000000000000E+000
  0.000000000000000E+000
  0.000000000000000E+000
  0.000000000000000E+000
  0.000000000000000E+000
  0.000000000000000E+000
  0.000000000000000E+000
  0.000000000000000E+000
  0.000000000000000E+000
  0.000000000000000E+000
  0.000000000000000E+000
  0.000000000000000E+000
  0.000000000000000E+000
  0.000000000000000E+000
  0.000000000000000E+000
  0.000000000000000E+000
  0.000000000000000E+000
  0.000000000000000E+000
  0.000000000000000E+000
  0.000000000000000E+000
  0.000000000000000E+000
  0.000000000000000E+000
  0.000000000000000E+000
  0.000000000000000E+000
  0.000000000000000E+000
  0.000000000000000E+000
  0.000000000000000E+000
  0.000000000000000E+000
  0.000000000000000E+000
  0.000000000000000E+000
  0.000000000000000E+000
  0.000000000000000E+000
  0.000000000000000E+000
  0.000000000000000E+000
  0.000000000000000E+000
  0.000000000000000E+000
  0.000000000000000E+000
  0.000000000000000E+000
  0.000000000000000E+000
  0.000000000000000E+000
  0.000000000000000E+000
  0.000000000000000E+000
  0.000000000000000E+000
  0.000000000000000E+000
  0.000000000000000E+000
  0.000000000000000E+000
  0.000000000000000E+000
  0.000000000000000E+000
  0.000000000000000E+000
  0.000000000000000E+000
  0.000000000000000E+000
  0.000000000000000E+000
  0.000000000000000E+000
  0.000000000000000E+000
  0.000000000000000E+000
  0.000000000000000E+000
  0.000000000000000E+000
  0.000000000000000E+000
  0.000000000000000E+000
  0.000000000000000E+000
  0.000000000000000E+000
  0.000000000000000E+000
  0.000000000000000E+000
  0.000000000000000E+000
  0.000000000000000E+000
  0.000000000000000E+000
  0.000000000000000E+000
  0.000000000000000E+000
  0.000000000000000E+000
  0.000000000000000E+000
  0.000000000000000E+000
  0.000000000000000E+000
  0.000000000000000E+000
  0.000000000000000E+000
  0.000000000000000E+000
  0.000000000000000E+000
  0.000000000000000E+000
  0.000000000000000E+000
  0.000000000000000E+000
  0.000000000000000E+000
  0.000000000000000E+000
  0.000000000000000E+000
  0.000000000000000E+000
  0.000000000000000E+000
  0.000000000000000E+000
  0.000000000000000E+000
  0.000000000000000E+000
  0.000000000000000E+000
  0.000000000000000E+000
  0.000000000000000E+000
  0.000000000000000E+000
  0.000000000000000E+000
  0.000000000000000E+000
  0.000000000000000E+000
  0.000000000000000E+000
  0.000000000000000E+000
  0.000000000000000E+000
  0.000000000000000E+000
  0.000000000000000E+000
  0.000000000000000E+000
  0.000000000000000E+000
  0.000000000000000E+000
  0.000000000000000E+000
  0.000000000000000E+000
  0.000000000000000E+000
  0.000000000000000E+000
  0.000000000000000E+000
  0.000000000000000E+000
  0.000000000000000E+000
  0.000000000000000E+000
  0.000000000000000E+000
  0.000000000000000E+000
  0.000000000000000E+000
  0.000000000000000E+000
  0.000000000000000E+000
  0.000000000000000E+000
  0.000000000000000E+000
  0.000000000000000E+000
  0.000000000000000E+000
  0.000000000000000E+000
  0.000000000000000E+000
  0.000000000000000E+000
  0.000000000000000E+000
  0.000000000000000E+000
  0.000000000000000E+000
  0.000000000000000E+000
  0.000000000000000E+000
  0.000000000000000E+000
  0.000000000000000E+000
  0.000000000000000E+000
  0.000000000000000E+000
  0.000000000000000E+000
  0.000000000000000E+000
  0.000000000000000E+000
  0.000000000000000E+000
  0.000000000000000E+000
  0.000000000000000E+000
  0.000000000000000E+000
  0.000000000000000E+000
  0.000000000000000E+000
  0.000000000000000E+000
  0.000000000000000E+000
  0.000000000000000E+000
  0.000000000000000E+000
  0.000000000000000E+000
  0.000000000000000E+000
  0.000000000000000E+000
  0.000000000000000E+000
  0.000000000000000E+000
  0.000000000000000E+000
  0.000000000000000E+000
  0.000000000000000E+000
  0.000000000000000E+000
  0.000000000000000E+000
  0.000000000000000E+000
  0.000000000000000E+000
  0.000000000000000E+000
  0.000000000000000E+000
  0.000000000000000E+000
  0.000000000000000E+000
  0.000000000000000E+000
  0.000000000000000E+000
  0.000000000000000E+000
  0.000000000000000E+000
  0.000000000000000E+000
  0.000000000000000E+000
  0.000000000000000E+000
  0.000000000000000E+000
  0.000000000000000E+000
  0.000000000000000E+000
  0.000000000000000E+000
  0.000000000000000E+000
  0.000000000000000E+000
  0.000000000000000E+000
  0.000000000000000E+000
  0.000000000000000E+000
  0.000000000000000E+000
  0.000000000000000E+000
  0.000000000000000E+000
  0.000000000000000E+000
  0.000000000000000E+000
  0.000000000000000E+000
  0.000000000000000E+000
  0.000000000000000E+000
  0.000000000000000E+000
  0.000000000000000E+000
  0.000000000000000E+000
  0.000000000000000E+000
  0.000000000000000E+000
  0.000000000000000E+000
  0.000000000000000E+000
  0.000000000000000E+000
  0.000000000000000E+000
  0.000000000000000E+000
  0.000000000000000E+000
  0.000000000000000E+000
  0.000000000000000E+000
  0.000000000000000E+000
  0.000000000000000E+000
  0.000000000000000E+000
  0.000000000000000E+000
  0.000000000000000E+000
  0.000000000000000E+000
  0.000000000000000E+000
  0.000000000000000E+000
  0.000000000000000E+000
  0.000000000000000E+000
  0.000000000000000E+000
  0.000000000000000E+000
  0.000000000000000E+000
  0.000000000000000E+000
  0.000000000000000E+000
  0.000000000000000E+000
  0.000000000000000E+000
  0.000000000000000E+000
  0.000000000000000E+000
  0.000000000000000E+000
  0.000000000000000E+000
  0.000000000000000E+000
  0.000000000000000E+000
  0.000000000000000E+000
  0.000000000000000E+000
  0.000000000000000E+000
  0.000000000000000E+000
  0.000000000000000E+000
  0.000000000000000E+000
  0.000000000000000E+000
  0.000000000000000E+000
  0.000000000000000E+000
  0.000000000000000E+000
  0.000000000000000E+000
  0.000000000000000E+000
  0.000000000000000E+000
  0.000000000000000E+000
  0.000000000000000E+000
  0.000000000000000E+000
  0.000000000000000E+000
  0.000000000000000E+000
  0.000000000000000E+000
  0.000000000000000E+000
  0.000000000000000E+000
  0.000000000000000E+000
  0.000000000000000E+000
  0.000000000000000E+000
  0.000000000000000E+000
  0.000000000000000E+000
  0.000000000000000E+000
  0.000000000000000E+000
  0.000000000000000E+000
  0.000000000000000E+000
  0.000000000000000E+000
  0.000000000000000E+000
  0.000000000000000E+000
  0.000000000000000E+000
  0.000000000000000E+000
  0.000000000000000E+000
  0.000000000000000E+000
  0.000000000000000E+000
  0.000000000000000E+000
  0.000000000000000E+000
  0.000000000000000E+000
  0.000000000000000E+000
  0.000000000000000E+000
  0.000000000000000E+000
  0.000000000000000E+000
  0.000000000000000E+000
  0.000000000000000E+000
  0.000000000000000E+000
  0.000000000000000E+000
  0.000000000000000E+000
  0.000000000000000E+000
  0.000000000000000E+000
  0.000000000000000E+000
  0.000000000000000E+000
  0.000000000000000E+000
  0.000000000000000E+000
  0.000000000000000E+000
  0.000000000000000E+000
  0.000000000000000E+000
  0.000000000000000E+000
  0.000000000000000E+000
  0.000000000000000E+000
  0.000000000000000E+000
  0.000000000000000E+000
  0.000000000000000E+000
  0.000000000000000E+000
  0.000000000000000E+000
  0.000000000000000E+000
  0.000000000000000E+000
  0.000000000000000E+000
  0.000000000000000E+000
  0.000000000000000E+000
  0.000000000000000E+000
  0.000000000000000E+000
  0.000000000000000E+000
  0.000000000000000E+000
  0.000000000000000E+000
  0.000000000000000E+000
  0.000000000000000E+000
  0.000000000000000E+000
  0.000000000000000E+000
  0.000000000000000E+000
  0.000000000000000E+000
  0.000000000000000E+000
  0.000000000000000E+000
  0.000000000000000E+000
  0.000000000000000E+000
  0.000000000000000E+000
  0.000000000000000E+000
  0.000000000000000E+000
  0.000000000000000E+000
  0.000000000000000E+000
  0.000000000000000E+000
  0.000000000000000E+000
  0.000000000000000E+000
  0.000000000000000E+000
  0.000000000000000E+000
  0.000000000000000E+000
  0.000000000000000E+000
  0.000000000000000E+000
  0.000000000000000E+000
  0.000000000000000E+000
  0.000000000000000E+000
  0.000000000000000E+000
  0.000000000000000E+000
  0.000000000000000E+000
  0.000000000000000E+000
  0.000000000000000E+000
  0.000000000000000E+000
  0.000000000000000E+000
  0.000000000000000E+000
  0.000000000000000E+000
  0.000000000000000E+000
  0.000000000000000E+000
  0.000000000000000E+000
  0.000000000000000E+000
  0.000000000000000E+000
  0.000000000000000E+000
  0.000000000000000E+000
  0.000000000000000E+000
  0.000000000000000E+000
  0.000000000000000E+000
  0.000000000000000E+000
  0.000000000000000E+000
  0.000000000000000E+000
  0.000000000000000E+000
  0.000000000000000E+000
  0.000000000000000E+000
  0.000000000000000E+000
  0.000000000000000E+000
  0.000000000000000E+000
  0.000000000000000E+000
  0.000000000000000E+000
  0.000000000000000E+000
  0.000000000000000E+000
  0.000000000000000E+000
  0.000000000000000E+000
  0.000000000000000E+000
  0.000000000000000E+000
  0.000000000000000E+000
  0.000000000000000E+000
  0.000000000000000E+000
  0.000000000000000E+000
  0.000000000000000E+000
  0.000000000000000E+000
  0.000000000000000E+000
  0.000000000000000E+000
  0.000000000000000E+000
  0.000000000000000E+000
  0.000000000000000E+000
  0.000000000000000E+000
  0.000000000000000E+000
  0.000000000000000E+000
  0.000000000000000E+000
  0.000000000000000E+000
  0.000000000000000E+000
  0.000000000000000E+000
  0.000000000000000E+000
  0.000000000000000E+000
  0.000000000000000E+000
  0.000000000000000E+000
  0.000000000000000E+000
  0.000000000000000E+000
  0.000000000000000E+000
  0.000000000000000E+000
  0.000000000000000E+000
  0.000000000000000E+000
  0.000000000000000E+000
  0.000000000000000E+000
  0.000000000000000E+000
  0.000000000000000E+000
  0.000000000000000E+000
  0.000000000000000E+000
  0.000000000000000E+000
  0.000000000000000E+000
  0.000000000000000E+000
  0.000000000000000E+000
  0.000000000000000E+000
  0.000000000000000E+000
  0.000000000000000E+000
  0.000000000000000E+000
  0.000000000000000E+000
  0.000000000000000E+000
  0.000000000000000E+000
  0.000000000000000E+000
  0.000000000000000E+000
  0.000000000000000E+000
  0.000000000000000E+000
  0.000000000000000E+000
  0.000000000000000E+000
  0.000000000000000E+000
  0.000000000000000E+000
  0.000000000000000E+000
  0.000000000000000E+000
  0.000000000000000E+000
  0.000000000000000E+000
  0.000000000000000E+000
  0.000000000000000E+000
  0.000000000000000E+000
  0.000000000000000E+000
  0.000000000000000E+000
  0.000000000000000E+000
  0.000000000000000E+000
  0.000000000000000E+000
  0.000000000000000E+000
  0.000000000000000E+000
  0.000000000000000E+000
  0.000000000000000E+000
  0.000000000000000E+000
  0.000000000000000E+000
  0.000000000000000E+000
  0.000000000000000E+000
  0.000000000000000E+000
  0.000000000000000E+000
  0.000000000000000E+000
  0.000000000000000E+000
  0.000000000000000E+000
  0.000000000000000E+000
  0.000000000000000E+000
  0.000000000000000E+000
  0.000000000000000E+000
  0.000000000000000E+000
  0.000000000000000E+000
  0.000000000000000E+000
  0.000000000000000E+000
  0.000000000000000E+000
  0.000000000000000E+000
  0.000000000000000E+000
  0.000000000000000E+000
  0.000000000000000E+000
  0.000000000000000E+000
  0.000000000000000E+000
  0.000000000000000E+000
  0.000000000000000E+000
  0.000000000000000E+000
  0.000000000000000E+000
  0.000000000000000E+000
  0.000000000000000E+000
  0.000000000000000E+000
  0.000000000000000E+000
  0.000000000000000E+000
  0.000000000000000E+000
  0.000000000000000E+000
  0.000000000000000E+000
  0.000000000000000E+000
  0.000000000000000E+000
  0.000000000000000E+000
  0.000000000000000E+000
  0.000000000000000E+000
  0.000000000000000E+000
  0.000000000000000E+000
  0.000000000000000E+000
  0.000000000000000E+000
  0.000000000000000E+000
  0.000000000000000E+000
  0.000000000000000E+000
  0.000000000000000E+000
  0.000000000000000E+000
  0.000000000000000E+000
  0.000000000000000E+000
  0.000000000000000E+000
  0.000000000000000E+000
  0.000000000000000E+000
  0.000000000000000E+000
  0.000000000000000E+000
  0.000000000000000E+000
  0.000000000000000E+000
  0.000000000000000E+000
  0.000000000000000E+000
  0.000000000000000E+000
  0.000000000000000E+000
  0.000000000000000E+000
  0.000000000000000E+000
  0.000000000000000E+000
  0.000000000000000E+000
  0.000000000000000E+000
  0.000000000000000E+000
  0.000000000000000E+000
  0.000000000000000E+000
  0.000000000000000E+000
  0.000000000000000E+000
  0.000000000000000E+000
  0.000000000000000E+000
  0.000000000000000E+000
  0.000000000000000E+000
  0.000000000000000E+000
  0.000000000000000E+000
  0.000000000000000E+000
  0.000000000000000E+000
  0.000000000000000E+000
  0.000000000000000E+000
  0.000000000000000E+000
  0.000000000000000E+000
  0.000000000000000E+000
  0.000000000000000E+000
  0.000000000000000E+000
  0.000000000000000E+000
  0.000000000000000E+000
  0.000000000000000E+000
  0.000000000000000E+000
  0.000000000000000E+000
  0.000000000000000E+000
  0.000000000000000E+000
  0.000000000000000E+000
  0.000000000000000E+000
  0.000000000000000E+000
  0.000000000000000E+000
  0.000000000000000E+000
  0.000000000000000E+000
  0.000000000000000E+000
  0.000000000000000E+000
  0.000000000000000E+000
  0.000000000000000E+000
  0.000000000000000E+000
  0.000000000000000E+000
  0.000000000000000E+000
  0.000000000000000E+000
  0.000000000000000E+000
  0.000000000000000E+000
  0.000000000000000E+000
  0.000000000000000E+000
  0.000000000000000E+000
  0.000000000000000E+000
  0.000000000000000E+000
  0.000000000000000E+000
  0.000000000000000E+000
  0.000000000000000E+000
  0.000000000000000E+000
  0.000000000000000E+000
  0.000000000000000E+000
  0.000000000000000E+000
  0.000000000000000E+000
  0.000000000000000E+000
  0.000000000000000E+000
  0.000000000000000E+000
  0.000000000000000E+000
  0.000000000000000E+000
  0.000000000000000E+000
  0.000000000000000E+000
  0.000000000000000E+000
  0.000000000000000E+000
  0.000000000000000E+000
  0.000000000000000E+000
  0.000000000000000E+000
  0.000000000000000E+000
  0.000000000000000E+000
  0.000000000000000E+000
  0.000000000000000E+000
  0.000000000000000E+000
  0.000000000000000E+000
  0.000000000000000E+000
  0.000000000000000E+000
  0.000000000000000E+000
  0.000000000000000E+000
  0.000000000000000E+000
  0.000000000000000E+000
  0.000000000000000E+000
  0.000000000000000E+000
  0.000000000000000E+000
  0.000000000000000E+000
  0.000000000000000E+000
  0.000000000000000E+000
  0.000000000000000E+000
  0.000000000000000E+000
  0.000000000000000E+000
  0.000000000000000E+000
  0.000000000000000E+000
  0.000000000000000E+000
  0.000000000000000E+000
  0.000000000000000E+000
  0.000000000000000E+000
  0.000000000000000E+000
  0.000000000000000E+000
  0.000000000000000E+000
  0.000000000000000E+000
  0.000000000000000E+000
  0.000000000000000E+000
  0.000000000000000E+000
  0.000000000000000E+000
  0.000000000000000E+000
  0.000000000000000E+000
  0.000000000000000E+000
  0.000000000000000E+000
  0.000000000000000E+000
  0.000000000000000E+000
  0.000000000000000E+000
  0.000000000000000E+000
  0.000000000000000E+000
  0.000000000000000E+000
  0.000000000000000E+000
  0.000000000000000E+000
  0.000000000000000E+000
  0.000000000000000E+000
  0.000000000000000E+000
  0.000000000000000E+000
  0.000000000000000E+000
  0.000000000000000E+000
  0.000000000000000E+000
  0.000000000000000E+000
  0.000000000000000E+000
  0.000000000000000E+000
  0.000000000000000E+000
  0.000000000000000E+000
  0.000000000000000E+000
  0.000000000000000E+000
  0.000000000000000E+000
  0.000000000000000E+000
  0.000000000000000E+000
  0.000000000000000E+000
  0.000000000000000E+000
  0.000000000000000E+000
  0.000000000000000E+000
  0.000000000000000E+000
  0.000000000000000E+000
  0.000000000000000E+000
  0.000000000000000E+000
  0.000000000000000E+000
  0.000000000000000E+000
  0.000000000000000E+000
  0.000000000000000E+000
  0.000000000000000E+000
  0.000000000000000E+000
  0.000000000000000E+000
  0.000000000000000E+000
  0.000000000000000E+000
  0.000000000000000E+000
  0.000000000000000E+000
  0.000000000000000E+000
  0.000000000000000E+000
  0.000000000000000E+000
  0.000000000000000E+000
  0.000000000000000E+000
  0.000000000000000E+000
  0.000000000000000E+000
  0.000000000000000E+000
  0.000000000000000E+000
  0.000000000000000E+000
  0.000000000000000E+000
  0.000000000000000E+000
  0.000000000000000E+000
  0.000000000000000E+000
  0.000000000000000E+000
  0.000000000000000E+000
  0.000000000000000E+000
  0.000000000000000E+000
  0.000000000000000E+000
  0.000000000000000E+000
  0.000000000000000E+000
  0.000000000000000E+000
  0.000000000000000E+000
  0.000000000000000E+000
  0.000000000000000E+000
  0.000000000000000E+000
  0.000000000000000E+000
  0.000000000000000E+000
  0.000000000000000E+000
  0.000000000000000E+000
  0.000000000000000E+000
  0.000000000000000E+000
  0.000000000000000E+000
  0.000000000000000E+000
  0.000000000000000E+000
  0.000000000000000E+000
  0.000000000000000E+000
  0.000000000000000E+000
  0.000000000000000E+000
  0.000000000000000E+000
  0.000000000000000E+000
  0.000000000000000E+000
  0.000000000000000E+000
  0.000000000000000E+000
  0.000000000000000E+000
  0.000000000000000E+000
  0.000000000000000E+000
  0.000000000000000E+000
  0.000000000000000E+000
  0.000000000000000E+000
  0.000000000000000E+000
  0.000000000000000E+000
  0.000000000000000E+000
  0.000000000000000E+000
  0.000000000000000E+000
  0.000000000000000E+000
  0.000000000000000E+000
  0.000000000000000E+000
  0.000000000000000E+000
  0.000000000000000E+000
  0.000000000000000E+000
  0.000000000000000E+000
  0.000000000000000E+000
  0.000000000000000E+000
  0.000000000000000E+000
  0.000000000000000E+000
  0.000000000000000E+000
  0.000000000000000E+000
  0.000000000000000E+000
  0.000000000000000E+000
  0.000000000000000E+000
  0.000000000000000E+000
  0.000000000000000E+000
  0.000000000000000E+000
  0.000000000000000E+000
  0.000000000000000E+000
  0.000000000000000E+000
  0.000000000000000E+000
  0.000000000000000E+000
  0.000000000000000E+000
  0.000000000000000E+000
  0.000000000000000E+000
  0.000000000000000E+000
  0.000000000000000E+000
  0.000000000000000E+000
  0.000000000000000E+000
  0.000000000000000E+000
  0.000000000000000E+000
  0.000000000000000E+000
  0.000000000000000E+000
  0.000000000000000E+000
  0.000000000000000E+000
  0.000000000000000E+000
  0.000000000000000E+000
  0.000000000000000E+000
  0.000000000000000E+000
  0.000000000000000E+000
  0.000000000000000E+000
  0.000000000000000E+000
  0.000000000000000E+000
  0.000000000000000E+000
  0.000000000000000E+000
  0.000000000000000E+000
  0.000000000000000E+000
  0.000000000000000E+000
  0.000000000000000E+000
  0.000000000000000E+000
  0.000000000000000E+000
  0.000000000000000E+000
  0.000000000000000E+000
  0.000000000000000E+000
  0.000000000000000E+000
  0.000000000000000E+000
  0.000000000000000E+000
  0.000000000000000E+000
  0.000000000000000E+000
  0.000000000000000E+000
  0.000000000000000E+000
  0.000000000000000E+000
  0.000000000000000E+000
  0.000000000000000E+000
  0.000000000000000E+000
  0.000000000000000E+000
  0.000000000000000E+000
  0.000000000000000E+000
  0.000000000000000E+000
  0.000000000000000E+000
  0.000000000000000E+000
  0.000000000000000E+000
  0.000000000000000E+000
  0.000000000000000E+000
  0.000000000000000E+000
  0.000000000000000E+000
  0.000000000000000E+000
  0.000000000000000E+000
  0.000000000000000E+000
  0.000000000000000E+000
  0.000000000000000E+000
  0.000000000000000E+000
  0.000000000000000E+000
  0.000000000000000E+000
  0.000000000000000E+000
  0.000000000000000E+000
  0.000000000000000E+000
  0.000000000000000E+000
  0.000000000000000E+000
  0.000000000000000E+000
  0.000000000000000E+000
  0.000000000000000E+000
  0.000000000000000E+000
  0.000000000000000E+000
  0.000000000000000E+000
  0.000000000000000E+000
  0.000000000000000E+000
  0.000000000000000E+000
  0.000000000000000E+000
  0.000000000000000E+000
  0.000000000000000E+000
  0.000000000000000E+000
  0.000000000000000E+000
  0.000000000000000E+000
  0.000000000000000E+000
  0.000000000000000E+000
  0.000000000000000E+000
  0.000000000000000E+000
  0.000000000000000E+000
  0.000000000000000E+000
  0.000000000000000E+000
  0.000000000000000E+000
  0.000000000000000E+000
  0.000000000000000E+000
  0.000000000000000E+000
  0.000000000000000E+000
  0.000000000000000E+000
  0.000000000000000E+000
  0.000000000000000E+000
  0.000000000000000E+000
  0.000000000000000E+000
  0.000000000000000E+000
  0.000000000000000E+000
  0.000000000000000E+000
  0.000000000000000E+000
  0.000000000000000E+000
  0.000000000000000E+000
  0.000000000000000E+000
  0.000000000000000E+000
  0.000000000000000E+000
  0.000000000000000E+000
  0.000000000000000E+000
  0.000000000000000E+000
  0.000000000000000E+000
  0.000000000000000E+000
  0.000000000000000E+000
  0.000000000000000E+000
  0.000000000000000E+000
  0.000000000000000E+000
  0.000000000000000E+000
  0.000000000000000E+000
  0.000000000000000E+000
  0.000000000000000E+000
  0.000000000000000E+000
  0.000000000000000E+000
  0.000000000000000E+000
  0.000000000000000E+000
  0.000000000000000E+000
  0.000000000000000E+000
  0.000000000000000E+000
  0.000000000000000E+000
  0.000000000000000E+000
  0.000000000000000E+000
  0.000000000000000E+000
  0.000000000000000E+000
  0.000000000000000E+000
  0.000000000000000E+000
  0.000000000000000E+000
  0.000000000000000E+000
  0.000000000000000E+000
  0.000000000000000E+000
  0.000000000000000E+000
  0.000000000000000E+000
  0.000000000000000E+000
  0.000000000000000E+000
  0.000000000000000E+000
  0.000000000000000E+000
  0.000000000000000E+000
  0.000000000000000E+000
  0.000000000000000E+000
  0.000000000000000E+000
  0.000000000000000E+000
  0.000000000000000E+000
  0.000000000000000E+000
  0.000000000000000E+000
  0.000000000000000E+000
  0.000000000000000E+000
  0.000000000000000E+000
  0.000000000000000E+000
  0.000000000000000E+000
  0.000000000000000E+000
  0.000000000000000E+000
  0.000000000000000E+000
  0.000000000000000E+000
  0.000000000000000E+000
  0.000000000000000E+000
  0.000000000000000E+000
  0.000000000000000E+000
  0.000000000000000E+000
  0.000000000000000E+000
  0.000000000000000E+000
  0.000000000000000E+000
  0.000000000000000E+000
  0.000000000000000E+000
  0.000000000000000E+000
  0.000000000000000E+000
  0.000000000000000E+000
  0.000000000000000E+000
  0.000000000000000E+000
  0.000000000000000E+000
  0.000000000000000E+000
  0.000000000000000E+000
  0.000000000000000E+000
  0.000000000000000E+000
  0.000000000000000E+000
  0.000000000000000E+000
  0.000000000000000E+000
  0.000000000000000E+000
  0.000000000000000E+000
  0.000000000000000E+000
  0.000000000000000E+000
  0.000000000000000E+000
  0.000000000000000E+000
  0.000000000000000E+000
  0.000000000000000E+000
  0.000000000000000E+000
  0.000000000000000E+000
  0.000000000000000E+000
  0.000000000000000E+000
  0.000000000000000E+000
  0.000000000000000E+000
  0.000000000000000E+000
  0.000000000000000E+000
  0.000000000000000E+000
  0.000000000000000E+000
  0.000000000000000E+000
  0.000000000000000E+000
  0.000000000000000E+000
  0.000000000000000E+000
  0.000000000000000E+000
  0.000000000000000E+000
  0.000000000000000E+000
  0.000000000000000E+000
  0.000000000000000E+000
  0.000000000000000E+000
  0.000000000000000E+000
  0.000000000000000E+000
  0.000000000000000E+000
  0.000000000000000E+000
  0.000000000000000E+000
  0.000000000000000E+000
  0.000000000000000E+000
  0.000000000000000E+000
  0.000000000000000E+000
  0.000000000000000E+000
  0.000000000000000E+000
  0.000000000000000E+000
  0.000000000000000E+000
  0.000000000000000E+000
  0.000000000000000E+000
  0.000000000000000E+000
  0.000000000000000E+000
  0.000000000000000E+000
  0.000000000000000E+000
  0.000000000000000E+000
  0.000000000000000E+000
  0.000000000000000E+000
  0.000000000000000E+000
  0.000000000000000E+000
  0.000000000000000E+000
  0.000000000000000E+000
  0.000000000000000E+000
  0.000000000000000E+000
  0.000000000000000E+000
  0.000000000000000E+000
  0.000000000000000E+000
  0.000000000000000E+000
  0.000000000000000E+000
  0.000000000000000E+000
  0.000000000000000E+000
  0.000000000000000E+000
  0.000000000000000E+000
  0.000000000000000E+000
  0.000000000000000E+000
  0.000000000000000E+000
  0.000000000000000E+000
  0.000000000000000E+000
  0.000000000000000E+000
  0.000000000000000E+000
  0.000000000000000E+000
  0.000000000000000E+000
  0.000000000000000E+000
  0.000000000000000E+000
  0.000000000000000E+000
  0.000000000000000E+000
  0.000000000000000E+000
  0.000000000000000E+000
  0.000000000000000E+000
  0.000000000000000E+000
  0.000000000000000E+000
  0.000000000000000E+000
  0.000000000000000E+000
  0.000000000000000E+000
  0.000000000000000E+000
  0.000000000000000E+000
  0.000000000000000E+000
  0.000000000000000E+000
  0.000000000000000E+000
  0.000000000000000E+000
  0.000000000000000E+000
  0.000000000000000E+000
  0.000000000000000E+000
  0.000000000000000E+000
  0.000000000000000E+000
  0.000000000000000E+000
  0.000000000000000E+000
  0.000000000000000E+000
  0.000000000000000E+000
  0.000000000000000E+000
  0.000000000000000E+000
  0.000000000000000E+000
  0.000000000000000E+000
  0.000000000000000E+000
  0.000000000000000E+000
  0.000000000000000E+000
  0.000000000000000E+000
  0.000000000000000E+000
  0.000000000000000E+000
  0.000000000000000E+000
  0.000000000000000E+000
  0.000000000000000E+000
  0.000000000000000E+000
  0.000000000000000E+000
  0.000000000000000E+000
  0.000000000000000E+000
  0.000000000000000E+000
  0.000000000000000E+000
  0.000000000000000E+000
  0.000000000000000E+000
  0.000000000000000E+000
  0.000000000000000E+000
  0.000000000000000E+000
  0.000000000000000E+000
  0.000000000000000E+000
  0.000000000000000E+000
  0.000000000000000E+000
  0.000000000000000E+000
  0.000000000000000E+000
  0.000000000000000E+000
  0.000000000000000E+000
  0.000000000000000E+000
  0.000000000000000E+000
  0.000000000000000E+000
  0.000000000000000E+000
  0.000000000000000E+000
  0.000000000000000E+000
  0.000000000000000E+000
  0.000000000000000E+000
  0.000000000000000E+000
  0.000000000000000E+000
  0.000000000000000E+000
  0.000000000000000E+000
  0.000000000000000E+000
  0.000000000000000E+000
  0.000000000000000E+000
  0.000000000000000E+000
  0.000000000000000E+000
  0.000000000000000E+000
  0.000000000000000E+000
  0.000000000000000E+000
  0.000000000000000E+000
  0.000000000000000E+000
  0.000000000000000E+000
  0.000000000000000E+000
  0.000000000000000E+000
  0.000000000000000E+000
  0.000000000000000E+000
  0.000000000000000E+000
  0.000000000000000E+000
  0.000000000000000E+000
  0.000000000000000E+000
  0.000000000000000E+000
  0.000000000000000E+000
  0.000000000000000E+000
  0.000000000000000E+000
  0.000000000000000E+000
  0.000000000000000E+000
  0.000000000000000E+000
  0.000000000000000E+000
  0.000000000000000E+000
  0.000000000000000E+000
  0.000000000000000E+000
  0.000000000000000E+000
  0.000000000000000E+000
  0.000000000000000E+000
  0.000000000000000E+000
  0.000000000000000E+000
  0.000000000000000E+000
  0.000000000000000E+000
  0.000000000000000E+000
  0.000000000000000E+000
  0.000000000000000E+000
  0.000000000000000E+000
  0.000000000000000E+000
  0.000000000000000E+000
  0.000000000000000E+000
  0.000000000000000E+000
  0.000000000000000E+000
  0.000000000000000E+000
  0.000000000000000E+000
  0.000000000000000E+000
  0.000000000000000E+000
  0.000000000000000E+000
  0.000000000000000E+000
  0.000000000000000E+000
  0.000000000000000E+000
  0.000000000000000E+000
  0.000000000000000E+000
  0.000000000000000E+000
  0.000000000000000E+000
  0.000000000000000E+000
  0.000000000000000E+000
  0.000000000000000E+000
  0.000000000000000E+000
  0.000000000000000E+000
  0.000000000000000E+000
  0.000000000000000E+000
  0.000000000000000E+000
  0.000000000000000E+000
  0.000000000000000E+000
  0.000000000000000E+000
  0.000000000000000E+000
  0.000000000000000E+000
  0.000000000000000E+000
  0.000000000000000E+000
  0.000000000000000E+000
  0.000000000000000E+000
  0.000000000000000E+000
  0.000000000000000E+000
  0.000000000000000E+000
  0.000000000000000E+000
  0.000000000000000E+000
  0.000000000000000E+000
  0.000000000000000E+000
  0.000000000000000E+000
  0.000000000000000E+000
  0.000000000000000E+000
  0.000000000000000E+000
  0.000000000000000E+000
  0.000000000000000E+000
  0.000000000000000E+000
  0.000000000000000E+000
  0.000000000000000E+000
  0.000000000000000E+000
  0.000000000000000E+000
  0.000000000000000E+000
  0.000000000000000E+000
  0.000000000000000E+000
  0.000000000000000E+000
  0.000000000000000E+000
  0.000000000000000E+000
  0.000000000000000E+000
  0.000000000000000E+000
  0.000000000000000E+000
  0.000000000000000E+000
  0.000000000000000E+000
  0.000000000000000E+000
  0.000000000000000E+000
  0.000000000000000E+000
  0.000000000000000E+000
  0.000000000000000E+000
  0.000000000000000E+000
  0.000000000000000E+000
  0.000000000000000E+000
  0.000000000000000E+000
  0.000000000000000E+000
  0.000000000000000E+000
  0.000000000000000E+000
  0.000000000000000E+000
  0.000000000000000E+000
  0.000000000000000E+000
  0.000000000000000E+000
  0.000000000000000E+000
  0.000000000000000E+000
  0.000000000000000E+000
  0.000000000000000E+000
  0.000000000000000E+000
  0.000000000000000E+000
  0.000000000000000E+000
  0.000000000000000E+000
  0.000000000000000E+000
  0.000000000000000E+000
  0.000000000000000E+000
  0.000000000000000E+000
  0.000000000000000E+000
  0.000000000000000E+000
  0.000000000000000E+000
  0.000000000000000E+000
  0.000000000000000E+000
  0.000000000000000E+000
  0.000000000000000E+000
  0.000000000000000E+000
  0.000000000000000E+000
  0.000000000000000E+000
  0.000000000000000E+000
  0.000000000000000E+000
  0.000000000000000E+000
  0.000000000000000E+000
  0.000000000000000E+000
  0.000000000000000E+000
  0.000000000000000E+000
  0.000000000000000E+000
  0.000000000000000E+000
  0.000000000000000E+000
  0.000000000000000E+000
  0.000000000000000E+000
  0.000000000000000E+000
  0.000000000000000E+000
  0.000000000000000E+000
  0.000000000000000E+000
  0.000000000000000E+000
  0.000000000000000E+000
  0.000000000000000E+000
  0.000000000000000E+000
  0.000000000000000E+000
  0.000000000000000E+000
  0.000000000000000E+000
  0.000000000000000E+000
  0.000000000000000E+000
  0.000000000000000E+000
  0.000000000000000E+000
  0.000000000000000E+000
  0.000000000000000E+000
  0.000000000000000E+000
  0.000000000000000E+000
  0.000000000000000E+000
  0.000000000000000E+000
  0.000000000000000E+000
  0.000000000000000E+000
  0.000000000000000E+000
  0.000000000000000E+000
  0.000000000000000E+000
  0.000000000000000E+000
  0.000000000000000E+000
  0.000000000000000E+000
  0.000000000000000E+000
  0.000000000000000E+000
  0.000000000000000E+000
  0.000000000000000E+000
  0.000000000000000E+000
  0.000000000000000E+000
  0.000000000000000E+000
  0.000000000000000E+000
  0.000000000000000E+000
  0.000000000000000E+000
  0.000000000000000E+000
  0.000000000000000E+000
  0.000000000000000E+000
  0.000000000000000E+000
  0.000000000000000E+000
  0.000000000000000E+000
  0.000000000000000E+000
  0.000000000000000E+000
  0.000000000000000E+000
  0.000000000000000E+000
  0.000000000000000E+000
  0.000000000000000E+000
  0.000000000000000E+000
  0.000000000000000E+000
  0.000000000000000E+000
  0.000000000000000E+000
  0.000000000000000E+000
  0.000000000000000E+000
  0.000000000000000E+000
  0.000000000000000E+000
  0.000000000000000E+000
  0.000000000000000E+000
  0.000000000000000E+000
  0.000000000000000E+000
  0.000000000000000E+000
  0.000000000000000E+000
  0.000000000000000E+000
  0.000000000000000E+000
  0.000000000000000E+000
  0.000000000000000E+000
  0.000000000000000E+000
  0.000000000000000E+000
  0.000000000000000E+000
  0.000000000000000E+000
  0.000000000000000E+000
  0.000000000000000E+000
  0.000000000000000E+000
  0.000000000000000E+000
  0.000000000000000E+000
  0.000000000000000E+000
  0.000000000000000E+000
  0.000000000000000E+000
  0.000000000000000E+000
  0.000000000000000E+000
  0.000000000000000E+000
  0.000000000000000E+000
  0.000000000000000E+000
  0.000000000000000E+000
  0.000000000000000E+000
  0.000000000000000E+000
  0.000000000000000E+000
  0.000000000000000E+000
  0.000000000000000E+000
  0.000000000000000E+000
  0.000000000000000E+000
  0.000000000000000E+000
  0.000000000000000E+000
  0.000000000000000E+000
  0.000000000000000E+000
  0.000000000000000E+000
  0.000000000000000E+000
  0.000000000000000E+000
  0.000000000000000E+000
  0.000000000000000E+000
  0.000000000000000E+000
  0.000000000000000E+000
  0.000000000000000E+000
  0.000000000000000E+000
  0.000000000000000E+000
  0.000000000000000E+000
  0.000000000000000E+000
  0.000000000000000E+000
  0.000000000000000E+000
  0.000000000000000E+000
  0.000000000000000E+000
  0.000000000000000E+000
  0.000000000000000E+000
  0.000000000000000E+000
  0.000000000000000E+000
  0.000000000000000E+000
  0.000000000000000E+000
  0.000000000000000E+000
  0.000000000000000E+000
  0.000000000000000E+000
  0.000000000000000E+000
  0.000000000000000E+000
  0.000000000000000E+000
  0.000000000000000E+000
  0.000000000000000E+000
  0.000000000000000E+000
  0.000000000000000E+000
  0.000000000000000E+000
  0.000000000000000E+000
  0.000000000000000E+000
  0.000000000000000E+000
  0.000000000000000E+000
  0.000000000000000E+000
  0.000000000000000E+000
  0.000000000000000E+000
  0.000000000000000E+000
  0.000000000000000E+000
  0.000000000000000E+000
  0.000000000000000E+000
  0.000000000000000E+000
  0.000000000000000E+000
  0.000000000000000E+000
  0.000000000000000E+000
  0.000000000000000E+000
  0.000000000000000E+000
  0.000000000000000E+000
  0.000000000000000E+000
  0.000000000000000E+000
  0.000000000000000E+000
  0.000000000000000E+000
  0.000000000000000E+000
  0.000000000000000E+000
  0.000000000000000E+000
  0.000000000000000E+000
  0.000000000000000E+000
  0.000000000000000E+000
  0.000000000000000E+000
  0.000000000000000E+000
  0.000000000000000E+000
  0.000000000000000E+000
  0.000000000000000E+000
  0.000000000000000E+000
  0.000000000000000E+000
  0.000000000000000E+000
  0.000000000000000E+000
  0.000000000000000E+000
  0.000000000000000E+000
  0.000000000000000E+000
  0.000000000000000E+000
  0.000000000000000E+000
  0.000000000000000E+000
  0.000000000000000E+000
  0.000000000000000E+000
  0.000000000000000E+000
  0.000000000000000E+000
  0.000000000000000E+000
  0.000000000000000E+000
  0.000000000000000E+000
  0.000000000000000E+000
  0.000000000000000E+000
  0.000000000000000E+000
  0.000000000000000E+000
  0.000000000000000E+000
  0.000000000000000E+000
  0.000000000000000E+000
  0.000000000000000E+000
  0.000000000000000E+000
  0.000000000000000E+000
  0.000000000000000E+000
  0.000000000000000E+000
  0.000000000000000E+000
  0.000000000000000E+000
  0.000000000000000E+000
  0.000000000000000E+000
  0.000000000000000E+000
  0.000000000000000E+000
  0.000000000000000E+000
  0.000000000000000E+000
  0.000000000000000E+000
  0.000000000000000E+000
  0.000000000000000E+000
  0.000000000000000E+000
  0.000000000000000E+000
  0.000000000000000E+000
  0.000000000000000E+000
  0.000000000000000E+000
  0.000000000000000E+000
  0.000000000000000E+000
  0.000000000000000E+000
  0.000000000000000E+000
  0.000000000000000E+000
  0.000000000000000E+000
  0.000000000000000E+000
  0.000000000000000E+000
  0.000000000000000E+000
  0.000000000000000E+000
  0.000000000000000E+000
  0.000000000000000E+000
  0.000000000000000E+000
  0.000000000000000E+000
  0.000000000000000E+000
  0.000000000000000E+000
  0.000000000000000E+000
  0.000000000000000E+000
  0.000000000000000E+000
  0.000000000000000E+000
  0.000000000000000E+000
  0.000000000000000E+000
  0.000000000000000E+000
  0.000000000000000E+000
  0.000000000000000E+000
  0.000000000000000E+000
  0.000000000000000E+000
  0.000000000000000E+000
  0.000000000000000E+000
  0.000000000000000E+000
  0.000000000000000E+000
  0.000000000000000E+000
  0.000000000000000E+000
  0.000000000000000E+000
  0.000000000000000E+000
  0.000000000000000E+000
  0.000000000000000E+000
  0.000000000000000E+000
  0.000000000000000E+000
  0.000000000000000E+000
  0.000000000000000E+000
  0.000000000000000E+000
  0.000000000000000E+000
  0.000000000000000E+000
  0.000000000000000E+000
  0.000000000000000E+000
  0.000000000000000E+000
  0.000000000000000E+000
  0.000000000000000E+000
  0.000000000000000E+000
  0.000000000000000E+000
  0.000000000000000E+000
  0.000000000000000E+000
  0.000000000000000E+000
  0.000000000000000E+000
  0.000000000000000E+000
  0.000000000000000E+000
  0.000000000000000E+000
  0.000000000000000E+000
  0.000000000000000E+000
  0.000000000000000E+000
  0.000000000000000E+000
  0.000000000000000E+000
  0.000000000000000E+000
  0.000000000000000E+000
  0.000000000000000E+000
  0.000000000000000E+000
  0.000000000000000E+000
  0.000000000000000E+000
  0.000000000000000E+000
  0.000000000000000E+000
  0.000000000000000E+000
  0.000000000000000E+000
  0.000000000000000E+000
  0.000000000000000E+000
  0.000000000000000E+000
  0.000000000000000E+000
  0.000000000000000E+000
  0.000000000000000E+000
  0.000000000000000E+000
  0.000000000000000E+000
  0.000000000000000E+000
  0.000000000000000E+000
  0.000000000000000E+000
  0.000000000000000E+000
  0.000000000000000E+000
  0.000000000000000E+000
  0.000000000000000E+000
  0.000000000000000E+000
  0.000000000000000E+000
  0.000000000000000E+000
  0.000000000000000E+000
  0.000000000000000E+000
  0.000000000000000E+000
  0.000000000000000E+000
  0.000000000000000E+000
  0.000000000000000E+000
  0.000000000000000E+000
  0.000000000000000E+000
  0.000000000000000E+000
  0.000000000000000E+000
  0.000000000000000E+000
  0.000000000000000E+000
  0.000000000000000E+000
  0.000000000000000E+000
  0.000000000000000E+000
  0.000000000000000E+000
  0.000000000000000E+000
  0.000000000000000E+000
  0.000000000000000E+000
  0.000000000000000E+000
  0.000000000000000E+000
  0.000000000000000E+000
  0.000000000000000E+000
  0.000000000000000E+000
  0.000000000000000E+000
  0.000000000000000E+000
  0.000000000000000E+000
  0.000000000000000E+000
  0.000000000000000E+000
  0.000000000000000E+000
  0.000000000000000E+000
  0.000000000000000E+000
  0.000000000000000E+000
  0.000000000000000E+000
  0.000000000000000E+000
  0.000000000000000E+000
  0.000000000000000E+000
  0.000000000000000E+000
  0.000000000000000E+000
  0.000000000000000E+000
  0.000000000000000E+000
  0.000000000000000E+000
  0.000000000000000E+000
  0.000000000000000E+000
  0.000000000000000E+000
  0.000000000000000E+000
  0.000000000000000E+000
  0.000000000000000E+000
  0.000000000000000E+000
  0.000000000000000E+000
  0.000000000000000E+000
  0.000000000000000E+000
  0.000000000000000E+000
  0.000000000000000E+000
  0.000000000000000E+000
  0.000000000000000E+000
  0.000000000000000E+000
  0.000000000000000E+000
  0.000000000000000E+000
  0.000000000000000E+000
  0.000000000000000E+000
  0.000000000000000E+000
  0.000000000000000E+000
  0.000000000000000E+000
  0.000000000000000E+000
  0.000000000000000E+000
  0.000000000000000E+000
  0.000000000000000E+000
  0.000000000000000E+000
  0.000000000000000E+000
  0.000000000000000E+000
  0.000000000000000E+000
  0.000000000000000E+000
  0.000000000000000E+000
  0.000000000000000E+000
  0.000000000000000E+000
  0.000000000000000E+000
  0.000000000000000E+000
  0.000000000000000E+000
  0.000000000000000E+000
  0.000000000000000E+000
  0.000000000000000E+000
  0.000000000000000E+000
  0.000000000000000E+000
  0.000000000000000E+000
  0.000000000000000E+000
  0.000000000000000E+000
  0.000000000000000E+000
  0.000000000000000E+000
  0.000000000000000E+000
  0.000000000000000E+000
  0.000000000000000E+000
  0.000000000000000E+000
  0.000000000000000E+000
  0.000000000000000E+000
  0.000000000000000E+000
  0.000000000000000E+000
  0.000000000000000E+000
  0.000000000000000E+000
  0.000000000000000E+000
  0.000000000000000E+000
  0.000000000000000E+000
  0.000000000000000E+000
  0.000000000000000E+000
  0.000000000000000E+000
  0.000000000000000E+000
  0.000000000000000E+000
  0.000000000000000E+000
  0.000000000000000E+000
  0.000000000000000E+000
  0.000000000000000E+000
  0.000000000000000E+000
  0.000000000000000E+000
  0.000000000000000E+000
  0.000000000000000E+000
  0.000000000000000E+000
  0.000000000000000E+000
  0.000000000000000E+000
  0.000000000000000E+000
  0.000000000000000E+000
  0.000000000000000E+000
  0.000000000000000E+000
  0.000000000000000E+000
  0.000000000000000E+000
  0.000000000000000E+000
  0.000000000000000E+000
  0.000000000000000E+000
  0.000000000000000E+000
  0.000000000000000E+000
  0.000000000000000E+000
  0.000000000000000E+000
  0.000000000000000E+000
  0.000000000000000E+000
  0.000000000000000E+000
  0.000000000000000E+000
  0.000000000000000E+000
  0.000000000000000E+000
  0.000000000000000E+000
  0.000000000000000E+000
  0.000000000000000E+000
  0.000000000000000E+000
  0.000000000000000E+000
  0.000000000000000E+000
  0.000000000000000E+000
  0.000000000000000E+000
  0.000000000000000E+000
  0.000000000000000E+000
  0.000000000000000E+000
  0.000000000000000E+000
  0.000000000000000E+000
  0.000000000000000E+000
  0.000000000000000E+000
  0.000000000000000E+000
  0.000000000000000E+000
  0.000000000000000E+000
  0.000000000000000E+000
  0.000000000000000E+000
  0.000000000000000E+000
  0.000000000000000E+000
  0.000000000000000E+000
  0.000000000000000E+000
  0.000000000000000E+000
  0.000000000000000E+000
  0.000000000000000E+000
  0.000000000000000E+000
  0.000000000000000E+000
  0.000000000000000E+000
  0.000000000000000E+000
  0.000000000000000E+000
  0.000000000000000E+000
  0.000000000000000E+000
  0.000000000000000E+000
  0.000000000000000E+000
  0.000000000000000E+000
  0.000000000000000E+000
  0.000000000000000E+000
  0.000000000000000E+000
  0.000000000000000E+000
  0.000000000000000E+000
  0.000000000000000E+000
  0.000000000000000E+000
  0.000000000000000E+000
  0.000000000000000E+000
  0.000000000000000E+000
  0.000000000000000E+000
  0.000000000000000E+000
  0.000000000000000E+000
  0.000000000000000E+000
  0.000000000000000E+000
  0.000000000000000E+000
  0.000000000000000E+000
  0.000000000000000E+000
  0.000000000000000E+000
  0.000000000000000E+000
  0.000000000000000E+000
  0.000000000000000E+000
  0.000000000000000E+000
  0.000000000000000E+000
  0.000000000000000E+000
  0.000000000000000E+000
  0.000000000000000E+000
  0.000000000000000E+000
  0.000000000000000E+000
  0.000000000000000E+000
  0.000000000000000E+000
  0.000000000000000E+000
  0.000000000000000E+000
  0.000000000000000E+000
  0.000000000000000E+000
  0.000000000000000E+000
  0.000000000000000E+000
  0.000000000000000E+000
  0.000000000000000E+000
  0.000000000000000E+000
  0.000000000000000E+000
  0.000000000000000E+000
  0.000000000000000E+000
  0.000000000000000E+000
  0.000000000000000E+000
  0.000000000000000E+000
  0.000000000000000E+000
  0.000000000000000E+000
  0.000000000000000E+000
  0.000000000000000E+000
  0.000000000000000E+000
  0.000000000000000E+000
  0.000000000000000E+000
  0.000000000000000E+000
  0.000000000000000E+000
  0.000000000000000E+000
  0.000000000000000E+000
  0.000000000000000E+000
  0.000000000000000E+000
  0.000000000000000E+000
  0.000000000000000E+000
  0.000000000000000E+000
  0.000000000000000E+000
  0.000000000000000E+000
  0.000000000000000E+000
  0.000000000000000E+000
  0.000000000000000E+000
  0.000000000000000E+000
  0.000000000000000E+000
  0.000000000000000E+000
  0.000000000000000E+000
  0.000000000000000E+000
  0.000000000000000E+000
  0.000000000000000E+000
  0.000000000000000E+000
  0.000000000000000E+000
  0.000000000000000E+000
  0.000000000000000E+000
  0.000000000000000E+000
  0.000000000000000E+000
  0.000000000000000E+000
  0.000000000000000E+000
  0.000000000000000E+000
  0.000000000000000E+000
  0.000000000000000E+000
  0.000000000000000E+000
  0.000000000000000E+000
  0.000000000000000E+000
  0.000000000000000E+000
  0.000000000000000E+000
  0.000000000000000E+000
  0.000000000000000E+000
  0.000000000000000E+000
  0.000000000000000E+000
  0.000000000000000E+000
  0.000000000000000E+000
  0.000000000000000E+000
  0.000000000000000E+000
  0.000000000000000E+000
  0.000000000000000E+000
  0.000000000000000E+000
  0.000000000000000E+000
  0.000000000000000E+000
  0.000000000000000E+000
  0.000000000000000E+000
  0.000000000000000E+000
  0.000000000000000E+000
  0.000000000000000E+000
  0.000000000000000E+000
  0.000000000000000E+000
  0.000000000000000E+000
  0.000000000000000E+000
  0.000000000000000E+000
  0.000000000000000E+000
  0.000000000000000E+000
  0.000000000000000E+000
  0.000000000000000E+000
  0.000000000000000E+000
  0.000000000000000E+000
  0.000000000000000E+000
  0.000000000000000E+000
  0.000000000000000E+000
  0.000000000000000E+000
  0.000000000000000E+000
  0.000000000000000E+000
  0.000000000000000E+000
  0.000000000000000E+000
  0.000000000000000E+000
  0.000000000000000E+000
  0.000000000000000E+000
  0.000000000000000E+000
  0.000000000000000E+000
  0.000000000000000E+000
  0.000000000000000E+000
  0.000000000000000E+000
  0.000000000000000E+000
  0.000000000000000E+000
  0.000000000000000E+000
  0.000000000000000E+000
  0.000000000000000E+000
  0.000000000000000E+000
  0.000000000000000E+000
  0.000000000000000E+000
  0.000000000000000E+000
  0.000000000000000E+000
  0.000000000000000E+000
  0.000000000000000E+000
  0.000000000000000E+000
  0.000000000000000E+000
  0.000000000000000E+000
  0.000000000000000E+000
  0.000000000000000E+000
  0.000000000000000E+000
  0.000000000000000E+000
  0.000000000000000E+000
  0.000000000000000E+000
  0.000000000000000E+000
  0.000000000000000E+000
  0.000000000000000E+000
  0.000000000000000E+000
  0.000000000000000E+000
  0.000000000000000E+000
  0.000000000000000E+000
  0.000000000000000E+000
  0.000000000000000E+000
  0.000000000000000E+000
  0.000000000000000E+000
  0.000000000000000E+000
  0.000000000000000E+000
  0.000000000000000E+000
  0.000000000000000E+000
  0.000000000000000E+000
  0.000000000000000E+000
  0.000000000000000E+000
  0.000000000000000E+000
  0.000000000000000E+000
  0.000000000000000E+000
  0.000000000000000E+000
  0.000000000000000E+000
  0.000000000000000E+000
  0.000000000000000E+000
  0.000000000000000E+000
  0.000000000000000E+000
  0.000000000000000E+000
  0.000000000000000E+000
  0.000000000000000E+000
  0.000000000000000E+000
  0.000000000000000E+000
  0.000000000000000E+000
  0.000000000000000E+000
  0.000000000000000E+000
  0.000000000000000E+000
  0.000000000000000E+000
  0.000000000000000E+000
  0.000000000000000E+000
  0.000000000000000E+000
  0.000000000000000E+000
  0.000000000000000E+000
  0.000000000000000E+000
  0.000000000000000E+000
  0.000000000000000E+000
  0.000000000000000E+000
  0.000000000000000E+000
  0.000000000000000E+000
  0.000000000000000E+000
  0.000000000000000E+000
  0.000000000000000E+000
  0.000000000000000E+000
  0.000000000000000E+000
  0.000000000000000E+000
  0.000000000000000E+000
  0.000000000000000E+000
  0.000000000000000E+000
  0.000000000000000E+000
  0.000000000000000E+000
  0.000000000000000E+000
  0.000000000000000E+000
  0.000000000000000E+000
  0.000000000000000E+000
  0.000000000000000E+000
  0.000000000000000E+000
  0.000000000000000E+000
  0.000000000000000E+000
  0.000000000000000E+000
  0.000000000000000E+000
  0.000000000000000E+000
  0.000000000000000E+000
  0.000000000000000E+000
  0.000000000000000E+000
  0.000000000000000E+000
  0.000000000000000E+000
  0.000000000000000E+000
  0.000000000000000E+000
  0.000000000000000E+000
  0.000000000000000E+000
  0.000000000000000E+000
  0.000000000000000E+000
  0.000000000000000E+000
  0.000000000000000E+000
  0.000000000000000E+000
  0.000000000000000E+000
  0.000000000000000E+000
  0.000000000000000E+000
  0.000000000000000E+000
  0.000000000000000E+000
  0.000000000000000E+000
  0.000000000000000E+000
  0.000000000000000E+000
  0.000000000000000E+000
  0.000000000000000E+000
  0.000000000000000E+000
  0.000000000000000E+000
  0.000000000000000E+000
  0.000000000000000E+000
  0.000000000000000E+000
  0.000000000000000E+000
  0.000000000000000E+000
  0.000000000000000E+000
  0.000000000000000E+000
  0.000000000000000E+000
  0.000000000000000E+000
  0.000000000000000E+000
  0.000000000000000E+000
  0.000000000000000E+000
  0.000000000000000E+000
  0.000000000000000E+000
  0.000000000000000E+000
  0.000000000000000E+000
  0.000000000000000E+000
  0.000000000000000E+000
  0.000000000000000E+000
  0.000000000000000E+000
  0.000000000000000E+000
  0.000000000000000E+000
  0.000000000000000E+000
  0.000000000000000E+000
  0.000000000000000E+000
  0.000000000000000E+000
  0.000000000000000E+000
  0.000000000000000E+000
  0.000000000000000E+000
  0.000000000000000E+000
  0.000000000000000E+000
  0.000000000000000E+000
  0.000000000000000E+000
  0.000000000000000E+000
  0.000000000000000E+000
  0.000000000000000E+000
  0.000000000000000E+000
  0.000000000000000E+000
  0.000000000000000E+000
  0.000000000000000E+000
  0.000000000000000E+000
  0.000000000000000E+000
  0.000000000000000E+000
  0.000000000000000E+000
  0.000000000000000E+000
  0.000000000000000E+000
  0.000000000000000E+000
  0.000000000000000E+000
  0.000000000000000E+000
  0.000000000000000E+000
  0.000000000000000E+000
  0.000000000000000E+000
  0.000000000000000E+000
  0.000000000000000E+000
  0.000000000000000E+000
  0.000000000000000E+000
  0.000000000000000E+000
  0.000000000000000E+000
  0.000000000000000E+000
  0.000000000000000E+000
  0.000000000000000E+000
  0.000000000000000E+000
  0.000000000000000E+000
  0.000000000000000E+000
  0.000000000000000E+000
  0.000000000000000E+000
  0.000000000000000E+000
  0.000000000000000E+000
  0.000000000000000E+000
  0.000000000000000E+000
  0.000000000000000E+000
  0.000000000000000E+000
  0.000000000000000E+000
  0.000000000000000E+000
  0.000000000000000E+000
  0.000000000000000E+000
  0.000000000000000E+000
  0.000000000000000E+000
  0.000000000000000E+000
  0.000000000000000E+000
  0.000000000000000E+000
  0.000000000000000E+000
  0.000000000000000E+000
  0.000000000000000E+000
  0.000000000000000E+000
  0.000000000000000E+000
  0.000000000000000E+000
  0.000000000000000E+000
  0.000000000000000E+000
  0.000000000000000E+000
  0.000000000000000E+000
  0.000000000000000E+000
  0.000000000000000E+000
  0.000000000000000E+000
  0.000000000000000E+000
  0.000000000000000E+000
  0.000000000000000E+000
  0.000000000000000E+000
  0.000000000000000E+000
  0.000000000000000E+000
  0.000000000000000E+000
  0.000000000000000E+000
  0.000000000000000E+000
  0.000000000000000E+000
  0.000000000000000E+000
  0.000000000000000E+000
  0.000000000000000E+000
  0.000000000000000E+000
  0.000000000000000E+000
  0.000000000000000E+000
  0.000000000000000E+000
  0.000000000000000E+000
  0.000000000000000E+000
  0.000000000000000E+000
  0.000000000000000E+000
  0.000000000000000E+000
  0.000000000000000E+000
  0.000000000000000E+000
  0.000000000000000E+000
  0.000000000000000E+000
  0.000000000000000E+000
  0.000000000000000E+000
  0.000000000000000E+000
  0.000000000000000E+000
  0.000000000000000E+000
  0.000000000000000E+000
  0.000000000000000E+000
  0.000000000000000E+000
  0.000000000000000E+000
  0.000000000000000E+000
  0.000000000000000E+000
  0.000000000000000E+000
  0.000000000000000E+000
  0.000000000000000E+000
  0.000000000000000E+000
  0.000000000000000E+000
  0.000000000000000E+000
  0.000000000000000E+000
  0.000000000000000E+000
  0.000000000000000E+000
  0.000000000000000E+000
  0.000000000000000E+000
  0.000000000000000E+000
  0.000000000000000E+000
  0.000000000000000E+000
  0.000000000000000E+000
  0.000000000000000E+000
  0.000000000000000E+000
  0.000000000000000E+000
  0.000000000000000E+000
  0.000000000000000E+000
  0.000000000000000E+000
  0.000000000000000E+000
  0.000000000000000E+000
  0.000000000000000E+000
  0.000000000000000E+000
  0.000000000000000E+000
  0.000000000000000E+000
  0.000000000000000E+000
  0.000000000000000E+000
  0.000000000000000E+000
  0.000000000000000E+000
  0.000000000000000E+000
  0.000000000000000E+000
  0.000000000000000E+000
  0.000000000000000E+000
  0.000000000000000E+000
  0.000000000000000E+000
  0.000000000000000E+000
  0.000000000000000E+000
  0.000000000000000E+000
  0.000000000000000E+000
  0.000000000000000E+000
  0.000000000000000E+000
  0.000000000000000E+000
  0.000000000000000E+000
  0.000000000000000E+000
  0.000000000000000E+000
  0.000000000000000E+000
  0.000000000000000E+000
  0.000000000000000E+000
  0.000000000000000E+000
  0.000000000000000E+000
  0.000000000000000E+000
  0.000000000000000E+000
  0.000000000000000E+000
  0.000000000000000E+000
  0.000000000000000E+000
  0.000000000000000E+000
  0.000000000000000E+000
  0.000000000000000E+000
  0.000000000000000E+000
  0.000000000000000E+000
  0.000000000000000E+000
  0.000000000000000E+000
  0.000000000000000E+000
  0.000000000000000E+000
  0.000000000000000E+000
  0.000000000000000E+000
  0.000000000000000E+000
  0.000000000000000E+000
  0.000000000000000E+000
  0.000000000000000E+000
  0.000000000000000E+000
  0.000000000000000E+000
  0.000000000000000E+000
  0.000000000000000E+000
  0.000000000000000E+000
  0.000000000000000E+000
  0.000000000000000E+000
  0.000000000000000E+000
  0.000000000000000E+000
  0.000000000000000E+000
  0.000000000000000E+000
  0.000000000000000E+000
  0.000000000000000E+000
  0.000000000000000E+000
  0.000000000000000E+000
  0.000000000000000E+000
  0.000000000000000E+000
  0.000000000000000E+000
  0.000000000000000E+000
  0.000000000000000E+000
  0.000000000000000E+000
  0.000000000000000E+000
  0.000000000000000E+000
  0.000000000000000E+000
  0.000000000000000E+000
  0.000000000000000E+000
  0.000000000000000E+000
  0.000000000000000E+000
  0.000000000000000E+000
  0.000000000000000E+000
  0.000000000000000E+000
  0.000000000000000E+000
  0.000000000000000E+000
  0.000000000000000E+000
  0.000000000000000E+000
  0.000000000000000E+000
  0.000000000000000E+000
  0.000000000000000E+000
  0.000000000000000E+000
  0.000000000000000E+000
  0.000000000000000E+000
  0.000000000000000E+000
  0.000000000000000E+000
  0.000000000000000E+000
  0.000000000000000E+000
  0.000000000000000E+000
  0.000000000000000E+000
  0.000000000000000E+000
  0.000000000000000E+000
  0.000000000000000E+000
  0.000000000000000E+000
  0.000000000000000E+000
  0.000000000000000E+000
  0.000000000000000E+000
  0.000000000000000E+000
  0.000000000000000E+000
  0.000000000000000E+000
  0.000000000000000E+000
  0.000000000000000E+000
  0.000000000000000E+000
  0.000000000000000E+000
  0.000000000000000E+000
  0.000000000000000E+000
  0.000000000000000E+000
  0.000000000000000E+000
  0.000000000000000E+000
  0.000000000000000E+000
  0.000000000000000E+000
  0.000000000000000E+000
  0.000000000000000E+000
  0.000000000000000E+000
  0.000000000000000E+000
  0.000000000000000E+000
  0.000000000000000E+000
  0.000000000000000E+000
  0.000000000000000E+000
  0.000000000000000E+000
  0.000000000000000E+000
  0.000000000000000E+000
  0.000000000000000E+000
  0.000000000000000E+000
  0.000000000000000E+000
  0.000000000000000E+000
  0.000000000000000E+000
  0.000000000000000E+000
  0.000000000000000E+000
  0.000000000000000E+000
  0.000000000000000E+000
  0.000000000000000E+000
  0.000000000000000E+000
  0.000000000000000E+000
  0.000000000000000E+000
  0.000000000000000E+000
  0.000000000000000E+000
  0.000000000000000E+000
  0.000000000000000E+000
  0.000000000000000E+000
  0.000000000000000E+000
  0.000000000000000E+000
  0.000000000000000E+000
  0.000000000000000E+000
  0.000000000000000E+000
  0.000000000000000E+000
  0.000000000000000E+000
  0.000000000000000E+000
  0.000000000000000E+000
  0.000000000000000E+000
  0.000000000000000E+000
  0.000000000000000E+000
  0.000000000000000E+000
  0.000000000000000E+000
  0.000000000000000E+000
  0.000000000000000E+000
  0.000000000000000E+000
  0.000000000000000E+000
  0.000000000000000E+000
  0.000000000000000E+000
  0.000000000000000E+000
  0.000000000000000E+000
  0.000000000000000E+000
  0.000000000000000E+000
  0.000000000000000E+000
  0.000000000000000E+000
  0.000000000000000E+000
  0.000000000000000E+000
  0.000000000000000E+000
  0.000000000000000E+000
  0.000000000000000E+000
  0.000000000000000E+000
  0.000000000000000E+000
  0.000000000000000E+000
  0.000000000000000E+000
  0.000000000000000E+000
  0.000000000000000E+000
  0.000000000000000E+000
  0.000000000000000E+000
  0.000000000000000E+000
  0.000000000000000E+000
  0.000000000000000E+000
  0.000000000000000E+000
  0.000000000000000E+000
  0.000000000000000E+000
  0.000000000000000E+000
  0.000000000000000E+000
  0.000000000000000E+000
  0.000000000000000E+000
  0.000000000000000E+000
  0.000000000000000E+000
  0.000000000000000E+000
  0.000000000000000E+000
  0.000000000000000E+000
  0.000000000000000E+000
  0.000000000000000E+000
  0.000000000000000E+000
  0.000000000000000E+000
  0.000000000000000E+000
  0.000000000000000E+000
  0.000000000000000E+000
  0.000000000000000E+000
  0.000000000000000E+000
  0.000000000000000E+000
  0.000000000000000E+000
  0.000000000000000E+000
  0.000000000000000E+000
  0.000000000000000E+000
  0.000000000000000E+000
  0.000000000000000E+000
  0.000000000000000E+000
  0.000000000000000E+000
  0.000000000000000E+000
  0.000000000000000E+000
  0.000000000000000E+000
  0.000000000000000E+000
  0.000000000000000E+000
  0.000000000000000E+000
  0.000000000000000E+000
  0.000000000000000E+000
  0.000000000000000E+000
  0.000000000000000E+000
  0.000000000000000E+000
  0.000000000000000E+000
  0.000000000000000E+000
  0.000000000000000E+000
  0.000000000000000E+000
  0.000000000000000E+000
  0.000000000000000E+000
  0.000000000000000E+000
  0.000000000000000E+000
  0.000000000000000E+000
  0.000000000000000E+000
  0.000000000000000E+000
  0.000000000000000E+000
  0.000000000000000E+000
  0.000000000000000E+000
  0.000000000000000E+000
  0.000000000000000E+000
  0.000000000000000E+000
  0.000000000000000E+000
  0.000000000000000E+000
  0.000000000000000E+000
  0.000000000000000E+000
  0.000000000000000E+000
  0.000000000000000E+000
  0.000000000000000E+000
  0.000000000000000E+000
  0.000000000000000E+000
  0.000000000000000E+000
  0.000000000000000E+000
  0.000000000000000E+000
  0.000000000000000E+000
  0.000000000000000E+000
  0.000000000000000E+000
  0.000000000000000E+000
  0.000000000000000E+000
  0.000000000000000E+000
  0.000000000000000E+000
  0.000000000000000E+000
  0.000000000000000E+000
  0.000000000000000E+000
  0.000000000000000E+000
  0.000000000000000E+000
  0.000000000000000E+000
  0.000000000000000E+000
  0.000000000000000E+000
  0.000000000000000E+000
  0.000000000000000E+000
  0.000000000000000E+000
  0.000000000000000E+000
  0.000000000000000E+000
  0.000000000000000E+000
  0.000000000000000E+000
  0.000000000000000E+000
  0.000000000000000E+000
  0.000000000000000E+000
  0.000000000000000E+000
  0.000000000000000E+000
  0.000000000000000E+000
  0.000000000000000E+000
  0.000000000000000E+000
  0.000000000000000E+000
  0.000000000000000E+000
  0.000000000000000E+000
  0.000000000000000E+000
  0.000000000000000E+000
  0.000000000000000E+000
  0.000000000000000E+000
  0.000000000000000E+000
  0.000000000000000E+000
  0.000000000000000E+000
  0.000000000000000E+000
  0.000000000000000E+000
  0.000000000000000E+000
  0.000000000000000E+000
  0.000000000000000E+000
  0.000000000000000E+000
  0.000000000000000E+000
  0.000000000000000E+000
  0.000000000000000E+000
  0.000000000000000E+000
  0.000000000000000E+000
  0.000000000000000E+000
  0.000000000000000E+000
  0.000000000000000E+000
  0.000000000000000E+000
  0.000000000000000E+000
  0.000000000000000E+000
  0.000000000000000E+000
  0.000000000000000E+000
  0.000000000000000E+000
  0.000000000000000E+000
  0.000000000000000E+000
  0.000000000000000E+000
  0.000000000000000E+000
  0.000000000000000E+000
  0.000000000000000E+000
  0.000000000000000E+000
  0.000000000000000E+000
  0.000000000000000E+000
  0.000000000000000E+000
  0.000000000000000E+000
  0.000000000000000E+000
  0.000000000000000E+000
  0.000000000000000E+000
  0.000000000000000E+000
  0.000000000000000E+000
  0.000000000000000E+000
  0.000000000000000E+000
  0.000000000000000E+000
  0.000000000000000E+000
  0.000000000000000E+000
  0.000000000000000E+000
  0.000000000000000E+000
  0.000000000000000E+000
  0.000000000000000E+000
  0.000000000000000E+000
  0.000000000000000E+000
  0.000000000000000E+000
  0.000000000000000E+000
  0.000000000000000E+000
  0.000000000000000E+000
  0.000000000000000E+000
  0.000000000000000E+000
  0.000000000000000E+000
  0.000000000000000E+000
  0.000000000000000E+000
  0.000000000000000E+000
  0.000000000000000E+000
  0.000000000000000E+000
  0.000000000000000E+000
  0.000000000000000E+000
  0.000000000000000E+000
  0.000000000000000E+000
  0.000000000000000E+000
  0.000000000000000E+000
  0.000000000000000E+000
  0.000000000000000E+000
  0.000000000000000E+000
  0.000000000000000E+000
  0.000000000000000E+000
  0.000000000000000E+000
  0.000000000000000E+000
  0.000000000000000E+000
  0.000000000000000E+000
  0.000000000000000E+000
  0.000000000000000E+000
  0.000000000000000E+000
  0.000000000000000E+000
  0.000000000000000E+000
  0.000000000000000E+000
  0.000000000000000E+000
  0.000000000000000E+000
  0.000000000000000E+000
  0.000000000000000E+000
  0.000000000000000E+000
  0.000000000000000E+000
  0.000000000000000E+000
  0.000000000000000E+000
  0.000000000000000E+000
  0.000000000000000E+000
  0.000000000000000E+000
  0.000000000000000E+000
  0.000000000000000E+000
  0.000000000000000E+000
  0.000000000000000E+000
  0.000000000000000E+000
  0.000000000000000E+000
  0.000000000000000E+000
  0.000000000000000E+000
  0.000000000000000E+000
  0.000000000000000E+000
  0.000000000000000E+000
  0.000000000000000E+000
  0.000000000000000E+000
  0.000000000000000E+000
  0.000000000000000E+000
  0.000000000000000E+000
  0.000000000000000E+000
  0.000000000000000E+000
  0.000000000000000E+000
  0.000000000000000E+000
  0.000000000000000E+000
  0.000000000000000E+000
  0.000000000000000E+000
  0.000000000000000E+000
  0.000000000000000E+000
  0.000000000000000E+000
  0.000000000000000E+000
  0.000000000000000E+000
  0.000000000000000E+000
  0.000000000000000E+000
  0.000000000000000E+000
  0.000000000000000E+000
  0.000000000000000E+000
  0.000000000000000E+000
  0.000000000000000E+000
  0.000000000000000E+000
  0.000000000000000E+000
  0.000000000000000E+000
  0.000000000000000E+000
  0.000000000000000E+000
  0.000000000000000E+000
  0.000000000000000E+000
  0.000000000000000E+000
  0.000000000000000E+000
  0.000000000000000E+000
  0.000000000000000E+000
  0.000000000000000E+000
  0.000000000000000E+000
  0.000000000000000E+000
  0.000000000000000E+000
  0.000000000000000E+000
  0.000000000000000E+000
  0.000000000000000E+000
  0.000000000000000E+000
  0.000000000000000E+000
  0.000000000000000E+000
  0.000000000000000E+000
  0.000000000000000E+000
  0.000000000000000E+000
  0.000000000000000E+000
  0.000000000000000E+000
  0.000000000000000E+000
  0.000000000000000E+000
  0.000000000000000E+000
  0.000000000000000E+000
  0.000000000000000E+000
  0.000000000000000E+000
  0.000000000000000E+000
  0.000000000000000E+000
  0.000000000000000E+000
  0.000000000000000E+000
  0.000000000000000E+000
  0.000000000000000E+000
  0.000000000000000E+000
  0.000000000000000E+000
  0.000000000000000E+000
  0.000000000000000E+000
  0.000000000000000E+000
  0.000000000000000E+000
  0.000000000000000E+000
  0.000000000000000E+000
  0.000000000000000E+000
  0.000000000000000E+000
  0.000000000000000E+000
  0.000000000000000E+000
  0.000000000000000E+000
  0.000000000000000E+000
  0.000000000000000E+000
  0.000000000000000E+000
  0.000000000000000E+000
  0.000000000000000E+000
  0.000000000000000E+000
  0.000000000000000E+000
  0.000000000000000E+000
  0.000000000000000E+000
  0.000000000000000E+000
  0.000000000000000E+000
  0.000000000000000E+000
  0.000000000000000E+000
  0.000000000000000E+000
  0.000000000000000E+000
  0.000000000000000E+000
  0.000000000000000E+000
  0.000000000000000E+000
  0.000000000000000E+000
  0.000000000000000E+000
  0.000000000000000E+000
  0.000000000000000E+000
  0.000000000000000E+000
  0.000000000000000E+000
  0.000000000000000E+000
  0.000000000000000E+000
  0.000000000000000E+000
  0.000000000000000E+000
  0.000000000000000E+000
  0.000000000000000E+000
  0.000000000000000E+000
  0.000000000000000E+000
  0.000000000000000E+000
  0.000000000000000E+000
  0.000000000000000E+000
  0.000000000000000E+000
  0.000000000000000E+000
  0.000000000000000E+000
  0.000000000000000E+000
  0.000000000000000E+000
  0.000000000000000E+000
  0.000000000000000E+000
  0.000000000000000E+000
  0.000000000000000E+000
  0.000000000000000E+000
  0.000000000000000E+000
  0.000000000000000E+000
  0.000000000000000E+000
  0.000000000000000E+000
  0.000000000000000E+000
  0.000000000000000E+000
  0.000000000000000E+000
  0.000000000000000E+000
  0.000000000000000E+000
  0.000000000000000E+000
  0.000000000000000E+000
  0.000000000000000E+000
  0.000000000000000E+000
  0.000000000000000E+000
  0.000000000000000E+000
  0.000000000000000E+000
  0.000000000000000E+000
  0.000000000000000E+000
  0.000000000000000E+000
  0.000000000000000E+000
  0.000000000000000E+000
  0.000000000000000E+000
  0.000000000000000E+000
  0.000000000000000E+000
  0.000000000000000E+000
  0.000000000000000E+000
  0.000000000000000E+000
  0.000000000000000E+000
  0.000000000000000E+000
  0.000000000000000E+000
  0.000000000000000E+000
  0.000000000000000E+000
  0.000000000000000E+000
  0.000000000000000E+000
  0.000000000000000E+000
  0.000000000000000E+000
  0.000000000000000E+000
  0.000000000000000E+000
  0.000000000000000E+000
  0.000000000000000E+000
  0.000000000000000E+000
  0.000000000000000E+000
  0.000000000000000E+000
  0.000000000000000E+000
  0.000000000000000E+000
  0.000000000000000E+000
  0.000000000000000E+000
  0.000000000000000E+000
  0.000000000000000E+000
  0.000000000000000E+000
  0.000000000000000E+000
  0.000000000000000E+000
  0.000000000000000E+000
  0.000000000000000E+000
  0.000000000000000E+000
  0.000000000000000E+000
  0.000000000000000E+000
  0.000000000000000E+000
  0.000000000000000E+000
  0.000000000000000E+000
  0.000000000000000E+000
  0.000000000000000E+000
  0.000000000000000E+000
  0.000000000000000E+000
  0.000000000000000E+000
  0.000000000000000E+000
  0.000000000000000E+000
  0.000000000000000E+000
  0.000000000000000E+000
  0.000000000000000E+000
  0.000000000000000E+000
  0.000000000000000E+000
  0.000000000000000E+000
  0.000000000000000E+000
  0.000000000000000E+000
  0.000000000000000E+000
  0.000000000000000E+000
  0.000000000000000E+000
  0.000000000000000E+000
  0.000000000000000E+000
  0.000000000000000E+000
  0.000000000000000E+000
  0.000000000000000E+000
  0.000000000000000E+000
  0.000000000000000E+000
  0.000000000000000E+000
  0.000000000000000E+000
  0.000000000000000E+000
  0.000000000000000E+000
  0.000000000000000E+000
  0.000000000000000E+000
  0.000000000000000E+000
  0.000000000000000E+000
  0.000000000000000E+000
  0.000000000000000E+000
  0.000000000000000E+000
  0.000000000000000E+000
  0.000000000000000E+000
  0.000000000000000E+000
  0.000000000000000E+000
  0.000000000000000E+000
  0.000000000000000E+000
  0.000000000000000E+000
  0.000000000000000E+000
  0.000000000000000E+000
  0.000000000000000E+000
  0.000000000000000E+000
  0.000000000000000E+000
  0.000000000000000E+000
  0.000000000000000E+000
  0.000000000000000E+000
  0.000000000000000E+000
  0.000000000000000E+000
  0.000000000000000E+000
  0.000000000000000E+000
  0.000000000000000E+000
  0.000000000000000E+000
  0.000000000000000E+000
  0.000000000000000E+000
  0.000000000000000E+000
  0.000000000000000E+000
  0.000000000000000E+000
  0.000000000000000E+000
  0.000000000000000E+000
  0.000000000000000E+000
  0.000000000000000E+000
  0.000000000000000E+000
  0.000000000000000E+000
  0.000000000000000E+000
  0.000000000000000E+000
  0.000000000000000E+000
  0.000000000000000E+000
  0.000000000000000E+000
  0.000000000000000E+000
  0.000000000000000E+000
  0.000000000000000E+000
  0.000000000000000E+000
  0.000000000000000E+000
  0.000000000000000E+000
  0.000000000000000E+000
  0.000000000000000E+000
  0.000000000000000E+000
  0.000000000000000E+000
  0.000000000000000E+000
  0.000000000000000E+000
  0.000000000000000E+000
  0.000000000000000E+000
  0.000000000000000E+000
  0.000000000000000E+000
  0.000000000000000E+000
  0.000000000000000E+000
  0.000000000000000E+000
  0.000000000000000E+000
  0.000000000000000E+000
  0.000000000000000E+000
  0.000000000000000E+000
  0.000000000000000E+000
  0.000000000000000E+000
  0.000000000000000E+000
  0.000000000000000E+000
  0.000000000000000E+000
  0.000000000000000E+000
  0.000000000000000E+000
  0.000000000000000E+000
  0.000000000000000E+000
  0.000000000000000E+000
  0.000000000000000E+000
  0.000000000000000E+000
  0.000000000000000E+000
  0.000000000000000E+000
  0.000000000000000E+000
  0.000000000000000E+000
  0.000000000000000E+000
  0.000000000000000E+000
  0.000000000000000E+000
  0.000000000000000E+000
  0.000000000000000E+000
  0.000000000000000E+000
  0.000000000000000E+000
  0.000000000000000E+000
  0.000000000000000E+000
  0.000000000000000E+000
  0.000000000000000E+000
  0.000000000000000E+000
  0.000000000000000E+000
  0.000000000000000E+000
  0.000000000000000E+000
  0.000000000000000E+000
  0.000000000000000E+000
  0.000000000000000E+000
  0.000000000000000E+000
  0.000000000000000E+000
  0.000000000000000E+000
  0.000000000000000E+000
  0.000000000000000E+000
  0.000000000000000E+000
  0.000000000000000E+000
  0.000000000000000E+000
  0.000000000000000E+000
  0.000000000000000E+000
  0.000000000000000E+000
  0.000000000000000E+000
  0.000000000000000E+000
  0.000000000000000E+000
  0.000000000000000E+000
  0.000000000000000E+000
  0.000000000000000E+000
  0.000000000000000E+000
  0.000000000000000E+000
  0.000000000000000E+000
  0.000000000000000E+000
  0.000000000000000E+000
  0.000000000000000E+000
  0.000000000000000E+000
  0.000000000000000E+000
  0.000000000000000E+000
  0.000000000000000E+000
  0.000000000000000E+000
  0.000000000000000E+000
  0.000000000000000E+000
  0.000000000000000E+000
  0.000000000000000E+000
  0.000000000000000E+000
  0.000000000000000E+000
  0.000000000000000E+000
  0.000000000000000E+000
  0.000000000000000E+000
  0.000000000000000E+000
  0.000000000000000E+000
  0.000000000000000E+000
  0.000000000000000E+000
  0.000000000000000E+000
  0.000000000000000E+000
  0.000000000000000E+000
  0.000000000000000E+000
  0.000000000000000E+000
  0.000000000000000E+000
  0.000000000000000E+000
  0.000000000000000E+000
  0.000000000000000E+000
  0.000000000000000E+000
  0.000000000000000E+000
  0.000000000000000E+000
  0.000000000000000E+000
  0.000000000000000E+000
  0.000000000000000E+000
  0.000000000000000E+000
  0.000000000000000E+000
  0.000000000000000E+000
  0.000000000000000E+000
  0.000000000000000E+000
  0.000000000000000E+000
  0.000000000000000E+000
  0.000000000000000E+000
  0.000000000000000E+000
  0.000000000000000E+000
  0.000000000000000E+000
  0.000000000000000E+000
  0.000000000000000E+000
  0.000000000000000E+000
  0.000000000000000E+000
  0.000000000000000E+000
  0.000000000000000E+000
  0.000000000000000E+000
  0.000000000000000E+000
  0.000000000000000E+000
  0.000000000000000E+000
  0.000000000000000E+000
  0.000000000000000E+000
  0.000000000000000E+000
  0.000000000000000E+000
  0.000000000000000E+000
  0.000000000000000E+000
  0.000000000000000E+000
  0.000000000000000E+000
  0.000000000000000E+000
  0.000000000000000E+000
  0.000000000000000E+000
  0.000000000000000E+000
  0.000000000000000E+000
  0.000000000000000E+000
  0.000000000000000E+000
  0.000000000000000E+000
  0.000000000000000E+000
  0.000000000000000E+000
  0.000000000000000E+000
  0.000000000000000E+000
  0.000000000000000E+000
  0.000000000000000E+000
  0.000000000000000E+000
  0.000000000000000E+000
  0.000000000000000E+000
  0.000000000000000E+000
  0.000000000000000E+000
  0.000000000000000E+000
  0.000000000000000E+000
  0.000000000000000E+000
  0.000000000000000E+000
  0.000000000000000E+000
  0.000000000000000E+000
  0.000000000000000E+000
  0.000000000000000E+000
  0.000000000000000E+000
  0.000000000000000E+000
  0.000000000000000E+000
  0.000000000000000E+000
  0.000000000000000E+000
  0.000000000000000E+000
  0.000000000000000E+000
  0.000000000000000E+000
  0.000000000000000E+000
  0.000000000000000E+000
  0.000000000000000E+000
  0.000000000000000E+000
  0.000000000000000E+000
  0.000000000000000E+000
  0.000000000000000E+000
  0.000000000000000E+000
  0.000000000000000E+000
  0.000000000000000E+000
  0.000000000000000E+000
  0.000000000000000E+000
  0.000000000000000E+000
  0.000000000000000E+000
  0.000000000000000E+000
  0.000000000000000E+000
  0.000000000000000E+000
  0.000000000000000E+000
  0.000000000000000E+000
  0.000000000000000E+000
  0.000000000000000E+000
  0.000000000000000E+000
  0.000000000000000E+000
  0.000000000000000E+000
  0.000000000000000E+000
  0.000000000000000E+000
  0.000000000000000E+000
  0.000000000000000E+000
  0.000000000000000E+000
  0.000000000000000E+000
  0.000000000000000E+000
  0.000000000000000E+000
  0.000000000000000E+000
  0.000000000000000E+000
  0.000000000000000E+000
  0.000000000000000E+000
  0.000000000000000E+000
  0.000000000000000E+000
  0.000000000000000E+000
  0.000000000000000E+000
  0.000000000000000E+000
  0.000000000000000E+000
  0.000000000000000E+000
  0.000000000000000E+000
  0.000000000000000E+000
  0.000000000000000E+000
  0.000000000000000E+000
  0.000000000000000E+000
  0.000000000000000E+000
  0.000000000000000E+000
  0.000000000000000E+000
  0.000000000000000E+000
  0.000000000000000E+000
  0.000000000000000E+000
  0.000000000000000E+000
  0.000000000000000E+000
  0.000000000000000E+000
  0.000000000000000E+000
  0.000000000000000E+000
  0.000000000000000E+000
  0.000000000000000E+000
  0.000000000000000E+000
  0.000000000000000E+000
  0.000000000000000E+000
  0.000000000000000E+000
  0.000000000000000E+000
  0.000000000000000E+000
  0.000000000000000E+000
  0.000000000000000E+000
  0.000000000000000E+000
  0.000000000000000E+000
  0.000000000000000E+000
  0.000000000000000E+000
  0.000000000000000E+000
  0.000000000000000E+000
  0.000000000000000E+000
  0.000000000000000E+000
  0.000000000000000E+000
  0.000000000000000E+000
  0.000000000000000E+000
  0.000000000000000E+000
  0.000000000000000E+000
  0.000000000000000E+000
  0.000000000000000E+000
  0.000000000000000E+000
  0.000000000000000E+000
  0.000000000000000E+000
  0.000000000000000E+000
  0.000000000000000E+000
  0.000000000000000E+000
  0.000000000000000E+000
  0.000000000000000E+000
  0.000000000000000E+000
  0.000000000000000E+000
  0.000000000000000E+000
  0.000000000000000E+000
  0.000000000000000E+000
  0.000000000000000E+000
  0.000000000000000E+000
  0.000000000000000E+000
  0.000000000000000E+000
  0.000000000000000E+000
  0.000000000000000E+000
  0.000000000000000E+000
  0.000000000000000E+000
  0.000000000000000E+000
  0.000000000000000E+000
  0.000000000000000E+000
  0.000000000000000E+000
  0.000000000000000E+000
  0.000000000000000E+000
  0.000000000000000E+000
  0.000000000000000E+000
  0.000000000000000E+000
  0.000000000000000E+000
  0.000000000000000E+000
  0.000000000000000E+000
  0.000000000000000E+000
  0.000000000000000E+000
  0.000000000000000E+000
  0.000000000000000E+000
  0.000000000000000E+000
  0.000000000000000E+000
  0.000000000000000E+000
  0.000000000000000E+000
  0.000000000000000E+000
  0.000000000000000E+000
  0.000000000000000E+000
  0.000000000000000E+000
  0.000000000000000E+000
  0.000000000000000E+000
  0.000000000000000E+000
  0.000000000000000E+000
  0.000000000000000E+000
  0.000000000000000E+000
  0.000000000000000E+000
  0.000000000000000E+000
  0.000000000000000E+000
  0.000000000000000E+000
  0.000000000000000E+000
  0.000000000000000E+000
  0.000000000000000E+000
  0.000000000000000E+000
  0.000000000000000E+000
  0.000000000000000E+000
  0.000000000000000E+000
  0.000000000000000E+000
  0.000000000000000E+000
  0.000000000000000E+000
  0.000000000000000E+000
  0.000000000000000E+000
  0.000000000000000E+000
  0.000000000000000E+000
  0.000000000000000E+000
  0.000000000000000E+000
  0.000000000000000E+000
  0.000000000000000E+000
  0.000000000000000E+000
  0.000000000000000E+000
  0.000000000000000E+000
  0.000000000000000E+000
  0.000000000000000E+000
  0.000000000000000E+000
  0.000000000000000E+000
  0.000000000000000E+000
  0.000000000000000E+000
  0.000000000000000E+000
  0.000000000000000E+000
  0.000000000000000E+000
  0.000000000000000E+000
  0.000000000000000E+000
  0.000000000000000E+000
  0.000000000000000E+000
  0.000000000000000E+000
  0.000000000000000E+000
  0.000000000000000E+000
  0.000000000000000E+000
  0.000000000000000E+000
  0.000000000000000E+000
  0.000000000000000E+000
  0.000000000000000E+000
  0.000000000000000E+000
  0.000000000000000E+000
  0.000000000000000E+000
  0.000000000000000E+000
  0.000000000000000E+000
  0.000000000000000E+000
  0.000000000000000E+000
  0.000000000000000E+000
  0.000000000000000E+000
  0.000000000000000E+000
  0.000000000000000E+000
  0.000000000000000E+000
  0.000000000000000E+000
  0.000000000000000E+000
  0.000000000000000E+000
  0.000000000000000E+000
  0.000000000000000E+000
  0.000000000000000E+000
  0.000000000000000E+000
  0.000000000000000E+000
  0.000000000000000E+000
  0.000000000000000E+000
  0.000000000000000E+000
  0.000000000000000E+000
  0.000000000000000E+000
  0.000000000000000E+000
  0.000000000000000E+000
  0.000000000000000E+000
  0.000000000000000E+000
  0.000000000000000E+000
  0.000000000000000E+000
  0.000000000000000E+000
  0.000000000000000E+000
  0.000000000000000E+000
  0.000000000000000E+000
  0.000000000000000E+000
  0.000000000000000E+000
  0.000000000000000E+000
  0.000000000000000E+000
  0.000000000000000E+000
  0.000000000000000E+000
  0.000000000000000E+000
  0.000000000000000E+000
  0.000000000000000E+000
  0.000000000000000E+000
  0.000000000000000E+000
  0.000000000000000E+000
  0.000000000000000E+000
  0.000000000000000E+000
  0.000000000000000E+000
  0.000000000000000E+000
  0.000000000000000E+000
  0.000000000000000E+000
  0.000000000000000E+000
  0.000000000000000E+000
  0.000000000000000E+000
  0.000000000000000E+000
  0.000000000000000E+000
  0.000000000000000E+000
  0.000000000000000E+000
  0.000000000000000E+000
  0.000000000000000E+000
  0.000000000000000E+000
  0.000000000000000E+000
  0.000000000000000E+000
  0.000000000000000E+000
  0.000000000000000E+000
  0.000000000000000E+000
  0.000000000000000E+000
  0.000000000000000E+000
  0.000000000000000E+000
  0.000000000000000E+000
  0.000000000000000E+000
  0.000000000000000E+000
  0.000000000000000E+000
  0.000000000000000E+000
  0.000000000000000E+000
  0.000000000000000E+000
  0.000000000000000E+000
  0.000000000000000E+000
  0.000000000000000E+000
  0.000000000000000E+000
  0.000000000000000E+000
  0.000000000000000E+000
  0.000000000000000E+000
  0.000000000000000E+000
  0.000000000000000E+000
  0.000000000000000E+000
  0.000000000000000E+000
  0.000000000000000E+000
  0.000000000000000E+000
  0.000000000000000E+000
  0.000000000000000E+000
  0.000000000000000E+000
  0.000000000000000E+000
  0.000000000000000E+000
  0.000000000000000E+000
  0.000000000000000E+000
  0.000000000000000E+000
  0.000000000000000E+000
  0.000000000000000E+000
  0.000000000000000E+000
  0.000000000000000E+000
  0.000000000000000E+000
  0.000000000000000E+000
  0.000000000000000E+000
  0.000000000000000E+000
  0.000000000000000E+000
  0.000000000000000E+000
  0.000000000000000E+000
  0.000000000000000E+000
  0.000000000000000E+000
  0.000000000000000E+000
  0.000000000000000E+000
  0.000000000000000E+000
  0.000000000000000E+000
  0.000000000000000E+000
  0.000000000000000E+000
  0.000000000000000E+000
  0.000000000000000E+000
  0.000000000000000E+000
  0.000000000000000E+000
  0.000000000000000E+000
  0.000000000000000E+000
  0.000000000000000E+000
  0.000000000000000E+000
  0.000000000000000E+000
  0.000000000000000E+000
  0.000000000000000E+000
  0.000000000000000E+000
  0.000000000000000E+000
  0.000000000000000E+000
  0.000000000000000E+000
  0.000000000000000E+000
  0.000000000000000E+000
  0.000000000000000E+000
  0.000000000000000E+000
  0.000000000000000E+000
  0.000000000000000E+000
  0.000000000000000E+000
  0.000000000000000E+000
  0.000000000000000E+000
  0.000000000000000E+000
  0.000000000000000E+000
  0.000000000000000E+000
  0.000000000000000E+000
  0.000000000000000E+000
  0.000000000000000E+000
  0.000000000000000E+000
  0.000000000000000E+000
  0.000000000000000E+000
  0.000000000000000E+000
  0.000000000000000E+000
  0.000000000000000E+000
  0.000000000000000E+000
  0.000000000000000E+000
  0.000000000000000E+000
  0.000000000000000E+000
  0.000000000000000E+000
  0.000000000000000E+000
  0.000000000000000E+000
  0.000000000000000E+000
  0.000000000000000E+000
  0.000000000000000E+000
  0.000000000000000E+000
  0.000000000000000E+000
  0.000000000000000E+000
  0.000000000000000E+000
  0.000000000000000E+000
  0.000000000000000E+000
  0.000000000000000E+000
  0.000000000000000E+000
  0.000000000000000E+000
  0.000000000000000E+000
  0.000000000000000E+000
  0.000000000000000E+000
  0.000000000000000E+000
  0.000000000000000E+000
  0.000000000000000E+000
  0.000000000000000E+000
  0.000000000000000E+000
  0.000000000000000E+000
  0.000000000000000E+000
  0.000000000000000E+000
  0.000000000000000E+000
  0.000000000000000E+000
  0.000000000000000E+000
  0.000000000000000E+000
  0.000000000000000E+000
  0.000000000000000E+000
  0.000000000000000E+000
  0.000000000000000E+000
  0.000000000000000E+000
  0.000000000000000E+000
  0.000000000000000E+000
  0.000000000000000E+000
  0.000000000000000E+000
  0.000000000000000E+000
  0.000000000000000E+000
  0.000000000000000E+000
  0.000000000000000E+000
  0.000000000000000E+000
  0.000000000000000E+000
  0.000000000000000E+000
  0.000000000000000E+000
  0.000000000000000E+000
  0.000000000000000E+000
  0.000000000000000E+000
  0.000000000000000E+000
  0.000000000000000E+000
  0.000000000000000E+000
  0.000000000000000E+000
  0.000000000000000E+000
  0.000000000000000E+000
  0.000000000000000E+000
  0.000000000000000E+000
  0.000000000000000E+000
  0.000000000000000E+000
  0.000000000000000E+000
  0.000000000000000E+000
  0.000000000000000E+000
  0.000000000000000E+000
  0.000000000000000E+000
  0.000000000000000E+000
  0.000000000000000E+000
  0.000000000000000E+000
  0.000000000000000E+000
  0.000000000000000E+000
  0.000000000000000E+000
  0.000000000000000E+000
  0.000000000000000E+000
  0.000000000000000E+000
  0.000000000000000E+000
  0.000000000000000E+000
  0.000000000000000E+000
  0.000000000000000E+000
  0.000000000000000E+000
  0.000000000000000E+000
  0.000000000000000E+000
  0.000000000000000E+000
  0.000000000000000E+000
  0.000000000000000E+000
  0.000000000000000E+000
  0.000000000000000E+000
  0.000000000000000E+000
  0.000000000000000E+000
  0.000000000000000E+000
  0.000000000000000E+000
  0.000000000000000E+000
  0.000000000000000E+000
  0.000000000000000E+000
  0.000000000000000E+000
  0.000000000000000E+000
  0.000000000000000E+000
  0.000000000000000E+000
  0.000000000000000E+000
  0.000000000000000E+000
  0.000000000000000E+000
  0.000000000000000E+000
  0.000000000000000E+000
  0.000000000000000E+000
  0.000000000000000E+000
  0.000000000000000E+000
  0.000000000000000E+000
  0.000000000000000E+000
  0.000000000000000E+000
  0.000000000000000E+000
  0.000000000000000E+000
  0.000000000000000E+000
  0.000000000000000E+000
  0.000000000000000E+000
  0.000000000000000E+000
  0.000000000000000E+000
  0.000000000000000E+000
  0.000000000000000E+000
  0.000000000000000E+000
  0.000000000000000E+000
  0.000000000000000E+000
  0.000000000000000E+000
  0.000000000000000E+000
  0.000000000000000E+000
  0.000000000000000E+000
  0.000000000000000E+000
  0.000000000000000E+000
  0.000000000000000E+000
  0.000000000000000E+000
  0.000000000000000E+000
  0.000000000000000E+000
  0.000000000000000E+000
  0.000000000000000E+000
  0.000000000000000E+000
  0.000000000000000E+000
  0.000000000000000E+000
  0.000000000000000E+000
  0.000000000000000E+000
  0.000000000000000E+000
  0.000000000000000E+000
  0.000000000000000E+000
  0.000000000000000E+000
  0.000000000000000E+000
  0.000000000000000E+000
  0.000000000000000E+000
  0.000000000000000E+000
  0.000000000000000E+000
  0.000000000000000E+000
  0.000000000000000E+000
  0.000000000000000E+000
  0.000000000000000E+000
  0.000000000000000E+000
  0.000000000000000E+000
  0.000000000000000E+000
  0.000000000000000E+000
  0.000000000000000E+000
  0.000000000000000E+000
  0.000000000000000E+000
  0.000000000000000E+000
  0.000000000000000E+000
  0.000000000000000E+000
  0.000000000000000E+000
  0.000000000000000E+000
  0.000000000000000E+000
  0.000000000000000E+000
  0.000000000000000E+000
  0.000000000000000E+000
  0.000000000000000E+000
  0.000000000000000E+000
  0.000000000000000E+000
  0.000000000000000E+000
  0.000000000000000E+000
  0.000000000000000E+000
  0.000000000000000E+000
  0.000000000000000E+000
  0.000000000000000E+000
  0.000000000000000E+000
  0.000000000000000E+000
  0.000000000000000E+000
  0.000000000000000E+000
  0.000000000000000E+000
  0.000000000000000E+000
  0.000000000000000E+000
  0.000000000000000E+000
  0.000000000000000E+000
  0.000000000000000E+000
  0.000000000000000E+000
  0.000000000000000E+000
  0.000000000000000E+000
  0.000000000000000E+000
  0.000000000000000E+000
  0.000000000000000E+000
  0.000000000000000E+000
  0.000000000000000E+000
  0.000000000000000E+000
  0.000000000000000E+000
  0.000000000000000E+000
  0.000000000000000E+000
  0.000000000000000E+000
  0.000000000000000E+000
  0.000000000000000E+000
  0.000000000000000E+000
  0.000000000000000E+000
  0.000000000000000E+000
  0.000000000000000E+000
  0.000000000000000E+000
  0.000000000000000E+000
  0.000000000000000E+000
  0.000000000000000E+000
  0.000000000000000E+000
  0.000000000000000E+000
  0.000000000000000E+000
  0.000000000000000E+000
  0.000000000000000E+000
  0.000000000000000E+000
  0.000000000000000E+000
  0.000000000000000E+000
  0.000000000000000E+000
  0.000000000000000E+000
  0.000000000000000E+000
  0.000000000000000E+000
  0.000000000000000E+000
  0.000000000000000E+000
  0.000000000000000E+000
  0.000000000000000E+000
  0.000000000000000E+000
  0.000000000000000E+000
  0.000000000000000E+000
  0.000000000000000E+000
  0.000000000000000E+000
  0.000000000000000E+000
  0.000000000000000E+000
  0.000000000000000E+000
  0.000000000000000E+000
  0.000000000000000E+000
  0.000000000000000E+000
  0.000000000000000E+000
  0.000000000000000E+000
  0.000000000000000E+000
  0.000000000000000E+000
  0.000000000000000E+000
  0.000000000000000E+000
  0.000000000000000E+000
  0.000000000000000E+000
  0.000000000000000E+000
  0.000000000000000E+000
  0.000000000000000E+000
  0.000000000000000E+000
  0.000000000000000E+000
  0.000000000000000E+000
  0.000000000000000E+000
  0.000000000000000E+000
  0.000000000000000E+000
  0.000000000000000E+000
  0.000000000000000E+000
  0.000000000000000E+000
  0.000000000000000E+000
  0.000000000000000E+000
  0.000000000000000E+000
  0.000000000000000E+000
  0.000000000000000E+000
  0.000000000000000E+000
  0.000000000000000E+000
  0.000000000000000E+000
  0.000000000000000E+000
  0.000000000000000E+000
  0.000000000000000E+000
  0.000000000000000E+000
  0.000000000000000E+000
  0.000000000000000E+000
  0.000000000000000E+000
  0.000000000000000E+000
  0.000000000000000E+000
  0.000000000000000E+000
  0.000000000000000E+000
  0.000000000000000E+000
  0.000000000000000E+000
  0.000000000000000E+000
  0.000000000000000E+000
  0.000000000000000E+000
  0.000000000000000E+000
  0.000000000000000E+000
  0.000000000000000E+000
  0.000000000000000E+000
  0.000000000000000E+000
  0.000000000000000E+000
  0.000000000000000E+000
  0.000000000000000E+000
  0.000000000000000E+000
  0.000000000000000E+000
  0.000000000000000E+000
  0.000000000000000E+000
  0.000000000000000E+000
  0.000000000000000E+000
  0.000000000000000E+000
  0.000000000000000E+000
  0.000000000000000E+000
  0.000000000000000E+000
  0.000000000000000E+000
  0.000000000000000E+000
  0.000000000000000E+000
  0.000000000000000E+000
  0.000000000000000E+000
  0.000000000000000E+000
  0.000000000000000E+000
  0.000000000000000E+000
  0.000000000000000E+000
  0.000000000000000E+000
  0.000000000000000E+000
  0.000000000000000E+000
  0.000000000000000E+000
  0.000000000000000E+000
  0.000000000000000E+000
  0.000000000000000E+000
  0.000000000000000E+000
  0.000000000000000E+000
  0.000000000000000E+000
  0.000000000000000E+000
  0.000000000000000E+000
  0.000000000000000E+000
  0.000000000000000E+000
  0.000000000000000E+000
  0.000000000000000E+000
  0.000000000000000E+000
  0.000000000000000E+000
  0.000000000000000E+000
  0.000000000000000E+000
  0.000000000000000E+000
  0.000000000000000E+000
  0.000000000000000E+000
  0.000000000000000E+000
  0.000000000000000E+000
  0.000000000000000E+000
  0.000000000000000E+000
  0.000000000000000E+000
  0.000000000000000E+000
  0.000000000000000E+000
  0.000000000000000E+000
  0.000000000000000E+000
  0.000000000000000E+000
  0.000000000000000E+000
  0.000000000000000E+000
  0.000000000000000E+000
  0.000000000000000E+000
  0.000000000000000E+000
  0.000000000000000E+000
  0.000000000000000E+000
  0.000000000000000E+000
  0.000000000000000E+000
  0.000000000000000E+000
  0.000000000000000E+000
  0.000000000000000E+000
  0.000000000000000E+000
  0.000000000000000E+000
  0.000000000000000E+000
  0.000000000000000E+000
  0.000000000000000E+000
  0.000000000000000E+000
  0.000000000000000E+000
  0.000000000000000E+000
  0.000000000000000E+000
  0.000000000000000E+000
  0.000000000000000E+000
  0.000000000000000E+000
  0.000000000000000E+000
  0.000000000000000E+000
  0.000000000000000E+000
  0.000000000000000E+000
  0.000000000000000E+000
  0.000000000000000E+000
  0.000000000000000E+000
  0.000000000000000E+000
  0.000000000000000E+000
  0.000000000000000E+000
  0.000000000000000E+000
  0.000000000000000E+000
  0.000000000000000E+000
  0.000000000000000E+000
  0.000000000000000E+000
  0.000000000000000E+000
  0.000000000000000E+000
  0.000000000000000E+000
  0.000000000000000E+000
  0.000000000000000E+000
  0.000000000000000E+000
  0.000000000000000E+000
  0.000000000000000E+000
  0.000000000000000E+000
  0.000000000000000E+000
  0.000000000000000E+000
  0.000000000000000E+000
  0.000000000000000E+000
  0.000000000000000E+000
  0.000000000000000E+000
  0.000000000000000E+000
  0.000000000000000E+000
  0.000000000000000E+000
  0.000000000000000E+000
  0.000000000000000E+000
  0.000000000000000E+000
  0.000000000000000E+000
  0.000000000000000E+000
  0.000000000000000E+000
  0.000000000000000E+000
  0.000000000000000E+000
  0.000000000000000E+000
  0.000000000000000E+000
  0.000000000000000E+000
  0.000000000000000E+000
  0.000000000000000E+000
  0.000000000000000E+000
  0.000000000000000E+000
  0.000000000000000E+000
  0.000000000000000E+000
  0.000000000000000E+000
  0.000000000000000E+000
  0.000000000000000E+000
  0.000000000000000E+000
  0.000000000000000E+000
  0.000000000000000E+000
  0.000000000000000E+000
  0.000000000000000E+000
  0.000000000000000E+000
  0.000000000000000E+000
  0.000000000000000E+000
  0.000000000000000E+000
  0.000000000000000E+000
  0.000000000000000E+000
  0.000000000000000E+000
  0.000000000000000E+000
  0.000000000000000E+000
  0.000000000000000E+000
  0.000000000000000E+000
  0.000000000000000E+000
  0.000000000000000E+000
  0.000000000000000E+000
  0.000000000000000E+000
  0.000000000000000E+000
  0.000000000000000E+000
  0.000000000000000E+000
  0.000000000000000E+000
  0.000000000000000E+000
  0.000000000000000E+000
  0.000000000000000E+000
  0.000000000000000E+000
  0.000000000000000E+000
  0.000000000000000E+000
  0.000000000000000E+000
  0.000000000000000E+000
  0.000000000000000E+000
  0.000000000000000E+000
  0.000000000000000E+000
  0.000000000000000E+000
  0.000000000000000E+000
  0.000000000000000E+000
  0.000000000000000E+000
  0.000000000000000E+000
  0.000000000000000E+000
  0.000000000000000E+000
  0.000000000000000E+000
  0.000000000000000E+000
  0.000000000000000E+000
  0.000000000000000E+000
  0.000000000000000E+000
  0.000000000000000E+000
  0.000000000000000E+000
  0.000000000000000E+000
  0.000000000000000E+000
  0.000000000000000E+000
  0.000000000000000E+000
  0.000000000000000E+000
  0.000000000000000E+000
  0.000000000000000E+000
  0.000000000000000E+000
  0.000000000000000E+000
  0.000000000000000E+000
  0.000000000000000E+000
  0.000000000000000E+000
  0.000000000000000E+000
  0.000000000000000E+000
  0.000000000000000E+000
  0.000000000000000E+000
  0.000000000000000E+000
  0.000000000000000E+000
  0.000000000000000E+000
  0.000000000000000E+000
  0.000000000000000E+000
  0.000000000000000E+000
  0.000000000000000E+000
  0.000000000000000E+000
  0.000000000000000E+000
  0.000000000000000E+000
  0.000000000000000E+000
  0.000000000000000E+000
  0.000000000000000E+000
  0.000000000000000E+000
  0.000000000000000E+000
  0.000000000000000E+000
  0.000000000000000E+000
  0.000000000000000E+000
  0.000000000000000E+000
  0.000000000000000E+000
  0.000000000000000E+000
  0.000000000000000E+000
  0.000000000000000E+000
  0.000000000000000E+000
  0.000000000000000E+000
  0.000000000000000E+000
  0.000000000000000E+000
  0.000000000000000E+000
  0.000000000000000E+000
  0.000000000000000E+000
  0.000000000000000E+000
  0.000000000000000E+000
  0.000000000000000E+000
  0.000000000000000E+000
  0.000000000000000E+000
  0.000000000000000E+000
  0.000000000000000E+000
  0.000000000000000E+000
  0.000000000000000E+000
  0.000000000000000E+000
  0.000000000000000E+000
  0.000000000000000E+000
  0.000000000000000E+000
  0.000000000000000E+000
  0.000000000000000E+000
  0.000000000000000E+000
  0.000000000000000E+000
  0.000000000000000E+000
  0.000000000000000E+000
  0.000000000000000E+000
  0.000000000000000E+000
  0.000000000000000E+000
  0.000000000000000E+000
  0.000000000000000E+000
  0.000000000000000E+000
  0.000000000000000E+000
  0.000000000000000E+000
  0.000000000000000E+000
  0.000000000000000E+000
  0.000000000000000E+000
  0.000000000000000E+000
  0.000000000000000E+000
  0.000000000000000E+000
  0.000000000000000E+000
  0.000000000000000E+000
  0.000000000000000E+000
  0.000000000000000E+000
  0.000000000000000E+000
  0.000000000000000E+000
  0.000000000000000E+000
  0.000000000000000E+000
  0.000000000000000E+000
  0.000000000000000E+000
  0.000000000000000E+000
  0.000000000000000E+000
  0.000000000000000E+000
  0.000000000000000E+000
  0.000000000000000E+000
  0.000000000000000E+000
  0.000000000000000E+000
  0.000000000000000E+000
  0.000000000000000E+000
  0.000000000000000E+000
  0.000000000000000E+000
  0.000000000000000E+000
  0.000000000000000E+000
  0.000000000000000E+000
  0.000000000000000E+000
  0.000000000000000E+000
  0.000000000000000E+000
  0.000000000000000E+000
  0.000000000000000E+000
  0.000000000000000E+000
  0.000000000000000E+000
  0.000000000000000E+000
  0.000000000000000E+000
  0.000000000000000E+000
  0.000000000000000E+000
  0.000000000000000E+000
  0.000000000000000E+000
  0.000000000000000E+000
  0.000000000000000E+000
  0.000000000000000E+000
  0.000000000000000E+000
  0.000000000000000E+000
  0.000000000000000E+000
  0.000000000000000E+000
  0.000000000000000E+000
  0.000000000000000E+000
  0.000000000000000E+000
  0.000000000000000E+000
  0.000000000000000E+000
  0.000000000000000E+000
  0.000000000000000E+000
  0.000000000000000E+000
  0.000000000000000E+000
  0.000000000000000E+000
  0.000000000000000E+000
  0.000000000000000E+000
  0.000000000000000E+000
  0.000000000000000E+000
  0.000000000000000E+000
  0.000000000000000E+000
  0.000000000000000E+000
  0.000000000000000E+000
  0.000000000000000E+000
  0.000000000000000E+000
  0.000000000000000E+000
  0.000000000000000E+000
  0.000000000000000E+000
  0.000000000000000E+000
  0.000000000000000E+000
  0.000000000000000E+000
  0.000000000000000E+000
  0.000000000000000E+000
  0.000000000000000E+000
  0.000000000000000E+000
  0.000000000000000E+000
  0.000000000000000E+000
  0.000000000000000E+000
  0.000000000000000E+000
  0.000000000000000E+000
  0.000000000000000E+000
  0.000000000000000E+000
  0.000000000000000E+000
  0.000000000000000E+000
  0.000000000000000E+000
  0.000000000000000E+000
  0.000000000000000E+000
  0.000000000000000E+000
  0.000000000000000E+000
  0.000000000000000E+000
  0.000000000000000E+000
  0.000000000000000E+000
  0.000000000000000E+000
  0.000000000000000E+000
  0.000000000000000E+000
  0.000000000000000E+000
  0.000000000000000E+000
  0.000000000000000E+000
  0.000000000000000E+000
  0.000000000000000E+000
  0.000000000000000E+000
  0.000000000000000E+000
  0.000000000000000E+000
  0.000000000000000E+000
  0.000000000000000E+000
  0.000000000000000E+000
  0.000000000000000E+000
  0.000000000000000E+000
  0.000000000000000E+000
  0.000000000000000E+000
  0.000000000000000E+000
  0.000000000000000E+000
  0.000000000000000E+000
  0.000000000000000E+000
  0.000000000000000E+000
  0.000000000000000E+000
  0.000000000000000E+000
  0.000000000000000E+000
  0.000000000000000E+000
  0.000000000000000E+000
  0.000000000000000E+000
  0.000000000000000E+000
  0.000000000000000E+000
  0.000000000000000E+000
  0.000000000000000E+000
  0.000000000000000E+000
  0.000000000000000E+000
  0.000000000000000E+000
  0.000000000000000E+000
  0.000000000000000E+000
  0.000000000000000E+000
  0.000000000000000E+000
  0.000000000000000E+000
  0.000000000000000E+000
  0.000000000000000E+000
  0.000000000000000E+000
  0.000000000000000E+000
  0.000000000000000E+000
  0.000000000000000E+000
  0.000000000000000E+000
  0.000000000000000E+000
  0.000000000000000E+000
  0.000000000000000E+000
  0.000000000000000E+000
  0.000000000000000E+000
  0.000000000000000E+000
  0.000000000000000E+000
  0.000000000000000E+000
  0.000000000000000E+000
  0.000000000000000E+000
  0.000000000000000E+000
  0.000000000000000E+000
  0.000000000000000E+000
  0.000000000000000E+000
  0.000000000000000E+000
  0.000000000000000E+000
  0.000000000000000E+000
  0.000000000000000E+000
  0.000000000000000E+000
  0.000000000000000E+000
  0.000000000000000E+000
  0.000000000000000E+000
  0.000000000000000E+000
  0.000000000000000E+000
  0.000000000000000E+000
  0.000000000000000E+000
  0.000000000000000E+000
  0.000000000000000E+000
  0.000000000000000E+000
  0.000000000000000E+000
  0.000000000000000E+000
  0.000000000000000E+000
  0.000000000000000E+000
  0.000000000000000E+000
  0.000000000000000E+000
  0.000000000000000E+000
  0.000000000000000E+000
  0.000000000000000E+000
  0.000000000000000E+000
  0.000000000000000E+000
  0.000000000000000E+000
  0.000000000000000E+000
  0.000000000000000E+000
  0.000000000000000E+000
  0.000000000000000E+000
  0.000000000000000E+000
  0.000000000000000E+000
  0.000000000000000E+000
  0.000000000000000E+000
  0.000000000000000E+000
  0.000000000000000E+000
  0.000000000000000E+000
  0.000000000000000E+000
  0.000000000000000E+000
  0.000000000000000E+000
  0.000000000000000E+000
  0.000000000000000E+000
  0.000000000000000E+000
  0.000000000000000E+000
  0.000000000000000E+000
  0.000000000000000E+000
  0.000000000000000E+000
  0.000000000000000E+000
  0.000000000000000E+000
  0.000000000000000E+000
  0.000000000000000E+000
  0.000000000000000E+000
  0.000000000000000E+000
  0.000000000000000E+000
  0.000000000000000E+000
  0.000000000000000E+000
  0.000000000000000E+000
  0.000000000000000E+000
  0.000000000000000E+000
  0.000000000000000E+000
  0.000000000000000E+000
  0.000000000000000E+000
  0.000000000000000E+000
  0.000000000000000E+000
  0.000000000000000E+000
  0.000000000000000E+000
  0.000000000000000E+000
  0.000000000000000E+000
  0.000000000000000E+000
  0.000000000000000E+000
  0.000000000000000E+000
  0.000000000000000E+000
  0.000000000000000E+000
  0.000000000000000E+000
  0.000000000000000E+000
  0.000000000000000E+000
  0.000000000000000E+000
  0.000000000000000E+000
  0.000000000000000E+000
  0.000000000000000E+000
  0.000000000000000E+000
  0.000000000000000E+000
  0.000000000000000E+000
  0.000000000000000E+000
  0.000000000000000E+000
  0.000000000000000E+000
  0.000000000000000E+000
  0.000000000000000E+000
  0.000000000000000E+000
  0.000000000000000E+000
  0.000000000000000E+000
  0.000000000000000E+000
  0.000000000000000E+000
  0.000000000000000E+000
  0.000000000000000E+000
  0.000000000000000E+000
  0.000000000000000E+000
  0.000000000000000E+000
  0.000000000000000E+000
  0.000000000000000E+000
  0.000000000000000E+000
  0.000000000000000E+000
  0.000000000000000E+000
  0.000000000000000E+000
  0.000000000000000E+000
  0.000000000000000E+000
  0.000000000000000E+000
  0.000000000000000E+000
  0.000000000000000E+000
  0.000000000000000E+000
  0.000000000000000E+000
  0.000000000000000E+000
  0.000000000000000E+000
  0.000000000000000E+000
  0.000000000000000E+000
  0.000000000000000E+000
  0.000000000000000E+000
  0.000000000000000E+000
  0.000000000000000E+000
  0.000000000000000E+000
  0.000000000000000E+000
  0.000000000000000E+000
  0.000000000000000E+000
  0.000000000000000E+000
  0.000000000000000E+000
  0.000000000000000E+000
  0.000000000000000E+000
  0.000000000000000E+000
  0.000000000000000E+000
  0.000000000000000E+000
  0.000000000000000E+000
  0.000000000000000E+000
  0.000000000000000E+000
  0.000000000000000E+000
  0.000000000000000E+000
  0.000000000000000E+000
  0.000000000000000E+000
  0.000000000000000E+000
  0.000000000000000E+000
  0.000000000000000E+000
  0.000000000000000E+000
  0.000000000000000E+000
  0.000000000000000E+000
  0.000000000000000E+000
  0.000000000000000E+000
  0.000000000000000E+000
  0.000000000000000E+000
  0.000000000000000E+000
  0.000000000000000E+000
  0.000000000000000E+000
  0.000000000000000E+000
  0.000000000000000E+000
  0.000000000000000E+000
  0.000000000000000E+000
  0.000000000000000E+000
  0.000000000000000E+000
  0.000000000000000E+000
  0.000000000000000E+000
  0.000000000000000E+000
  0.000000000000000E+000
  0.000000000000000E+000
  0.000000000000000E+000
  0.000000000000000E+000
  0.000000000000000E+000
  0.000000000000000E+000
  0.000000000000000E+000
  0.000000000000000E+000
  0.000000000000000E+000
  0.000000000000000E+000
  0.000000000000000E+000
  0.000000000000000E+000
  0.000000000000000E+000
  0.000000000000000E+000
  0.000000000000000E+000
  0.000000000000000E+000
  0.000000000000000E+000
  0.000000000000000E+000
  0.000000000000000E+000
  0.000000000000000E+000
  0.000000000000000E+000
  0.000000000000000E+000
  0.000000000000000E+000
  0.000000000000000E+000
  0.000000000000000E+000
  0.000000000000000E+000
  0.000000000000000E+000
  0.000000000000000E+000
  0.000000000000000E+000
  0.000000000000000E+000
  0.000000000000000E+000
  0.000000000000000E+000
  0.000000000000000E+000
  0.000000000000000E+000
  0.000000000000000E+000
  0.000000000000000E+000
  0.000000000000000E+000
  0.000000000000000E+000
  0.000000000000000E+000
  0.000000000000000E+000
  0.000000000000000E+000
  0.000000000000000E+000
  0.000000000000000E+000
  0.000000000000000E+000
  0.000000000000000E+000
  0.000000000000000E+000
  0.000000000000000E+000
  0.000000000000000E+000
  0.000000000000000E+000
  0.000000000000000E+000
  0.000000000000000E+000
  0.000000000000000E+000
  0.000000000000000E+000
  0.000000000000000E+000
  0.000000000000000E+000
  0.000000000000000E+000
  0.000000000000000E+000
  0.000000000000000E+000
  0.000000000000000E+000
  0.000000000000000E+000
  0.000000000000000E+000
  0.000000000000000E+000
  0.000000000000000E+000
  0.000000000000000E+000
  0.000000000000000E+000
  0.000000000000000E+000
  0.000000000000000E+000
  0.000000000000000E+000
  0.000000000000000E+000
  0.000000000000000E+000
  0.000000000000000E+000
  0.000000000000000E+000
  0.000000000000000E+000
  0.000000000000000E+000
  0.000000000000000E+000
  0.000000000000000E+000
  0.000000000000000E+000
  0.000000000000000E+000
  0.000000000000000E+000
  0.000000000000000E+000
  0.000000000000000E+000
  0.000000000000000E+000
  0.000000000000000E+000
  0.000000000000000E+000
  0.000000000000000E+000
  0.000000000000000E+000
  0.000000000000000E+000
  0.000000000000000E+000
  0.000000000000000E+000
  0.000000000000000E+000
  0.000000000000000E+000
  0.000000000000000E+000
  0.000000000000000E+000
  0.000000000000000E+000
  0.000000000000000E+000
  0.000000000000000E+000
  0.000000000000000E+000
  0.000000000000000E+000
  0.000000000000000E+000
  0.000000000000000E+000
  0.000000000000000E+000
  0.000000000000000E+000
  0.000000000000000E+000
  0.000000000000000E+000
  0.000000000000000E+000
  0.000000000000000E+000
  0.000000000000000E+000
  0.000000000000000E+000
  0.000000000000000E+000
  0.000000000000000E+000
  0.000000000000000E+000
  0.000000000000000E+000
  0.000000000000000E+000
  0.000000000000000E+000
  0.000000000000000E+000
  0.000000000000000E+000
  0.000000000000000E+000
  0.000000000000000E+000
  0.000000000000000E+000
  0.000000000000000E+000
  0.000000000000000E+000
  0.000000000000000E+000
  0.000000000000000E+000
  0.000000000000000E+000
  0.000000000000000E+000
  0.000000000000000E+000
  0.000000000000000E+000
  0.000000000000000E+000
  0.000000000000000E+000
  0.000000000000000E+000
  0.000000000000000E+000
  0.000000000000000E+000
  0.000000000000000E+000
  0.000000000000000E+000
  0.000000000000000E+000
  0.000000000000000E+000
  0.000000000000000E+000
  0.000000000000000E+000
  0.000000000000000E+000
  0.000000000000000E+000
  0.000000000000000E+000
  0.000000000000000E+000
  0.000000000000000E+000
  0.000000000000000E+000
  0.000000000000000E+000
  0.000000000000000E+000
  0.000000000000000E+000
  0.000000000000000E+000
  0.000000000000000E+000
  0.000000000000000E+000
  0.000000000000000E+000
  0.000000000000000E+000
  0.000000000000000E+000
  0.000000000000000E+000
  0.000000000000000E+000
  0.000000000000000E+000
  0.000000000000000E+000
  0.000000000000000E+000
  0.000000000000000E+000
  0.000000000000000E+000
  0.000000000000000E+000
  0.000000000000000E+000
  0.000000000000000E+000
  0.000000000000000E+000
  0.000000000000000E+000
  0.000000000000000E+000
  0.000000000000000E+000
  0.000000000000000E+000
  0.000000000000000E+000
  0.000000000000000E+000
  0.000000000000000E+000
  0.000000000000000E+000
  0.000000000000000E+000
